 Entering Gaussian System, Link 0=g16
 Initial command:
 /share/software/user/restricted/gaussian/g16.B01/l1.exe "/lscratch/jlapier/g16_45711180_17/Gau-17261.inp" -scrdir="/lscratch/jlapier/g16_45711180_17/"
 Entering Link 1 = /share/software/user/restricted/gaussian/g16.B01/l1.exe PID=     17262.
  
 Copyright (c) 1988-2017, Gaussian, Inc.  All Rights Reserved.
  
 This is part of the Gaussian(R) 16 program.  It is based on
 the Gaussian(R) 09 system (copyright 2009, Gaussian, Inc.),
 the Gaussian(R) 03 system (copyright 2003, Gaussian, Inc.),
 the Gaussian(R) 98 system (copyright 1998, Gaussian, Inc.),
 the Gaussian(R) 94 system (copyright 1995, Gaussian, Inc.),
 the Gaussian 92(TM) system (copyright 1992, Gaussian, Inc.),
 the Gaussian 90(TM) system (copyright 1990, Gaussian, Inc.),
 the Gaussian 88(TM) system (copyright 1988, Gaussian, Inc.),
 the Gaussian 86(TM) system (copyright 1986, Carnegie Mellon
 University), and the Gaussian 82(TM) system (copyright 1983,
 Carnegie Mellon University). Gaussian is a federally registered
 trademark of Gaussian, Inc.
  
 This software contains proprietary and confidential information,
 including trade secrets, belonging to Gaussian, Inc.
  
 This software is provided under written license and may be
 used, copied, transmitted, or stored only in accord with that
 written license.
  
 The following legend is applicable only to US Government
 contracts under FAR:
  
                    RESTRICTED RIGHTS LEGEND
  
 Use, reproduction and disclosure by the US Government is
 subject to restrictions as set forth in subparagraphs (a)
 and (c) of the Commercial Computer Software - Restricted
 Rights clause in FAR 52.227-19.
  
 Gaussian, Inc.
 340 Quinnipiac St., Bldg. 40, Wallingford CT 06492
  
  
 ---------------------------------------------------------------
 Warning -- This program may not be used in any manner that
 competes with the business of Gaussian, Inc. or will provide
 assistance to any competitor of Gaussian, Inc.  The licensee
 of this program is prohibited from giving any competitor of
 Gaussian, Inc. access to this program.  By using this program,
 the user acknowledges that Gaussian, Inc. is engaged in the
 business of creating and licensing software in the field of
 computational chemistry and represents and warrants to the
 licensee that it is not a competitor of Gaussian, Inc. and that
 it will not use this program in any manner prohibited above.
 ---------------------------------------------------------------
  

 Cite this work as:
 Gaussian 16, Revision B.01,
 M. J. Frisch, G. W. Trucks, H. B. Schlegel, G. E. Scuseria, 
 M. A. Robb, J. R. Cheeseman, G. Scalmani, V. Barone, 
 G. A. Petersson, H. Nakatsuji, X. Li, M. Caricato, A. V. Marenich, 
 J. Bloino, B. G. Janesko, R. Gomperts, B. Mennucci, H. P. Hratchian, 
 J. V. Ortiz, A. F. Izmaylov, J. L. Sonnenberg, D. Williams-Young, 
 F. Ding, F. Lipparini, F. Egidi, J. Goings, B. Peng, A. Petrone, 
 T. Henderson, D. Ranasinghe, V. G. Zakrzewski, J. Gao, N. Rega, 
 G. Zheng, W. Liang, M. Hada, M. Ehara, K. Toyota, R. Fukuda, 
 J. Hasegawa, M. Ishida, T. Nakajima, Y. Honda, O. Kitao, H. Nakai, 
 T. Vreven, K. Throssell, J. A. Montgomery, Jr., J. E. Peralta, 
 F. Ogliaro, M. J. Bearpark, J. J. Heyd, E. N. Brothers, K. N. Kudin, 
 V. N. Staroverov, T. A. Keith, R. Kobayashi, J. Normand, 
 K. Raghavachari, A. P. Rendell, J. C. Burant, S. S. Iyengar, 
 J. Tomasi, M. Cossi, J. M. Millam, M. Klene, C. Adamo, R. Cammi, 
 J. W. Ochterski, R. L. Martin, K. Morokuma, O. Farkas, 
 J. B. Foresman, and D. J. Fox, Gaussian, Inc., Wallingford CT, 2016.
 
 ******************************************
 Gaussian 16:  ES64L-G16RevB.01 20-Dec-2017
                28-Sep-2026 
 ******************************************
 %nprocshared=8
 Will use up to    8 processors via shared memory.
 %mem=12GB
 %chk=calcs/m062x_smd/chks/BrBz_1234_RA.chk
 ----------------------------------------------------------------------
 #p Opt=(CalcFC,Tight) Freq M062X/6-311++G(d) SCRF=(SMD,Solvent=Water) 
 Int=UltraFine
 ----------------------------------------------------------------------
 1/7=10,10=4,18=20,19=15,26=6,38=1/1,3;
 2/9=110,12=2,17=6,18=5,40=1/2;
 3/5=4,6=6,7=1011,11=2,25=1,30=1,70=32201,71=2,72=1,74=-55,75=-5,140=1/1,2,3;
 4//1;
 5/5=2,38=5,53=1/2;
 8/6=4,10=90,11=11/1;
 11/6=1,8=1,9=11,15=111,16=1/1,2,10;
 10/6=1,13=1/2;
 6/7=2,8=2,9=2,10=2,28=1/1;
 7/10=1,18=20,25=1/1,2,3,16;
 1/7=10,10=4,18=20,19=15,26=6/3(2);
 2/9=110/2;
 99//99;
 2/9=110/2;
 3/5=4,6=6,7=1011,11=2,25=1,30=1,70=32205,71=1,72=1,74=-55,75=-5/1,2,3;
 4/5=5,16=3,69=1/1;
 5/5=2,38=5,53=1/2;
 7//1,2,3,16;
 1/7=10,18=20,19=15,26=6/3(-5);
 2/9=110/2;
 6/7=2,8=2,9=2,10=2,19=2,28=1/1;
 99/9=1/99;
 Leave Link    1 at Mon Sep 28 08:32:07 2026, MaxMem=  1610612736 cpu:               0.6 elap:               0.1
 (Enter /share/software/user/restricted/gaussian/g16.B01/l101.exe)
 ----------------------
 BrBz_1234_RA m062x_smd
 ----------------------
 Symbolic Z-matrix:
 Charge = -1 Multiplicity = 2
 C                     0.        1.28634  -1.14826 
 C                     0.        0.58552   0.00878 
 C                     0.       -0.75639   0.08764 
 C                     0.       -1.46377  -1.12197 
 C                     0.       -0.76392  -2.33523 
 C                     0.        0.62592  -2.36809 
 Br                    0.        3.26995  -1.22211 
 Br                    0.        1.84623   2.03702 
 Br                    0.       -1.70165   1.77416 
 Br                    0.       -3.34224  -1.22211 
 H                     0.       -1.32252  -3.26064 
 H                     0.        1.15166  -3.31978 
 
 Add virtual bond connecting atoms Br8        and C2         Dist= 4.51D+00.
 ITRead=  0  0  0  0  0  0  0  0  0  0  0  0
 MicOpt= -1 -1 -1 -1 -1 -1 -1 -1 -1 -1 -1 -1
 NAtoms=     12 NQM=       12 NQMF=       0 NMMI=      0 NMMIF=      0
                NMic=       0 NMicF=      0.
                    Isotopes and Nuclear Properties:
 (Nuclear quadrupole moments (NQMom) in fm**2, nuclear magnetic moments (NMagM)
  in nuclear magnetons)

  Atom         1           2           3           4           5           6           7           8           9          10
 IAtWgt=          12          12          12          12          12          12          79          79          79          79
 AtmWgt=  12.0000000  12.0000000  12.0000000  12.0000000  12.0000000  12.0000000  78.9183361  78.9183361  78.9183361  78.9183361
 NucSpn=           0           0           0           0           0           0           3           3           3           3
 AtZEff=  -0.0000000  -0.0000000  -0.0000000  -0.0000000  -0.0000000  -0.0000000  -0.0000000  -0.0000000  -0.0000000  -0.0000000
 NQMom=    0.0000000   0.0000000   0.0000000   0.0000000   0.0000000   0.0000000  31.3000000  31.3000000  31.3000000  31.3000000
 NMagM=    0.0000000   0.0000000   0.0000000   0.0000000   0.0000000   0.0000000   2.1063990   2.1063990   2.1063990   2.1063990
 AtZNuc=   6.0000000   6.0000000   6.0000000   6.0000000   6.0000000   6.0000000  35.0000000  35.0000000  35.0000000  35.0000000

  Atom        11          12
 IAtWgt=           1           1
 AtmWgt=   1.0078250   1.0078250
 NucSpn=           1           1
 AtZEff=  -0.0000000  -0.0000000
 NQMom=    0.0000000   0.0000000
 NMagM=    2.7928460   2.7928460
 AtZNuc=   1.0000000   1.0000000
 Leave Link  101 at Mon Sep 28 08:32:08 2026, MaxMem=  1610612736 cpu:               4.4 elap:               0.6
 (Enter /share/software/user/restricted/gaussian/g16.B01/l103.exe)

 GradGradGradGradGradGradGradGradGradGradGradGradGradGradGradGradGradGrad
 Berny optimization.
 Initialization pass.
                           ----------------------------
                           !    Initial Parameters    !
                           ! (Angstroms and Degrees)  !
 --------------------------                            --------------------------
 ! Name  Definition              Value          Derivative Info.                !
 --------------------------------------------------------------------------------
 ! R1    R(1,2)                  1.3527         calculate D2E/DX2 analytically  !
 ! R2    R(1,6)                  1.3871         calculate D2E/DX2 analytically  !
 ! R3    R(1,7)                  1.985          calculate D2E/DX2 analytically  !
 ! R4    R(2,3)                  1.3442         calculate D2E/DX2 analytically  !
 ! R5    R(2,8)                  2.3881         calculate D2E/DX2 analytically  !
 ! R6    R(3,4)                  1.4013         calculate D2E/DX2 analytically  !
 ! R7    R(3,9)                  1.9334         calculate D2E/DX2 analytically  !
 ! R8    R(4,5)                  1.4006         calculate D2E/DX2 analytically  !
 ! R9    R(4,10)                 1.8811         calculate D2E/DX2 analytically  !
 ! R10   R(5,6)                  1.3902         calculate D2E/DX2 analytically  !
 ! R11   R(5,11)                 1.0809         calculate D2E/DX2 analytically  !
 ! R12   R(6,12)                 1.0873         calculate D2E/DX2 analytically  !
 ! A1    A(2,1,6)              120.3657         calculate D2E/DX2 analytically  !
 ! A2    A(2,1,7)              123.3352         calculate D2E/DX2 analytically  !
 ! A3    A(6,1,7)              116.2991         calculate D2E/DX2 analytically  !
 ! A4    A(1,2,3)              124.5662         calculate D2E/DX2 analytically  !
 ! A5    A(1,2,8)              116.9329         calculate D2E/DX2 analytically  !
 ! A6    A(3,2,8)              118.5009         calculate D2E/DX2 analytically  !
 ! A7    A(2,3,4)              116.9559         calculate D2E/DX2 analytically  !
 ! A8    A(2,3,9)              122.6332         calculate D2E/DX2 analytically  !
 ! A9    A(4,3,9)              120.4109         calculate D2E/DX2 analytically  !
 ! A10   A(3,4,5)              119.703          calculate D2E/DX2 analytically  !
 ! A11   A(3,4,10)             123.3706         calculate D2E/DX2 analytically  !
 ! A12   A(5,4,10)             116.9264         calculate D2E/DX2 analytically  !
 ! A13   A(4,5,6)              121.3322         calculate D2E/DX2 analytically  !
 ! A14   A(4,5,11)             118.9058         calculate D2E/DX2 analytically  !
 ! A15   A(6,5,11)             119.762          calculate D2E/DX2 analytically  !
 ! A16   A(1,6,5)              117.077          calculate D2E/DX2 analytically  !
 ! A17   A(1,6,12)             122.6512         calculate D2E/DX2 analytically  !
 ! A18   A(5,6,12)             120.2718         calculate D2E/DX2 analytically  !
 ! D1    D(6,1,2,3)              0.0            calculate D2E/DX2 analytically  !
 ! D2    D(6,1,2,8)            180.0            calculate D2E/DX2 analytically  !
 ! D3    D(7,1,2,3)            180.0            calculate D2E/DX2 analytically  !
 ! D4    D(7,1,2,8)              0.0            calculate D2E/DX2 analytically  !
 ! D5    D(2,1,6,5)              0.0            calculate D2E/DX2 analytically  !
 ! D6    D(2,1,6,12)           180.0            calculate D2E/DX2 analytically  !
 ! D7    D(7,1,6,5)            180.0            calculate D2E/DX2 analytically  !
 ! D8    D(7,1,6,12)             0.0            calculate D2E/DX2 analytically  !
 ! D9    D(1,2,3,4)              0.0            calculate D2E/DX2 analytically  !
 ! D10   D(1,2,3,9)            180.0            calculate D2E/DX2 analytically  !
 ! D11   D(8,2,3,4)            180.0            calculate D2E/DX2 analytically  !
 ! D12   D(8,2,3,9)              0.0            calculate D2E/DX2 analytically  !
 ! D13   D(2,3,4,5)              0.0            calculate D2E/DX2 analytically  !
 ! D14   D(2,3,4,10)           180.0            calculate D2E/DX2 analytically  !
 ! D15   D(9,3,4,5)            180.0            calculate D2E/DX2 analytically  !
 ! D16   D(9,3,4,10)             0.0            calculate D2E/DX2 analytically  !
 ! D17   D(3,4,5,6)              0.0            calculate D2E/DX2 analytically  !
 ! D18   D(3,4,5,11)           180.0            calculate D2E/DX2 analytically  !
 ! D19   D(10,4,5,6)           180.0            calculate D2E/DX2 analytically  !
 ! D20   D(10,4,5,11)            0.0            calculate D2E/DX2 analytically  !
 ! D21   D(4,5,6,1)              0.0            calculate D2E/DX2 analytically  !
 ! D22   D(4,5,6,12)           180.0            calculate D2E/DX2 analytically  !
 ! D23   D(11,5,6,1)           180.0            calculate D2E/DX2 analytically  !
 ! D24   D(11,5,6,12)            0.0            calculate D2E/DX2 analytically  !
 --------------------------------------------------------------------------------
 Trust Radius=3.00D-01 FncErr=5.00D-06 GrdErr=5.00D-06 EigMax=2.50D+02 EigMin=1.00D-04
 Number of steps in this run=     64 maximum allowed number of steps=    100.
 GradGradGradGradGradGradGradGradGradGradGradGradGradGradGradGradGradGrad

 Leave Link  103 at Mon Sep 28 08:32:08 2026, MaxMem=  1610612736 cpu:               0.1 elap:               0.0
 (Enter /share/software/user/restricted/gaussian/g16.B01/l202.exe)
                          Input orientation:                          
 ---------------------------------------------------------------------
 Center     Atomic      Atomic             Coordinates (Angstroms)
 Number     Number       Type             X           Y           Z
 ---------------------------------------------------------------------
      1          6           0        0.000000    1.286337   -1.148261
      2          6           0        0.000000    0.585524    0.008781
      3          6           0        0.000000   -0.756386    0.087641
      4          6           0        0.000000   -1.463771   -1.121975
      5          6           0        0.000000   -0.763920   -2.335234
      6          6           0        0.000000    0.625916   -2.368092
      7         35           0        0.000000    3.269948   -1.222112
      8         35           0        0.000000    1.846228    2.037020
      9         35           0        0.000000   -1.701652    1.774156
     10         35           0        0.000000   -3.342236   -1.222112
     11          1           0        0.000000   -1.322520   -3.260640
     12          1           0        0.000000    1.151658   -3.319784
 ---------------------------------------------------------------------
                    Distance matrix (angstroms):
                    1          2          3          4          5
     1  C    0.000000
     2  C    1.352733   0.000000
     3  C    2.387503   1.344225   0.000000
     4  C    2.750234   2.340559   1.401272   0.000000
     5  C    2.369063   2.704701   2.422886   1.400639   0.000000
     6  C    1.387135   2.377217   2.818046   2.433023   1.390224
     7  Br   1.984985   2.953173   4.234007   4.734778   4.184630
     8  Br   3.234115   2.388122   3.251720   4.575515   5.092100
     9  Br   4.179545   2.889242   1.933355   2.905883   4.215024
    10  Br   4.629162   4.116114   2.898633   1.881132   2.808336
    11  H    3.356826   3.785465   3.395805   2.143324   1.080930
    12  H    2.175695   3.376367   3.905276   3.416260   2.153782
                    6          7          8          9         10
     6  C    0.000000
     7  Br   2.881697   0.000000
     8  Br   4.571015   3.556532   0.000000
     9  Br   4.751399   5.804690   3.557605   0.000000
    10  Br   4.130315   6.612184   6.127161   3.416011   0.000000
    11  H    2.143139   5.024575   6.173019   5.049050   2.869642
    12  H    1.087255   2.981171   5.401646   5.838630   4.959366
                   11         12
    11  H    0.000000
    12  H    2.474885   0.000000
 Stoichiometry    C6H2Br4(1-,2)
 Framework group  CS[SG(C6H2Br4)]
 Deg. of freedom    21
 Full point group                 CS      NOp   2
 Largest Abelian subgroup         CS      NOp   2
 Largest concise Abelian subgroup C1      NOp   1
                         Standard orientation:                         
 ---------------------------------------------------------------------
 Center     Atomic      Atomic             Coordinates (Angstroms)
 Number     Number       Type             X           Y           Z
 ---------------------------------------------------------------------
      1          6           0       -1.167367    1.272205   -0.000000
      2          6           0        0.000000    0.588728   -0.000000
      3          6           0        0.098865   -0.751857    0.000000
      4          6           0       -1.100065   -1.477205    0.000000
      5          6           0       -2.323627   -0.795528    0.000000
      6          6           0       -2.377211    0.593664   -0.000000
      7         35           0       -1.270795    3.254494   -0.000000
      8         35           0        2.009210    1.879543   -0.000000
      9         35           0        1.799292   -1.671863    0.000000
     10         35           0       -1.172173   -3.356954    0.000000
     11          1           0       -3.240599   -1.367868    0.000000
     12          1           0       -3.336639    1.105153   -0.000000
 ---------------------------------------------------------------------
 Rotational constants (GHZ):           0.5092343           0.2199092           0.1535847
 Leave Link  202 at Mon Sep 28 08:32:08 2026, MaxMem=  1610612736 cpu:               0.0 elap:               0.0
 (Enter /share/software/user/restricted/gaussian/g16.B01/l301.exe)
 Standard basis: 6-311++G(d) (5D, 7F)
 Ernie: Thresh=  0.10000D-02 Tol=  0.10000D-05 Strict=F.
 There are   258 symmetry adapted cartesian basis functions of A'  symmetry.
 There are    92 symmetry adapted cartesian basis functions of A"  symmetry.
 There are   240 symmetry adapted basis functions of A'  symmetry.
 There are    92 symmetry adapted basis functions of A"  symmetry.
   332 basis functions,   604 primitive gaussians,   350 cartesian basis functions
    90 alpha electrons       89 beta electrons
       nuclear repulsion energy      1891.3276017721 Hartrees.
 IExCor= 4336 DFT=T Ex+Corr=M062X ExCW=0 ScaHFX=  0.540000
 ScaDFX=  1.000000  1.000000  1.000000  1.000000 ScalE2=  1.000000  1.000000
 IRadAn=      5 IRanWt=     -1 IRanGd=            0 ICorTp=0 IEmpDi=  4
 NAtoms=   12 NActive=   12 NUniq=   12 SFac= 1.00D+00 NAtFMM=   60 NAOKFM=F Big=F
 Integral buffers will be    131072 words long.
 Raffenetti 2 integral format.
 Two-electron integral symmetry is turned on.
 Force inversion solution in PCM.
 ------------------------------------------------------------------------------
 Polarizable Continuum Model (PCM)
 =================================
 Model                : PCM.
 Atomic radii         : SMD-Coulomb.
 Polarization charges : Total charges.
 Charge compensation  : None.
 Solution method      : Matrix inversion.
 Cavity type          : VdW (van der Waals Surface) (Alpha=1.000).
 Cavity algorithm     : GePol (No added spheres)
                        Default sphere list used, NSphG=   12.
                        Lebedev-Laikov grids with approx.  5.0 points / Ang**2.
                        Smoothing algorithm: York/Karplus (Gamma=1.0000).
                        Polarization charges: spherical gaussians, with
                                              point-specific exponents (IZeta= 3).
                        Self-potential: point-specific (ISelfS= 7).
                        Self-field    : sphere-specific E.n sum rule (ISelfD= 2).
 1st derivatives      : Analytical E(r).r(x)/FMM algorithm (CHGder, D1EAlg=3).
                        Cavity 1st derivative terms included.
 2nd derivatives      : Analytical E(r).r(xy)/FMM algorithm (CHGder, D2EAlg=3).
                        Cavity 2nd derivative terms included.
 Solvent              : Water, Eps=  78.355300 Eps(inf)=   1.777849
 ------------------------------------------------------------------------------
 Spheres list:
 ISph  on   Nord     Re0    Alpha      Xe            Ye            Ze
    1   C      1    1.8500  1.000     -1.167367      1.272205     -0.000000
    2   C      2    1.8500  1.000      0.000000      0.588728     -0.000000
    3   C      3    1.8500  1.000      0.098865     -0.751857      0.000000
    4   C      4    1.8500  1.000     -1.100065     -1.477205      0.000000
    5   C      5    1.8500  1.000     -2.323627     -0.795528      0.000000
    6   C      6    1.8500  1.000     -2.377211      0.593664     -0.000000
    7  Br      7    3.0600  1.000     -1.270795      3.254494     -0.000000
    8  Br      8    3.0600  1.000      2.009210      1.879543     -0.000000
    9  Br      9    3.0600  1.000      1.799292     -1.671863      0.000000
   10  Br     10    3.0600  1.000     -1.172173     -3.356954      0.000000
   11   H     11    1.2000  1.000     -3.240599     -1.367868      0.000000
   12   H     12    1.2000  1.000     -3.336639      1.105153     -0.000000
 ------------------------------------------------------------------------------
 GePol: Number of generator spheres                  =      12
 GePol: Total number of spheres                      =      12
 GePol: Number of exposed spheres                    =      12 (100.00%)
 GePol: Number of points                             =    1857
 GePol: Average weight of points                     =       0.17
 GePol: Minimum weight of points                     =   0.21D-07
 GePol: Maximum weight of points                     =    0.22025
 GePol: Number of points with low weight             =      58
 GePol: Fraction of low-weight points (<1% of avg)   =       3.12%
 GePol: Cavity surface area                          =    317.920 Ang**2
 GePol: Cavity volume                                =    413.817 Ang**3
 ------------------------------------------------------------------------------
 Atomic radii for non-electrostatic terms: SMD-CDS.
 ------------------------------------------------------------------------------
 PCM non-electrostatic energy =         0.0002801673 Hartrees.
 Nuclear repulsion after PCM non-electrostatic terms =     1891.3278819393 Hartrees.
 Leave Link  301 at Mon Sep 28 08:32:08 2026, MaxMem=  1610612736 cpu:               0.8 elap:               0.1
 (Enter /share/software/user/restricted/gaussian/g16.B01/l302.exe)
 NPDir=0 NMtPBC=     1 NCelOv=     1 NCel=       1 NClECP=     1 NCelD=      1
         NCelK=      1 NCelE2=     1 NClLst=     1 CellRange=     0.0.
 One-electron integrals computed using PRISM.
 One-electron integral symmetry used in STVInt
 NBasis=   332 RedAO= T EigKep=  1.16D-06  NBF=   240    92
 NBsUse=   331 1.00D-06 EigRej=  3.91D-07 NBFU=   239    92
 Precomputing XC quadrature grid using
 IXCGrd= 4 IRadAn=           5 IRanWt=          -1 IRanGd=           0 AccXCQ= 0.00D+00.
 Generated NRdTot=       0 NPtTot=           0 NUsed=           0 NTot=          32
 NSgBfM=   333   333   333   333   333 MxSgAt=    12 MxSgA2=    12.
 Leave Link  302 at Mon Sep 28 08:32:09 2026, MaxMem=  1610612736 cpu:               1.9 elap:               0.2
 (Enter /share/software/user/restricted/gaussian/g16.B01/l303.exe)
 DipDrv:  MaxL=1.
 Leave Link  303 at Mon Sep 28 08:32:09 2026, MaxMem=  1610612736 cpu:               0.4 elap:               0.1
 (Enter /share/software/user/restricted/gaussian/g16.B01/l401.exe)
 ExpMin= 3.50D-02 ExpMax= 4.40D+05 ExpMxC= 1.51D+04 IAcc=3 IRadAn=         5 AccDes= 0.00D+00
 Harris functional with IExCor= 1009 and IRadAn=       5 diagonalized for initial guess.
 HarFok:  IExCor= 1009 AccDes= 0.00D+00 IRadAn=         5 IDoV= 1 UseB2=F ITyADJ=14
 ICtDFT=  3500011 ScaDFX=  1.000000  1.000000  1.000000  1.000000
 FoFCou: FMM=F IPFlag=           0 FMFlag=      100000 FMFlg1=           0
         NFxFlg=           0 DoJE=T BraDBF=F KetDBF=T FulRan=T
         wScrn=  0.000000 ICntrl=       500 IOpCl=  0 I1Cent=   200000004 NGrid=           0
         NMat0=    1 NMatS0=      1 NMatT0=    0 NMatD0=    1 NMtDS0=    0 NMtDT0=    0
 Petite list used in FoFCou.
 Harris En= -10524.7909295867    
 JPrj=0 DoOrth=F DoCkMO=F.
 Initial guess orbital symmetries:
 Alpha Orbitals:
       Occupied  (A') (A') (A') (A') (A') (A') (A') (A') (A') (A')
                 (A") (A') (A') (A") (A') (A') (A") (A') (A') (A")
                 (A') (A') (A') (A') (A') (A') (A') (A') (A') (A')
                 (A') (A') (A') (A") (A') (A') (A") (A') (A") (A')
                 (A') (A") (A') (A') (A") (A') (A') (A') (A") (A')
                 (A") (A') (A") (A') (A") (A') (A") (A') (A') (A")
                 (A') (A") (A') (A') (A') (A') (A') (A') (A') (A')
                 (A') (A') (A') (A') (A') (A') (A") (A') (A") (A')
                 (A") (A') (A') (A") (A") (A') (A") (A') (A") (A')
       Virtual   (A") (A") (A') (A') (A') (A') (A') (A') (A") (A')
                 (A") (A') (A') (A') (A") (A') (A") (A') (A') (A')
                 (A") (A") (A') (A') (A') (A") (A') (A') (A') (A")
                 (A') (A") (A') (A') (A') (A") (A') (A') (A') (A')
                 (A') (A') (A') (A') (A") (A') (A') (A') (A') (A')
                 (A') (A') (A') (A') (A') (A") (A') (A') (A') (A")
                 (A') (A") (A") (A') (A') (A') (A") (A') (A") (A')
                 (A') (A") (A') (A") (A') (A") (A") (A') (A") (A')
                 (A") (A") (A') (A') (A") (A") (A') (A') (A') (A')
                 (A") (A') (A') (A") (A') (A') (A') (A') (A') (A')
                 (A') (A') (A') (A") (A') (A') (A') (A") (A') (A')
                 (A') (A") (A') (A') (A') (A') (A") (A') (A") (A")
                 (A") (A') (A') (A') (A') (A') (A') (A') (A') (A")
                 (A") (A') (A') (A') (A") (A") (A") (A") (A') (A')
                 (A") (A") (A") (A') (A') (A') (A') (A') (A') (A')
                 (A') (A') (A') (A') (A") (A') (A') (A') (A') (A")
                 (A") (A") (A') (A") (A") (A') (A') (A") (A') (A')
                 (A') (A') (A') (A') (A') (A') (A') (A') (A") (A")
                 (A") (A") (A') (A") (A') (A') (A') (A") (A") (A")
                 (A') (A') (A') (A') (A') (A') (A') (A') (A') (A')
                 (A') (A') (A') (A") (A") (A") (A") (A') (A') (A')
                 (A') (A') (A') (A') (A') (A') (A') (A') (A') (A')
                 (A') (A') (A') (A') (A') (A") (A") (A") (A") (A')
                 (A') (A') (A') (A') (A') (A') (A') (A') (A') (A')
                 (A')
 Beta  Orbitals:
       Occupied  (A') (A') (A') (A') (A') (A') (A') (A') (A') (A')
                 (A") (A') (A') (A") (A') (A') (A") (A') (A') (A")
                 (A') (A') (A') (A') (A') (A') (A') (A') (A') (A')
                 (A') (A') (A') (A") (A') (A') (A") (A') (A") (A')
                 (A') (A") (A') (A') (A") (A') (A') (A') (A") (A')
                 (A") (A') (A") (A') (A") (A') (A") (A') (A') (A")
                 (A') (A") (A') (A') (A') (A') (A') (A') (A') (A')
                 (A') (A') (A') (A') (A') (A') (A") (A') (A") (A')
                 (A") (A') (A') (A") (A") (A') (A") (A') (A")
       Virtual   (A') (A") (A") (A') (A') (A') (A') (A') (A') (A")
                 (A') (A") (A') (A') (A') (A") (A') (A") (A') (A')
                 (A') (A") (A") (A') (A') (A') (A") (A') (A') (A')
                 (A") (A') (A") (A') (A') (A') (A") (A') (A') (A')
                 (A') (A') (A') (A') (A') (A") (A') (A') (A') (A')
                 (A') (A') (A') (A') (A') (A') (A") (A') (A') (A')
                 (A") (A') (A") (A") (A') (A') (A') (A") (A') (A")
                 (A') (A') (A") (A') (A") (A') (A") (A") (A') (A")
                 (A') (A") (A") (A') (A') (A") (A") (A') (A') (A')
                 (A') (A") (A') (A') (A") (A') (A') (A') (A') (A')
                 (A') (A') (A') (A') (A") (A') (A') (A') (A") (A')
                 (A') (A') (A") (A') (A') (A') (A') (A") (A') (A")
                 (A") (A") (A') (A') (A') (A') (A') (A') (A') (A')
                 (A") (A") (A') (A') (A') (A") (A") (A") (A") (A')
                 (A') (A") (A") (A") (A') (A') (A') (A') (A') (A')
                 (A') (A') (A') (A') (A') (A") (A') (A') (A') (A')
                 (A") (A") (A") (A') (A") (A") (A') (A') (A") (A')
                 (A') (A') (A') (A') (A') (A') (A') (A') (A') (A")
                 (A") (A") (A") (A') (A") (A') (A') (A') (A") (A")
                 (A") (A') (A') (A') (A') (A') (A') (A') (A') (A')
                 (A') (A') (A') (A') (A") (A") (A") (A") (A') (A')
                 (A') (A') (A') (A') (A') (A') (A') (A') (A') (A')
                 (A') (A') (A') (A') (A') (A') (A") (A") (A") (A")
                 (A') (A') (A') (A') (A') (A') (A') (A') (A') (A')
                 (A') (A')
 The electronic state of the initial guess is 2-A'.
 Initial guess <Sx>= 0.0000 <Sy>= 0.0000 <Sz>= 0.5000 <S**2>= 0.7500 S= 0.5000
 Leave Link  401 at Mon Sep 28 08:32:10 2026, MaxMem=  1610612736 cpu:               6.5 elap:               0.8
 (Enter /share/software/user/restricted/gaussian/g16.B01/l502.exe)
 Integral symmetry usage will be decided dynamically.
 UHF open shell SCF:
 Using DIIS extrapolation, IDIIS=  1040.
 NGot=  1610612736 LenX=  1610361064 LenY=  1610238123
 Requested convergence on RMS density matrix=1.00D-08 within 128 cycles.
 Requested convergence on MAX density matrix=1.00D-06.
 Requested convergence on             energy=1.00D-06.
 No special actions if energy rises.
 Fock matrices will be formed incrementally for  20 cycles.

 Cycle   1  Pass 1  IDiag  1:
 FoFJK:  IHMeth= 1 ICntrl=       0 DoSepK=F KAlg= 0 I1Cent=           0 FoldK=F
 IRaf= 790000000 NMat=       1 IRICut=       1 DoRegI=T DoRafI=F ISym2E= 1 IDoP0=0 IntGTp=1.
 FoFCou: FMM=F IPFlag=           0 FMFlag=      100000 FMFlg1=           0
         NFxFlg=           0 DoJE=F BraDBF=F KetDBF=F FulRan=T
         wScrn=  0.000000 ICntrl=         0 IOpCl=  1 I1Cent=           0 NGrid=           0
         NMat0=    1 NMatS0=      1 NMatT0=    0 NMatD0=    1 NMtDS0=    0 NMtDT0=    0
 Petite list used in FoFCou.
 Inv3:  Mode=1 IEnd=    10345347.
 Iteration    1 A*A^-1 deviation from unit magnitude is 5.11D-15 for   1847.
 Iteration    1 A*A^-1 deviation from orthogonality  is 2.01D-15 for   1856   1514.
 Iteration    1 A^-1*A deviation from unit magnitude is 4.88D-15 for   1847.
 Iteration    1 A^-1*A deviation from orthogonality  is 5.44D-15 for    207    156.
 E= -10526.2085737853    
 DIIS: error= 1.85D-01 at cycle   1 NSaved=   1.
 NSaved= 1 IEnMin= 1 EnMin= -10526.2085737853     IErMin= 1 ErrMin= 1.85D-01
 ErrMax= 1.85D-01  0.00D+00 EMaxC= 1.00D-01 BMatC= 2.67D+01 BMatP= 2.67D+01
 IDIUse=3 WtCom= 0.00D+00 WtEn= 1.00D+00
 Coeff-Com:  0.100D+01
 Coeff-En:   0.100D+01
 Coeff:      0.100D+01
 Gap=     0.170 Goal=   None    Shift=    0.000
 Gap=     0.282 Goal=   None    Shift=    0.000
 GapD=    0.170 DampG=1.000 DampE=0.250 DampFc=0.2500 IDamp=-1.
 Damping current iteration by 2.50D-01
 RMSDP=7.62D-02 MaxDP=3.91D+00              OVMax= 1.56D-01

 Cycle   2  Pass 1  IDiag  1:
 RMSU=  6.50D-03    CP:  8.09D-01
 E= -10526.3293418972     Delta-E=       -0.120768111956 Rises=F Damp=T
 DIIS: error= 1.32D-01 at cycle   2 NSaved=   2.
 NSaved= 2 IEnMin= 2 EnMin= -10526.3293418972     IErMin= 2 ErrMin= 1.32D-01
 ErrMax= 1.32D-01  0.00D+00 EMaxC= 1.00D-01 BMatC= 1.28D+01 BMatP= 2.67D+01
 IDIUse=3 WtCom= 0.00D+00 WtEn= 1.00D+00
 Coeff-Com: -0.204D+01 0.304D+01
 Coeff-En:   0.000D+00 0.100D+01
 Coeff:      0.000D+00 0.100D+01
 Gap=     0.155 Goal=   None    Shift=    0.000
 Gap=     0.229 Goal=   None    Shift=    0.000
 RMSDP=5.49D-02 MaxDP=2.79D+00 DE=-1.21D-01 OVMax= 6.76D-02

 Cycle   3  Pass 1  IDiag  1:
 RMSU=  5.68D-03    CP:  2.54D-01  3.00D+00
 E= -10526.5064481033     Delta-E=       -0.177106206054 Rises=F Damp=F
 DIIS: error= 2.00D-02 at cycle   3 NSaved=   3.
 NSaved= 3 IEnMin= 3 EnMin= -10526.5064481033     IErMin= 3 ErrMin= 2.00D-02
 ErrMax= 2.00D-02  0.00D+00 EMaxC= 1.00D-01 BMatC= 1.07D+00 BMatP= 1.28D+01
 IDIUse=3 WtCom= 8.00D-01 WtEn= 2.00D-01
 Coeff-Com:  0.284D+01-0.375D+01 0.191D+01
 Coeff-En:   0.000D+00 0.000D+00 0.100D+01
 Coeff:      0.227D+01-0.300D+01 0.173D+01
 Gap=     0.182 Goal=   None    Shift=    0.000
 Gap=     0.236 Goal=   None    Shift=    0.000
 RMSDP=4.01D-03 MaxDP=3.41D-01 DE=-1.77D-01 OVMax= 5.69D-02

 Cycle   4  Pass 1  IDiag  1:
 RMSU=  3.71D-03    CP:  2.38D-01  3.00D+00  1.04D+00
 E= -10526.5623982072     Delta-E=       -0.055950103866 Rises=F Damp=F
 DIIS: error= 4.06D-03 at cycle   4 NSaved=   4.
 NSaved= 4 IEnMin= 4 EnMin= -10526.5623982072     IErMin= 4 ErrMin= 4.06D-03
 ErrMax= 4.06D-03  0.00D+00 EMaxC= 1.00D-01 BMatC= 4.75D-02 BMatP= 1.07D+00
 IDIUse=3 WtCom= 9.59D-01 WtEn= 4.06D-02
 Coeff-Com:  0.102D+01-0.136D+01 0.763D+00 0.568D+00
 Coeff-En:   0.000D+00 0.000D+00 0.000D+00 0.100D+01
 Coeff:      0.983D+00-0.130D+01 0.732D+00 0.585D+00
 Gap=     0.189 Goal=   None    Shift=    0.000
 Gap=     0.224 Goal=   None    Shift=    0.000
 RMSDP=2.00D-03 MaxDP=1.42D-01 DE=-5.60D-02 OVMax= 2.45D-02

 Cycle   5  Pass 1  IDiag  1:
 RMSU=  1.49D-03    CP:  2.52D-01  3.00D+00  1.02D+00  1.06D+00
 E= -10526.5664116774     Delta-E=       -0.004013470247 Rises=F Damp=F
 DIIS: error= 1.94D-03 at cycle   5 NSaved=   5.
 NSaved= 5 IEnMin= 5 EnMin= -10526.5664116774     IErMin= 5 ErrMin= 1.94D-03
 ErrMax= 1.94D-03  0.00D+00 EMaxC= 1.00D-01 BMatC= 2.67D-03 BMatP= 4.75D-02
 IDIUse=3 WtCom= 9.81D-01 WtEn= 1.94D-02
 Coeff-Com:  0.181D+00-0.240D+00 0.163D+00 0.283D+00 0.612D+00
 Coeff-En:   0.000D+00 0.000D+00 0.000D+00 0.767D-01 0.923D+00
 Coeff:      0.178D+00-0.235D+00 0.160D+00 0.279D+00 0.618D+00
 Gap=     0.184 Goal=   None    Shift=    0.000
 Gap=     0.225 Goal=   None    Shift=    0.000
 RMSDP=7.23D-04 MaxDP=3.77D-02 DE=-4.01D-03 OVMax= 9.05D-03

 Cycle   6  Pass 1  IDiag  1:
 RMSU=  2.83D-04    CP:  2.46D-01  3.00D+00  1.05D+00  1.02D+00  8.05D-01
 E= -10526.5670864295     Delta-E=       -0.000674752126 Rises=F Damp=F
 DIIS: error= 3.48D-04 at cycle   6 NSaved=   6.
 NSaved= 6 IEnMin= 6 EnMin= -10526.5670864295     IErMin= 6 ErrMin= 3.48D-04
 ErrMax= 3.48D-04  0.00D+00 EMaxC= 1.00D-01 BMatC= 1.74D-04 BMatP= 2.67D-03
 IDIUse=3 WtCom= 9.97D-01 WtEn= 3.48D-03
 Coeff-Com: -0.347D-01 0.461D-01-0.975D-02 0.690D-01 0.260D+00 0.670D+00
 Coeff-En:   0.000D+00 0.000D+00 0.000D+00 0.000D+00 0.000D+00 0.100D+01
 Coeff:     -0.346D-01 0.459D-01-0.971D-02 0.687D-01 0.259D+00 0.671D+00
 Gap=     0.186 Goal=   None    Shift=    0.000
 Gap=     0.225 Goal=   None    Shift=    0.000
 RMSDP=2.44D-04 MaxDP=1.07D-02 DE=-6.75D-04 OVMax= 5.49D-03

 Cycle   7  Pass 1  IDiag  1:
 RMSU=  1.60D-04    CP:  2.48D-01  3.00D+00  1.04D+00  1.01D+00  8.12D-01
                    CP:  1.15D+00
 E= -10526.5671475151     Delta-E=       -0.000061085553 Rises=F Damp=F
 DIIS: error= 2.45D-04 at cycle   7 NSaved=   7.
 NSaved= 7 IEnMin= 7 EnMin= -10526.5671475151     IErMin= 7 ErrMin= 2.45D-04
 ErrMax= 2.45D-04  0.00D+00 EMaxC= 1.00D-01 BMatC= 1.97D-05 BMatP= 1.74D-04
 IDIUse=3 WtCom= 9.98D-01 WtEn= 2.45D-03
 Coeff-Com: -0.249D-01 0.329D-01-0.170D-01-0.645D-02 0.585D-02 0.211D+00
 Coeff-Com:  0.798D+00
 Coeff-En:   0.000D+00 0.000D+00 0.000D+00 0.000D+00 0.000D+00 0.000D+00
 Coeff-En:   0.100D+01
 Coeff:     -0.248D-01 0.328D-01-0.169D-01-0.643D-02 0.583D-02 0.211D+00
 Coeff:      0.799D+00
 Gap=     0.186 Goal=   None    Shift=    0.000
 Gap=     0.225 Goal=   None    Shift=    0.000
 RMSDP=1.01D-04 MaxDP=7.89D-03 DE=-6.11D-05 OVMax= 3.72D-03

 Cycle   8  Pass 1  IDiag  1:
 RMSU=  7.06D-05    CP:  2.49D-01  3.00D+00  1.04D+00  1.02D+00  8.29D-01
                    CP:  1.27D+00  1.12D+00
 E= -10526.5671607666     Delta-E=       -0.000013251569 Rises=F Damp=F
 DIIS: error= 8.76D-05 at cycle   8 NSaved=   8.
 NSaved= 8 IEnMin= 8 EnMin= -10526.5671607666     IErMin= 8 ErrMin= 8.76D-05
 ErrMax= 8.76D-05  0.00D+00 EMaxC= 1.00D-01 BMatC= 6.59D-06 BMatP= 1.97D-05
 IDIUse=1 WtCom= 1.00D+00 WtEn= 0.00D+00
 Coeff-Com: -0.285D-02 0.372D-02-0.509D-02-0.172D-01-0.575D-01-0.506D-01
 Coeff-Com:  0.334D+00 0.795D+00
 Coeff:     -0.285D-02 0.372D-02-0.509D-02-0.172D-01-0.575D-01-0.506D-01
 Coeff:      0.334D+00 0.795D+00
 Gap=     0.187 Goal=   None    Shift=    0.000
 Gap=     0.225 Goal=   None    Shift=    0.000
 RMSDP=7.77D-05 MaxDP=6.80D-03 DE=-1.33D-05 OVMax= 2.88D-03

 Cycle   9  Pass 1  IDiag  1:
 RMSU=  2.80D-05    CP:  2.49D-01  3.00D+00  1.04D+00  1.02D+00  8.44D-01
                    CP:  1.34D+00  1.20D+00  1.83D+00
 E= -10526.5671666844     Delta-E=       -0.000005917753 Rises=F Damp=F
 DIIS: error= 9.27D-05 at cycle   9 NSaved=   9.
 NSaved= 9 IEnMin= 9 EnMin= -10526.5671666844     IErMin= 8 ErrMin= 8.76D-05
 ErrMax= 9.27D-05  0.00D+00 EMaxC= 1.00D-01 BMatC= 2.10D-06 BMatP= 6.59D-06
 IDIUse=1 WtCom= 1.00D+00 WtEn= 0.00D+00
 Coeff-Com:  0.499D-02-0.662D-02 0.212D-02-0.574D-02-0.285D-01-0.899D-01
 Coeff-Com: -0.145D+00 0.329D+00 0.940D+00
 Coeff:      0.499D-02-0.662D-02 0.212D-02-0.574D-02-0.285D-01-0.899D-01
 Coeff:     -0.145D+00 0.329D+00 0.940D+00
 Gap=     0.187 Goal=   None    Shift=    0.000
 Gap=     0.225 Goal=   None    Shift=    0.000
 RMSDP=6.95D-05 MaxDP=6.24D-03 DE=-5.92D-06 OVMax= 2.21D-03

 Cycle  10  Pass 1  IDiag  1:
 RMSU=  1.10D-05    CP:  2.49D-01  3.00D+00  1.04D+00  1.02D+00  8.57D-01
                    CP:  1.39D+00  1.24D+00  2.61D+00  1.55D+00
 E= -10526.5671691353     Delta-E=       -0.000002450899 Rises=F Damp=F
 DIIS: error= 3.48D-05 at cycle  10 NSaved=  10.
 NSaved=10 IEnMin=10 EnMin= -10526.5671691353     IErMin=10 ErrMin= 3.48D-05
 ErrMax= 3.48D-05  0.00D+00 EMaxC= 1.00D-01 BMatC= 6.31D-07 BMatP= 2.10D-06
 IDIUse=1 WtCom= 1.00D+00 WtEn= 0.00D+00
 Coeff-Com:  0.120D-02-0.157D-02 0.103D-02 0.652D-03-0.321D-04-0.284D-01
 Coeff-Com: -0.155D+00-0.541D-01 0.468D+00 0.769D+00
 Coeff:      0.120D-02-0.157D-02 0.103D-02 0.652D-03-0.321D-04-0.284D-01
 Coeff:     -0.155D+00-0.541D-01 0.468D+00 0.769D+00
 Gap=     0.187 Goal=   None    Shift=    0.000
 Gap=     0.225 Goal=   None    Shift=    0.000
 RMSDP=2.94D-05 MaxDP=2.86D-03 DE=-2.45D-06 OVMax= 8.53D-04

 Cycle  11  Pass 1  IDiag  1:
 RMSU=  5.09D-06    CP:  2.49D-01  3.00D+00  1.04D+00  1.02D+00  8.65D-01
                    CP:  1.41D+00  1.25D+00  2.90D+00  1.83D+00  1.16D+00
 E= -10526.5671696518     Delta-E=       -0.000000516515 Rises=F Damp=F
 DIIS: error= 1.43D-05 at cycle  11 NSaved=  11.
 NSaved=11 IEnMin=11 EnMin= -10526.5671696518     IErMin=11 ErrMin= 1.43D-05
 ErrMax= 1.43D-05  0.00D+00 EMaxC= 1.00D-01 BMatC= 1.22D-07 BMatP= 6.31D-07
 IDIUse=1 WtCom= 1.00D+00 WtEn= 0.00D+00
 Coeff-Com: -0.825D-03 0.110D-02-0.267D-03 0.879D-03 0.512D-02 0.657D-02
 Coeff-Com: -0.288D-01-0.828D-01 0.841D-02 0.301D+00 0.790D+00
 Coeff:     -0.825D-03 0.110D-02-0.267D-03 0.879D-03 0.512D-02 0.657D-02
 Coeff:     -0.288D-01-0.828D-01 0.841D-02 0.301D+00 0.790D+00
 Gap=     0.187 Goal=   None    Shift=    0.000
 Gap=     0.225 Goal=   None    Shift=    0.000
 RMSDP=6.96D-06 MaxDP=6.16D-04 DE=-5.17D-07 OVMax= 1.78D-04

 Cycle  12  Pass 1  IDiag  1:
 RMSU=  1.89D-06    CP:  2.49D-01  3.00D+00  1.04D+00  1.02D+00  8.67D-01
                    CP:  1.41D+00  1.24D+00  2.96D+00  1.89D+00  1.40D+00
                    CP:  1.12D+00
 E= -10526.5671697604     Delta-E=       -0.000000108590 Rises=F Damp=F
 DIIS: error= 1.09D-05 at cycle  12 NSaved=  12.
 NSaved=12 IEnMin=12 EnMin= -10526.5671697604     IErMin=12 ErrMin= 1.09D-05
 ErrMax= 1.09D-05  0.00D+00 EMaxC= 1.00D-01 BMatC= 2.96D-08 BMatP= 1.22D-07
 IDIUse=1 WtCom= 1.00D+00 WtEn= 0.00D+00
 Coeff-Com: -0.224D-03 0.286D-03-0.266D-03-0.260D-03 0.111D-02 0.115D-01
 Coeff-Com:  0.577D-01 0.972D-02-0.184D+00-0.277D+00 0.569D-01 0.133D+01
 Coeff:     -0.224D-03 0.286D-03-0.266D-03-0.260D-03 0.111D-02 0.115D-01
 Coeff:      0.577D-01 0.972D-02-0.184D+00-0.277D+00 0.569D-01 0.133D+01
 Gap=     0.187 Goal=   None    Shift=    0.000
 Gap=     0.225 Goal=   None    Shift=    0.000
 RMSDP=6.58D-06 MaxDP=6.21D-04 DE=-1.09D-07 OVMax= 2.05D-04

 Cycle  13  Pass 1  IDiag  1:
 RMSU=  1.47D-06    CP:  2.49D-01  3.00D+00  1.04D+00  1.02D+00  8.69D-01
                    CP:  1.41D+00  1.22D+00  2.99D+00  1.94D+00  1.55D+00
                    CP:  1.44D+00  1.87D+00
 E= -10526.5671698158     Delta-E=       -0.000000055405 Rises=F Damp=F
 DIIS: error= 3.24D-06 at cycle  13 NSaved=  13.
 NSaved=13 IEnMin=13 EnMin= -10526.5671698158     IErMin=13 ErrMin= 3.24D-06
 ErrMax= 3.24D-06  0.00D+00 EMaxC= 1.00D-01 BMatC= 4.45D-09 BMatP= 2.96D-08
 IDIUse=1 WtCom= 1.00D+00 WtEn= 0.00D+00
 Coeff-Com:  0.318D-03-0.426D-03 0.123D-03-0.126D-03-0.430D-03 0.215D-03
 Coeff-Com:  0.103D-01 0.149D-01-0.180D-01-0.826D-01-0.147D+00 0.144D+00
 Coeff-Com:  0.108D+01
 Coeff:      0.318D-03-0.426D-03 0.123D-03-0.126D-03-0.430D-03 0.215D-03
 Coeff:      0.103D-01 0.149D-01-0.180D-01-0.826D-01-0.147D+00 0.144D+00
 Coeff:      0.108D+01
 Gap=     0.187 Goal=   None    Shift=    0.000
 Gap=     0.225 Goal=   None    Shift=    0.000
 RMSDP=2.78D-06 MaxDP=2.06D-04 DE=-5.54D-08 OVMax= 6.42D-05

 Cycle  14  Pass 1  IDiag  1:
 RMSU=  5.82D-07    CP:  2.49D-01  3.00D+00  1.04D+00  1.02D+00  8.71D-01
                    CP:  1.41D+00  1.21D+00  2.98D+00  1.93D+00  1.56D+00
                    CP:  1.48D+00  2.12D+00  1.55D+00
 E= -10526.5671698220     Delta-E=       -0.000000006139 Rises=F Damp=F
 DIIS: error= 8.23D-07 at cycle  14 NSaved=  14.
 NSaved=14 IEnMin=14 EnMin= -10526.5671698220     IErMin=14 ErrMin= 8.23D-07
 ErrMax= 8.23D-07  0.00D+00 EMaxC= 1.00D-01 BMatC= 5.50D-10 BMatP= 4.45D-09
 IDIUse=1 WtCom= 1.00D+00 WtEn= 0.00D+00
 Coeff-Com:  0.156D-04-0.192D-04 0.174D-04-0.494D-04-0.295D-03-0.150D-02
 Coeff-Com: -0.699D-02-0.125D-02 0.247D-01 0.365D-01-0.132D-01-0.175D+00
 Coeff-Com:  0.862D-01 0.105D+01
 Coeff:      0.156D-04-0.192D-04 0.174D-04-0.494D-04-0.295D-03-0.150D-02
 Coeff:     -0.699D-02-0.125D-02 0.247D-01 0.365D-01-0.132D-01-0.175D+00
 Coeff:      0.862D-01 0.105D+01
 Gap=     0.187 Goal=   None    Shift=    0.000
 Gap=     0.225 Goal=   None    Shift=    0.000
 RMSDP=1.10D-06 MaxDP=9.90D-05 DE=-6.14D-09 OVMax= 2.10D-05

 Cycle  15  Pass 1  IDiag  1:
 RMSU=  2.93D-07    CP:  2.49D-01  3.00D+00  1.04D+00  1.02D+00  8.70D-01
                    CP:  1.41D+00  1.21D+00  2.97D+00  1.92D+00  1.53D+00
                    CP:  1.44D+00  2.18D+00  1.66D+00  1.27D+00
 E= -10526.5671698225     Delta-E=       -0.000000000560 Rises=F Damp=F
 DIIS: error= 4.24D-07 at cycle  15 NSaved=  15.
 NSaved=15 IEnMin=15 EnMin= -10526.5671698225     IErMin=15 ErrMin= 4.24D-07
 ErrMax= 4.24D-07  0.00D+00 EMaxC= 1.00D-01 BMatC= 1.55D-10 BMatP= 5.50D-10
 IDIUse=1 WtCom= 1.00D+00 WtEn= 0.00D+00
 Coeff-Com: -0.459D-04 0.623D-04-0.109D-04 0.190D-04-0.255D-04-0.684D-03
 Coeff-Com: -0.432D-02-0.206D-02 0.123D-01 0.239D-01 0.142D-01-0.785D-01
 Coeff-Com: -0.154D+00 0.383D+00 0.806D+00
 Coeff:     -0.459D-04 0.623D-04-0.109D-04 0.190D-04-0.255D-04-0.684D-03
 Coeff:     -0.432D-02-0.206D-02 0.123D-01 0.239D-01 0.142D-01-0.785D-01
 Coeff:     -0.154D+00 0.383D+00 0.806D+00
 Gap=     0.187 Goal=   None    Shift=    0.000
 Gap=     0.225 Goal=   None    Shift=    0.000
 RMSDP=3.13D-07 MaxDP=2.60D-05 DE=-5.60D-10 OVMax= 7.71D-06

 Cycle  16  Pass 1  IDiag  1:
 RMSU=  1.02D-07    CP:  2.49D-01  3.00D+00  1.04D+00  1.02D+00  8.70D-01
                    CP:  1.41D+00  1.21D+00  2.96D+00  1.92D+00  1.52D+00
                    CP:  1.43D+00  2.18D+00  1.72D+00  1.37D+00  1.25D+00
 E= -10526.5671698226     Delta-E=       -0.000000000091 Rises=F Damp=F
 DIIS: error= 1.71D-07 at cycle  16 NSaved=  16.
 NSaved=16 IEnMin=16 EnMin= -10526.5671698226     IErMin=16 ErrMin= 1.71D-07
 ErrMax= 1.71D-07  0.00D+00 EMaxC= 1.00D-01 BMatC= 2.96D-11 BMatP= 1.55D-10
 IDIUse=1 WtCom= 1.00D+00 WtEn= 0.00D+00
 Coeff-Com: -0.571D-05 0.749D-05-0.381D-06 0.281D-04 0.667D-04 0.157D-03
 Coeff-Com:  0.835D-03-0.142D-03-0.394D-02-0.403D-02 0.766D-02 0.286D-01
 Coeff-Com: -0.513D-01-0.191D+00 0.181D+00 0.103D+01
 Coeff:     -0.571D-05 0.749D-05-0.381D-06 0.281D-04 0.667D-04 0.157D-03
 Coeff:      0.835D-03-0.142D-03-0.394D-02-0.403D-02 0.766D-02 0.286D-01
 Coeff:     -0.513D-01-0.191D+00 0.181D+00 0.103D+01
 Gap=     0.187 Goal=   None    Shift=    0.000
 Gap=     0.225 Goal=   None    Shift=    0.000
 RMSDP=1.59D-07 MaxDP=1.44D-05 DE=-9.09D-11 OVMax= 4.23D-06

 Cycle  17  Pass 1  IDiag  1:
 RMSU=  5.48D-08    CP:  2.49D-01  3.00D+00  1.04D+00  1.02D+00  8.70D-01
                    CP:  1.41D+00  1.21D+00  2.96D+00  1.92D+00  1.52D+00
                    CP:  1.43D+00  2.16D+00  1.71D+00  1.40D+00  1.41D+00
                    CP:  1.29D+00
 E= -10526.5671698226     Delta-E=       -0.000000000015 Rises=F Damp=F
 DIIS: error= 6.30D-08 at cycle  17 NSaved=  17.
 NSaved=17 IEnMin=17 EnMin= -10526.5671698226     IErMin=17 ErrMin= 6.30D-08
 ErrMax= 6.30D-08  0.00D+00 EMaxC= 1.00D-01 BMatC= 6.17D-12 BMatP= 2.96D-11
 IDIUse=1 WtCom= 1.00D+00 WtEn= 0.00D+00
 Coeff-Com:  0.399D-05-0.556D-05 0.109D-05 0.988D-05 0.274D-04 0.192D-03
 Coeff-Com:  0.118D-02 0.317D-03-0.379D-02-0.556D-02 0.906D-03 0.231D-01
 Coeff-Com:  0.780D-02-0.150D+00-0.507D-01 0.399D+00 0.777D+00
 Coeff:      0.399D-05-0.556D-05 0.109D-05 0.988D-05 0.274D-04 0.192D-03
 Coeff:      0.118D-02 0.317D-03-0.379D-02-0.556D-02 0.906D-03 0.231D-01
 Coeff:      0.780D-02-0.150D+00-0.507D-01 0.399D+00 0.777D+00
 Gap=     0.187 Goal=   None    Shift=    0.000
 Gap=     0.225 Goal=   None    Shift=    0.000
 RMSDP=1.23D-07 MaxDP=1.35D-05 DE=-1.46D-11 OVMax= 1.47D-06

 Cycle  18  Pass 1  IDiag  1:
 RMSU=  2.26D-08    CP:  2.49D-01  3.00D+00  1.04D+00  1.02D+00  8.70D-01
                    CP:  1.41D+00  1.21D+00  2.96D+00  1.92D+00  1.52D+00
                    CP:  1.43D+00  2.15D+00  1.69D+00  1.40D+00  1.45D+00
                    CP:  1.44D+00  1.27D+00
 E= -10526.5671698226     Delta-E=       -0.000000000031 Rises=F Damp=F
 DIIS: error= 2.77D-08 at cycle  18 NSaved=  18.
 NSaved=18 IEnMin=18 EnMin= -10526.5671698226     IErMin=18 ErrMin= 2.77D-08
 ErrMax= 2.77D-08  0.00D+00 EMaxC= 1.00D-01 BMatC= 8.61D-13 BMatP= 6.17D-12
 IDIUse=1 WtCom= 1.00D+00 WtEn= 0.00D+00
 Coeff-Com:  0.234D-05-0.317D-05 0.568D-06-0.765D-06-0.486D-05 0.206D-04
 Coeff-Com:  0.195D-03 0.165D-03-0.512D-03-0.133D-02-0.129D-02 0.368D-02
 Coeff-Com:  0.114D-01-0.199D-01-0.382D-01-0.461D-01 0.232D+00 0.860D+00
 Coeff:      0.234D-05-0.317D-05 0.568D-06-0.765D-06-0.486D-05 0.206D-04
 Coeff:      0.195D-03 0.165D-03-0.512D-03-0.133D-02-0.129D-02 0.368D-02
 Coeff:      0.114D-01-0.199D-01-0.382D-01-0.461D-01 0.232D+00 0.860D+00
 Gap=     0.187 Goal=   None    Shift=    0.000
 Gap=     0.225 Goal=   None    Shift=    0.000
 RMSDP=4.52D-08 MaxDP=3.50D-06 DE=-3.09D-11 OVMax= 6.92D-07

 Cycle  19  Pass 1  IDiag  1:
 RMSU=  5.86D-09    CP:  2.49D-01  3.00D+00  1.04D+00  1.02D+00  8.70D-01
                    CP:  1.41D+00  1.21D+00  2.96D+00  1.92D+00  1.52D+00
                    CP:  1.43D+00  2.15D+00  1.69D+00  1.38D+00  1.46D+00
                    CP:  1.45D+00  1.44D+00  1.19D+00
 E= -10526.5671698226     Delta-E=        0.000000000018 Rises=F Damp=F
 DIIS: error= 1.09D-08 at cycle  19 NSaved=  19.
 NSaved=19 IEnMin=18 EnMin= -10526.5671698226     IErMin=19 ErrMin= 1.09D-08
 ErrMax= 1.09D-08  0.00D+00 EMaxC= 1.00D-01 BMatC= 9.23D-14 BMatP= 8.61D-13
 IDIUse=1 WtCom= 1.00D+00 WtEn= 0.00D+00
 Coeff-Com: -0.965D-07 0.165D-06 0.774D-07-0.178D-05-0.722D-05-0.281D-04
 Coeff-Com: -0.168D-03-0.822D-05 0.591D-03 0.692D-03-0.542D-03-0.352D-02
 Coeff-Com:  0.147D-02 0.231D-01-0.134D-03-0.827D-01-0.851D-01 0.138D+00
 Coeff-Com:  0.101D+01
 Coeff:     -0.965D-07 0.165D-06 0.774D-07-0.178D-05-0.722D-05-0.281D-04
 Coeff:     -0.168D-03-0.822D-05 0.591D-03 0.692D-03-0.542D-03-0.352D-02
 Coeff:      0.147D-02 0.231D-01-0.134D-03-0.827D-01-0.851D-01 0.138D+00
 Coeff:      0.101D+01
 Gap=     0.187 Goal=   None    Shift=    0.000
 Gap=     0.225 Goal=   None    Shift=    0.000
 RMSDP=1.06D-08 MaxDP=8.17D-07 DE= 1.82D-11 OVMax= 3.09D-07

 Cycle  20  Pass 1  IDiag  1:
 RMSU=  2.67D-09    CP:  2.49D-01  3.00D+00  1.04D+00  1.02D+00  8.70D-01
                    CP:  1.41D+00  1.21D+00  2.96D+00  1.92D+00  1.52D+00
                    CP:  1.43D+00  2.15D+00  1.68D+00  1.38D+00  1.45D+00
                    CP:  1.46D+00  1.48D+00  1.35D+00  1.34D+00
 E= -10526.5671698226     Delta-E=        0.000000000004 Rises=F Damp=F
 DIIS: error= 2.82D-09 at cycle  20 NSaved=  20.
 NSaved=20 IEnMin=18 EnMin= -10526.5671698226     IErMin=20 ErrMin= 2.82D-09
 ErrMax= 2.82D-09  0.00D+00 EMaxC= 1.00D-01 BMatC= 9.59D-15 BMatP= 9.23D-14
 IDIUse=1 WtCom= 1.00D+00 WtEn= 0.00D+00
 Large coefficients: NSaved= 20 BigCof=    0.00 CofMax=   10.00 Det=-2.55D-14
 Inversion failed.  Reducing to 19 matrices.
 Coeff-Com:  0.102D-07 0.121D-06 0.158D-06-0.473D-06-0.523D-05-0.333D-04
 Coeff-Com: -0.120D-04 0.935D-04 0.161D-03 0.750D-04-0.572D-03-0.889D-03
 Coeff-Com:  0.325D-02 0.459D-02-0.326D-02-0.315D-01-0.646D-01 0.117D+00
 Coeff-Com:  0.975D+00
 Coeff:      0.102D-07 0.121D-06 0.158D-06-0.473D-06-0.523D-05-0.333D-04
 Coeff:     -0.120D-04 0.935D-04 0.161D-03 0.750D-04-0.572D-03-0.889D-03
 Coeff:      0.325D-02 0.459D-02-0.326D-02-0.315D-01-0.646D-01 0.117D+00
 Coeff:      0.975D+00
 Gap=     0.187 Goal=   None    Shift=    0.000
 Gap=     0.225 Goal=   None    Shift=    0.000
 RMSDP=3.71D-09 MaxDP=3.74D-07 DE= 3.64D-12 OVMax= 7.66D-08

 Error on total polarization charges =  0.00803
 SCF Done:  E(UM062X) =  -10526.5671698     A.U. after   20 cycles
            NFock= 20  Conv=0.37D-08     -V/T= 2.0012
 <Sx>= 0.0000 <Sy>= 0.0000 <Sz>= 0.5000 <S**2>= 0.7556 S= 0.5028
 <L.S>=  0.00000000000    
 KE= 1.051354577386D+04 PE=-2.895759397815D+04 EE= 6.026153152527D+03
 SMD-CDS (non-electrostatic) energy       (kcal/mol) =       0.18
 (included in total energy above)
 Annihilation of the first spin contaminant:
 S**2 before annihilation     0.7556,   after     0.7500
 Leave Link  502 at Mon Sep 28 08:34:31 2026, MaxMem=  1610612736 cpu:            1130.3 elap:             141.5
 (Enter /share/software/user/restricted/gaussian/g16.B01/l801.exe)
 DoSCS=F DFT=T ScalE2(SS,OS)=  1.000000  1.000000
 Range of M.O.s used for correlation:     1   331
 NBasis=   332 NAE=    90 NBE=    89 NFC=     0 NFV=     0
 NROrb=    331 NOA=    90 NOB=    89 NVA=   241 NVB=   242

 **** Warning!!: The largest alpha MO coefficient is  0.17759136D+03


 **** Warning!!: The largest beta MO coefficient is  0.17625946D+03

 Leave Link  801 at Mon Sep 28 08:34:31 2026, MaxMem=  1610612736 cpu:               0.4 elap:               0.1
 (Enter /share/software/user/restricted/gaussian/g16.B01/l1101.exe)
 Using compressed storage, NAtomX=    12.
 Will process     13 centers per pass.
 Leave Link 1101 at Mon Sep 28 08:34:32 2026, MaxMem=  1610612736 cpu:               2.0 elap:               0.3
 (Enter /share/software/user/restricted/gaussian/g16.B01/l1102.exe)
 Symmetrizing basis deriv contribution to polar:
 IMax=3 JMax=2 DiffMx= 0.00D+00
 Leave Link 1102 at Mon Sep 28 08:34:32 2026, MaxMem=  1610612736 cpu:               0.5 elap:               0.1
 (Enter /share/software/user/restricted/gaussian/g16.B01/l1110.exe)
 Forming Gx(P) for the SCF density, NAtomX=    12.
 Integral derivatives from FoFJK, PRISM(SPDF).
 Do as many integral derivatives as possible in FoFJK.
 G2DrvN: MDV=    1610611664.
 G2DrvN: will do    13 centers at a time, making    1 passes.
 Calling FoFCou, ICntrl=  3107 FMM=F I1Cent=   0 AccDes= 0.00D+00.
 FoFJK:  IHMeth= 1 ICntrl=    3107 DoSepK=F KAlg= 0 I1Cent=           0 FoldK=F
 IRaf=         0 NMat=       1 IRICut=       1 DoRegI=T DoRafI=F ISym2E= 1 IDoP0=0 IntGTp=1.
 FoFCou: FMM=F IPFlag=           0 FMFlag=      100000 FMFlg1=           0
         NFxFlg=           0 DoJE=F BraDBF=F KetDBF=F FulRan=T
         wScrn=  0.000000 ICntrl=      3107 IOpCl=  1 I1Cent=           0 NGrid=           0
         NMat0=    1 NMatS0=      1 NMatT0=    0 NMatD0=    1 NMtDS0=    0 NMtDT0=    0
 Petite list used in FoFCou.
 NEqPCM:  Using equilibrium solvation (IEInf=0, Eps=  78.3553, EpsInf=   1.7778)
 G2PCM: DoFxE=T DoFxN=T DoGrad=T DoDP/DQ/DG/TGxP=FFFF NFrqRd=   0 IEInf=0 SqF1=F DoCFld=F IF1Alg=4.
 GePol: Maximum number of non-zero 1st derivatives   =     472
 End of G2Drv F.D. properties file   721 does not exist.
 End of G2Drv F.D. properties file   722 does not exist.
 End of G2Drv F.D. properties file   788 does not exist.
 Leave Link 1110 at Mon Sep 28 08:36:21 2026, MaxMem=  1610612736 cpu:             877.7 elap:             109.7
 (Enter /share/software/user/restricted/gaussian/g16.B01/l1002.exe)
 Minotr:  UHF open shell wavefunction.
          IDoAtm=111111111111
 NEqPCM:  Using equilibrium solvation (IEInf=0, Eps=  78.3553, EpsInf=   1.7778)
          Direct CPHF calculation.
          Differentiating once with respect to nuclear coordinates.
          Using symmetry in CPHF.
          Requested convergence is 1.0D-08 RMS, and 1.0D-07 maximum.
          Secondary convergence is 1.0D-12 RMS, and 1.0D-12 maximum.
          NewPWx=T KeepS1=F KeepF1=F KeepIn=T MapXYZ=F SortEE=F KeepMc=T.
         3647 words used for storage of precomputed grid.
 Two-electron integrals replicated using symmetry.
          MDV=    1610612736 using IRadAn=       1.
          Solving linear equations simultaneously, MaxMat=     384.
 FoF2E skips out because all densities are zero.
 CalDSu exits because no D1Ps are significant.
 FoFJK:  IHMeth= 1 ICntrl=       0 DoSepK=F KAlg= 0 I1Cent=           0 FoldK=F
 IRaf= 790000000 NMat=      36 IRICut=       1 DoRegI=T DoRafI=F ISym2E= 2 IDoP0=3 IntGTp=3.
          There are    39 degrees of freedom in the 1st order CPHF.  IDoFFX=6 NUNeed=     0.
     33 vectors produced by pass  0 Test12= 1.11D-13 2.56D-09 XBig12= 3.71D-01 1.17D-01.
 AX will form    33 AO Fock derivatives at one time.
     33 vectors produced by pass  1 Test12= 1.11D-13 2.56D-09 XBig12= 6.16D-02 4.77D-02.
     33 vectors produced by pass  2 Test12= 1.11D-13 2.56D-09 XBig12= 4.99D-03 1.26D-02.
     33 vectors produced by pass  3 Test12= 1.11D-13 2.56D-09 XBig12= 1.44D-04 2.05D-03.
     33 vectors produced by pass  4 Test12= 1.11D-13 2.56D-09 XBig12= 5.27D-06 4.20D-04.
     33 vectors produced by pass  5 Test12= 1.11D-13 2.56D-09 XBig12= 7.82D-08 3.65D-05.
     33 vectors produced by pass  6 Test12= 1.11D-13 2.56D-09 XBig12= 9.90D-10 4.39D-06.
     32 vectors produced by pass  7 Test12= 1.11D-13 2.56D-09 XBig12= 9.58D-12 3.26D-07.
     19 vectors produced by pass  8 Test12= 1.11D-13 2.56D-09 XBig12= 8.37D-14 2.37D-08.
      1 vectors produced by pass  9 Test12= 1.11D-13 2.56D-09 XBig12= 3.12D-16 2.61D-09.
 InvSVY:  IOpt=1 It=  1 EMax= 1.55D-15
 Solved reduced A of dimension   283 with    33 vectors.
 End of Minotr F.D. properties file   721 does not exist.
 End of Minotr F.D. properties file   722 does not exist.
 End of Minotr F.D. properties file   788 does not exist.
 Leave Link 1002 at Mon Sep 28 08:43:51 2026, MaxMem=  1610612736 cpu:            3595.1 elap:             449.4
 (Enter /share/software/user/restricted/gaussian/g16.B01/l601.exe)
 Copying SCF densities to generalized density rwf, IOpCl= 1 IROHF=0.

 **********************************************************************

            Population analysis using the SCF Density.

 **********************************************************************

 Orbital symmetries:
 Alpha Orbitals:
       Occupied  (A') (A') (A') (A') (A') (A') (A') (A') (A') (A")
                 (A') (A') (A") (A') (A') (A") (A') (A') (A") (A')
                 (A') (A') (A') (A') (A') (A') (A') (A') (A') (A')
                 (A') (A") (A') (A') (A') (A") (A') (A") (A') (A')
                 (A") (A') (A') (A") (A') (A') (A") (A') (A") (A')
                 (A') (A") (A') (A") (A') (A") (A') (A') (A") (A')
                 (A") (A') (A') (A') (A') (A') (A') (A') (A') (A')
                 (A') (A') (A') (A') (A") (A') (A') (A') (A") (A")
                 (A') (A') (A") (A') (A') (A") (A") (A") (A') (A')
       Virtual   (A") (A') (A') (A") (A') (A') (A') (A') (A") (A')
                 (A") (A') (A") (A') (A') (A') (A') (A") (A') (A")
                 (A') (A') (A') (A") (A') (A') (A') (A") (A') (A")
                 (A') (A") (A') (A') (A") (A') (A') (A') (A') (A")
                 (A') (A') (A') (A') (A') (A') (A') (A') (A') (A')
                 (A') (A') (A') (A") (A') (A') (A') (A") (A') (A")
                 (A') (A') (A") (A') (A') (A') (A") (A') (A") (A')
                 (A") (A") (A') (A') (A') (A") (A") (A') (A') (A")
                 (A") (A") (A') (A") (A') (A') (A") (A') (A') (A')
                 (A") (A') (A') (A") (A') (A') (A') (A') (A') (A')
                 (A') (A') (A') (A") (A') (A') (A') (A') (A') (A')
                 (A") (A') (A") (A') (A') (A') (A') (A") (A") (A")
                 (A") (A') (A') (A') (A') (A') (A') (A') (A') (A")
                 (A") (A') (A') (A') (A") (A") (A") (A") (A') (A')
                 (A") (A") (A") (A') (A') (A') (A') (A') (A') (A')
                 (A') (A') (A') (A") (A') (A') (A') (A') (A') (A")
                 (A') (A") (A") (A") (A") (A') (A') (A") (A') (A')
                 (A') (A') (A') (A') (A') (A') (A') (A') (A") (A")
                 (A") (A') (A") (A') (A') (A") (A") (A") (A') (A")
                 (A') (A') (A') (A') (A') (A') (A') (A') (A') (A')
                 (A') (A') (A') (A") (A") (A") (A") (A') (A') (A')
                 (A') (A') (A') (A') (A') (A') (A') (A') (A') (A')
                 (A') (A') (A') (A') (A') (A") (A") (A") (A") (A')
                 (A') (A') (A') (A') (A') (A') (A') (A') (A') (A')
                 (A')
 Beta  Orbitals:
       Occupied  (A') (A') (A') (A') (A') (A') (A') (A') (A') (A")
                 (A') (A') (A") (A') (A') (A") (A') (A') (A") (A')
                 (A') (A') (A') (A') (A') (A') (A') (A') (A') (A')
                 (A') (A") (A') (A') (A') (A") (A') (A") (A') (A')
                 (A") (A') (A') (A") (A') (A') (A") (A') (A") (A')
                 (A') (A") (A') (A") (A') (A") (A') (A') (A") (A')
                 (A") (A') (A') (A') (A') (A') (A') (A') (A') (A')
                 (A') (A') (A') (A') (A") (A') (A') (A') (A") (A")
                 (A') (A") (A') (A') (A') (A") (A") (A") (A')
       Virtual   (A') (A") (A') (A') (A") (A') (A') (A') (A') (A')
                 (A") (A") (A') (A") (A') (A') (A') (A") (A') (A')
                 (A") (A') (A') (A') (A") (A') (A') (A") (A') (A')
                 (A') (A") (A") (A') (A') (A') (A") (A') (A') (A')
                 (A") (A') (A') (A') (A') (A') (A') (A') (A') (A')
                 (A') (A') (A') (A') (A") (A') (A') (A") (A') (A')
                 (A") (A') (A') (A") (A') (A') (A') (A") (A') (A")
                 (A') (A") (A") (A') (A') (A') (A") (A") (A') (A')
                 (A") (A") (A") (A") (A') (A') (A') (A') (A") (A')
                 (A') (A") (A') (A') (A") (A') (A') (A') (A') (A')
                 (A') (A') (A') (A') (A") (A') (A') (A') (A') (A')
                 (A') (A") (A') (A") (A') (A') (A') (A') (A") (A")
                 (A") (A") (A') (A') (A') (A') (A') (A') (A') (A")
                 (A') (A") (A') (A') (A') (A") (A") (A") (A") (A')
                 (A') (A") (A") (A") (A') (A') (A') (A') (A') (A')
                 (A') (A') (A') (A') (A") (A') (A') (A') (A') (A')
                 (A") (A') (A") (A") (A") (A") (A') (A') (A") (A')
                 (A') (A') (A') (A') (A') (A') (A') (A') (A') (A")
                 (A") (A") (A') (A') (A") (A') (A") (A") (A") (A')
                 (A") (A') (A') (A') (A') (A') (A') (A') (A') (A')
                 (A') (A') (A') (A') (A") (A") (A") (A") (A') (A')
                 (A') (A') (A') (A') (A') (A') (A') (A') (A') (A')
                 (A') (A') (A') (A') (A') (A') (A") (A") (A") (A")
                 (A') (A') (A') (A') (A') (A') (A') (A') (A') (A')
                 (A') (A')
 The electronic state is 2-A'.
 Alpha  occ. eigenvalues -- -485.33407-485.31850-485.31319-485.24445 -63.32604
 Alpha  occ. eigenvalues --  -63.31022 -63.30479 -63.23579 -57.15353 -57.15099
 Alpha  occ. eigenvalues --  -57.15083 -57.13792 -57.13518 -57.13492 -57.13246
 Alpha  occ. eigenvalues --  -57.12975 -57.12958 -57.06352 -57.06093 -57.06073
 Alpha  occ. eigenvalues --  -10.60852 -10.60101 -10.59454 -10.55603 -10.55423
 Alpha  occ. eigenvalues --  -10.54976  -9.01342  -8.99742  -8.99175  -8.92276
 Alpha  occ. eigenvalues --   -6.84145  -6.83126  -6.83077  -6.82572  -6.81976
 Alpha  occ. eigenvalues --   -6.81531  -6.81443  -6.80962  -6.80905  -6.74925
 Alpha  occ. eigenvalues --   -6.74163  -6.74096  -2.87299  -2.86952  -2.86902
 Alpha  occ. eigenvalues --   -2.86008  -2.86008  -2.85697  -2.85370  -2.85285
 Alpha  occ. eigenvalues --   -2.85097  -2.84778  -2.84722  -2.84392  -2.84391
 Alpha  occ. eigenvalues --   -2.83850  -2.83850  -2.77954  -2.77771  -2.77712
 Alpha  occ. eigenvalues --   -2.77157  -2.77156  -0.99756  -0.91844  -0.89060
 Alpha  occ. eigenvalues --   -0.85576  -0.82363  -0.78801  -0.76486  -0.68216
 Alpha  occ. eigenvalues --   -0.66148  -0.56387  -0.55189  -0.49655  -0.48051
 Alpha  occ. eigenvalues --   -0.46975  -0.45595  -0.41106  -0.39770  -0.37033
 Alpha  occ. eigenvalues --   -0.36313  -0.35359  -0.34049  -0.33786  -0.32471
 Alpha  occ. eigenvalues --   -0.30730  -0.28385  -0.27694  -0.27083  -0.18106
 Alpha virt. eigenvalues --    0.00577   0.00809   0.01188   0.01861   0.02314
 Alpha virt. eigenvalues --    0.02837   0.03020   0.03919   0.04518   0.04902
 Alpha virt. eigenvalues --    0.05624   0.05712   0.06636   0.06940   0.07032
 Alpha virt. eigenvalues --    0.07417   0.08045   0.08450   0.09282   0.09840
 Alpha virt. eigenvalues --    0.09943   0.10972   0.11935   0.12056   0.12803
 Alpha virt. eigenvalues --    0.13155   0.14268   0.14299   0.15971   0.16232
 Alpha virt. eigenvalues --    0.16244   0.18079   0.18217   0.19339   0.19858
 Alpha virt. eigenvalues --    0.20043   0.21751   0.22958   0.23335   0.23726
 Alpha virt. eigenvalues --    0.24176   0.25537   0.25804   0.27320   0.27509
 Alpha virt. eigenvalues --    0.28206   0.28826   0.29501   0.31105   0.34167
 Alpha virt. eigenvalues --    0.34675   0.36055   0.37260   0.42680   0.43518
 Alpha virt. eigenvalues --    0.44174   0.45440   0.45608   0.46621   0.47229
 Alpha virt. eigenvalues --    0.48230   0.50343   0.51384   0.52232   0.53513
 Alpha virt. eigenvalues --    0.55318   0.56347   0.57454   0.58613   0.59001
 Alpha virt. eigenvalues --    0.60004   0.61366   0.62892   0.63768   0.64413
 Alpha virt. eigenvalues --    0.64448   0.66862   0.67069   0.67953   0.68889
 Alpha virt. eigenvalues --    0.70076   0.70829   0.71502   0.71703   0.73034
 Alpha virt. eigenvalues --    0.75460   0.76348   0.76619   0.77519   0.78173
 Alpha virt. eigenvalues --    0.78303   0.80324   0.81941   0.82250   0.83059
 Alpha virt. eigenvalues --    0.83298   0.85509   0.87577   0.88338   0.89190
 Alpha virt. eigenvalues --    0.91253   0.91865   0.93006   0.94147   0.94499
 Alpha virt. eigenvalues --    0.97150   0.98802   1.00048   1.02040   1.04045
 Alpha virt. eigenvalues --    1.05209   1.13105   1.14843   1.16936   1.18248
 Alpha virt. eigenvalues --    1.19560   1.26727   1.27603   1.29912   1.32498
 Alpha virt. eigenvalues --    1.34457   1.36082   1.37913   1.43457   1.54744
 Alpha virt. eigenvalues --    1.56746   1.58727   1.65342   1.80834   1.80956
 Alpha virt. eigenvalues --    1.83156   1.84830   1.86503   1.89562   1.93455
 Alpha virt. eigenvalues --    1.97818   2.00331   2.03674   2.04626   2.05967
 Alpha virt. eigenvalues --    2.06609   2.08314   2.12949   2.13844   2.14930
 Alpha virt. eigenvalues --    2.18013   2.20243   2.21723   2.23479   2.27440
 Alpha virt. eigenvalues --    2.29890   2.33706   2.35728   2.37870   2.38868
 Alpha virt. eigenvalues --    2.39775   2.44965   2.56026   2.61871   2.70283
 Alpha virt. eigenvalues --    2.77926   2.82798   2.83071   2.93911   2.95316
 Alpha virt. eigenvalues --    3.00025   3.08998   3.14584   3.17563   3.20522
 Alpha virt. eigenvalues --    3.26176   3.37192   3.38750   3.55392   3.62238
 Alpha virt. eigenvalues --    3.76860   3.95545   4.01258   4.28775   4.30300
 Alpha virt. eigenvalues --    4.30956   4.32320   4.35619   4.35662   4.36544
 Alpha virt. eigenvalues --    4.36604   4.36886   4.38678   4.40101   4.42759
 Alpha virt. eigenvalues --    4.47285   4.52824   4.53845   4.58988   4.60774
 Alpha virt. eigenvalues --    4.69003   4.72735   4.78244   4.85349   6.83218
 Alpha virt. eigenvalues --    6.93905   6.96854   6.98160   7.63641   7.66110
 Alpha virt. eigenvalues --    7.67141   7.72446   7.74902   7.76921   7.78787
 Alpha virt. eigenvalues --    7.79344   7.81650   7.83319   7.86220   7.88547
 Alpha virt. eigenvalues --   23.33340  23.91974  23.95735  24.10393  24.15823
 Alpha virt. eigenvalues --   24.31476  48.37214  48.45859  48.48945  48.49468
 Alpha virt. eigenvalues --  290.78216 290.80894 290.82106 290.88311 290.90537
 Alpha virt. eigenvalues --  290.92730 290.94763 290.96442 290.98387 291.00959
 Alpha virt. eigenvalues --  291.03403 291.065261020.921951021.033691021.06443
 Alpha virt. eigenvalues -- 1021.07593
  Beta  occ. eigenvalues -- -485.33396-485.31814-485.31285-485.24277 -63.32599
  Beta  occ. eigenvalues --  -63.31004 -63.30462 -63.23489 -57.15335 -57.15096
  Beta  occ. eigenvalues --  -57.15080 -57.13725 -57.13510 -57.13484 -57.13182
  Beta  occ. eigenvalues --  -57.12968 -57.12950 -57.06056 -57.06050 -57.06031
  Beta  occ. eigenvalues --  -10.60807 -10.60138 -10.59481 -10.55581 -10.55429
  Beta  occ. eigenvalues --  -10.54336  -9.01328  -8.99696  -8.99131  -8.92046
  Beta  occ. eigenvalues --   -6.84109  -6.83120  -6.83071  -6.82440  -6.81849
  Beta  occ. eigenvalues --   -6.81515  -6.81425  -6.80947  -6.80887  -6.74332
  Beta  occ. eigenvalues --   -6.74059  -6.73994  -2.87278  -2.86935  -2.86885
  Beta  occ. eigenvalues --   -2.86004  -2.86004  -2.85625  -2.85311  -2.85225
  Beta  occ. eigenvalues --   -2.85027  -2.84721  -2.84664  -2.84381  -2.84380
  Beta  occ. eigenvalues --   -2.83839  -2.83839  -2.77614  -2.77497  -2.77437
  Beta  occ. eigenvalues --   -2.77086  -2.77084  -0.99338  -0.91579  -0.88677
  Beta  occ. eigenvalues --   -0.85316  -0.81638  -0.78478  -0.74693  -0.67698
  Beta  occ. eigenvalues --   -0.65592  -0.55813  -0.54845  -0.49282  -0.47695
  Beta  occ. eigenvalues --   -0.46569  -0.44484  -0.40479  -0.39634  -0.36875
  Beta  occ. eigenvalues --   -0.35997  -0.33987  -0.33565  -0.32810  -0.30847
  Beta  occ. eigenvalues --   -0.30088  -0.28243  -0.27041  -0.26463
  Beta virt. eigenvalues --   -0.03952   0.00573   0.00965   0.01400   0.02356
  Beta virt. eigenvalues --    0.02656   0.02839   0.03326   0.03876   0.04315
  Beta virt. eigenvalues --    0.04601   0.05652   0.06040   0.06620   0.06888
  Beta virt. eigenvalues --    0.07450   0.07481   0.08122   0.08278   0.09328
  Beta virt. eigenvalues --    0.09867   0.10111   0.11170   0.12025   0.12149
  Beta virt. eigenvalues --    0.12314   0.13193   0.14326   0.14466   0.15964
  Beta virt. eigenvalues --    0.16338   0.16376   0.18207   0.18272   0.19431
  Beta virt. eigenvalues --    0.20029   0.20151   0.21827   0.23057   0.23401
  Beta virt. eigenvalues --    0.23976   0.24306   0.25630   0.25939   0.27432
  Beta virt. eigenvalues --    0.27624   0.28372   0.28951   0.29673   0.31283
  Beta virt. eigenvalues --    0.34256   0.34896   0.36371   0.37491   0.42703
  Beta virt. eigenvalues --    0.43664   0.44637   0.45637   0.45645   0.47177
  Beta virt. eigenvalues --    0.47260   0.48219   0.50405   0.51566   0.52331
  Beta virt. eigenvalues --    0.53655   0.55434   0.56514   0.57615   0.58700
  Beta virt. eigenvalues --    0.59102   0.60118   0.61554   0.63641   0.63838
  Beta virt. eigenvalues --    0.64740   0.64834   0.67013   0.67740   0.68787
  Beta virt. eigenvalues --    0.68992   0.70183   0.71009   0.71827   0.71876
  Beta virt. eigenvalues --    0.74201   0.75632   0.76905   0.76964   0.77851
  Beta virt. eigenvalues --    0.78264   0.78535   0.80514   0.82127   0.82555
  Beta virt. eigenvalues --    0.83395   0.83594   0.85840   0.87779   0.88656
  Beta virt. eigenvalues --    0.89725   0.91484   0.92024   0.93335   0.94521
  Beta virt. eigenvalues --    0.94905   0.97579   0.98949   1.00475   1.02383
  Beta virt. eigenvalues --    1.04277   1.05583   1.13171   1.15075   1.17231
  Beta virt. eigenvalues --    1.18157   1.19692   1.27030   1.28134   1.29951
  Beta virt. eigenvalues --    1.32934   1.34975   1.36252   1.38002   1.43811
  Beta virt. eigenvalues --    1.55053   1.57119   1.59638   1.65636   1.81102
  Beta virt. eigenvalues --    1.81294   1.83353   1.85322   1.86685   1.90226
  Beta virt. eigenvalues --    1.93567   1.98314   2.00550   2.03926   2.04778
  Beta virt. eigenvalues --    2.06544   2.06982   2.09149   2.13589   2.14941
  Beta virt. eigenvalues --    2.15502   2.18636   2.21235   2.23015   2.25064
  Beta virt. eigenvalues --    2.28019   2.31059   2.34690   2.36172   2.38226
  Beta virt. eigenvalues --    2.39459   2.40572   2.45469   2.56515   2.62065
  Beta virt. eigenvalues --    2.70493   2.78741   2.82977   2.83299   2.94015
  Beta virt. eigenvalues --    2.95792   3.00184   3.10487   3.15024   3.18695
  Beta virt. eigenvalues --    3.20889   3.26615   3.37301   3.39041   3.55837
  Beta virt. eigenvalues --    3.62784   3.77683   3.96121   4.01553   4.28837
  Beta virt. eigenvalues --    4.30451   4.31112   4.32449   4.35774   4.36136
  Beta virt. eigenvalues --    4.36793   4.37450   4.37802   4.39734   4.40924
  Beta virt. eigenvalues --    4.44222   4.48359   4.53822   4.54780   4.60182
  Beta virt. eigenvalues --    4.62314   4.69379   4.73339   4.78750   4.85858
  Beta virt. eigenvalues --    6.83072   6.93814   6.96655   6.98064   7.63639
  Beta virt. eigenvalues --    7.66108   7.67126   7.72333   7.74962   7.77035
  Beta virt. eigenvalues --    7.78807   7.79436   7.81683   7.83347   7.86486
  Beta virt. eigenvalues --    7.88761  23.33382  23.92063  23.95775  24.10432
  Beta virt. eigenvalues --   24.15872  24.32029  48.37208  48.45847  48.48935
  Beta virt. eigenvalues --   48.49459 290.78225 290.80910 290.82123 290.88386
  Beta virt. eigenvalues --  290.90572 290.92828 290.94838 290.96652 290.98444
  Beta virt. eigenvalues --  291.01049 291.03691 291.066641020.922661021.03410
  Beta virt. eigenvalues -- 1021.065581021.07621
          Condensed to atoms (all electrons):
               1          2          3          4          5          6
     1  C    8.730018   0.122479  -2.129588  -0.680345  -0.704242   0.683813
     2  C    0.122479   8.305774   0.380502  -1.024567  -0.201511  -1.492384
     3  C   -2.129588   0.380502   8.693055   0.689437  -1.435036  -0.168117
     4  C   -0.680345  -1.024567   0.689437   7.449278   0.243640  -0.532130
     5  C   -0.704242  -0.201511  -1.435036   0.243640   7.555462   0.487084
     6  C    0.683813  -1.492384  -0.168117  -0.532130   0.487084   6.956401
     7  Br  -0.225254   0.087773   0.133586   0.080188   0.016802  -0.030728
     8  Br  -0.109284  -0.062038  -0.162469   0.002970   0.000379   0.042816
     9  Br   0.123398   0.005834  -0.029413  -0.139007   0.031001   0.066329
    10  Br   0.080113   0.114075   0.110086  -0.281975  -0.065600   0.085345
    11  H   -0.007758  -0.006084   0.003149  -0.059012   0.343235  -0.010134
    12  H   -0.007437  -0.009063   0.000026   0.019284  -0.078357   0.305747
               7          8          9         10         11         12
     1  C   -0.225254  -0.109284   0.123398   0.080113  -0.007758  -0.007437
     2  C    0.087773  -0.062038   0.005834   0.114075  -0.006084  -0.009063
     3  C    0.133586  -0.162469  -0.029413   0.110086   0.003149   0.000026
     4  C    0.080188   0.002970  -0.139007  -0.281975  -0.059012   0.019284
     5  C    0.016802   0.000379   0.031001  -0.065600   0.343235  -0.078357
     6  C   -0.030728   0.042816   0.066329   0.085345  -0.010134   0.305747
     7  Br  35.282115  -0.055690  -0.002609  -0.001468   0.005860  -0.025965
     8  Br  -0.055690  35.923861  -0.060464   0.006075   0.003079   0.008403
     9  Br  -0.002609  -0.060464  35.256137  -0.051694   0.000152  -0.000623
    10  Br  -0.001468   0.006075  -0.051694  35.227789  -0.036941   0.011974
    11  H    0.005860   0.003079   0.000152  -0.036941   0.405264  -0.008478
    12  H   -0.025965   0.008403  -0.000623   0.011974  -0.008478   0.416506
          Atomic-Atomic Spin Densities.
               1          2          3          4          5          6
     1  C   -0.078466   0.080851   0.056205  -0.039003   0.040027  -0.026934
     2  C    0.080851   0.869029   0.146092  -0.055565  -0.068490  -0.086710
     3  C    0.056205   0.146092   0.155518  -0.168105  -0.220496  -0.022050
     4  C   -0.039003  -0.055565  -0.168105   0.293078   0.135856   0.003870
     5  C    0.040027  -0.068490  -0.220496   0.135856   0.305113   0.017010
     6  C   -0.026934  -0.086710  -0.022050   0.003870   0.017010   0.122527
     7  Br  -0.076464   0.002912   0.015103  -0.007628  -0.006465  -0.012256
     8  Br   0.039758  -0.502953  -0.012381  -0.013004  -0.055145   0.048103
     9  Br   0.016454   0.016078  -0.041719  -0.053354  -0.012381  -0.003254
    10  Br  -0.009301   0.004178   0.053941  -0.081903  -0.051286   0.014464
    11  H    0.005057  -0.006460   0.018329   0.015329  -0.062108   0.006262
    12  H    0.005790  -0.004173   0.009441   0.010456  -0.048203  -0.031725
               7          8          9         10         11         12
     1  C   -0.076464   0.039758   0.016454  -0.009301   0.005057   0.005790
     2  C    0.002912  -0.502953   0.016078   0.004178  -0.006460  -0.004173
     3  C    0.015103  -0.012381  -0.041719   0.053941   0.018329   0.009441
     4  C   -0.007628  -0.013004  -0.053354  -0.081903   0.015329   0.010456
     5  C   -0.006465  -0.055145  -0.012381  -0.051286  -0.062108  -0.048203
     6  C   -0.012256   0.048103  -0.003254   0.014464   0.006262  -0.031725
     7  Br   0.125139   0.025783   0.000822   0.000421   0.001179   0.011759
     8  Br   0.025783   0.781483   0.020555   0.010210   0.002107   0.009737
     9  Br   0.000822   0.020555   0.126877   0.011727   0.000604   0.000209
    10  Br   0.000421   0.010210   0.011727   0.059547   0.007524   0.003883
    11  H    0.001179   0.002107   0.000604   0.007524   0.005330   0.009065
    12  H    0.011759   0.009737   0.000209   0.003883   0.009065   0.039556
 Mulliken charges and spin densities:
               1          2
     1  C    0.124086   0.013974
     2  C   -0.220789   0.394789
     3  C   -0.085219  -0.010124
     4  C    0.232240   0.040028
     5  C   -0.192855  -0.026568
     6  C   -0.394044   0.029308
     7  Br  -0.264610   0.080305
     8  Br  -0.537639   0.354254
     9  Br  -0.199042   0.082618
    10  Br  -0.197779   0.023404
    11  H    0.367668   0.002216
    12  H    0.367983   0.015797
 Sum of Mulliken charges =  -1.00000   1.00000
 Mulliken charges and spin densities with hydrogens summed into heavy atoms:
               1          2
     1  C    0.124086   0.013974
     2  C   -0.220789   0.394789
     3  C   -0.085219  -0.010124
     4  C    0.232240   0.040028
     5  C    0.174813  -0.024352
     6  C   -0.026061   0.045104
     7  Br  -0.264610   0.080305
     8  Br  -0.537639   0.354254
     9  Br  -0.199042   0.082618
    10  Br  -0.197779   0.023404
 APT charges:
               1
     1  C   -0.259672
     2  C   -0.158168
     3  C    0.009706
     4  C   -0.163602
     5  C   -0.877340
     6  C   -0.749056
     7  Br  -0.030986
     8  Br  -0.508615
     9  Br   0.036370
    10  Br   0.067689
    11  H    0.815890
    12  H    0.817783
 Sum of APT charges =  -1.00000
 APT charges with hydrogens summed into heavy atoms:
               1
     1  C   -0.259672
     2  C   -0.158168
     3  C    0.009706
     4  C   -0.163602
     5  C   -0.061450
     6  C    0.068727
     7  Br  -0.030986
     8  Br  -0.508615
     9  Br   0.036370
    10  Br   0.067689
 Electronic spatial extent (au):  <R**2>=           5590.3268
 Charge=             -1.0000 electrons
 Dipole moment (field-independent basis, Debye):
    X=             -7.0586    Y=             -5.5996    Z=              0.0000  Tot=              9.0100
 Quadrupole moment (field-independent basis, Debye-Ang):
   XX=           -123.2311   YY=           -139.6226   ZZ=           -116.2145
   XY=             -8.0045   XZ=              0.0000   YZ=              0.0000
 Traceless Quadrupole moment (field-independent basis, Debye-Ang):
   XX=              3.1250   YY=            -13.2665   ZZ=             10.1416
   XY=             -8.0045   XZ=              0.0000   YZ=              0.0000
 Octapole moment (field-independent basis, Debye-Ang**2):
  XXX=            -18.0009  YYY=            -45.8758  ZZZ=             -0.0000  XYY=              1.2689
  XXY=            -32.9633  XXZ=              0.0000  XZZ=             13.7786  YZZ=             -4.7572
  YYZ=              0.0000  XYZ=              0.0000
 Hexadecapole moment (field-independent basis, Debye-Ang**3):
 XXXX=          -1851.5168 YYYY=          -3671.5316 ZZZZ=           -152.1302 XXXY=           -116.8268
 XXXZ=              0.0000 YYYX=            -84.5081 YYYZ=              0.0000 ZZZX=              0.0000
 ZZZY=              0.0000 XXYY=           -984.1134 XXZZ=           -359.2901 YYZZ=           -644.3114
 XXYZ=              0.0000 YYXZ=              0.0000 ZZXY=            -22.3842
 N-N= 1.891327881939D+03 E-N=-2.895759397688D+04  KE= 1.051354577386D+04
 Symmetry A'   KE= 8.999298501601D+03
 Symmetry A"   KE= 1.514247272255D+03
 Symmetry A'   SP= 1.000000000000D+00
 Symmetry A"   SP= 4.665682000735D-14
  Exact polarizability:   0.000   0.000   0.000   0.000   0.000   0.000
 Approx polarizability: 237.690  -3.031 281.711   0.000  -0.000 126.301
                          Isotropic Fermi Contact Couplings
        Atom                 a.u.       MegaHertz       Gauss      10(-4) cm-1
     1  C(13)             -0.01876     -21.09361      -7.52673      -7.03607
     2  C(13)              0.31016     348.67456     124.41575     116.30531
     3  C(13)             -0.02506     -28.16757     -10.05089      -9.39569
     4  C(13)              0.04359      49.00649      17.48674      16.34681
     5  C(13)              0.00321       3.60430       1.28610       1.20227
     6  C(13)              0.02036      22.88677       8.16657       7.63421
     7  Br(79)             0.10042     112.84641      40.26640      37.64151
     8  Br(79)             0.69061     776.06493     276.91926     258.86740
     9  Br(79)             0.10562     118.68965      42.35142      39.59061
    10  Br(79)             0.03046      34.22470      12.21222      11.41613
    11  H(1)               0.00022       0.99311       0.35437       0.33127
    12  H(1)               0.00316      14.11049       5.03497       4.70675
 --------------------------------------------------------
       Center         ----  Spin Dipole Couplings  ----
                      3XX-RR        3YY-RR        3ZZ-RR
 --------------------------------------------------------
     1   Atom        0.019691      0.039295     -0.058986
     2   Atom        0.337864     -0.084636     -0.253228
     3   Atom       -0.002260      0.059856     -0.057595
     4   Atom        0.006635     -0.009218      0.002583
     5   Atom        0.015581      0.010545     -0.026125
     6   Atom        0.010556     -0.008910     -0.001646
     7   Atom       -0.408794      0.839489     -0.430695
     8   Atom        2.054958     -0.208320     -1.846638
     9   Atom        0.568938     -0.120041     -0.448897
    10   Atom       -0.112393      0.224565     -0.112172
    11   Atom        0.001226      0.000612     -0.001838
    12   Atom        0.004519     -0.001756     -0.002763
 --------------------------------------------------------
                        XY            XZ            YZ
 --------------------------------------------------------
     1   Atom       -0.052235      0.000000     -0.000000
     2   Atom        0.388019      0.000000      0.000000
     3   Atom       -0.036265      0.000000     -0.000000
     4   Atom       -0.003259     -0.000000     -0.000000
     5   Atom        0.006535     -0.000000     -0.000000
     6   Atom        0.004200      0.000000     -0.000000
     7   Atom       -0.059412     -0.000000     -0.000000
     8   Atom        2.564867      0.000000     -0.000000
     9   Atom       -0.553227      0.000000     -0.000000
    10   Atom        0.080505     -0.000000     -0.000000
    11   Atom        0.000510     -0.000000     -0.000000
    12   Atom       -0.000718      0.000000     -0.000000
 --------------------------------------------------------


 ---------------------------------------------------------------------------------
              Anisotropic Spin Dipole Couplings in Principal Axis System
 ---------------------------------------------------------------------------------

       Atom             a.u.   MegaHertz   Gauss  10(-4) cm-1        Axes

              Baa    -0.0590    -7.915    -2.824    -2.640  0.0000  0.0000  1.0000
     1 C(13)  Bbb    -0.0237    -3.174    -1.133    -1.059  0.7696  0.6386  0.0000
              Bcc     0.0826    11.089     3.957     3.699 -0.6386  0.7696 -0.0000
 
              Baa    -0.3152   -42.295   -15.092   -14.108 -0.5108  0.8597 -0.0000
     2 C(13)  Bbb    -0.2532   -33.981   -12.125   -11.335  0.0000  0.0000  1.0000
              Bcc     0.5684    76.275    27.217    25.443  0.8597  0.5108 -0.0000
 
              Baa    -0.0576    -7.729    -2.758    -2.578  0.0000  0.0000  1.0000
     3 C(13)  Bbb    -0.0189    -2.543    -0.907    -0.848  0.9084  0.4180 -0.0000
              Bcc     0.0765    10.272     3.665     3.426 -0.4180  0.9084 -0.0000
 
              Baa    -0.0099    -1.323    -0.472    -0.441  0.1938  0.9810 -0.0000
     4 C(13)  Bbb     0.0026     0.347     0.124     0.116  0.0000  0.0000  1.0000
              Bcc     0.0073     0.977     0.349     0.326  0.9810 -0.1938 -0.0000
 
              Baa    -0.0261    -3.506    -1.251    -1.169  0.0000  0.0000  1.0000
     5 C(13)  Bbb     0.0061     0.813     0.290     0.271 -0.5659  0.8245 -0.0000
              Bcc     0.0201     2.693     0.961     0.898  0.8245  0.5659 -0.0000
 
              Baa    -0.0098    -1.312    -0.468    -0.438 -0.2023  0.9793  0.0000
     6 C(13)  Bbb    -0.0016    -0.221    -0.079    -0.074  0.0000  0.0000  1.0000
              Bcc     0.0114     1.533     0.547     0.511  0.9793  0.2023  0.0000
 
              Baa    -0.4307   -57.772   -20.615   -19.271  0.0000  0.0000  1.0000
     7 Br(79) Bbb    -0.4116   -55.213   -19.701   -18.417  0.9989  0.0474 -0.0000
              Bcc     0.8423   112.985    40.316    37.688 -0.0474  0.9989 -0.0000
 
              Baa    -1.8801  -252.191   -89.988   -84.122 -0.5460  0.8378  0.0000
     8 Br(79) Bbb    -1.8466  -247.703   -88.387   -82.625  0.0000  0.0000  1.0000
              Bcc     3.7267   499.894   178.375   166.747  0.8378  0.5460  0.0000
 
              Baa    -0.4489   -60.214   -21.486   -20.085  0.0000  0.0000  1.0000
     9 Br(79) Bbb    -0.4273   -57.312   -20.451   -19.117  0.4855  0.8742 -0.0000
              Bcc     0.8762   117.526    41.936    39.203  0.8742 -0.4855  0.0000
 
              Baa    -0.1306   -17.524    -6.253    -5.845  0.9753 -0.2210 -0.0000
    10 Br(79) Bbb    -0.1122   -15.047    -5.369    -5.019  0.0000  0.0000  1.0000
              Bcc     0.2428    32.570    11.622    10.864  0.2210  0.9753 -0.0000
 
              Baa    -0.0018    -0.981    -0.350    -0.327  0.0000  0.0000  1.0000
    11 H(1)   Bbb     0.0003     0.173     0.062     0.058 -0.4923  0.8704 -0.0000
              Bcc     0.0015     0.808     0.288     0.269  0.8704  0.4923 -0.0000
 
              Baa    -0.0028    -1.474    -0.526    -0.492  0.0000  0.0000  1.0000
    12 H(1)   Bbb    -0.0018    -0.980    -0.350    -0.327  0.1123  0.9937  0.0000
              Bcc     0.0046     2.454     0.876     0.819  0.9937 -0.1123  0.0000
 

 ---------------------------------------------------------------------------------

 No NMR shielding tensors so no spin-rotation constants.
 Leave Link  601 at Mon Sep 28 08:43:52 2026, MaxMem=  1610612736 cpu:               3.6 elap:               0.5
 (Enter /share/software/user/restricted/gaussian/g16.B01/l701.exe)
 ... and contract with generalized density number  0.
 Compute integral second derivatives.
 D2PCM: PCM CHGder 2nd derivatives, FixD1E=F FixD2E=F DoIter=F DoCFld=F I1PDM=0
 GePol: Maximum number of non-zero 2nd derivatives   =     472
 Leave Link  701 at Mon Sep 28 08:44:01 2026, MaxMem=  1610612736 cpu:              76.3 elap:               9.5
 (Enter /share/software/user/restricted/gaussian/g16.B01/l702.exe)
 L702 exits ... SP integral derivatives will be done elsewhere.
 Leave Link  702 at Mon Sep 28 08:44:01 2026, MaxMem=  1610612736 cpu:               0.3 elap:               0.0
 (Enter /share/software/user/restricted/gaussian/g16.B01/l703.exe)
 Integral derivatives from FoFJK, PRISM(SPDF).
 Compute integral second derivatives, UseDBF=F ICtDFT=           0.
 Calling FoFJK, ICntrl=    100147 FMM=F ISym2X=1 I1Cent= 0 IOpClX= 1 NMat=1 NMatS=1 NMatT=0.
 FoFJK:  IHMeth= 1 ICntrl=  100147 DoSepK=F KAlg= 0 I1Cent=           0 FoldK=F
 IRaf=         0 NMat=       1 IRICut=       1 DoRegI=T DoRafI=F ISym2E= 1 IDoP0=0 IntGTp=1.
 FoFCou: FMM=F IPFlag=           0 FMFlag=      100000 FMFlg1=         800
         NFxFlg=           0 DoJE=F BraDBF=F KetDBF=F FulRan=T
         wScrn=  0.000000 ICntrl=    100147 IOpCl=  1 I1Cent=           0 NGrid=           0
         NMat0=    1 NMatS0=      1 NMatT0=    0 NMatD0=    1 NMtDS0=    0 NMtDT0=    0
 Petite list used in FoFCou.
 Leave Link  703 at Mon Sep 28 08:45:36 2026, MaxMem=  1610612736 cpu:             755.2 elap:              94.4
 (Enter /share/software/user/restricted/gaussian/g16.B01/l716.exe)
 Dipole        =-2.77707965D+00-2.20305174D+00 8.44136663D-32
 Polarizability= 0.00000000D+00 0.00000000D+00 0.00000000D+00
                 0.00000000D+00 0.00000000D+00 0.00000000D+00
 ***** Axes restored to original set *****
 -------------------------------------------------------------------
 Center     Atomic                   Forces (Hartrees/Bohr)
 Number     Number              X              Y              Z
 -------------------------------------------------------------------
      1        6          -0.000000000    0.007350125   -0.006740100
      2        6          -0.000000000    0.022006153    0.014017305
      3        6           0.000000000   -0.015848453   -0.012423357
      4        6           0.000000000    0.011768957   -0.003195380
      5        6          -0.000000000   -0.004860250    0.001694447
      6        6          -0.000000000   -0.001310820   -0.002204932
      7       35           0.000000000   -0.010091350    0.000357962
      8       35          -0.000000000    0.004207847    0.007651087
      9       35           0.000000000   -0.000805622    0.000668340
     10       35           0.000000000   -0.011187319    0.000212102
     11        1           0.000000000   -0.000295019   -0.001945973
     12        1           0.000000000   -0.000934251    0.001908500
 -------------------------------------------------------------------
 Cartesian Forces:  Max     0.022006153 RMS     0.006832131
 Force constants in Cartesian coordinates: 
                1             2             3             4             5 
      1  0.103927D+00
      2  0.000000D+00  0.379527D+00
      3  0.000000D+00 -0.744101D-03  0.659485D+00
      4 -0.463432D-01  0.000000D+00  0.000000D+00  0.605716D-01
      5  0.000000D+00 -0.125241D+00  0.116344D+00  0.000000D+00  0.647805D+00
      6  0.000000D+00  0.139759D+00 -0.290474D+00  0.000000D+00 -0.170378D+00
      7 -0.123536D-02  0.000000D+00  0.000000D+00 -0.401950D-01  0.000000D+00
      8  0.000000D+00 -0.433007D-01  0.767694D-01  0.000000D+00 -0.392292D+00
      9  0.000000D+00  0.423650D-01  0.191514D-01  0.000000D+00  0.246039D-01
     10 -0.231620D-02  0.000000D+00  0.000000D+00  0.100167D-01  0.000000D+00
     11  0.000000D+00 -0.596899D-02  0.269521D-02  0.000000D+00 -0.293165D-01
     12  0.000000D+00 -0.671967D-02 -0.830206D-01  0.000000D+00 -0.863486D-01
     13  0.694384D-02  0.000000D+00  0.000000D+00 -0.664554D-03  0.000000D+00
     14  0.000000D+00 -0.291591D-01 -0.924807D-01  0.000000D+00 -0.604734D-01
     15  0.000000D+00 -0.239256D-01  0.353119D-01  0.000000D+00  0.347931D-01
     16 -0.568415D-01  0.000000D+00  0.000000D+00  0.104988D-01  0.000000D+00
     17  0.000000D+00 -0.141416D+00 -0.588543D-01  0.000000D+00  0.614653D-01
     18  0.000000D+00 -0.129405D+00 -0.299084D+00  0.000000D+00  0.371509D-01
     19 -0.176721D-01  0.000000D+00  0.000000D+00 -0.206491D-02  0.000000D+00
     20  0.000000D+00 -0.381654D-01 -0.330876D-01  0.000000D+00 -0.472181D-01
     21  0.000000D+00 -0.536703D-02 -0.269394D-01  0.000000D+00  0.195746D-01
     22 -0.603200D-03  0.000000D+00  0.000000D+00  0.712670D-04  0.000000D+00
     23  0.000000D+00 -0.114068D-01  0.627143D-02  0.000000D+00 -0.143705D-01
     24  0.000000D+00 -0.187629D-01  0.369342D-03  0.000000D+00 -0.148000D-01
     25  0.564127D-02  0.000000D+00  0.000000D+00 -0.130988D-02  0.000000D+00
     26  0.000000D+00  0.530367D-02  0.990508D-03  0.000000D+00 -0.346186D-01
     27  0.000000D+00 -0.127432D-01  0.386920D-03  0.000000D+00  0.395475D-01
     28  0.394392D-04  0.000000D+00  0.000000D+00  0.355880D-02  0.000000D+00
     29  0.000000D+00  0.508399D-02 -0.323762D-02  0.000000D+00 -0.560900D-02
     30  0.000000D+00  0.142510D-02 -0.408826D-03  0.000000D+00 -0.120788D-02
     31  0.622052D-02  0.000000D+00  0.000000D+00  0.553794D-03  0.000000D+00
     32  0.000000D+00 -0.424577D-02  0.321710D-03  0.000000D+00 -0.535609D-03
     33  0.000000D+00  0.726134D-03  0.137246D-02  0.000000D+00  0.855324D-03
     34  0.223968D-02  0.000000D+00  0.000000D+00  0.530659D-02  0.000000D+00
     35  0.000000D+00  0.898921D-02 -0.149877D-01  0.000000D+00  0.404950D-03
     36  0.000000D+00  0.133924D-01 -0.161498D-01  0.000000D+00 -0.134886D-03
                6             7             8             9            10 
      6  0.445819D+00
      7  0.000000D+00  0.961975D-01
      8 -0.104269D-02  0.000000D+00  0.610842D+00
      9 -0.519600D-01  0.000000D+00  0.597675D-01  0.446559D+00
     10  0.000000D+00 -0.530581D-01  0.000000D+00  0.000000D+00  0.104041D+00
     11 -0.163387D-01  0.000000D+00 -0.136696D+00 -0.120728D+00  0.000000D+00
     12  0.382301D-01  0.000000D+00 -0.565959D-01 -0.244672D+00  0.000000D+00
     13  0.000000D+00  0.413155D-02  0.000000D+00  0.000000D+00 -0.576981D-01
     14  0.353616D-01  0.000000D+00  0.647713D-01  0.284669D-01  0.000000D+00
     15 -0.259513D-01  0.000000D+00 -0.372711D-01 -0.564388D-01  0.000000D+00
     16  0.000000D+00 -0.303468D-04  0.000000D+00  0.000000D+00  0.311059D-02
     17 -0.292473D-01  0.000000D+00 -0.556265D-01 -0.371418D-01  0.000000D+00
     18 -0.606820D-01  0.000000D+00 -0.347213D-01 -0.190240D-01  0.000000D+00
     19  0.000000D+00  0.472859D-02  0.000000D+00  0.000000D+00 -0.108119D-05
     20  0.286878D-01  0.000000D+00  0.260659D-02 -0.131660D-01  0.000000D+00
     21 -0.295420D-02  0.000000D+00  0.842089D-03 -0.568392D-03  0.000000D+00
     22  0.000000D+00 -0.570444D-03  0.000000D+00  0.000000D+00  0.562174D-03
     23 -0.144417D-01  0.000000D+00  0.423049D-02 -0.122592D-01  0.000000D+00
     24 -0.275291D-01  0.000000D+00  0.139771D-01 -0.152708D-01  0.000000D+00
     25  0.000000D+00 -0.162947D-01  0.000000D+00  0.000000D+00  0.184762D-02
     26  0.297667D-01  0.000000D+00 -0.242223D-01  0.248510D-01  0.000000D+00
     27 -0.190418D-01  0.000000D+00 -0.227730D-02 -0.764153D-01  0.000000D+00
     28  0.000000D+00  0.105684D-02  0.000000D+00  0.000000D+00 -0.158120D-01
     29 -0.526248D-03  0.000000D+00 -0.279687D-01  0.166607D-02  0.000000D+00
     30 -0.154516D-02  0.000000D+00 -0.192682D-01  0.267667D-03  0.000000D+00
     31  0.000000D+00  0.484093D-02  0.000000D+00  0.000000D+00  0.155047D-02
     32  0.626850D-03  0.000000D+00 -0.103724D-02  0.243867D-02  0.000000D+00
     33  0.204469D-03  0.000000D+00  0.239683D-02 -0.284793D-02  0.000000D+00
     34  0.000000D+00  0.428540D-03  0.000000D+00  0.000000D+00  0.775671D-02
     35 -0.222752D-02  0.000000D+00 -0.130654D-02 -0.864272D-03  0.000000D+00
     36 -0.411603D-02  0.000000D+00 -0.257637D-02  0.121877D-02  0.000000D+00
               11            12            13            14            15 
     11  0.477607D+00
     12 -0.706884D-02  0.595455D+00
     13  0.000000D+00  0.000000D+00  0.126124D+00
     14 -0.150003D+00  0.444428D-01  0.000000D+00  0.700589D+00
     15  0.118038D+00 -0.264203D+00  0.000000D+00  0.543999D-01  0.709599D+00
     16  0.000000D+00  0.000000D+00 -0.580094D-01  0.000000D+00  0.000000D+00
     17 -0.265470D-01  0.885675D-01  0.000000D+00 -0.346303D+00 -0.310793D-01
     18  0.227079D-01  0.361722D-01  0.000000D+00  0.469139D-01 -0.126049D+00
     19  0.000000D+00  0.000000D+00  0.374177D-02  0.000000D+00  0.000000D+00
     20  0.137978D-02  0.482937D-02  0.000000D+00  0.259071D-02 -0.508922D-02
     21 -0.623964D-04  0.244486D-03  0.000000D+00  0.757757D-04 -0.195923D-02
     22  0.000000D+00  0.000000D+00 -0.844444D-04  0.000000D+00  0.000000D+00
     23  0.435225D-02  0.287752D-02  0.000000D+00 -0.266355D-03 -0.820888D-03
     24  0.700145D-02  0.420586D-02  0.000000D+00 -0.502960D-03 -0.124910D-02
     25  0.000000D+00  0.000000D+00  0.372281D-02  0.000000D+00  0.000000D+00
     26  0.252571D-02  0.280206D-02  0.000000D+00  0.615710D-03 -0.136537D-02
     27  0.116599D-01 -0.358853D-01  0.000000D+00 -0.517880D-02 -0.146651D-03
     28  0.000000D+00  0.000000D+00  0.289405D-02  0.000000D+00  0.000000D+00
     29 -0.141847D+00 -0.247465D-02  0.000000D+00 -0.377114D-01  0.241394D-03
     30 -0.281345D-02 -0.295567D-01  0.000000D+00  0.220282D-01  0.232539D-02
     31  0.000000D+00  0.000000D+00 -0.346736D-01  0.000000D+00  0.000000D+00
     32  0.830188D-02  0.160494D-01  0.000000D+00 -0.134761D+00 -0.134506D+00
     33 -0.140550D-01 -0.182165D-01  0.000000D+00 -0.131086D+00 -0.275849D+00
     34  0.000000D+00  0.000000D+00  0.357187D-02  0.000000D+00  0.000000D+00
     35 -0.378904D-02 -0.360908D-03  0.000000D+00 -0.989088D-02  0.265861D-01
     36 -0.103607D-02  0.124634D-02  0.000000D+00 -0.244046D-02  0.460993D-02
               16            17            18            19            20 
     16  0.128030D+00
     17  0.000000D+00  0.677700D+00
     18  0.000000D+00 -0.411977D-01  0.736800D+00
     19  0.306272D-02  0.000000D+00  0.000000D+00  0.947911D-02
     20  0.000000D+00 -0.358242D-01 -0.826809D-03  0.000000D+00  0.112078D+00
     21  0.000000D+00 -0.182561D-01  0.228577D-02  0.000000D+00  0.389865D-03
     22  0.775906D-03  0.000000D+00  0.000000D+00  0.111196D-02  0.000000D+00
     23  0.000000D+00  0.466515D-03  0.106393D-02  0.000000D+00  0.893712D-02
     24  0.000000D+00  0.720504D-03  0.203589D-02  0.000000D+00  0.148186D-01
     25 -0.623939D-03  0.000000D+00  0.000000D+00  0.128415D-03  0.000000D+00
     26  0.000000D+00 -0.217692D-02  0.120457D-02  0.000000D+00 -0.107125D-02
     27  0.000000D+00  0.381145D-02 -0.159058D-02  0.000000D+00  0.291607D-02
     28  0.502993D-02  0.000000D+00  0.000000D+00 -0.107746D-02  0.000000D+00
     29  0.000000D+00  0.231664D-02  0.295940D-02  0.000000D+00 -0.420218D-02
     30  0.000000D+00 -0.190393D-03 -0.237787D-02  0.000000D+00 -0.893845D-03
     31  0.342209D-02  0.000000D+00  0.000000D+00  0.177838D-03  0.000000D+00
     32  0.000000D+00 -0.107178D-01 -0.264715D-01  0.000000D+00 -0.915176D-03
     33  0.000000D+00  0.295354D-02  0.554734D-02  0.000000D+00  0.487146D-03
     34 -0.384249D-01  0.000000D+00  0.000000D+00 -0.161482D-02  0.000000D+00
     35  0.000000D+00 -0.123337D+00  0.120621D+00  0.000000D+00 -0.196089D-03
     36  0.000000D+00  0.119914D+00 -0.274033D+00  0.000000D+00  0.934638D-03
               21            22            23            24            25 
     21  0.356199D-01
     22  0.000000D+00 -0.287075D-02
     23  0.417362D-02  0.000000D+00  0.209312D-01
     24 -0.653295D-02  0.000000D+00  0.884361D-02  0.318418D-01
     25  0.000000D+00  0.174486D-02  0.000000D+00  0.000000D+00  0.605051D-02
     26  0.135126D-03  0.000000D+00 -0.105731D-01 -0.672611D-02  0.000000D+00
     27  0.274336D-03  0.000000D+00  0.573954D-02  0.136271D-01  0.000000D+00
     28  0.000000D+00  0.109667D-03  0.000000D+00  0.000000D+00  0.288003D-03
     29  0.176534D-03  0.000000D+00 -0.251535D-02 -0.446423D-02  0.000000D+00
     30  0.260527D-03  0.000000D+00 -0.599118D-03 -0.364612D-03  0.000000D+00
     31  0.000000D+00 -0.472496D-03  0.000000D+00  0.000000D+00  0.309449D-03
     32 -0.560585D-03  0.000000D+00 -0.188585D-03 -0.533597D-03  0.000000D+00
     33  0.972588D-04  0.000000D+00 -0.353226D-03 -0.445737D-03  0.000000D+00
     34  0.000000D+00  0.225503D-03  0.000000D+00  0.000000D+00 -0.150441D-02
     35 -0.112151D-02  0.000000D+00  0.403158D-03  0.428443D-03  0.000000D+00
     36  0.171872D-03  0.000000D+00 -0.495534D-03 -0.687627D-03  0.000000D+00
               26            27            28            29            30 
     26  0.651133D-01
     27 -0.451949D-01  0.125765D+00
     28  0.000000D+00  0.000000D+00  0.554766D-02
     29 -0.130937D-02  0.908124D-03  0.000000D+00  0.214728D+00
     30 -0.692608D-02 -0.562738D-02  0.000000D+00  0.489483D-02  0.370978D-01
     31  0.000000D+00  0.000000D+00 -0.188166D-02  0.000000D+00  0.000000D+00
     32  0.181471D-03  0.863154D-03  0.000000D+00 -0.220620D-03  0.296148D-02
     33 -0.179889D-03 -0.431608D-03  0.000000D+00  0.854686D-04 -0.207023D-03
     34  0.000000D+00  0.000000D+00  0.246750D-03  0.000000D+00  0.000000D+00
     35  0.231762D-03 -0.515373D-04  0.000000D+00 -0.745838D-03  0.589323D-03
     36  0.642408D-03 -0.914993D-03  0.000000D+00 -0.229079D-03  0.136157D-03
               31            32            33            34            35 
     31  0.241044D-01
     32  0.000000D+00  0.142974D+00
     33  0.000000D+00  0.138520D+00  0.290362D+00
     34 -0.415180D-02  0.000000D+00  0.000000D+00  0.259203D-01
     35  0.000000D+00  0.116406D-02 -0.350354D-03  0.000000D+00  0.128072D+00
     36  0.000000D+00  0.290713D-03  0.413875D-03  0.000000D+00 -0.128262D+00
               36 
     36  0.288105D+00
 FormGI is forming the generalized inverse of G from B-inverse, IUseBI=4.
 Leave Link  716 at Mon Sep 28 08:45:36 2026, MaxMem=  1610612736 cpu:               0.4 elap:               0.1
 (Enter /share/software/user/restricted/gaussian/g16.B01/l103.exe)

 GradGradGradGradGradGradGradGradGradGradGradGradGradGradGradGradGradGrad
 Berny optimization.
 Red2BG is reusing G-inverse.
 Internal  Forces:  Max     0.019287695 RMS     0.004801340
 Search for a local minimum.
 Step number   1 out of a maximum of   64
 All quantities printed in internal units (Hartrees-Bohrs-Radians)
 RMS Force = .48013D-02 SwitMx=.10000D-02 MixMth= 1
 Mixed Optimization -- RFO/linear search
 Second derivative matrix not updated -- analytic derivatives used.
 ITU=  0
     Eigenvalues ---   -0.00510   0.00843   0.01782   0.02014   0.02286
     Eigenvalues ---    0.02516   0.02631   0.02795   0.02927   0.03279
     Eigenvalues ---    0.08598   0.11152   0.11273   0.12068   0.12636
     Eigenvalues ---    0.13591   0.16227   0.19948   0.20240   0.23665
     Eigenvalues ---    0.25268   0.27852   0.36009   0.36672   0.37450
     Eigenvalues ---    0.44094   0.45483   0.49630   0.53274   0.56523
 Eigenvalue     1 is  -5.10D-03 should be greater than     0.000000 Eigenvector:
                          D12       D4        D11       D2        D10
   1                    0.53488  -0.49008   0.47538  -0.43808   0.11835
                          D16       D15       D3        D9        D21
   1                   -0.09331  -0.08946  -0.07950   0.05885   0.05646
 RFO step:  Lambda=-8.41178238D-03 EMin=-5.09523689D-03
 Linear search not attempted -- first point.
 Maximum step size (   0.300) exceeded in Quadratic search.
    -- Step size scaled by   0.873
 Iteration  1 RMS(Cart)=  0.10415164 RMS(Int)=  0.03435833
 Iteration  2 RMS(Cart)=  0.05103112 RMS(Int)=  0.00349815
 Iteration  3 RMS(Cart)=  0.00195442 RMS(Int)=  0.00283628
 Iteration  4 RMS(Cart)=  0.00000034 RMS(Int)=  0.00283628
 ITry= 1 IFail=0 DXMaxC= 7.61D-01 DCOld= 1.00D+10 DXMaxT= 3.00D-01 DXLimC= 3.00D+00 Rises=F
 ClnCor:  largest displacement from symmetrization is 7.61D-01 for atom     8.
          Exceeds limit of 1.00D-01 so symmetrization was rejected.
 Variable       Old X    -DE/DX   Delta X   Delta X   Delta X     New X
                                 (Linear)    (Quad)   (Total)
    R1        2.55629   0.00570   0.00000   0.03391   0.03557   2.59187
    R2        2.62131   0.00523   0.00000   0.00997   0.01003   2.63134
    R3        3.75108  -0.01010   0.00000  -0.12642  -0.12642   3.62465
    R4        2.54022   0.01929   0.00000   0.04490   0.04656   2.58678
    R5        4.51290   0.00872   0.00000   0.21967   0.21967   4.73257
    R6        2.64802   0.00122   0.00000  -0.00475  -0.00476   2.64326
    R7        3.65351   0.00098   0.00000  -0.02203  -0.02203   3.63148
    R8        2.64682  -0.00499   0.00000  -0.01397  -0.01564   2.63118
    R9        3.55482   0.01116   0.00000   0.03816   0.03816   3.59299
   R10        2.62714   0.00116   0.00000  -0.00276  -0.00441   2.62273
   R11        2.04266   0.00182   0.00000   0.00285   0.00285   2.04551
   R12        2.05461  -0.00212   0.00000  -0.00552  -0.00552   2.04909
    A1        2.10078   0.00305   0.00000   0.02089   0.02408   2.12486
    A2        2.15261  -0.00146   0.00000  -0.03017  -0.03197   2.12064
    A3        2.02980  -0.00159   0.00000   0.00928   0.00743   2.03723
    A4        2.17409  -0.01466   0.00000  -0.07676  -0.08213   2.09196
    A5        2.04086   0.00834   0.00000   0.03707   0.02399   2.06485
    A6        2.06823   0.00632   0.00000   0.03969   0.02644   2.09467
    A7        2.04127   0.00738   0.00000   0.04892   0.05201   2.09327
    A8        2.14035  -0.00303   0.00000  -0.04167  -0.04350   2.09685
    A9        2.10157  -0.00435   0.00000  -0.00725  -0.00913   2.09243
   A10        2.08921   0.00127   0.00000   0.00245   0.00236   2.09157
   A11        2.15322  -0.00210   0.00000  -0.00523  -0.00519   2.14803
   A12        2.04075   0.00083   0.00000   0.00279   0.00283   2.04358
   A13        2.11765  -0.00211   0.00000  -0.01860  -0.02038   2.09727
   A14        2.07530   0.00181   0.00000   0.01731   0.01818   2.09348
   A15        2.09024   0.00030   0.00000   0.00129   0.00216   2.09240
   A16        2.04338   0.00506   0.00000   0.02310   0.02309   2.06647
   A17        2.14067  -0.00262   0.00000  -0.01680  -0.01680   2.12387
   A18        2.09914  -0.00243   0.00000  -0.00630  -0.00630   2.09284
    D1        0.00000   0.00000   0.00000   0.01802   0.01854   0.01854
    D2        3.14159   0.00000   0.00000   0.28696   0.28621  -2.85538
    D3        3.14159   0.00000   0.00000   0.05207   0.05197  -3.08962
    D4       -0.00000   0.00000   0.00000   0.32101   0.31964   0.31964
    D5       -0.00000  -0.00000   0.00000   0.02068   0.01987   0.01987
    D6        3.14159   0.00000   0.00000   0.01463   0.01428  -3.12731
    D7        3.14159  -0.00000   0.00000  -0.01106  -0.01204   3.12955
    D8        0.00000  -0.00000   0.00000  -0.01711  -0.01763  -0.01763
    D9        0.00000  -0.00000   0.00000  -0.03855  -0.03907  -0.03907
   D10        3.14159  -0.00000   0.00000  -0.07752  -0.07715   3.06445
   D11        3.14159  -0.00000   0.00000  -0.31138  -0.31134   2.83025
   D12       -0.00000  -0.00000   0.00000  -0.35036  -0.34942  -0.34942
   D13       -0.00000  -0.00000   0.00000   0.02054   0.02139   0.02139
   D14        3.14159  -0.00000   0.00000   0.02306   0.02362  -3.11797
   D15        3.14159   0.00000   0.00000   0.05860   0.05937  -3.08222
   D16        0.00000  -0.00000   0.00000   0.06112   0.06161   0.06161
   D17        0.00000   0.00000   0.00000   0.01671   0.01736   0.01736
   D18        3.14159   0.00000   0.00000   0.00827   0.00821  -3.13338
   D19        3.14159   0.00000   0.00000   0.01435   0.01526  -3.12634
   D20       -0.00000   0.00000   0.00000   0.00591   0.00611   0.00611
   D21       -0.00000  -0.00000   0.00000  -0.03699  -0.03733  -0.03733
   D22        3.14159  -0.00000   0.00000  -0.03109  -0.03185   3.10974
   D23        3.14159  -0.00000   0.00000  -0.02847  -0.02819   3.11340
   D24       -0.00000  -0.00000   0.00000  -0.02258  -0.02271  -0.02271
         Item               Value     Threshold  Converged?
 Maximum Force            0.019288     0.000015     NO 
 RMS     Force            0.004801     0.000010     NO 
 Maximum Displacement     0.760793     0.000060     NO 
 RMS     Displacement     0.148460     0.000040     NO 
 Predicted change in Energy=-5.586206D-03
 Lowest energy point so far.  Saving SCF results.
 GradGradGradGradGradGradGradGradGradGradGradGradGradGradGradGradGradGrad

 Leave Link  103 at Mon Sep 28 08:45:36 2026, MaxMem=  1610612736 cpu:               0.6 elap:               0.1
 (Enter /share/software/user/restricted/gaussian/g16.B01/l202.exe)
                          Input orientation:                          
 ---------------------------------------------------------------------
 Center     Atomic      Atomic             Coordinates (Angstroms)
 Number     Number       Type             X           Y           Z
 ---------------------------------------------------------------------
      1          6           0        0.072898    1.289060   -1.152668
      2          6           0        0.100610    0.620348    0.044505
      3          6           0        0.083320   -0.748306    0.061230
      4          6           0       -0.009817   -1.459925   -1.139369
      5          6           0       -0.058880   -0.773296   -2.349660
      6          6           0        0.005176    0.612992   -2.368088
      7         35           0        0.180283    3.202378   -1.234713
      8         35           0       -0.402594    1.905225    2.134416
      9         35           0        0.249761   -1.695157    1.725165
     10         35           0       -0.078587   -3.358397   -1.217591
     11          1           0       -0.138644   -1.321937   -3.279336
     12          1           0       -0.003524    1.142142   -3.314502
 ---------------------------------------------------------------------
                    Distance matrix (angstroms):
                    1          2          3          4          5
     1  C    0.000000
     2  C    1.371557   0.000000
     3  C    2.371607   1.368865   0.000000
     4  C    2.750262   2.396098   1.398755   0.000000
     5  C    2.388194   2.774834   2.415209   1.392361   0.000000
     6  C    1.392444   2.414490   2.785825   2.409763   1.387889
     7  Br   1.918084   2.882642   4.158939   4.667151   4.135975
     8  Br   3.377969   2.504367   3.402269   4.711282   5.234458
     9  Br   4.149549   2.865036   1.921695   2.885875   4.189187
    10  Br   4.650379   4.177967   2.911043   1.901327   2.822183
    11  H    3.374133   3.857153   3.396720   2.148277   1.082436
    12  H    2.168168   3.400889   3.870001   3.391460   2.145435
                    6          7          8          9         10
     6  C    0.000000
     7  Br   2.831982   0.000000
     8  Br   4.701987   3.656963   0.000000
     9  Br   4.705539   5.722898   3.681821   0.000000
    10  Br   4.135527   6.565902   6.248731   3.396173   0.000000
    11  H    2.143597   4.975100   6.308166   5.033408   2.898547
    12  H    1.084333   2.933237   5.516544   5.789013   4.965635
                   11         12
    11  H    0.000000
    12  H    2.468032   0.000000
 Stoichiometry    C6H2Br4(1-,2)
 Framework group  C1[X(C6H2Br4)]
 Deg. of freedom    30
 Full point group                 C1      NOp   1
 Omega: Change in point group or standard orientation.

 Old FWG=CS   [SG(C6H2Br4)]
 New FWG=C01  [X(C6H2Br4)]
 RotChk:  IX=1 Diff= 1.93D+00
 Largest Abelian subgroup         C1      NOp   1
 Largest concise Abelian subgroup C1      NOp   1
                         Standard orientation:                         
 ---------------------------------------------------------------------
 Center     Atomic      Atomic             Coordinates (Angstroms)
 Number     Number       Type             X           Y           Z
 ---------------------------------------------------------------------
      1          6           0        1.186642    1.271793   -0.043720
      2          6           0        0.625716    0.022048   -0.112036
      3          6           0       -0.735817   -0.116419   -0.082940
      4          6           0       -1.549228    1.012051    0.063463
      5          6           0       -0.971345    2.275625    0.153462
      6          6           0        0.407016    2.419128    0.077543
      7         35           0        3.083794    1.526922   -0.165253
      8         35           0        2.095936   -1.963548    0.297493
      9         35           0       -1.534390   -1.850096   -0.305555
     10         35           0       -3.446197    0.919226    0.152532
     11          1           0       -1.598721    3.149370    0.274443
     12          1           0        0.850790    3.407651    0.118348
 ---------------------------------------------------------------------
 Rotational constants (GHZ):           0.4910442           0.2185107           0.1529665
 Leave Link  202 at Mon Sep 28 08:45:36 2026, MaxMem=  1610612736 cpu:               0.0 elap:               0.0
 (Enter /share/software/user/restricted/gaussian/g16.B01/l301.exe)
 Standard basis: 6-311++G(d) (5D, 7F)
 Ernie: Thresh=  0.10000D-02 Tol=  0.10000D-05 Strict=F.
 There are   350 symmetry adapted cartesian basis functions of A   symmetry.
 There are   332 symmetry adapted basis functions of A   symmetry.
   332 basis functions,   604 primitive gaussians,   350 cartesian basis functions
    90 alpha electrons       89 beta electrons
       nuclear repulsion energy      1878.3510250423 Hartrees.
 IExCor= 4336 DFT=T Ex+Corr=M062X ExCW=0 ScaHFX=  0.540000
 ScaDFX=  1.000000  1.000000  1.000000  1.000000 ScalE2=  1.000000  1.000000
 IRadAn=      5 IRanWt=     -1 IRanGd=            0 ICorTp=0 IEmpDi=  4
 NAtoms=   12 NActive=   12 NUniq=   12 SFac= 1.00D+00 NAtFMM=   60 NAOKFM=F Big=F
 Integral buffers will be    131072 words long.
 Raffenetti 2 integral format.
 Two-electron integral symmetry is turned on.
 ------------------------------------------------------------------------------
 Polarizable Continuum Model (PCM)
 =================================
 Model                : PCM.
 Atomic radii         : SMD-Coulomb.
 Polarization charges : Total charges.
 Charge compensation  : None.
 Solution method      : Matrix inversion.
 Cavity type          : VdW (van der Waals Surface) (Alpha=1.000).
 Cavity algorithm     : GePol (No added spheres)
                        Default sphere list used, NSphG=   12.
                        Lebedev-Laikov grids with approx.  5.0 points / Ang**2.
                        Smoothing algorithm: York/Karplus (Gamma=1.0000).
                        Polarization charges: spherical gaussians, with
                                              point-specific exponents (IZeta= 3).
                        Self-potential: point-specific (ISelfS= 7).
                        Self-field    : sphere-specific E.n sum rule (ISelfD= 2).
 1st derivatives      : Analytical E(r).r(x)/FMM algorithm (CHGder, D1EAlg=3).
                        Cavity 1st derivative terms included.
 Solvent              : Water, Eps=  78.355300 Eps(inf)=   1.777849
 ------------------------------------------------------------------------------
 Spheres list:
 ISph  on   Nord     Re0    Alpha      Xe            Ye            Ze
    1   C      1    1.8500  1.000      1.186642      1.271793     -0.043720
    2   C      2    1.8500  1.000      0.625716      0.022048     -0.112036
    3   C      3    1.8500  1.000     -0.735817     -0.116419     -0.082940
    4   C      4    1.8500  1.000     -1.549228      1.012051      0.063463
    5   C      5    1.8500  1.000     -0.971345      2.275625      0.153462
    6   C      6    1.8500  1.000      0.407016      2.419128      0.077543
    7  Br      7    3.0600  1.000      3.083794      1.526922     -0.165253
    8  Br      8    3.0600  1.000      2.095936     -1.963548      0.297493
    9  Br      9    3.0600  1.000     -1.534390     -1.850096     -0.305555
   10  Br     10    3.0600  1.000     -3.446197      0.919226      0.152532
   11   H     11    1.2000  1.000     -1.598721      3.149370      0.274443
   12   H     12    1.2000  1.000      0.850790      3.407651      0.118348
 ------------------------------------------------------------------------------
 GePol: Number of generator spheres                  =      12
 GePol: Total number of spheres                      =      12
 GePol: Number of exposed spheres                    =      12 (100.00%)
 GePol: Number of points                             =    1857
 GePol: Average weight of points                     =       0.17
 GePol: Minimum weight of points                     =   0.33D-09
 GePol: Maximum weight of points                     =    0.22025
 GePol: Number of points with low weight             =      46
 GePol: Fraction of low-weight points (<1% of avg)   =       2.48%
 GePol: Cavity surface area                          =    320.765 Ang**2
 GePol: Cavity volume                                =    417.327 Ang**3
 ------------------------------------------------------------------------------
 Atomic radii for non-electrostatic terms: SMD-CDS.
 ------------------------------------------------------------------------------
 PCM non-electrostatic energy =         0.0002835434 Hartrees.
 Nuclear repulsion after PCM non-electrostatic terms =     1878.3513085856 Hartrees.
 Leave Link  301 at Mon Sep 28 08:45:36 2026, MaxMem=  1610612736 cpu:               0.8 elap:               0.1
 (Enter /share/software/user/restricted/gaussian/g16.B01/l302.exe)
 NPDir=0 NMtPBC=     1 NCelOv=     1 NCel=       1 NClECP=     1 NCelD=      1
         NCelK=      1 NCelE2=     1 NClLst=     1 CellRange=     0.0.
 One-electron integrals computed using PRISM.
 One-electron integral symmetry used in STVInt
 NBasis=   332 RedAO= T EigKep=  2.37D-06  NBF=   332
 NBsUse=   331 1.00D-06 EigRej=  4.62D-07 NBFU=   331
 Precomputing XC quadrature grid using
 IXCGrd= 4 IRadAn=           5 IRanWt=          -1 IRanGd=           0 AccXCQ= 0.00D+00.
 Generated NRdTot=       0 NPtTot=           0 NUsed=           0 NTot=          32
 NSgBfM=   337   337   337   337   337 MxSgAt=    12 MxSgA2=    12.
 Leave Link  302 at Mon Sep 28 08:45:37 2026, MaxMem=  1610612736 cpu:               2.2 elap:               0.3
 (Enter /share/software/user/restricted/gaussian/g16.B01/l303.exe)
 DipDrv:  MaxL=1.
 Leave Link  303 at Mon Sep 28 08:45:37 2026, MaxMem=  1610612736 cpu:               0.4 elap:               0.1
 (Enter /share/software/user/restricted/gaussian/g16.B01/l401.exe)
 Initial guess from the checkpoint file:  "calcs/m062x_smd/chks/BrBz_1234_RA.chk"
 B after Tr=    -0.000000    0.000000    0.000000
         Rot=    0.732781   -0.001100   -0.001748    0.680461 Ang= -85.76 deg.
 Guess basis will be translated and rotated to current coordinates.
 JPrj=2 DoOrth=T DoCkMO=T.
 Initial guess <Sx>= 0.0000 <Sy>= 0.0000 <Sz>= 0.5000 <S**2>= 0.7571 S= 0.5036
 Generating alternative initial guess.
 ExpMin= 3.50D-02 ExpMax= 4.40D+05 ExpMxC= 1.51D+04 IAcc=3 IRadAn=         5 AccDes= 0.00D+00
 Harris functional with IExCor= 1009 and IRadAn=       5 diagonalized for initial guess.
 HarFok:  IExCor= 1009 AccDes= 0.00D+00 IRadAn=         5 IDoV= 1 UseB2=F ITyADJ=14
 ICtDFT=  3500011 ScaDFX=  1.000000  1.000000  1.000000  1.000000
 FoFCou: FMM=F IPFlag=           0 FMFlag=      100000 FMFlg1=           0
         NFxFlg=           0 DoJE=T BraDBF=F KetDBF=T FulRan=T
         wScrn=  0.000000 ICntrl=       500 IOpCl=  0 I1Cent=   200000004 NGrid=           0
         NMat0=    1 NMatS0=      1 NMatT0=    0 NMatD0=    1 NMtDS0=    0 NMtDT0=    0
 Petite list used in FoFCou.
 Harris En= -10524.7900915562    
 Leave Link  401 at Mon Sep 28 08:45:38 2026, MaxMem=  1610612736 cpu:              12.4 elap:               1.6
 (Enter /share/software/user/restricted/gaussian/g16.B01/l502.exe)
 Integral symmetry usage will be decided dynamically.
 UHF open shell SCF:
 Using DIIS extrapolation, IDIIS=  1040.
 NGot=  1610612736 LenX=  1610361870 LenY=  1610238929
 Requested convergence on RMS density matrix=1.00D-08 within 128 cycles.
 Requested convergence on MAX density matrix=1.00D-06.
 Requested convergence on             energy=1.00D-06.
 No special actions if energy rises.
 Fock matrices will be formed incrementally for  20 cycles.

 Cycle   1  Pass 1  IDiag  1:
 FoFJK:  IHMeth= 1 ICntrl=       0 DoSepK=F KAlg= 0 I1Cent=           0 FoldK=F
 IRaf= 790000000 NMat=       1 IRICut=       1 DoRegI=T DoRafI=F ISym2E= 0 IDoP0=0 IntGTp=1.
 FoFCou: FMM=F IPFlag=           0 FMFlag=      100000 FMFlg1=           0
         NFxFlg=           0 DoJE=F BraDBF=F KetDBF=F FulRan=T
         wScrn=  0.000000 ICntrl=         0 IOpCl=  1 I1Cent=           0 NGrid=           0
         NMat0=    1 NMatS0=      1 NMatT0=    0 NMatD0=    1 NMtDS0=    0 NMtDT0=    0
 Symmetry not used in FoFCou.
 Inv3:  Mode=1 IEnd=    10345347.
 Iteration    1 A*A^-1 deviation from unit magnitude is 5.55D-15 for   1852.
 Iteration    1 A*A^-1 deviation from orthogonality  is 3.00D-15 for   1851   1157.
 Iteration    1 A^-1*A deviation from unit magnitude is 5.33D-15 for   1852.
 Iteration    1 A^-1*A deviation from orthogonality  is 1.94D-15 for   1845   1494.
 E= -10526.5194879532    
 DIIS: error= 4.27D-02 at cycle   1 NSaved=   1.
 NSaved= 1 IEnMin= 1 EnMin= -10526.5194879532     IErMin= 1 ErrMin= 4.27D-02
 ErrMax= 4.27D-02  0.00D+00 EMaxC= 1.00D-01 BMatC= 1.16D+00 BMatP= 1.16D+00
 IDIUse=3 WtCom= 5.73D-01 WtEn= 4.27D-01
 Coeff-Com:  0.100D+01
 Coeff-En:   0.100D+01
 Coeff:      0.100D+01
 Recover alternate guess density for next cycle.
 RMSDP=3.79D-02 MaxDP=2.01D+00              OVMax= 0.00D+00

 Cycle   2  Pass 1  IDiag  1:
 RMSU=  3.43D-02    CP:  1.49D+00
 E= -10526.2128319487     Delta-E=        0.306656004534 Rises=F Damp=F
 Switch densities from cycles 1 and 2 for lowest energy.
 DIIS: error= 1.69D-01 at cycle   2 NSaved=   2.
 NSaved= 2 IEnMin= 1 EnMin= -10526.5194879532     IErMin= 1 ErrMin= 4.27D-02
 ErrMax= 1.69D-01  0.00D+00 EMaxC= 1.00D+00 BMatC= 2.66D+01 BMatP= 1.16D+00
 IDIUse=1 WtCom= 1.00D+00 WtEn= 0.00D+00
 Coeff-Com:  0.959D+00 0.411D-01
 Coeff:      0.959D+00 0.411D-01
 Gap=     0.211 Goal=   None    Shift=    0.000
 Gap=     0.243 Goal=   None    Shift=    0.000
 RMSDP=9.31D-03 MaxDP=6.66D-01 DE= 3.07D-01 OVMax= 7.86D-02

 Cycle   3  Pass 1  IDiag  1:
 RMSU=  8.90D-03    CP:  9.20D-01 -1.99D-02
 E= -10526.5679044999     Delta-E=       -0.355072551260 Rises=F Damp=F
 DIIS: error= 1.92D-03 at cycle   3 NSaved=   3.
 NSaved= 3 IEnMin= 3 EnMin= -10526.5679044999     IErMin= 3 ErrMin= 1.92D-03
 ErrMax= 1.92D-03  0.00D+00 EMaxC= 1.00D+00 BMatC= 1.15D-02 BMatP= 1.16D+00
 IDIUse=1 WtCom= 1.00D+00 WtEn= 0.00D+00
 Coeff-Com: -0.976D-03 0.115D-01 0.989D+00
 Coeff:     -0.976D-03 0.115D-01 0.989D+00
 Gap=     0.205 Goal=   None    Shift=    0.000
 Gap=     0.214 Goal=   None    Shift=    0.000
 RMSDP=1.00D-03 MaxDP=4.91D-02 DE=-3.55D-01 OVMax= 4.45D-02

 Cycle   4  Pass 1  IDiag  1:
 RMSU=  9.15D-04    CP:  9.20D-01 -1.25D-02  1.04D+00
 E= -10526.5700856052     Delta-E=       -0.002181105232 Rises=F Damp=F
 DIIS: error= 1.45D-03 at cycle   4 NSaved=   4.
 NSaved= 4 IEnMin= 4 EnMin= -10526.5700856052     IErMin= 4 ErrMin= 1.45D-03
 ErrMax= 1.45D-03  0.00D+00 EMaxC= 1.00D+00 BMatC= 6.37D-03 BMatP= 1.15D-02
 IDIUse=1 WtCom= 1.00D+00 WtEn= 0.00D+00
 Coeff-Com: -0.432D-02 0.118D-02 0.438D+00 0.565D+00
 Coeff:     -0.432D-02 0.118D-02 0.438D+00 0.565D+00
 Gap=     0.205 Goal=   None    Shift=    0.000
 Gap=     0.222 Goal=   None    Shift=    0.000
 RMSDP=5.03D-04 MaxDP=2.88D-02 DE=-2.18D-03 OVMax= 1.42D-02

 Cycle   5  Pass 1  IDiag  1:
 RMSU=  4.40D-04    CP:  9.20D-01 -1.07D-02  1.06D+00  8.65D-01
 E= -10526.5711603828     Delta-E=       -0.001074777607 Rises=F Damp=F
 DIIS: error= 4.05D-04 at cycle   5 NSaved=   5.
 NSaved= 5 IEnMin= 5 EnMin= -10526.5711603828     IErMin= 5 ErrMin= 4.05D-04
 ErrMax= 4.05D-04  0.00D+00 EMaxC= 1.00D+00 BMatC= 4.63D-04 BMatP= 6.37D-03
 IDIUse=1 WtCom= 1.00D+00 WtEn= 0.00D+00
 Coeff-Com: -0.128D-02-0.712D-03 0.439D-01 0.204D+00 0.754D+00
 Coeff:     -0.128D-02-0.712D-03 0.439D-01 0.204D+00 0.754D+00
 Gap=     0.207 Goal=   None    Shift=    0.000
 Gap=     0.220 Goal=   None    Shift=    0.000
 RMSDP=2.96D-04 MaxDP=1.25D-02 DE=-1.07D-03 OVMax= 1.32D-02

 Cycle   6  Pass 1  IDiag  1:
 RMSU=  1.70D-04    CP:  9.22D-01 -5.49D-03  1.06D+00  1.03D+00  9.50D-01
 E= -10526.5713788813     Delta-E=       -0.000218498526 Rises=F Damp=F
 DIIS: error= 3.28D-04 at cycle   6 NSaved=   6.
 NSaved= 6 IEnMin= 6 EnMin= -10526.5713788813     IErMin= 6 ErrMin= 3.28D-04
 ErrMax= 3.28D-04  0.00D+00 EMaxC= 1.00D+00 BMatC= 1.50D-04 BMatP= 4.63D-04
 IDIUse=1 WtCom= 1.00D+00 WtEn= 0.00D+00
 Coeff-Com:  0.378D-03-0.313D-03-0.103D+00-0.660D-01 0.385D+00 0.784D+00
 Coeff:      0.378D-03-0.313D-03-0.103D+00-0.660D-01 0.385D+00 0.784D+00
 Gap=     0.207 Goal=   None    Shift=    0.000
 Gap=     0.220 Goal=   None    Shift=    0.000
 RMSDP=1.85D-04 MaxDP=1.19D-02 DE=-2.18D-04 OVMax= 9.26D-03

 Cycle   7  Pass 1  IDiag  1:
 RMSU=  9.11D-05    CP:  9.21D-01 -6.57D-03  1.07D+00  1.12D+00  1.22D+00
                    CP:  9.60D-01
 E= -10526.5714672957     Delta-E=       -0.000088414348 Rises=F Damp=F
 DIIS: error= 8.62D-05 at cycle   7 NSaved=   7.
 NSaved= 7 IEnMin= 7 EnMin= -10526.5714672957     IErMin= 7 ErrMin= 8.62D-05
 ErrMax= 8.62D-05  0.00D+00 EMaxC= 1.00D+00 BMatC= 1.39D-05 BMatP= 1.50D-04
 IDIUse=1 WtCom= 1.00D+00 WtEn= 0.00D+00
 Coeff-Com:  0.235D-03-0.890D-06-0.340D-01-0.442D-01 0.242D-01 0.240D+00
 Coeff-Com:  0.814D+00
 Coeff:      0.235D-03-0.890D-06-0.340D-01-0.442D-01 0.242D-01 0.240D+00
 Coeff:      0.814D+00
 Gap=     0.207 Goal=   None    Shift=    0.000
 Gap=     0.221 Goal=   None    Shift=    0.000
 RMSDP=6.56D-05 MaxDP=2.40D-03 DE=-8.84D-05 OVMax= 3.77D-03

 Cycle   8  Pass 1  IDiag  1:
 RMSU=  3.64D-05    CP:  9.22D-01 -6.55D-03  1.07D+00  1.16D+00  1.26D+00
                    CP:  1.03D+00  1.39D+00
 E= -10526.5714809891     Delta-E=       -0.000013693470 Rises=F Damp=F
 DIIS: error= 6.07D-05 at cycle   8 NSaved=   8.
 NSaved= 8 IEnMin= 8 EnMin= -10526.5714809891     IErMin= 8 ErrMin= 6.07D-05
 ErrMax= 6.07D-05  0.00D+00 EMaxC= 1.00D+00 BMatC= 4.02D-06 BMatP= 1.39D-05
 IDIUse=1 WtCom= 1.00D+00 WtEn= 0.00D+00
 Coeff-Com: -0.665D-04 0.809D-04 0.325D-01 0.175D-01-0.150D+00-0.229D+00
 Coeff-Com:  0.263D+00 0.107D+01
 Coeff:     -0.665D-04 0.809D-04 0.325D-01 0.175D-01-0.150D+00-0.229D+00
 Coeff:      0.263D+00 0.107D+01
 Gap=     0.207 Goal=   None    Shift=    0.000
 Gap=     0.220 Goal=   None    Shift=    0.000
 RMSDP=5.73D-05 MaxDP=2.57D-03 DE=-1.37D-05 OVMax= 3.20D-03

 Cycle   9  Pass 1  IDiag  1:
 RMSU=  1.43D-05    CP:  9.22D-01 -6.99D-03  1.07D+00  1.18D+00  1.27D+00
                    CP:  1.07D+00  1.85D+00  1.56D+00
 E= -10526.5714861768     Delta-E=       -0.000005187656 Rises=F Damp=F
 DIIS: error= 1.95D-05 at cycle   9 NSaved=   9.
 NSaved= 9 IEnMin= 9 EnMin= -10526.5714861768     IErMin= 9 ErrMin= 1.95D-05
 ErrMax= 1.95D-05  0.00D+00 EMaxC= 1.00D+00 BMatC= 4.86D-07 BMatP= 4.02D-06
 IDIUse=1 WtCom= 1.00D+00 WtEn= 0.00D+00
 Coeff-Com: -0.450D-04 0.238D-04 0.121D-01 0.118D-01-0.454D-01-0.867D-01
 Coeff-Com: -0.109D-01 0.264D+00 0.855D+00
 Coeff:     -0.450D-04 0.238D-04 0.121D-01 0.118D-01-0.454D-01-0.867D-01
 Coeff:     -0.109D-01 0.264D+00 0.855D+00
 Gap=     0.207 Goal=   None    Shift=    0.000
 Gap=     0.220 Goal=   None    Shift=    0.000
 RMSDP=1.65D-05 MaxDP=6.96D-04 DE=-5.19D-06 OVMax= 6.89D-04

 Cycle  10  Pass 1  IDiag  1:
 RMSU=  9.63D-06    CP:  9.22D-01 -7.09D-03  1.07D+00  1.18D+00  1.27D+00
                    CP:  1.08D+00  1.97D+00  1.62D+00  1.38D+00
 E= -10526.5714866414     Delta-E=       -0.000000464577 Rises=F Damp=F
 DIIS: error= 1.76D-05 at cycle  10 NSaved=  10.
 NSaved=10 IEnMin=10 EnMin= -10526.5714866414     IErMin=10 ErrMin= 1.76D-05
 ErrMax= 1.76D-05  0.00D+00 EMaxC= 1.00D+00 BMatC= 1.81D-07 BMatP= 4.86D-07
 IDIUse=1 WtCom= 1.00D+00 WtEn= 0.00D+00
 Coeff-Com: -0.387D-05-0.920D-05-0.244D-02 0.148D-02 0.142D-01 0.205D-01
 Coeff-Com: -0.615D-01-0.159D+00 0.383D+00 0.804D+00
 Coeff:     -0.387D-05-0.920D-05-0.244D-02 0.148D-02 0.142D-01 0.205D-01
 Coeff:     -0.615D-01-0.159D+00 0.383D+00 0.804D+00
 Gap=     0.207 Goal=   None    Shift=    0.000
 Gap=     0.220 Goal=   None    Shift=    0.000
 RMSDP=6.89D-06 MaxDP=3.13D-04 DE=-4.65D-07 OVMax= 2.97D-04

 Cycle  11  Pass 1  IDiag  1:
 RMSU=  3.00D-06    CP:  9.22D-01 -7.05D-03  1.07D+00  1.19D+00  1.26D+00
                    CP:  1.08D+00  1.99D+00  1.66D+00  1.67D+00  1.08D+00
 E= -10526.5714867807     Delta-E=       -0.000000139362 Rises=F Damp=F
 DIIS: error= 6.85D-06 at cycle  11 NSaved=  11.
 NSaved=11 IEnMin=11 EnMin= -10526.5714867807     IErMin=11 ErrMin= 6.85D-06
 ErrMax= 6.85D-06  0.00D+00 EMaxC= 1.00D+00 BMatC= 3.57D-08 BMatP= 1.81D-07
 IDIUse=1 WtCom= 1.00D+00 WtEn= 0.00D+00
 Coeff-Com:  0.970D-05-0.984D-05-0.385D-02-0.235D-02 0.145D-01 0.306D-01
 Coeff-Com: -0.160D-01-0.131D+00-0.436D-01 0.272D+00 0.880D+00
 Coeff:      0.970D-05-0.984D-05-0.385D-02-0.235D-02 0.145D-01 0.306D-01
 Coeff:     -0.160D-01-0.131D+00-0.436D-01 0.272D+00 0.880D+00
 Gap=     0.207 Goal=   None    Shift=    0.000
 Gap=     0.220 Goal=   None    Shift=    0.000
 RMSDP=3.69D-06 MaxDP=2.06D-04 DE=-1.39D-07 OVMax= 2.06D-04

 Cycle  12  Pass 1  IDiag  1:
 RMSU=  1.35D-06    CP:  9.22D-01 -7.06D-03  1.07D+00  1.19D+00  1.26D+00
                    CP:  1.07D+00  2.00D+00  1.68D+00  1.76D+00  1.22D+00
                    CP:  1.37D+00
 E= -10526.5714868185     Delta-E=       -0.000000037815 Rises=F Damp=F
 DIIS: error= 5.86D-06 at cycle  12 NSaved=  12.
 NSaved=12 IEnMin=12 EnMin= -10526.5714868185     IErMin=12 ErrMin= 5.86D-06
 ErrMax= 5.86D-06  0.00D+00 EMaxC= 1.00D+00 BMatC= 1.53D-08 BMatP= 3.57D-08
 IDIUse=1 WtCom= 1.00D+00 WtEn= 0.00D+00
 Coeff-Com:  0.570D-05-0.256D-05-0.145D-02-0.152D-02 0.392D-02 0.118D-01
 Coeff-Com:  0.753D-02-0.349D-01-0.109D+00-0.604D-01 0.454D+00 0.730D+00
 Coeff:      0.570D-05-0.256D-05-0.145D-02-0.152D-02 0.392D-02 0.118D-01
 Coeff:      0.753D-02-0.349D-01-0.109D+00-0.604D-01 0.454D+00 0.730D+00
 Gap=     0.207 Goal=   None    Shift=    0.000
 Gap=     0.220 Goal=   None    Shift=    0.000
 RMSDP=2.08D-06 MaxDP=1.23D-04 DE=-3.78D-08 OVMax= 8.00D-05

 Cycle  13  Pass 1  IDiag  1:
 RMSU=  7.39D-07    CP:  9.22D-01 -7.05D-03  1.07D+00  1.19D+00  1.26D+00
                    CP:  1.07D+00  2.00D+00  1.67D+00  1.82D+00  1.29D+00
                    CP:  1.76D+00  1.18D+00
 E= -10526.5714868307     Delta-E=       -0.000000012127 Rises=F Damp=F
 DIIS: error= 2.66D-06 at cycle  13 NSaved=  13.
 NSaved=13 IEnMin=13 EnMin= -10526.5714868307     IErMin=13 ErrMin= 2.66D-06
 ErrMax= 2.66D-06  0.00D+00 EMaxC= 1.00D+00 BMatC= 3.37D-09 BMatP= 1.53D-08
 IDIUse=1 WtCom= 1.00D+00 WtEn= 0.00D+00
 Coeff-Com: -0.204D-05 0.357D-05 0.122D-02 0.541D-03-0.546D-02-0.922D-02
 Coeff-Com:  0.123D-01 0.460D-01-0.323D-01-0.155D+00-0.189D+00 0.281D+00
 Coeff-Com:  0.105D+01
 Coeff:     -0.204D-05 0.357D-05 0.122D-02 0.541D-03-0.546D-02-0.922D-02
 Coeff:      0.123D-01 0.460D-01-0.323D-01-0.155D+00-0.189D+00 0.281D+00
 Coeff:      0.105D+01
 Gap=     0.207 Goal=   None    Shift=    0.000
 Gap=     0.220 Goal=   None    Shift=    0.000
 RMSDP=1.45D-06 MaxDP=8.12D-05 DE=-1.21D-08 OVMax= 6.77D-05

 Cycle  14  Pass 1  IDiag  1:
 RMSU=  4.13D-07    CP:  9.22D-01 -7.04D-03  1.07D+00  1.19D+00  1.26D+00
                    CP:  1.07D+00  2.01D+00  1.66D+00  1.84D+00  1.36D+00
                    CP:  1.99D+00  1.53D+00  1.55D+00
 E= -10526.5714868355     Delta-E=       -0.000000004849 Rises=F Damp=F
 DIIS: error= 8.62D-07 at cycle  14 NSaved=  14.
 NSaved=14 IEnMin=14 EnMin= -10526.5714868355     IErMin=14 ErrMin= 8.62D-07
 ErrMax= 8.62D-07  0.00D+00 EMaxC= 1.00D+00 BMatC= 4.01D-10 BMatP= 3.37D-09
 IDIUse=1 WtCom= 1.00D+00 WtEn= 0.00D+00
 Coeff-Com: -0.994D-06 0.471D-06 0.325D-03 0.306D-03-0.991D-03-0.279D-02
 Coeff-Com: -0.118D-02 0.105D-01 0.142D-01 0.402D-02-0.790D-01-0.102D+00
 Coeff-Com:  0.354D-01 0.112D+01
 Coeff:     -0.994D-06 0.471D-06 0.325D-03 0.306D-03-0.991D-03-0.279D-02
 Coeff:     -0.118D-02 0.105D-01 0.142D-01 0.402D-02-0.790D-01-0.102D+00
 Coeff:      0.354D-01 0.112D+01
 Gap=     0.207 Goal=   None    Shift=    0.000
 Gap=     0.220 Goal=   None    Shift=    0.000
 RMSDP=4.30D-07 MaxDP=1.70D-05 DE=-4.85D-09 OVMax= 1.77D-05

 Cycle  15  Pass 1  IDiag  1:
 RMSU=  1.92D-07    CP:  9.22D-01 -7.05D-03  1.07D+00  1.19D+00  1.26D+00
                    CP:  1.07D+00  2.01D+00  1.66D+00  1.83D+00  1.35D+00
                    CP:  2.01D+00  1.59D+00  1.78D+00  1.31D+00
 E= -10526.5714868361     Delta-E=       -0.000000000611 Rises=F Damp=F
 DIIS: error= 4.31D-07 at cycle  15 NSaved=  15.
 NSaved=15 IEnMin=15 EnMin= -10526.5714868361     IErMin=15 ErrMin= 4.31D-07
 ErrMax= 4.31D-07  0.00D+00 EMaxC= 1.00D+00 BMatC= 1.29D-10 BMatP= 4.01D-10
 IDIUse=1 WtCom= 1.00D+00 WtEn= 0.00D+00
 Coeff-Com:  0.121D-06-0.580D-06-0.157D-03-0.296D-04 0.914D-03 0.103D-02
 Coeff-Com: -0.327D-02-0.648D-02 0.126D-01 0.378D-01 0.431D-02-0.893D-01
 Coeff-Com: -0.196D+00 0.328D+00 0.910D+00
 Coeff:      0.121D-06-0.580D-06-0.157D-03-0.296D-04 0.914D-03 0.103D-02
 Coeff:     -0.327D-02-0.648D-02 0.126D-01 0.378D-01 0.431D-02-0.893D-01
 Coeff:     -0.196D+00 0.328D+00 0.910D+00
 Gap=     0.207 Goal=   None    Shift=    0.000
 Gap=     0.220 Goal=   None    Shift=    0.000
 RMSDP=2.34D-07 MaxDP=1.29D-05 DE=-6.11D-10 OVMax= 8.54D-06

 Cycle  16  Pass 1  IDiag  1:
 RMSU=  8.24D-08    CP:  9.22D-01 -7.05D-03  1.07D+00  1.19D+00  1.26D+00
                    CP:  1.07D+00  2.01D+00  1.66D+00  1.83D+00  1.35D+00
                    CP:  2.00D+00  1.60D+00  1.82D+00  1.50D+00  1.27D+00
 E= -10526.5714868362     Delta-E=       -0.000000000116 Rises=F Damp=F
 DIIS: error= 1.95D-07 at cycle  16 NSaved=  16.
 NSaved=16 IEnMin=16 EnMin= -10526.5714868362     IErMin=16 ErrMin= 1.95D-07
 ErrMax= 1.95D-07  0.00D+00 EMaxC= 1.00D+00 BMatC= 2.70D-11 BMatP= 1.29D-10
 IDIUse=1 WtCom= 1.00D+00 WtEn= 0.00D+00
 Coeff-Com:  0.323D-06-0.324D-06-0.143D-03-0.109D-03 0.605D-03 0.113D-02
 Coeff-Com: -0.605D-03-0.503D-02-0.130D-02 0.116D-01 0.242D-01 0.240D-02
 Coeff-Com: -0.778D-01-0.201D+00 0.269D+00 0.977D+00
 Coeff:      0.323D-06-0.324D-06-0.143D-03-0.109D-03 0.605D-03 0.113D-02
 Coeff:     -0.605D-03-0.503D-02-0.130D-02 0.116D-01 0.242D-01 0.240D-02
 Coeff:     -0.778D-01-0.201D+00 0.269D+00 0.977D+00
 Gap=     0.207 Goal=   None    Shift=    0.000
 Gap=     0.220 Goal=   None    Shift=    0.000
 RMSDP=9.11D-08 MaxDP=5.37D-06 DE=-1.16D-10 OVMax= 5.25D-06

 Cycle  17  Pass 1  IDiag  1:
 RMSU=  3.77D-08    CP:  9.22D-01 -7.05D-03  1.07D+00  1.19D+00  1.26D+00
                    CP:  1.07D+00  2.01D+00  1.66D+00  1.83D+00  1.35D+00
                    CP:  1.99D+00  1.59D+00  1.81D+00  1.52D+00  1.45D+00
                    CP:  1.63D+00
 E= -10526.5714868364     Delta-E=       -0.000000000106 Rises=F Damp=F
 DIIS: error= 6.60D-08 at cycle  17 NSaved=  17.
 NSaved=17 IEnMin=17 EnMin= -10526.5714868364     IErMin=17 ErrMin= 6.60D-08
 ErrMax= 6.60D-08  0.00D+00 EMaxC= 1.00D+00 BMatC= 2.62D-12 BMatP= 2.70D-11
 IDIUse=1 WtCom= 1.00D+00 WtEn= 0.00D+00
 Coeff-Com: -0.366D-07 0.105D-06 0.272D-04 0.766D-05-0.134D-03-0.208D-03
 Coeff-Com:  0.478D-03 0.112D-02-0.170D-02-0.568D-02-0.212D-02 0.151D-01
 Coeff-Com:  0.287D-01-0.521D-01-0.127D+00-0.407D-02 0.115D+01
 Coeff:     -0.366D-07 0.105D-06 0.272D-04 0.766D-05-0.134D-03-0.208D-03
 Coeff:      0.478D-03 0.112D-02-0.170D-02-0.568D-02-0.212D-02 0.151D-01
 Coeff:      0.287D-01-0.521D-01-0.127D+00-0.407D-02 0.115D+01
 Gap=     0.207 Goal=   None    Shift=    0.000
 Gap=     0.220 Goal=   None    Shift=    0.000
 RMSDP=6.55D-08 MaxDP=3.14D-06 DE=-1.06D-10 OVMax= 1.60D-06

 Cycle  18  Pass 1  IDiag  1:
 RMSU=  1.68D-08    CP:  9.22D-01 -7.05D-03  1.07D+00  1.19D+00  1.26D+00
                    CP:  1.07D+00  2.01D+00  1.66D+00  1.83D+00  1.35D+00
                    CP:  1.99D+00  1.58D+00  1.79D+00  1.50D+00  1.50D+00
                    CP:  1.81D+00  1.63D+00
 E= -10526.5714868363     Delta-E=        0.000000000020 Rises=F Damp=F
 DIIS: error= 1.96D-08 at cycle  18 NSaved=  18.
 NSaved=18 IEnMin=17 EnMin= -10526.5714868364     IErMin=18 ErrMin= 1.96D-08
 ErrMax= 1.96D-08  0.00D+00 EMaxC= 1.00D+00 BMatC= 4.27D-13 BMatP= 2.62D-12
 IDIUse=1 WtCom= 1.00D+00 WtEn= 0.00D+00
 Coeff-Com: -0.426D-07 0.538D-07 0.231D-04 0.143D-04-0.100D-03-0.184D-03
 Coeff-Com:  0.151D-03 0.841D-03-0.135D-03-0.241D-02-0.358D-02 0.245D-02
 Coeff-Com:  0.145D-01 0.185D-01-0.551D-01-0.132D+00 0.181D+00 0.977D+00
 Coeff:     -0.426D-07 0.538D-07 0.231D-04 0.143D-04-0.100D-03-0.184D-03
 Coeff:      0.151D-03 0.841D-03-0.135D-03-0.241D-02-0.358D-02 0.245D-02
 Coeff:      0.145D-01 0.185D-01-0.551D-01-0.132D+00 0.181D+00 0.977D+00
 Gap=     0.207 Goal=   None    Shift=    0.000
 Gap=     0.220 Goal=   None    Shift=    0.000
 RMSDP=1.64D-08 MaxDP=8.47D-07 DE= 2.00D-11 OVMax= 5.20D-07

 Cycle  19  Pass 1  IDiag  1:
 RMSU=  5.96D-09    CP:  9.22D-01 -7.05D-03  1.07D+00  1.19D+00  1.26D+00
                    CP:  1.07D+00  2.01D+00  1.66D+00  1.83D+00  1.35D+00
                    CP:  1.98D+00  1.58D+00  1.78D+00  1.49D+00  1.48D+00
                    CP:  1.88D+00  1.83D+00  1.17D+00
 E= -10526.5714868363     Delta-E=       -0.000000000018 Rises=F Damp=F
 DIIS: error= 7.57D-09 at cycle  19 NSaved=  19.
 NSaved=19 IEnMin=17 EnMin= -10526.5714868364     IErMin=19 ErrMin= 7.57D-09
 ErrMax= 7.57D-09  0.00D+00 EMaxC= 1.00D+00 BMatC= 8.69D-14 BMatP= 4.27D-13
 IDIUse=1 WtCom= 1.00D+00 WtEn= 0.00D+00
 Coeff-Com: -0.330D-08-0.600D-08-0.502D-06 0.125D-05 0.561D-05 0.162D-05
 Coeff-Com: -0.623D-04-0.268D-04 0.303D-03 0.525D-03-0.457D-03-0.218D-02
 Coeff-Com: -0.218D-02 0.130D-01 0.116D-01-0.292D-01-0.168D+00 0.238D+00
 Coeff-Com:  0.939D+00
 Coeff:     -0.330D-08-0.600D-08-0.502D-06 0.125D-05 0.561D-05 0.162D-05
 Coeff:     -0.623D-04-0.268D-04 0.303D-03 0.525D-03-0.457D-03-0.218D-02
 Coeff:     -0.218D-02 0.130D-01 0.116D-01-0.292D-01-0.168D+00 0.238D+00
 Coeff:      0.939D+00
 Gap=     0.207 Goal=   None    Shift=    0.000
 Gap=     0.220 Goal=   None    Shift=    0.000
 RMSDP=6.59D-09 MaxDP=4.83D-07 DE=-1.82D-11 OVMax= 2.63D-07

 Error on total polarization charges =  0.00776
 SCF Done:  E(UM062X) =  -10526.5714868     A.U. after   19 cycles
            NFock= 19  Conv=0.66D-08     -V/T= 2.0012
 <Sx>= 0.0000 <Sy>= 0.0000 <Sz>= 0.5000 <S**2>= 0.7577 S= 0.5038
 <L.S>=  0.00000000000    
 KE= 1.051349346726D+04 PE=-2.893142709369D+04 EE= 6.013010831008D+03
 SMD-CDS (non-electrostatic) energy       (kcal/mol) =       0.18
 (included in total energy above)
 Annihilation of the first spin contaminant:
 S**2 before annihilation     0.7577,   after     0.7500
 Leave Link  502 at Mon Sep 28 08:48:49 2026, MaxMem=  1610612736 cpu:            1520.2 elap:             190.3
 (Enter /share/software/user/restricted/gaussian/g16.B01/l701.exe)
 ... and contract with generalized density number  0.
 Compute integral first derivatives.
 D1PCM: PCM CHGder 1st derivatives, ID1Alg=3 FixD1E=F DoIter=F DoCFld=F I1PDM=0.
 GePol: Maximum number of non-zero 1st derivatives   =     469
 Leave Link  701 at Mon Sep 28 08:48:51 2026, MaxMem=  1610612736 cpu:              13.8 elap:               1.7
 (Enter /share/software/user/restricted/gaussian/g16.B01/l702.exe)
 L702 exits ... SP integral derivatives will be done elsewhere.
 Leave Link  702 at Mon Sep 28 08:48:51 2026, MaxMem=  1610612736 cpu:               0.2 elap:               0.0
 (Enter /share/software/user/restricted/gaussian/g16.B01/l703.exe)
 Integral derivatives from FoFJK, PRISM(SPDF).
 Compute integral first derivatives, UseDBF=F ICtDFT=           0.
 Calling FoFJK, ICntrl=      2127 FMM=F ISym2X=0 I1Cent= 0 IOpClX= 1 NMat=1 NMatS=1 NMatT=0.
 FoFJK:  IHMeth= 1 ICntrl=    2127 DoSepK=F KAlg= 0 I1Cent=           0 FoldK=F
 IRaf=         0 NMat=       1 IRICut=       1 DoRegI=T DoRafI=F ISym2E= 0 IDoP0=0 IntGTp=1.
 FoFCou: FMM=F IPFlag=           0 FMFlag=      100000 FMFlg1=         800
         NFxFlg=           0 DoJE=F BraDBF=F KetDBF=F FulRan=T
         wScrn=  0.000000 ICntrl=      2127 IOpCl=  1 I1Cent=           0 NGrid=           0
         NMat0=    1 NMatS0=      1 NMatT0=    0 NMatD0=    1 NMtDS0=    0 NMtDT0=    0
 Symmetry not used in FoFCou.
 Leave Link  703 at Mon Sep 28 08:49:07 2026, MaxMem=  1610612736 cpu:             129.3 elap:              16.2
 (Enter /share/software/user/restricted/gaussian/g16.B01/l716.exe)
 Dipole        =-2.45409284D+00 2.88627728D+00-1.72291049D-01
 ***** Axes restored to original set *****
 -------------------------------------------------------------------
 Center     Atomic                   Forces (Hartrees/Bohr)
 Number     Number              X              Y              Z
 -------------------------------------------------------------------
      1        6           0.000292348   -0.001641665   -0.001680916
      2        6           0.002090546    0.004120183    0.000824742
      3        6          -0.000255407   -0.005047315   -0.001479821
      4        6          -0.000340455    0.002149676   -0.000060613
      5        6           0.000189941   -0.001567338   -0.000801357
      6        6          -0.000900821    0.000000307    0.000571482
      7       35          -0.000136469    0.003415364    0.000163176
      8       35          -0.000504554    0.000595452    0.001654222
      9       35          -0.000579838    0.000078036    0.000674610
     10       35           0.000081012   -0.001979447    0.000145459
     11        1           0.000246955   -0.000109697   -0.000309296
     12        1          -0.000183259   -0.000013557    0.000298312
 -------------------------------------------------------------------
 Cartesian Forces:  Max     0.005047315 RMS     0.001531764
 Leave Link  716 at Mon Sep 28 08:49:07 2026, MaxMem=  1610612736 cpu:               0.4 elap:               0.0
 (Enter /share/software/user/restricted/gaussian/g16.B01/l103.exe)

 GradGradGradGradGradGradGradGradGradGradGradGradGradGradGradGradGradGrad
 Berny optimization.
 Using GEDIIS/GDIIS optimizer.
 FormGI is forming the generalized inverse of G from B-inverse, IUseBI=4.
 Internal  Forces:  Max     0.004839228 RMS     0.001060169
 Search for a local minimum.
 Step number   2 out of a maximum of   64
 All quantities printed in internal units (Hartrees-Bohrs-Radians)
 RMS Force = .10602D-02 SwitMx=.10000D-02 MixMth= 1
 Mixed Optimization -- RFO/linear search
 Update second derivatives using D2CorX and points    1    2
 DE= -4.32D-03 DEPred=-5.59D-03 R= 7.73D-01
 TightC=F SS=  1.41D+00  RLast= 7.17D-01 DXNew= 5.0454D-01 2.1496D+00
 Trust test= 7.73D-01 RLast= 7.17D-01 DXMaxT set to 5.05D-01
 ITU=  1  0
 Use linear search instead of GDIIS.
     Eigenvalues ---   -0.01591   0.00838   0.01780   0.01957   0.02276
     Eigenvalues ---    0.02437   0.02615   0.02818   0.02958   0.03280
     Eigenvalues ---    0.08774   0.09053   0.11158   0.11573   0.12389
     Eigenvalues ---    0.12966   0.15687   0.19929   0.20454   0.23525
     Eigenvalues ---    0.25370   0.26509   0.35939   0.36561   0.37405
     Eigenvalues ---    0.43281   0.45472   0.49587   0.53028   0.53581
 Eigenvalue     1 is  -1.59D-02 should be greater than     0.000000 Eigenvector:
                          D12       D4        D11       D2        R5
   1                   -0.50787   0.45304  -0.44088   0.39385  -0.20154
                          D10       D16       R3        D15       A4
   1                   -0.14166   0.11129   0.10736   0.10708   0.10178
 RFO step:  Lambda=-1.59591755D-02 EMin=-1.59134855D-02
 I=     1 Eig=   -1.59D-02 Dot1= -5.07D-04
 I=     1 Stepn= -6.00D-01 RXN=   6.00D-01 EDone=F
 Mixed    1 eigenvectors in step.  Raw Step.Grad=  5.07D-04.
 RFO eigenvector is Hessian eigenvector with negative curvature.
 Taking step of  6.00D-01 in eigenvector direction(s).  Step.Grad= -6.36D-05.
 Quartic linear search produced a step of  0.05283.
 Iteration  1 RMS(Cart)=  0.10647642 RMS(Int)=  0.01712707
 Iteration  2 RMS(Cart)=  0.02444878 RMS(Int)=  0.00174119
 Iteration  3 RMS(Cart)=  0.00045681 RMS(Int)=  0.00168403
 Iteration  4 RMS(Cart)=  0.00000043 RMS(Int)=  0.00168403
 ITry= 1 IFail=0 DXMaxC= 6.04D-01 DCOld= 1.00D+10 DXMaxT= 5.05D-01 DXLimC= 3.00D+00 Rises=F
 Variable       Old X    -DE/DX   Delta X   Delta X   Delta X     New X
                                 (Linear)    (Quad)   (Total)
    R1        2.59187   0.00147   0.00188   0.02346   0.02640   2.61827
    R2        2.63134   0.00091   0.00053   0.00864   0.00922   2.64056
    R3        3.62465   0.00339  -0.00668  -0.06442  -0.07109   3.55356
    R4        2.58678   0.00484   0.00246   0.04536   0.04884   2.63562
    R5        4.73257   0.00179   0.01160   0.12092   0.13253   4.86509
    R6        2.64326   0.00000  -0.00025  -0.00582  -0.00610   2.63717
    R7        3.63148   0.00050  -0.00116  -0.00946  -0.01062   3.62086
    R8        2.63118   0.00011  -0.00083  -0.01026  -0.01216   2.61902
    R9        3.59299   0.00197   0.00202   0.04240   0.04441   3.63740
   R10        2.62273   0.00161  -0.00023   0.00155   0.00027   2.62300
   R11        2.04551   0.00030   0.00015   0.00334   0.00349   2.04899
   R12        2.04909  -0.00027  -0.00029  -0.00540  -0.00570   2.04340
    A1        2.12486  -0.00069   0.00127   0.01892   0.02206   2.14693
    A2        2.12064  -0.00016  -0.00169  -0.02411  -0.02698   2.09366
    A3        2.03723   0.00086   0.00039   0.00615   0.00536   2.04260
    A4        2.09196  -0.00108  -0.00434  -0.06107  -0.06850   2.02347
    A5        2.06485   0.00119   0.00127   0.05972   0.05322   2.11807
    A6        2.09467  -0.00032   0.00140   0.05141   0.04500   2.13968
    A7        2.09327   0.00063   0.00275   0.03865   0.04311   2.13638
    A8        2.09685  -0.00101  -0.00230  -0.03358  -0.03707   2.05979
    A9        2.09243   0.00039  -0.00048  -0.00375  -0.00542   2.08702
   A10        2.09157   0.00011   0.00012   0.00437   0.00426   2.09584
   A11        2.14803  -0.00050  -0.00027  -0.00678  -0.00694   2.14109
   A12        2.04358   0.00039   0.00015   0.00242   0.00268   2.04626
   A13        2.09727  -0.00034  -0.00108  -0.01827  -0.02063   2.07664
   A14        2.09348   0.00023   0.00096   0.01587   0.01745   2.11093
   A15        2.09240   0.00012   0.00011   0.00248   0.00322   2.09561
   A16        2.06647   0.00140   0.00122   0.01956   0.02065   2.08711
   A17        2.12387  -0.00082  -0.00089  -0.01411  -0.01494   2.10892
   A18        2.09284  -0.00059  -0.00033  -0.00542  -0.00569   2.08715
    D1        0.01854  -0.00031   0.00098  -0.02116  -0.01988  -0.00133
    D2       -2.85538   0.00060   0.01512  -0.23631  -0.22180  -3.07718
    D3       -3.08962  -0.00074   0.00275  -0.05668  -0.05316   3.14040
    D4        0.31964   0.00017   0.01689  -0.27182  -0.25508   0.06456
    D5        0.01987  -0.00023   0.00105  -0.02277  -0.02143  -0.00156
    D6       -3.12731  -0.00011   0.00075  -0.01521  -0.01434   3.14153
    D7        3.12955   0.00017  -0.00064   0.01056   0.01034   3.13989
    D8       -0.01763   0.00029  -0.00093   0.01812   0.01742  -0.00020
    D9       -0.03907   0.00053  -0.00206   0.04480   0.04255   0.00348
   D10        3.06445   0.00086  -0.00408   0.08500   0.08025  -3.13849
   D11        2.83025  -0.00017  -0.01645   0.26453   0.24818   3.07844
   D12       -0.34942   0.00016  -0.01846   0.30472   0.28589  -0.06353
   D13        0.02139  -0.00024   0.00113  -0.02481  -0.02413  -0.00275
   D14       -3.11797  -0.00023   0.00125  -0.02734  -0.02633   3.13889
   D15       -3.08222  -0.00054   0.00314  -0.06425  -0.06173   3.13923
   D16        0.06161  -0.00052   0.00325  -0.06678  -0.06393  -0.00232
   D17        0.01736  -0.00029   0.00092  -0.01825  -0.01768  -0.00032
   D18       -3.13338  -0.00005   0.00043  -0.00767  -0.00719  -3.14057
   D19       -3.12634  -0.00031   0.00081  -0.01588  -0.01561   3.14124
   D20        0.00611  -0.00007   0.00032  -0.00531  -0.00512   0.00099
   D21       -0.03733   0.00048  -0.00197   0.04149   0.03972   0.00238
   D22        3.10974   0.00037  -0.00168   0.03410   0.03275  -3.14069
   D23        3.11340   0.00024  -0.00149   0.03085   0.02925  -3.14054
   D24       -0.02271   0.00013  -0.00120   0.02346   0.02228  -0.00043
         Item               Value     Threshold  Converged?
 Maximum Force            0.004839     0.000015     NO 
 RMS     Force            0.001060     0.000010     NO 
 Maximum Displacement     0.604344     0.000060     NO 
 RMS     Displacement     0.127135     0.000040     NO 
 Predicted change in Energy=-3.304989D-03
 Lowest energy point so far.  Saving SCF results.
 GradGradGradGradGradGradGradGradGradGradGradGradGradGradGradGradGradGrad

 Leave Link  103 at Mon Sep 28 08:49:07 2026, MaxMem=  1610612736 cpu:               0.4 elap:               0.1
 (Enter /share/software/user/restricted/gaussian/g16.B01/l202.exe)
                          Input orientation:                          
 ---------------------------------------------------------------------
 Center     Atomic      Atomic             Coordinates (Angstroms)
 Number     Number       Type             X           Y           Z
 ---------------------------------------------------------------------
      1          6           0        0.017604    1.287910   -1.160062
      2          6           0        0.027394    0.650100    0.069893
      3          6           0        0.017539   -0.744117    0.034140
      4          6           0        0.003053   -1.461464   -1.162817
      5          6           0       -0.005317   -0.789892   -2.375133
      6          6           0        0.000554    0.598130   -2.375147
      7         35           0        0.027433    3.166482   -1.243792
      8         35           0       -0.082789    1.981791    2.270460
      9         35           0        0.025029   -1.687304    1.701978
     10         35           0       -0.006234   -3.385383   -1.221256
     11          1           0       -0.017538   -1.333139   -3.313428
     12          1           0       -0.006729    1.132012   -3.315448
 ---------------------------------------------------------------------
                    Distance matrix (angstroms):
                    1          2          3          4          5
     1  C    0.000000
     2  C    1.385527   0.000000
     3  C    2.356958   1.394711   0.000000
     4  C    2.749414   2.445172   1.395529   0.000000
     5  C    2.407111   2.837745   2.409815   1.385925   0.000000
     6  C    1.397325   2.445739   2.758002   2.389911   1.388034
     7  Br   1.880462   2.838651   4.114121   4.628718   4.115082
     8  Br   3.501432   2.574497   3.527289   4.863205   5.410153
     9  Br   4.128344   2.850818   1.916074   2.873767   4.174817
    10  Br   4.673755   4.237136   2.924529   1.924829   2.840424
    11  H    3.392362   3.922004   3.399175   2.154535   1.084281
    12  H    2.161154   3.419640   3.839295   3.370465   2.139605
                    6          7          8          9         10
     6  C    0.000000
     7  Br   2.806620   0.000000
     8  Br   4.848002   3.710203   0.000000
     9  Br   4.674051   5.677746   3.714438   0.000000
    10  Br   4.147275   6.551990   6.403475   3.380791   0.000000
    11  H    2.147208   4.952980   6.494061   5.028076   2.930703
    12  H    1.081318   2.903790   5.650688   5.755355   4.979207
                   11         12
    11  H    0.000000
    12  H    2.465176   0.000000
 Stoichiometry    C6H2Br4(1-,2)
 Framework group  C1[X(C6H2Br4)]
 Deg. of freedom    30
 Full point group                 C1      NOp   1
 RotChk:  IX=3 Diff= 6.63D-02
 Largest Abelian subgroup         C1      NOp   1
 Largest concise Abelian subgroup C1      NOp   1
                         Standard orientation:                         
 ---------------------------------------------------------------------
 Center     Atomic      Atomic             Coordinates (Angstroms)
 Number     Number       Type             X           Y           Z
 ---------------------------------------------------------------------
      1          6           0        1.130463    1.337248   -0.012028
      2          6           0        0.652288    0.037049   -0.034763
      3          6           0       -0.735316   -0.102904   -0.021153
      4          6           0       -1.597372    0.994112    0.009130
      5          6           0       -1.083491    2.281075    0.030157
      6          6           0        0.293486    2.455684    0.020967
      7         35           0        2.983557    1.656628   -0.025364
      8         35           0        2.250447   -1.979718    0.046336
      9         35           0       -1.461392   -1.875906   -0.046010
     10         35           0       -3.513327    0.810067    0.023706
     11          1           0       -1.740324    3.143416    0.054716
     12          1           0        0.704960    3.455508    0.038035
 ---------------------------------------------------------------------
 Rotational constants (GHZ):           0.4835380           0.2176899           0.1501523
 Leave Link  202 at Mon Sep 28 08:49:07 2026, MaxMem=  1610612736 cpu:               0.0 elap:               0.0
 (Enter /share/software/user/restricted/gaussian/g16.B01/l301.exe)
 Standard basis: 6-311++G(d) (5D, 7F)
 Ernie: Thresh=  0.10000D-02 Tol=  0.10000D-05 Strict=F.
 There are   350 symmetry adapted cartesian basis functions of A   symmetry.
 There are   332 symmetry adapted basis functions of A   symmetry.
   332 basis functions,   604 primitive gaussians,   350 cartesian basis functions
    90 alpha electrons       89 beta electrons
       nuclear repulsion energy      1869.2382128586 Hartrees.
 IExCor= 4336 DFT=T Ex+Corr=M062X ExCW=0 ScaHFX=  0.540000
 ScaDFX=  1.000000  1.000000  1.000000  1.000000 ScalE2=  1.000000  1.000000
 IRadAn=      5 IRanWt=     -1 IRanGd=            0 ICorTp=0 IEmpDi=  4
 NAtoms=   12 NActive=   12 NUniq=   12 SFac= 1.00D+00 NAtFMM=   60 NAOKFM=F Big=F
 Integral buffers will be    131072 words long.
 Raffenetti 2 integral format.
 Two-electron integral symmetry is turned on.
 ------------------------------------------------------------------------------
 Polarizable Continuum Model (PCM)
 =================================
 Model                : PCM.
 Atomic radii         : SMD-Coulomb.
 Polarization charges : Total charges.
 Charge compensation  : None.
 Solution method      : Matrix inversion.
 Cavity type          : VdW (van der Waals Surface) (Alpha=1.000).
 Cavity algorithm     : GePol (No added spheres)
                        Default sphere list used, NSphG=   12.
                        Lebedev-Laikov grids with approx.  5.0 points / Ang**2.
                        Smoothing algorithm: York/Karplus (Gamma=1.0000).
                        Polarization charges: spherical gaussians, with
                                              point-specific exponents (IZeta= 3).
                        Self-potential: point-specific (ISelfS= 7).
                        Self-field    : sphere-specific E.n sum rule (ISelfD= 2).
 1st derivatives      : Analytical E(r).r(x)/FMM algorithm (CHGder, D1EAlg=3).
                        Cavity 1st derivative terms included.
 Solvent              : Water, Eps=  78.355300 Eps(inf)=   1.777849
 ------------------------------------------------------------------------------
 Spheres list:
 ISph  on   Nord     Re0    Alpha      Xe            Ye            Ze
    1   C      1    1.8500  1.000      1.130463      1.337248     -0.012028
    2   C      2    1.8500  1.000      0.652288      0.037049     -0.034763
    3   C      3    1.8500  1.000     -0.735316     -0.102904     -0.021153
    4   C      4    1.8500  1.000     -1.597372      0.994112      0.009130
    5   C      5    1.8500  1.000     -1.083491      2.281075      0.030157
    6   C      6    1.8500  1.000      0.293486      2.455684      0.020967
    7  Br      7    3.0600  1.000      2.983557      1.656628     -0.025364
    8  Br      8    3.0600  1.000      2.250447     -1.979718      0.046336
    9  Br      9    3.0600  1.000     -1.461392     -1.875906     -0.046010
   10  Br     10    3.0600  1.000     -3.513327      0.810067      0.023706
   11   H     11    1.2000  1.000     -1.740324      3.143416      0.054716
   12   H     12    1.2000  1.000      0.704960      3.455508      0.038035
 ------------------------------------------------------------------------------
 GePol: Number of generator spheres                  =      12
 GePol: Total number of spheres                      =      12
 GePol: Number of exposed spheres                    =      12 (100.00%)
 GePol: Number of points                             =    1851
 GePol: Average weight of points                     =       0.17
 GePol: Minimum weight of points                     =   0.37D-09
 GePol: Maximum weight of points                     =    0.22025
 GePol: Number of points with low weight             =      33
 GePol: Fraction of low-weight points (<1% of avg)   =       1.78%
 GePol: Cavity surface area                          =    322.517 Ang**2
 GePol: Cavity volume                                =    418.863 Ang**3
 ------------------------------------------------------------------------------
 Atomic radii for non-electrostatic terms: SMD-CDS.
 ------------------------------------------------------------------------------
 PCM non-electrostatic energy =         0.0003225635 Hartrees.
 Nuclear repulsion after PCM non-electrostatic terms =     1869.2385354221 Hartrees.
 Leave Link  301 at Mon Sep 28 08:49:07 2026, MaxMem=  1610612736 cpu:               0.8 elap:               0.1
 (Enter /share/software/user/restricted/gaussian/g16.B01/l302.exe)
 NPDir=0 NMtPBC=     1 NCelOv=     1 NCel=       1 NClECP=     1 NCelD=      1
         NCelK=      1 NCelE2=     1 NClLst=     1 CellRange=     0.0.
 One-electron integrals computed using PRISM.
 One-electron integral symmetry used in STVInt
 NBasis=   332 RedAO= T EigKep=  1.59D-06  NBF=   332
 NBsUse=   331 1.00D-06 EigRej=  4.43D-07 NBFU=   331
 Precomputing XC quadrature grid using
 IXCGrd= 4 IRadAn=           5 IRanWt=          -1 IRanGd=           0 AccXCQ= 0.00D+00.
 Generated NRdTot=       0 NPtTot=           0 NUsed=           0 NTot=          32
 NSgBfM=   335   335   335   335   335 MxSgAt=    12 MxSgA2=    12.
 Leave Link  302 at Mon Sep 28 08:49:08 2026, MaxMem=  1610612736 cpu:               2.0 elap:               0.3
 (Enter /share/software/user/restricted/gaussian/g16.B01/l303.exe)
 DipDrv:  MaxL=1.
 Leave Link  303 at Mon Sep 28 08:49:08 2026, MaxMem=  1610612736 cpu:               0.4 elap:               0.1
 (Enter /share/software/user/restricted/gaussian/g16.B01/l401.exe)
 Initial guess from the checkpoint file:  "calcs/m062x_smd/chks/BrBz_1234_RA.chk"
 B after Tr=    -0.000000   -0.000000   -0.000000
         Rot=    0.999827   -0.001511   -0.000442   -0.018527 Ang=  -2.13 deg.
 Guess basis will be translated and rotated to current coordinates.
 JPrj=2 DoOrth=T DoCkMO=T.
 Initial guess <Sx>= 0.0000 <Sy>= 0.0000 <Sz>= 0.5000 <S**2>= 0.7584 S= 0.5042
 Generating alternative initial guess.
 ExpMin= 3.50D-02 ExpMax= 4.40D+05 ExpMxC= 1.51D+04 IAcc=3 IRadAn=         5 AccDes= 0.00D+00
 Harris functional with IExCor= 1009 and IRadAn=       5 diagonalized for initial guess.
 HarFok:  IExCor= 1009 AccDes= 0.00D+00 IRadAn=         5 IDoV= 1 UseB2=F ITyADJ=14
 ICtDFT=  3500011 ScaDFX=  1.000000  1.000000  1.000000  1.000000
 FoFCou: FMM=F IPFlag=           0 FMFlag=      100000 FMFlg1=           0
         NFxFlg=           0 DoJE=T BraDBF=F KetDBF=T FulRan=T
         wScrn=  0.000000 ICntrl=       500 IOpCl=  0 I1Cent=   200000004 NGrid=           0
         NMat0=    1 NMatS0=      1 NMatT0=    0 NMatD0=    1 NMtDS0=    0 NMtDT0=    0
 Petite list used in FoFCou.
 Harris En= -10524.7850861135    
 Leave Link  401 at Mon Sep 28 08:49:09 2026, MaxMem=  1610612736 cpu:              12.1 elap:               1.5
 (Enter /share/software/user/restricted/gaussian/g16.B01/l502.exe)
 Integral symmetry usage will be decided dynamically.
 UHF open shell SCF:
 Using DIIS extrapolation, IDIIS=  1040.
 NGot=  1610612736 LenX=  1610361870 LenY=  1610238929
 Requested convergence on RMS density matrix=1.00D-08 within 128 cycles.
 Requested convergence on MAX density matrix=1.00D-06.
 Requested convergence on             energy=1.00D-06.
 No special actions if energy rises.
 Fock matrices will be formed incrementally for  20 cycles.

 Cycle   1  Pass 1  IDiag  1:
 FoFJK:  IHMeth= 1 ICntrl=       0 DoSepK=F KAlg= 0 I1Cent=           0 FoldK=F
 IRaf= 790000000 NMat=       1 IRICut=       1 DoRegI=T DoRafI=F ISym2E= 0 IDoP0=0 IntGTp=1.
 FoFCou: FMM=F IPFlag=           0 FMFlag=      100000 FMFlg1=           0
         NFxFlg=           0 DoJE=F BraDBF=F KetDBF=F FulRan=T
         wScrn=  0.000000 ICntrl=         0 IOpCl=  1 I1Cent=           0 NGrid=           0
         NMat0=    1 NMatS0=      1 NMatT0=    0 NMatD0=    1 NMtDS0=    0 NMtDT0=    0
 Symmetry not used in FoFCou.
 Inv3:  Mode=1 IEnd=    10278603.
 Iteration    1 A*A^-1 deviation from unit magnitude is 6.00D-15 for   1849.
 Iteration    1 A*A^-1 deviation from orthogonality  is 2.10D-15 for   1849   1645.
 Iteration    1 A^-1*A deviation from unit magnitude is 5.55D-15 for   1849.
 Iteration    1 A^-1*A deviation from orthogonality  is 2.54D-15 for   1627   1273.
 E= -10526.5384001714    
 DIIS: error= 4.00D-02 at cycle   1 NSaved=   1.
 NSaved= 1 IEnMin= 1 EnMin= -10526.5384001714     IErMin= 1 ErrMin= 4.00D-02
 ErrMax= 4.00D-02  0.00D+00 EMaxC= 1.00D-01 BMatC= 5.15D-01 BMatP= 5.15D-01
 IDIUse=3 WtCom= 6.00D-01 WtEn= 4.00D-01
 Coeff-Com:  0.100D+01
 Coeff-En:   0.100D+01
 Coeff:      0.100D+01
 Recover alternate guess density for next cycle.
 RMSDP=5.51D-02 MaxDP=3.08D+00              OVMax= 0.00D+00

 Cycle   2  Pass 1  IDiag  1:
 RMSU=  5.05D-02    CP:  1.70D+00
 E= -10526.2144039384     Delta-E=        0.323996232970 Rises=F Damp=F
 Switch densities from cycles 1 and 2 for lowest energy.
 DIIS: error= 1.51D-01 at cycle   2 NSaved=   2.
 NSaved= 2 IEnMin= 1 EnMin= -10526.5384001714     IErMin= 1 ErrMin= 4.00D-02
 ErrMax= 1.51D-01  0.00D+00 EMaxC= 1.00D+00 BMatC= 2.66D+01 BMatP= 5.15D-01
 IDIUse=1 WtCom= 1.00D+00 WtEn= 0.00D+00
 Coeff-Com:  0.981D+00 0.186D-01
 Coeff:      0.981D+00 0.186D-01
 Gap=     0.227 Goal=   None    Shift=    0.000
 Gap=     0.243 Goal=   None    Shift=    0.000
 RMSDP=4.17D-03 MaxDP=2.73D-01 DE= 3.24D-01 OVMax= 8.49D-02

 Cycle   3  Pass 1  IDiag  1:
 RMSU=  3.97D-03    CP:  1.02D+00  2.13D-02
 E= -10526.5677450909     Delta-E=       -0.353341152475 Rises=F Damp=F
 DIIS: error= 1.81D-03 at cycle   3 NSaved=   3.
 NSaved= 3 IEnMin= 3 EnMin= -10526.5677450909     IErMin= 3 ErrMin= 1.81D-03
 ErrMax= 1.81D-03  0.00D+00 EMaxC= 1.00D+00 BMatC= 3.64D-03 BMatP= 5.15D-01
 IDIUse=1 WtCom= 1.00D+00 WtEn= 0.00D+00
 Coeff-Com: -0.651D-02 0.523D-02 0.100D+01
 Coeff:     -0.651D-02 0.523D-02 0.100D+01
 Gap=     0.216 Goal=   None    Shift=    0.000
 Gap=     0.215 Goal=   None    Shift=    0.000
 RMSDP=7.19D-04 MaxDP=2.85D-02 DE=-3.53D-01 OVMax= 2.73D-02

 Cycle   4  Pass 1  IDiag  1:
 RMSU=  6.76D-04    CP:  1.02D+00  2.28D-02  1.06D+00
 E= -10526.5691656367     Delta-E=       -0.001420545812 Rises=F Damp=F
 DIIS: error= 6.95D-04 at cycle   4 NSaved=   4.
 NSaved= 4 IEnMin= 4 EnMin= -10526.5691656367     IErMin= 4 ErrMin= 6.95D-04
 ErrMax= 6.95D-04  0.00D+00 EMaxC= 1.00D+00 BMatC= 1.79D-03 BMatP= 3.64D-03
 IDIUse=1 WtCom= 1.00D+00 WtEn= 0.00D+00
 Coeff-Com: -0.594D-02 0.175D-03 0.397D+00 0.608D+00
 Coeff:     -0.594D-02 0.175D-03 0.397D+00 0.608D+00
 Gap=     0.215 Goal=   None    Shift=    0.000
 Gap=     0.219 Goal=   None    Shift=    0.000
 RMSDP=3.17D-04 MaxDP=3.52D-02 DE=-1.42D-03 OVMax= 7.48D-03

 Cycle   5  Pass 1  IDiag  1:
 RMSU=  2.87D-04    CP:  1.02D+00  2.16D-02  1.09D+00  9.57D-01
 E= -10526.5695341786     Delta-E=       -0.000368541931 Rises=F Damp=F
 DIIS: error= 4.16D-04 at cycle   5 NSaved=   5.
 NSaved= 5 IEnMin= 5 EnMin= -10526.5695341786     IErMin= 5 ErrMin= 4.16D-04
 ErrMax= 4.16D-04  0.00D+00 EMaxC= 1.00D+00 BMatC= 2.67D-04 BMatP= 1.79D-03
 IDIUse=1 WtCom= 1.00D+00 WtEn= 0.00D+00
 Coeff-Com: -0.950D-03-0.672D-03-0.472D-01 0.236D+00 0.812D+00
 Coeff:     -0.950D-03-0.672D-03-0.472D-01 0.236D+00 0.812D+00
 Gap=     0.216 Goal=   None    Shift=    0.000
 Gap=     0.217 Goal=   None    Shift=    0.000
 RMSDP=1.91D-04 MaxDP=7.06D-03 DE=-3.69D-04 OVMax= 9.19D-03

 Cycle   6  Pass 1  IDiag  1:
 RMSU=  1.34D-04    CP:  1.02D+00  2.30D-02  1.10D+00  1.10D+00  8.31D-01
 E= -10526.5696608729     Delta-E=       -0.000126694276 Rises=F Damp=F
 DIIS: error= 2.78D-04 at cycle   6 NSaved=   6.
 NSaved= 6 IEnMin= 6 EnMin= -10526.5696608729     IErMin= 6 ErrMin= 2.78D-04
 ErrMax= 2.78D-04  0.00D+00 EMaxC= 1.00D+00 BMatC= 7.62D-05 BMatP= 2.67D-04
 IDIUse=1 WtCom= 1.00D+00 WtEn= 0.00D+00
 Coeff-Com:  0.478D-03-0.116D-03-0.101D+00-0.223D-02 0.428D+00 0.674D+00
 Coeff:      0.478D-03-0.116D-03-0.101D+00-0.223D-02 0.428D+00 0.674D+00
 Gap=     0.216 Goal=   None    Shift=    0.000
 Gap=     0.218 Goal=   None    Shift=    0.000
 RMSDP=9.48D-05 MaxDP=5.80D-03 DE=-1.27D-04 OVMax= 4.77D-03

 Cycle   7  Pass 1  IDiag  1:
 RMSU=  4.03D-05    CP:  1.02D+00  2.25D-02  1.10D+00  1.18D+00  1.04D+00
                    CP:  9.52D-01
 E= -10526.5696965551     Delta-E=       -0.000035682226 Rises=F Damp=F
 DIIS: error= 8.28D-05 at cycle   7 NSaved=   7.
 NSaved= 7 IEnMin= 7 EnMin= -10526.5696965551     IErMin= 7 ErrMin= 8.28D-05
 ErrMax= 8.28D-05  0.00D+00 EMaxC= 1.00D+00 BMatC= 5.37D-06 BMatP= 7.62D-05
 IDIUse=1 WtCom= 1.00D+00 WtEn= 0.00D+00
 Coeff-Com:  0.214D-03 0.438D-04-0.131D-01-0.338D-01-0.192D-01 0.121D+00
 Coeff-Com:  0.945D+00
 Coeff:      0.214D-03 0.438D-04-0.131D-01-0.338D-01-0.192D-01 0.121D+00
 Coeff:      0.945D+00
 Gap=     0.216 Goal=   None    Shift=    0.000
 Gap=     0.218 Goal=   None    Shift=    0.000
 RMSDP=4.31D-05 MaxDP=2.15D-03 DE=-3.57D-05 OVMax= 2.88D-03

 Cycle   8  Pass 1  IDiag  1:
 RMSU=  2.27D-05    CP:  1.02D+00  2.27D-02  1.10D+00  1.21D+00  1.11D+00
                    CP:  9.90D-01  1.40D+00
 E= -10526.5697034972     Delta-E=       -0.000006942095 Rises=F Damp=F
 DIIS: error= 4.90D-05 at cycle   8 NSaved=   8.
 NSaved= 8 IEnMin= 8 EnMin= -10526.5697034972     IErMin= 8 ErrMin= 4.90D-05
 ErrMax= 4.90D-05  0.00D+00 EMaxC= 1.00D+00 BMatC= 1.91D-06 BMatP= 5.37D-06
 IDIUse=1 WtCom= 1.00D+00 WtEn= 0.00D+00
 Coeff-Com: -0.670D-04 0.325D-04 0.297D-01-0.959D-02-0.151D+00-0.178D+00
 Coeff-Com:  0.389D+00 0.920D+00
 Coeff:     -0.670D-04 0.325D-04 0.297D-01-0.959D-02-0.151D+00-0.178D+00
 Coeff:      0.389D+00 0.920D+00
 Gap=     0.217 Goal=   None    Shift=    0.000
 Gap=     0.218 Goal=   None    Shift=    0.000
 RMSDP=2.34D-05 MaxDP=1.14D-03 DE=-6.94D-06 OVMax= 2.02D-03

 Cycle   9  Pass 1  IDiag  1:
 RMSU=  1.11D-05    CP:  1.02D+00  2.29D-02  1.10D+00  1.22D+00  1.11D+00
                    CP:  1.08D+00  1.68D+00  1.20D+00
 E= -10526.5697056967     Delta-E=       -0.000002199493 Rises=F Damp=F
 DIIS: error= 2.07D-05 at cycle   9 NSaved=   9.
 NSaved= 9 IEnMin= 9 EnMin= -10526.5697056967     IErMin= 9 ErrMin= 2.07D-05
 ErrMax= 2.07D-05  0.00D+00 EMaxC= 1.00D+00 BMatC= 3.16D-07 BMatP= 1.91D-06
 IDIUse=1 WtCom= 1.00D+00 WtEn= 0.00D+00
 Coeff-Com: -0.642D-04 0.128D-04 0.150D-01 0.140D-02-0.647D-01-0.947D-01
 Coeff-Com:  0.371D-01 0.377D+00 0.729D+00
 Coeff:     -0.642D-04 0.128D-04 0.150D-01 0.140D-02-0.647D-01-0.947D-01
 Coeff:      0.371D-01 0.377D+00 0.729D+00
 Gap=     0.217 Goal=   None    Shift=    0.000
 Gap=     0.218 Goal=   None    Shift=    0.000
 RMSDP=7.92D-06 MaxDP=4.54D-04 DE=-2.20D-06 OVMax= 5.71D-04

 Cycle  10  Pass 1  IDiag  1:
 RMSU=  4.91D-06    CP:  1.02D+00  2.28D-02  1.10D+00  1.21D+00  1.12D+00
                    CP:  1.10D+00  1.74D+00  1.28D+00  1.13D+00
 E= -10526.5697059207     Delta-E=       -0.000000224016 Rises=F Damp=F
 DIIS: error= 1.29D-05 at cycle  10 NSaved=  10.
 NSaved=10 IEnMin=10 EnMin= -10526.5697059207     IErMin=10 ErrMin= 1.29D-05
 ErrMax= 1.29D-05  0.00D+00 EMaxC= 1.00D+00 BMatC= 7.36D-08 BMatP= 3.16D-07
 IDIUse=1 WtCom= 1.00D+00 WtEn= 0.00D+00
 Coeff-Com: -0.140D-04 0.406D-06 0.291D-03 0.276D-02 0.251D-02-0.307D-02
 Coeff-Com: -0.585D-01-0.348D-01 0.318D+00 0.773D+00
 Coeff:     -0.140D-04 0.406D-06 0.291D-03 0.276D-02 0.251D-02-0.307D-02
 Coeff:     -0.585D-01-0.348D-01 0.318D+00 0.773D+00
 Gap=     0.217 Goal=   None    Shift=    0.000
 Gap=     0.218 Goal=   None    Shift=    0.000
 RMSDP=3.96D-06 MaxDP=1.92D-04 DE=-2.24D-07 OVMax= 2.01D-04

 Cycle  11  Pass 1  IDiag  1:
 RMSU=  1.37D-06    CP:  1.02D+00  2.29D-02  1.10D+00  1.21D+00  1.11D+00
                    CP:  1.11D+00  1.74D+00  1.28D+00  1.38D+00  1.05D+00
 E= -10526.5697059673     Delta-E=       -0.000000046541 Rises=F Damp=F
 DIIS: error= 6.28D-06 at cycle  11 NSaved=  11.
 NSaved=11 IEnMin=11 EnMin= -10526.5697059673     IErMin=11 ErrMin= 6.28D-06
 ErrMax= 6.28D-06  0.00D+00 EMaxC= 1.00D+00 BMatC= 1.74D-08 BMatP= 7.36D-08
 IDIUse=1 WtCom= 1.00D+00 WtEn= 0.00D+00
 Coeff-Com:  0.831D-05-0.396D-05-0.329D-02 0.103D-02 0.154D-01 0.207D-01
 Coeff-Com: -0.333D-01-0.111D+00-0.141D-01 0.374D+00 0.750D+00
 Coeff:      0.831D-05-0.396D-05-0.329D-02 0.103D-02 0.154D-01 0.207D-01
 Coeff:     -0.333D-01-0.111D+00-0.141D-01 0.374D+00 0.750D+00
 Gap=     0.217 Goal=   None    Shift=    0.000
 Gap=     0.218 Goal=   None    Shift=    0.000
 RMSDP=1.73D-06 MaxDP=1.08D-04 DE=-4.65D-08 OVMax= 8.27D-05

 Cycle  12  Pass 1  IDiag  1:
 RMSU=  7.34D-07    CP:  1.02D+00  2.29D-02  1.10D+00  1.21D+00  1.11D+00
                    CP:  1.10D+00  1.74D+00  1.28D+00  1.44D+00  1.23D+00
                    CP:  1.20D+00
 E= -10526.5697059789     Delta-E=       -0.000000011623 Rises=F Damp=F
 DIIS: error= 2.96D-06 at cycle  12 NSaved=  12.
 NSaved=12 IEnMin=12 EnMin= -10526.5697059789     IErMin=12 ErrMin= 2.96D-06
 ErrMax= 2.96D-06  0.00D+00 EMaxC= 1.00D+00 BMatC= 2.61D-09 BMatP= 1.74D-08
 IDIUse=1 WtCom= 1.00D+00 WtEn= 0.00D+00
 Coeff-Com:  0.362D-05-0.711D-06-0.752D-03-0.181D-03 0.268D-02 0.532D-02
 Coeff-Com:  0.367D-02-0.232D-01-0.440D-01-0.479D-01 0.167D+00 0.937D+00
 Coeff:      0.362D-05-0.711D-06-0.752D-03-0.181D-03 0.268D-02 0.532D-02
 Coeff:      0.367D-02-0.232D-01-0.440D-01-0.479D-01 0.167D+00 0.937D+00
 Gap=     0.217 Goal=   None    Shift=    0.000
 Gap=     0.218 Goal=   None    Shift=    0.000
 RMSDP=9.43D-07 MaxDP=8.18D-05 DE=-1.16D-08 OVMax= 3.58D-05

 Cycle  13  Pass 1  IDiag  1:
 RMSU=  4.32D-07    CP:  1.02D+00  2.29D-02  1.10D+00  1.21D+00  1.11D+00
                    CP:  1.10D+00  1.74D+00  1.28D+00  1.48D+00  1.28D+00
                    CP:  1.43D+00  1.20D+00
 E= -10526.5697059819     Delta-E=       -0.000000002978 Rises=F Damp=F
 DIIS: error= 1.29D-06 at cycle  13 NSaved=  13.
 NSaved=13 IEnMin=13 EnMin= -10526.5697059819     IErMin=13 ErrMin= 1.29D-06
 ErrMax= 1.29D-06  0.00D+00 EMaxC= 1.00D+00 BMatC= 9.90D-10 BMatP= 2.61D-09
 IDIUse=1 WtCom= 1.00D+00 WtEn= 0.00D+00
 Coeff-Com: -0.176D-05 0.137D-05 0.997D-03-0.472D-03-0.511D-02-0.564D-02
 Coeff-Com:  0.153D-01 0.317D-01-0.916D-02-0.172D+00-0.218D+00 0.384D+00
 Coeff-Com:  0.978D+00
 Coeff:     -0.176D-05 0.137D-05 0.997D-03-0.472D-03-0.511D-02-0.564D-02
 Coeff:      0.153D-01 0.317D-01-0.916D-02-0.172D+00-0.218D+00 0.384D+00
 Coeff:      0.978D+00
 Gap=     0.217 Goal=   None    Shift=    0.000
 Gap=     0.218 Goal=   None    Shift=    0.000
 RMSDP=6.06D-07 MaxDP=3.78D-05 DE=-2.98D-09 OVMax= 2.96D-05

 Cycle  14  Pass 1  IDiag  1:
 RMSU=  2.57D-07    CP:  1.02D+00  2.29D-02  1.10D+00  1.21D+00  1.11D+00
                    CP:  1.10D+00  1.74D+00  1.27D+00  1.50D+00  1.30D+00
                    CP:  1.58D+00  1.53D+00  1.45D+00
 E= -10526.5697059831     Delta-E=       -0.000000001279 Rises=F Damp=F
 DIIS: error= 6.22D-07 at cycle  14 NSaved=  14.
 NSaved=14 IEnMin=14 EnMin= -10526.5697059831     IErMin=14 ErrMin= 6.22D-07
 ErrMax= 6.22D-07  0.00D+00 EMaxC= 1.00D+00 BMatC= 1.68D-10 BMatP= 9.90D-10
 IDIUse=1 WtCom= 1.00D+00 WtEn= 0.00D+00
 Coeff-Com: -0.107D-05 0.248D-06 0.262D-03 0.746D-04-0.110D-02-0.189D-02
 Coeff-Com: -0.378D-03 0.880D-02 0.116D-01-0.346D-03-0.505D-01-0.226D+00
 Coeff-Com:  0.677D-01 0.119D+01
 Coeff:     -0.107D-05 0.248D-06 0.262D-03 0.746D-04-0.110D-02-0.189D-02
 Coeff:     -0.378D-03 0.880D-02 0.116D-01-0.346D-03-0.505D-01-0.226D+00
 Coeff:      0.677D-01 0.119D+01
 Gap=     0.217 Goal=   None    Shift=    0.000
 Gap=     0.218 Goal=   None    Shift=    0.000
 RMSDP=3.30D-07 MaxDP=1.95D-05 DE=-1.28D-09 OVMax= 1.38D-05

 Cycle  15  Pass 1  IDiag  1:
 RMSU=  1.22D-07    CP:  1.02D+00  2.29D-02  1.10D+00  1.21D+00  1.11D+00
                    CP:  1.11D+00  1.74D+00  1.27D+00  1.50D+00  1.30D+00
                    CP:  1.63D+00  1.62D+00  1.80D+00  1.53D+00
 E= -10526.5697059835     Delta-E=       -0.000000000349 Rises=F Damp=F
 DIIS: error= 2.39D-07 at cycle  15 NSaved=  15.
 NSaved=15 IEnMin=15 EnMin= -10526.5697059835     IErMin=15 ErrMin= 2.39D-07
 ErrMax= 2.39D-07  0.00D+00 EMaxC= 1.00D+00 BMatC= 3.31D-11 BMatP= 1.68D-10
 IDIUse=1 WtCom= 1.00D+00 WtEn= 0.00D+00
 Coeff-Com:  0.223D-06-0.319D-06-0.153D-03 0.921D-04 0.811D-03 0.845D-03
 Coeff-Com: -0.295D-02-0.500D-02 0.290D-02 0.360D-01 0.383D-01-0.122D+00
 Coeff-Com: -0.188D+00 0.208D+00 0.103D+01
 Coeff:      0.223D-06-0.319D-06-0.153D-03 0.921D-04 0.811D-03 0.845D-03
 Coeff:     -0.295D-02-0.500D-02 0.290D-02 0.360D-01 0.383D-01-0.122D+00
 Coeff:     -0.188D+00 0.208D+00 0.103D+01
 Gap=     0.217 Goal=   None    Shift=    0.000
 Gap=     0.218 Goal=   None    Shift=    0.000
 RMSDP=1.17D-07 MaxDP=6.72D-06 DE=-3.49D-10 OVMax= 5.61D-06

 Cycle  16  Pass 1  IDiag  1:
 RMSU=  4.79D-08    CP:  1.02D+00  2.29D-02  1.10D+00  1.21D+00  1.11D+00
                    CP:  1.11D+00  1.74D+00  1.27D+00  1.50D+00  1.30D+00
                    CP:  1.61D+00  1.64D+00  1.89D+00  1.74D+00  1.37D+00
 E= -10526.5697059835     Delta-E=       -0.000000000065 Rises=F Damp=F
 DIIS: error= 8.73D-08 at cycle  16 NSaved=  16.
 NSaved=16 IEnMin=16 EnMin= -10526.5697059835     IErMin=16 ErrMin= 8.73D-08
 ErrMax= 8.73D-08  0.00D+00 EMaxC= 1.00D+00 BMatC= 8.39D-12 BMatP= 3.31D-11
 IDIUse=1 WtCom= 1.00D+00 WtEn= 0.00D+00
 Coeff-Com:  0.308D-06-0.125D-06-0.120D-03 0.200D-04 0.586D-03 0.763D-03
 Coeff-Com: -0.113D-02-0.381D-02-0.117D-02 0.133D-01 0.220D-01 0.101D-01
 Coeff-Com: -0.791D-01-0.206D+00 0.366D+00 0.879D+00
 Coeff:      0.308D-06-0.125D-06-0.120D-03 0.200D-04 0.586D-03 0.763D-03
 Coeff:     -0.113D-02-0.381D-02-0.117D-02 0.133D-01 0.220D-01 0.101D-01
 Coeff:     -0.791D-01-0.206D+00 0.366D+00 0.879D+00
 Gap=     0.217 Goal=   None    Shift=    0.000
 Gap=     0.218 Goal=   None    Shift=    0.000
 RMSDP=5.97D-08 MaxDP=4.37D-06 DE=-6.55D-11 OVMax= 2.28D-06

 Cycle  17  Pass 1  IDiag  1:
 RMSU=  1.88D-08    CP:  1.02D+00  2.29D-02  1.10D+00  1.21D+00  1.11D+00
                    CP:  1.11D+00  1.74D+00  1.27D+00  1.50D+00  1.30D+00
                    CP:  1.61D+00  1.63D+00  1.92D+00  1.82D+00  1.56D+00
                    CP:  1.41D+00
 E= -10526.5697059836     Delta-E=       -0.000000000045 Rises=F Damp=F
 DIIS: error= 3.83D-08 at cycle  17 NSaved=  17.
 NSaved=17 IEnMin=17 EnMin= -10526.5697059836     IErMin=17 ErrMin= 3.83D-08
 ErrMax= 3.83D-08  0.00D+00 EMaxC= 1.00D+00 BMatC= 8.66D-13 BMatP= 8.39D-12
 IDIUse=1 WtCom= 1.00D+00 WtEn= 0.00D+00
 Coeff-Com:  0.366D-07 0.109D-07-0.455D-05-0.892D-05 0.168D-04 0.420D-04
 Coeff-Com:  0.172D-03-0.141D-03-0.706D-03-0.178D-02-0.560D-03 0.199D-01
 Coeff-Com:  0.692D-02-0.773D-01-0.498D-01 0.194D+00 0.909D+00
 Coeff:      0.366D-07 0.109D-07-0.455D-05-0.892D-05 0.168D-04 0.420D-04
 Coeff:      0.172D-03-0.141D-03-0.706D-03-0.178D-02-0.560D-03 0.199D-01
 Coeff:      0.692D-02-0.773D-01-0.498D-01 0.194D+00 0.909D+00
 Gap=     0.217 Goal=   None    Shift=    0.000
 Gap=     0.218 Goal=   None    Shift=    0.000
 RMSDP=1.72D-08 MaxDP=1.22D-06 DE=-4.55D-11 OVMax= 8.04D-07

 Cycle  18  Pass 1  IDiag  1:
 RMSU=  9.12D-09    CP:  1.02D+00  2.29D-02  1.10D+00  1.21D+00  1.11D+00
                    CP:  1.11D+00  1.74D+00  1.27D+00  1.50D+00  1.30D+00
                    CP:  1.61D+00  1.63D+00  1.90D+00  1.83D+00  1.59D+00
                    CP:  1.55D+00  1.27D+00
 E= -10526.5697059836     Delta-E=        0.000000000042 Rises=F Damp=F
 DIIS: error= 1.52D-08 at cycle  18 NSaved=  18.
 NSaved=18 IEnMin=17 EnMin= -10526.5697059836     IErMin=18 ErrMin= 1.52D-08
 ErrMax= 1.52D-08  0.00D+00 EMaxC= 1.00D+00 BMatC= 2.91D-13 BMatP= 8.66D-13
 IDIUse=1 WtCom= 1.00D+00 WtEn= 0.00D+00
 Coeff-Com: -0.392D-07 0.268D-07 0.202D-04-0.814D-05-0.102D-03-0.124D-03
 Coeff-Com:  0.303D-03 0.641D-03-0.187D-03-0.330D-02-0.420D-02 0.744D-02
 Coeff-Com:  0.173D-01 0.202D-02-0.881D-01-0.757D-01 0.428D+00 0.717D+00
 Coeff:     -0.392D-07 0.268D-07 0.202D-04-0.814D-05-0.102D-03-0.124D-03
 Coeff:      0.303D-03 0.641D-03-0.187D-03-0.330D-02-0.420D-02 0.744D-02
 Coeff:      0.173D-01 0.202D-02-0.881D-01-0.757D-01 0.428D+00 0.717D+00
 Gap=     0.217 Goal=   None    Shift=    0.000
 Gap=     0.218 Goal=   None    Shift=    0.000
 RMSDP=6.09D-09 MaxDP=3.73D-07 DE= 4.18D-11 OVMax= 2.64D-07

 Error on total polarization charges =  0.00773
 SCF Done:  E(UM062X) =  -10526.5697060     A.U. after   18 cycles
            NFock= 18  Conv=0.61D-08     -V/T= 2.0012
 <Sx>= 0.0000 <Sy>= 0.0000 <Sz>= 0.5000 <S**2>= 0.7589 S= 0.5045
 <L.S>=  0.00000000000    
 KE= 1.051344224994D+04 PE=-2.891305576895D+04 EE= 6.003805277603D+03
 SMD-CDS (non-electrostatic) energy       (kcal/mol) =       0.20
 (included in total energy above)
 Annihilation of the first spin contaminant:
 S**2 before annihilation     0.7589,   after     0.7501
 Leave Link  502 at Mon Sep 28 08:52:09 2026, MaxMem=  1610612736 cpu:            1433.4 elap:             179.5
 (Enter /share/software/user/restricted/gaussian/g16.B01/l701.exe)
 ... and contract with generalized density number  0.
 Compute integral first derivatives.
 D1PCM: PCM CHGder 1st derivatives, ID1Alg=3 FixD1E=F DoIter=F DoCFld=F I1PDM=0.
 GePol: Maximum number of non-zero 1st derivatives   =     473
 Leave Link  701 at Mon Sep 28 08:52:11 2026, MaxMem=  1610612736 cpu:              13.6 elap:               1.7
 (Enter /share/software/user/restricted/gaussian/g16.B01/l702.exe)
 L702 exits ... SP integral derivatives will be done elsewhere.
 Leave Link  702 at Mon Sep 28 08:52:11 2026, MaxMem=  1610612736 cpu:               0.2 elap:               0.0
 (Enter /share/software/user/restricted/gaussian/g16.B01/l703.exe)
 Integral derivatives from FoFJK, PRISM(SPDF).
 Compute integral first derivatives, UseDBF=F ICtDFT=           0.
 Calling FoFJK, ICntrl=      2127 FMM=F ISym2X=0 I1Cent= 0 IOpClX= 1 NMat=1 NMatS=1 NMatT=0.
 FoFJK:  IHMeth= 1 ICntrl=    2127 DoSepK=F KAlg= 0 I1Cent=           0 FoldK=F
 IRaf=         0 NMat=       1 IRICut=       1 DoRegI=T DoRafI=F ISym2E= 0 IDoP0=0 IntGTp=1.
 FoFCou: FMM=F IPFlag=           0 FMFlag=      100000 FMFlg1=         800
         NFxFlg=           0 DoJE=F BraDBF=F KetDBF=F FulRan=T
         wScrn=  0.000000 ICntrl=      2127 IOpCl=  1 I1Cent=           0 NGrid=           0
         NMat0=    1 NMatS0=      1 NMatT0=    0 NMatD0=    1 NMtDS0=    0 NMtDT0=    0
 Symmetry not used in FoFCou.
 Leave Link  703 at Mon Sep 28 08:52:27 2026, MaxMem=  1610612736 cpu:             129.9 elap:              16.2
 (Enter /share/software/user/restricted/gaussian/g16.B01/l716.exe)
 Dipole        =-2.62864267D+00 2.96906580D+00-1.56082790D-02
 ***** Axes restored to original set *****
 -------------------------------------------------------------------
 Center     Atomic                   Forces (Hartrees/Bohr)
 Number     Number              X              Y              Z
 -------------------------------------------------------------------
      1        6          -0.000121306   -0.011342160    0.005737115
      2        6          -0.000466839   -0.015676039   -0.016025702
      3        6           0.000076845    0.008449384    0.009543141
      4        6           0.000048170   -0.007244804    0.002914834
      5        6          -0.000161068    0.003487618   -0.002748722
      6        6           0.000224334   -0.000445702    0.002210991
      7       35           0.000168198    0.016471916   -0.001546299
      8       35          -0.000023027   -0.000552594   -0.001061617
      9       35           0.000219870   -0.001213305    0.001516742
     10       35           0.000034537    0.006669504   -0.000312900
     11        1          -0.000000059    0.000337146    0.001256106
     12        1           0.000000345    0.001059038   -0.001483689
 -------------------------------------------------------------------
 Cartesian Forces:  Max     0.016471916 RMS     0.005871976
 Leave Link  716 at Mon Sep 28 08:52:27 2026, MaxMem=  1610612736 cpu:               0.3 elap:               0.0
 (Enter /share/software/user/restricted/gaussian/g16.B01/l103.exe)

 GradGradGradGradGradGradGradGradGradGradGradGradGradGradGradGradGradGrad
 Berny optimization.
 Using GEDIIS/GDIIS optimizer.
 FormGI is forming the generalized inverse of G from B-inverse, IUseBI=4.
 Internal  Forces:  Max     0.016524660 RMS     0.003712867
 Search for a local minimum.
 Step number   3 out of a maximum of   64
 All quantities printed in internal units (Hartrees-Bohrs-Radians)
 RMS Force = .37129D-02 SwitMx=.10000D-02 MixMth= 1
 Mixed Optimization -- RFO/linear search
 Update second derivatives using D2CorX and points    3    2
 ITU=  0  1  0
 Use linear search instead of GDIIS.
     Eigenvalues ---    0.00483   0.00882   0.01783   0.02070   0.02286
     Eigenvalues ---    0.02562   0.02653   0.02937   0.03130   0.03281
     Eigenvalues ---    0.09019   0.11163   0.11297   0.12118   0.12793
     Eigenvalues ---    0.15661   0.19393   0.20012   0.21834   0.23691
     Eigenvalues ---    0.25381   0.28255   0.36067   0.36704   0.37474
     Eigenvalues ---    0.44190   0.45475   0.49672   0.53374   0.55825
 RFO step:  Lambda=-3.98949398D-04 EMin= 4.83473330D-03
 Quartic linear search produced a step of -0.85160.
 Iteration  1 RMS(Cart)=  0.09245703 RMS(Int)=  0.00892946
 Iteration  2 RMS(Cart)=  0.01229266 RMS(Int)=  0.00033810
 Iteration  3 RMS(Cart)=  0.00010455 RMS(Int)=  0.00032386
 Iteration  4 RMS(Cart)=  0.00000004 RMS(Int)=  0.00032386
 ITry= 1 IFail=0 DXMaxC= 5.08D-01 DCOld= 1.00D+10 DXMaxT= 5.05D-01 DXLimC= 3.00D+00 Rises=F
 Variable       Old X    -DE/DX   Delta X   Delta X   Delta X     New X
                                 (Linear)    (Quad)   (Total)
    R1        2.61827  -0.00334  -0.02248  -0.00255  -0.02496   2.59331
    R2        2.64056  -0.00312  -0.00786  -0.00014  -0.00801   2.63255
    R3        3.55356   0.01652   0.06054   0.03763   0.09818   3.65173
    R4        2.63562  -0.01011  -0.04159   0.00892  -0.03257   2.60305
    R5        4.86509  -0.00119  -0.11286   0.03191  -0.08095   4.78414
    R6        2.63717  -0.00045   0.00519  -0.00064   0.00457   2.64174
    R7        3.62086   0.00192   0.00905  -0.00384   0.00520   3.62606
    R8        2.61902   0.00474   0.01036   0.00120   0.01148   2.63050
    R9        3.63740  -0.00666  -0.03782   0.00519  -0.03263   3.60477
   R10        2.62300  -0.00063  -0.00023   0.00185   0.00151   2.62452
   R11        2.04899  -0.00126  -0.00297   0.00023  -0.00274   2.04626
   R12        2.04340   0.00181   0.00485  -0.00015   0.00470   2.04809
    A1        2.14693  -0.00366  -0.01879   0.00178  -0.01662   2.13031
    A2        2.09366   0.00329   0.02297  -0.00213   0.02076   2.11443
    A3        2.04260   0.00037  -0.00457   0.00034  -0.00431   2.03829
    A4        2.02347   0.01076   0.05833  -0.00131   0.05651   2.07998
    A5        2.11807  -0.00559  -0.04532   0.00406  -0.04257   2.07550
    A6        2.13968  -0.00515  -0.03832  -0.00456  -0.04395   2.09573
    A7        2.13638  -0.00623  -0.03671  -0.00213  -0.03833   2.09805
    A8        2.05979   0.00365   0.03157  -0.00209   0.02942   2.08921
    A9        2.08702   0.00258   0.00461   0.00423   0.00877   2.09578
   A10        2.09584  -0.00041  -0.00363   0.00279  -0.00064   2.09520
   A11        2.14109   0.00112   0.00591  -0.00331   0.00250   2.14359
   A12        2.04626  -0.00071  -0.00228   0.00052  -0.00186   2.04440
   A13        2.07664   0.00172   0.01757  -0.00248   0.01517   2.09181
   A14        2.11093  -0.00122  -0.01486   0.00166  -0.01323   2.09770
   A15        2.09561  -0.00051  -0.00274   0.00082  -0.00195   2.09367
   A16        2.08711  -0.00218  -0.01758   0.00126  -0.01618   2.07094
   A17        2.10892   0.00091   0.01272  -0.00129   0.01137   2.12030
   A18        2.08715   0.00127   0.00485   0.00002   0.00481   2.09195
    D1       -0.00133   0.00012   0.01693  -0.00847   0.00835   0.00702
    D2       -3.07718  -0.00008   0.18888   0.02190   0.21126  -2.86592
    D3        3.14040   0.00021   0.04527  -0.01647   0.02842  -3.11436
    D4        0.06456  -0.00000   0.21723   0.01391   0.23133   0.29589
    D5       -0.00156   0.00002   0.01825  -0.01261   0.00546   0.00389
    D6        3.14153  -0.00000   0.01222  -0.00844   0.00368  -3.13798
    D7        3.13989  -0.00006  -0.00880  -0.00483  -0.01378   3.12611
    D8       -0.00020  -0.00008  -0.01484  -0.00067  -0.01556  -0.01576
    D9        0.00348  -0.00018  -0.03624   0.02428  -0.01196  -0.00848
   D10       -3.13849  -0.00027  -0.06834   0.03802  -0.03007   3.11462
   D11        3.07844   0.00002  -0.21135  -0.00614  -0.21715   2.86128
   D12       -0.06353  -0.00007  -0.24346   0.00759  -0.23526  -0.29880
   D13       -0.00275   0.00008   0.02055  -0.01909   0.00189  -0.00086
   D14        3.13889   0.00004   0.02242  -0.02146   0.00119   3.14008
   D15        3.13923   0.00017   0.05257  -0.03303   0.02006  -3.12389
   D16       -0.00232   0.00013   0.05444  -0.03540   0.01936   0.01704
   D17       -0.00032   0.00009   0.01505  -0.00312   0.01219   0.01187
   D18       -3.14057  -0.00002   0.00612   0.00115   0.00725  -3.13332
   D19        3.14124   0.00013   0.01329  -0.00087   0.01285  -3.12910
   D20        0.00099   0.00002   0.00436   0.00339   0.00791   0.00890
   D21        0.00238  -0.00014  -0.03382   0.01830  -0.01564  -0.01326
   D22       -3.14069  -0.00012  -0.02789   0.01419  -0.01388   3.12861
   D23       -3.14054  -0.00003  -0.02491   0.01408  -0.01072   3.13192
   D24       -0.00043  -0.00001  -0.01897   0.00997  -0.00897  -0.00940
         Item               Value     Threshold  Converged?
 Maximum Force            0.016525     0.000015     NO 
 RMS     Force            0.003713     0.000010     NO 
 Maximum Displacement     0.508434     0.000060     NO 
 RMS     Displacement     0.103667     0.000040     NO 
 Predicted change in Energy=-3.090815D-04
 GradGradGradGradGradGradGradGradGradGradGradGradGradGradGradGradGradGrad

 Leave Link  103 at Mon Sep 28 08:52:27 2026, MaxMem=  1610612736 cpu:               0.3 elap:               0.0
 (Enter /share/software/user/restricted/gaussian/g16.B01/l202.exe)
                          Input orientation:                          
 ---------------------------------------------------------------------
 Center     Atomic      Atomic             Coordinates (Angstroms)
 Number     Number       Type             X           Y           Z
 ---------------------------------------------------------------------
      1          6           0        0.074287    1.286443   -1.155950
      2          6           0        0.111948    0.625191    0.045959
      3          6           0        0.079664   -0.751869    0.056026
      4          6           0       -0.000831   -1.462367   -1.145213
      5          6           0       -0.049714   -0.779248   -2.357082
      6          6           0       -0.004060    0.608771   -2.370572
      7         35           0        0.161530    3.215107   -1.238844
      8         35           0       -0.351841    1.920730    2.170995
      9         35           0        0.176433   -1.692999    1.725398
     10         35           0       -0.047667   -3.367958   -1.218141
     11          1           0       -0.119816   -1.327045   -3.288496
     12          1           0       -0.029932    1.140370   -3.314693
 ---------------------------------------------------------------------
                    Distance matrix (angstroms):
                    1          2          3          4          5
     1  C    0.000000
     2  C    1.372318   0.000000
     3  C    2.371419   1.377475   0.000000
     4  C    2.749857   2.406140   1.397949   0.000000
     5  C    2.392734   2.788045   2.416729   1.392001   0.000000
     6  C    1.393084   2.419370   2.783295   2.406476   1.388835
     7  Br   1.932415   2.891511   4.173761   4.681227   4.153306
     8  Br   3.413572   2.531660   3.435415   4.750346   5.280592
     9  Br   4.146044   2.863334   1.918827   2.885312   4.189598
    10  Br   4.656413   4.191499   2.912668   1.907561   2.828181
    11  H    3.378720   3.870857   3.399478   2.150845   1.082833
    12  H    2.166188   3.402870   3.867082   3.388470   2.145308
                    6          7          8          9         10
     6  C    0.000000
     7  Br   2.846263   0.000000
     8  Br   4.740045   3.683200   0.000000
     9  Br   4.701882   5.733800   3.679221   0.000000
    10  Br   4.140576   6.586420   6.288798   3.394131   0.000000
    11  H    2.145546   4.991130   6.356723   5.035953   2.908075
    12  H    1.083804   2.941146   5.550258   5.785593   4.972008
                   11         12
    11  H    0.000000
    12  H    2.469191   0.000000
 Stoichiometry    C6H2Br4(1-,2)
 Framework group  C1[X(C6H2Br4)]
 Deg. of freedom    30
 Full point group                 C1      NOp   1
 RotChk:  IX=1 Diff= 6.21D-02
 Largest Abelian subgroup         C1      NOp   1
 Largest concise Abelian subgroup C1      NOp   1
                         Standard orientation:                         
 ---------------------------------------------------------------------
 Center     Atomic      Atomic             Coordinates (Angstroms)
 Number     Number       Type             X           Y           Z
 ---------------------------------------------------------------------
      1          6           0        1.172055    1.287256   -0.040112
      2          6           0        0.626507    0.030797   -0.123463
      3          6           0       -0.743055   -0.110682   -0.081980
      4          6           0       -1.562553    1.013713    0.053750
      5          6           0       -0.996051    2.281684    0.148577
      6          6           0        0.383953    2.428153    0.093802
      7         35           0        3.083282    1.555560   -0.137319
      8         35           0        2.121321   -1.979531    0.241794
      9         35           0       -1.523865   -1.856139   -0.242010
     10         35           0       -3.465921    0.904240    0.116952
     11          1           0       -1.628294    3.153493    0.261479
     12          1           0        0.824569    3.416426    0.155482
 ---------------------------------------------------------------------
 Rotational constants (GHZ):           0.4879720           0.2175184           0.1515878
 Leave Link  202 at Mon Sep 28 08:52:27 2026, MaxMem=  1610612736 cpu:               0.0 elap:               0.0
 (Enter /share/software/user/restricted/gaussian/g16.B01/l301.exe)
 Standard basis: 6-311++G(d) (5D, 7F)
 Ernie: Thresh=  0.10000D-02 Tol=  0.10000D-05 Strict=F.
 There are   350 symmetry adapted cartesian basis functions of A   symmetry.
 There are   332 symmetry adapted basis functions of A   symmetry.
   332 basis functions,   604 primitive gaussians,   350 cartesian basis functions
    90 alpha electrons       89 beta electrons
       nuclear repulsion energy      1872.8394609561 Hartrees.
 IExCor= 4336 DFT=T Ex+Corr=M062X ExCW=0 ScaHFX=  0.540000
 ScaDFX=  1.000000  1.000000  1.000000  1.000000 ScalE2=  1.000000  1.000000
 IRadAn=      5 IRanWt=     -1 IRanGd=            0 ICorTp=0 IEmpDi=  4
 NAtoms=   12 NActive=   12 NUniq=   12 SFac= 1.00D+00 NAtFMM=   60 NAOKFM=F Big=F
 Integral buffers will be    131072 words long.
 Raffenetti 2 integral format.
 Two-electron integral symmetry is turned on.
 ------------------------------------------------------------------------------
 Polarizable Continuum Model (PCM)
 =================================
 Model                : PCM.
 Atomic radii         : SMD-Coulomb.
 Polarization charges : Total charges.
 Charge compensation  : None.
 Solution method      : Matrix inversion.
 Cavity type          : VdW (van der Waals Surface) (Alpha=1.000).
 Cavity algorithm     : GePol (No added spheres)
                        Default sphere list used, NSphG=   12.
                        Lebedev-Laikov grids with approx.  5.0 points / Ang**2.
                        Smoothing algorithm: York/Karplus (Gamma=1.0000).
                        Polarization charges: spherical gaussians, with
                                              point-specific exponents (IZeta= 3).
                        Self-potential: point-specific (ISelfS= 7).
                        Self-field    : sphere-specific E.n sum rule (ISelfD= 2).
 1st derivatives      : Analytical E(r).r(x)/FMM algorithm (CHGder, D1EAlg=3).
                        Cavity 1st derivative terms included.
 Solvent              : Water, Eps=  78.355300 Eps(inf)=   1.777849
 ------------------------------------------------------------------------------
 Spheres list:
 ISph  on   Nord     Re0    Alpha      Xe            Ye            Ze
    1   C      1    1.8500  1.000      1.172055      1.287256     -0.040112
    2   C      2    1.8500  1.000      0.626507      0.030797     -0.123463
    3   C      3    1.8500  1.000     -0.743055     -0.110682     -0.081980
    4   C      4    1.8500  1.000     -1.562553      1.013713      0.053750
    5   C      5    1.8500  1.000     -0.996051      2.281684      0.148577
    6   C      6    1.8500  1.000      0.383953      2.428153      0.093802
    7  Br      7    3.0600  1.000      3.083282      1.555560     -0.137319
    8  Br      8    3.0600  1.000      2.121321     -1.979531      0.241794
    9  Br      9    3.0600  1.000     -1.523865     -1.856139     -0.242010
   10  Br     10    3.0600  1.000     -3.465921      0.904240      0.116952
   11   H     11    1.2000  1.000     -1.628294      3.153493      0.261479
   12   H     12    1.2000  1.000      0.824569      3.416426      0.155482
 ------------------------------------------------------------------------------
 GePol: Number of generator spheres                  =      12
 GePol: Total number of spheres                      =      12
 GePol: Number of exposed spheres                    =      12 (100.00%)
 GePol: Number of points                             =    1864
 GePol: Average weight of points                     =       0.17
 GePol: Minimum weight of points                     =   0.14D-07
 GePol: Maximum weight of points                     =    0.22025
 GePol: Number of points with low weight             =      51
 GePol: Fraction of low-weight points (<1% of avg)   =       2.74%
 GePol: Cavity surface area                          =    321.786 Ang**2
 GePol: Cavity volume                                =    418.352 Ang**3
 ------------------------------------------------------------------------------
 Atomic radii for non-electrostatic terms: SMD-CDS.
 ------------------------------------------------------------------------------
 PCM non-electrostatic energy =         0.0003009225 Hartrees.
 Nuclear repulsion after PCM non-electrostatic terms =     1872.8397618786 Hartrees.
 Leave Link  301 at Mon Sep 28 08:52:27 2026, MaxMem=  1610612736 cpu:               0.9 elap:               0.1
 (Enter /share/software/user/restricted/gaussian/g16.B01/l302.exe)
 NPDir=0 NMtPBC=     1 NCelOv=     1 NCel=       1 NClECP=     1 NCelD=      1
         NCelK=      1 NCelE2=     1 NClLst=     1 CellRange=     0.0.
 One-electron integrals computed using PRISM.
 One-electron integral symmetry used in STVInt
 NBasis=   332 RedAO= T EigKep=  2.36D-06  NBF=   332
 NBsUse=   331 1.00D-06 EigRej=  4.71D-07 NBFU=   331
 Precomputing XC quadrature grid using
 IXCGrd= 4 IRadAn=           5 IRanWt=          -1 IRanGd=           0 AccXCQ= 0.00D+00.
 Generated NRdTot=       0 NPtTot=           0 NUsed=           0 NTot=          32
 NSgBfM=   337   337   337   337   337 MxSgAt=    12 MxSgA2=    12.
 Leave Link  302 at Mon Sep 28 08:52:28 2026, MaxMem=  1610612736 cpu:               2.1 elap:               0.3
 (Enter /share/software/user/restricted/gaussian/g16.B01/l303.exe)
 DipDrv:  MaxL=1.
 Leave Link  303 at Mon Sep 28 08:52:28 2026, MaxMem=  1610612736 cpu:               0.4 elap:               0.1
 (Enter /share/software/user/restricted/gaussian/g16.B01/l401.exe)
 Lowest energy guess from the checkpoint file:  "calcs/m062x_smd/chks/BrBz_1234_RA.chk"
 B after Tr=    -0.000000   -0.000000   -0.000000
         Rot=    0.999996   -0.000657   -0.000004   -0.002758 Ang=  -0.32 deg.
 Guess basis will be translated and rotated to current coordinates.
 B after Tr=     0.000000   -0.000000    0.000000
         Rot=    0.999875    0.000894    0.000365    0.015782 Ang=   1.81 deg.
 Guess basis will be translated and rotated to current coordinates.
 CkInt1:  FT= 1.48D-01
 Max alpha theta=  6.872 degrees.
 Max  beta theta=  4.687 degrees.
 JPrj=2 DoOrth=T DoCkMO=T.
 Initial guess <Sx>= 0.0000 <Sy>= 0.0000 <Sz>= 0.5000 <S**2>= 0.7579 S= 0.5039
 Leave Link  401 at Mon Sep 28 08:52:28 2026, MaxMem=  1610612736 cpu:               4.4 elap:               0.6
 (Enter /share/software/user/restricted/gaussian/g16.B01/l502.exe)
 Integral symmetry usage will be decided dynamically.
 UHF open shell SCF:
 Using DIIS extrapolation, IDIIS=  1040.
 NGot=  1610612736 LenX=  1610361870 LenY=  1610238929
 Requested convergence on RMS density matrix=1.00D-08 within 128 cycles.
 Requested convergence on MAX density matrix=1.00D-06.
 Requested convergence on             energy=1.00D-06.
 No special actions if energy rises.
 Fock matrices will be formed incrementally for  20 cycles.

 Cycle   1  Pass 1  IDiag  1:
 FoFJK:  IHMeth= 1 ICntrl=       0 DoSepK=F KAlg= 0 I1Cent=           0 FoldK=F
 IRaf= 790000000 NMat=       1 IRICut=       1 DoRegI=T DoRafI=F ISym2E= 0 IDoP0=0 IntGTp=1.
 FoFCou: FMM=F IPFlag=           0 FMFlag=      100000 FMFlg1=           0
         NFxFlg=           0 DoJE=F BraDBF=F KetDBF=F FulRan=T
         wScrn=  0.000000 ICntrl=         0 IOpCl=  1 I1Cent=           0 NGrid=           0
         NMat0=    1 NMatS0=      1 NMatT0=    0 NMatD0=    1 NMtDS0=    0 NMtDT0=    0
 Symmetry not used in FoFCou.
 Inv3:  Mode=1 IEnd=    10423488.
 Iteration    1 A*A^-1 deviation from unit magnitude is 6.99D-15 for   1853.
 Iteration    1 A*A^-1 deviation from orthogonality  is 2.01D-15 for   1858   1170.
 Iteration    1 A^-1*A deviation from unit magnitude is 6.77D-15 for   1853.
 Iteration    1 A^-1*A deviation from orthogonality  is 1.38D-15 for   1863   1861.
 E= -10526.5705390644    
 DIIS: error= 5.12D-03 at cycle   1 NSaved=   1.
 NSaved= 1 IEnMin= 1 EnMin= -10526.5705390644     IErMin= 1 ErrMin= 5.12D-03
 ErrMax= 5.12D-03  0.00D+00 EMaxC= 1.00D-01 BMatC= 2.14D-02 BMatP= 2.14D-02
 IDIUse=3 WtCom= 9.49D-01 WtEn= 5.12D-02
 Coeff-Com:  0.100D+01
 Coeff-En:   0.100D+01
 Coeff:      0.100D+01
 Gap=   480.912 Goal=   None    Shift=    0.000
 Gap=   477.690 Goal=   None    Shift=    0.000
 GapD=  477.690 DampG=2.000 DampE=1.000 DampFc=2.0000 IDamp=-1.
 RMSDP=9.27D-04 MaxDP=3.22D-02              OVMax= 7.20D-03

 Cycle   2  Pass 1  IDiag  1:
 RMSU=  9.25D-04    CP:  9.98D-01
 E= -10526.5716425826     Delta-E=       -0.001103518232 Rises=F Damp=F
 DIIS: error= 2.75D-04 at cycle   2 NSaved=   2.
 NSaved= 2 IEnMin= 2 EnMin= -10526.5716425826     IErMin= 2 ErrMin= 2.75D-04
 ErrMax= 2.75D-04  0.00D+00 EMaxC= 1.00D-01 BMatC= 8.69D-05 BMatP= 2.14D-02
 IDIUse=3 WtCom= 9.97D-01 WtEn= 2.75D-03
 Coeff-Com: -0.672D-02 0.101D+01
 Coeff-En:   0.000D+00 0.100D+01
 Coeff:     -0.671D-02 0.101D+01
 Gap=     0.211 Goal=   None    Shift=    0.000
 Gap=     0.218 Goal=   None    Shift=    0.000
 RMSDP=2.22D-04 MaxDP=8.11D-03 DE=-1.10D-03 OVMax= 3.88D-03

 Cycle   3  Pass 1  IDiag  1:
 RMSU=  1.92D-04    CP:  9.99D-01  1.11D+00
 E= -10526.5716814206     Delta-E=       -0.000038837954 Rises=F Damp=F
 DIIS: error= 1.85D-04 at cycle   3 NSaved=   3.
 NSaved= 3 IEnMin= 3 EnMin= -10526.5716814206     IErMin= 3 ErrMin= 1.85D-04
 ErrMax= 1.85D-04  0.00D+00 EMaxC= 1.00D-01 BMatC= 6.43D-05 BMatP= 8.69D-05
 IDIUse=3 WtCom= 9.98D-01 WtEn= 1.85D-03
 Coeff-Com: -0.599D-02 0.454D+00 0.552D+00
 Coeff-En:   0.000D+00 0.000D+00 0.100D+01
 Coeff:     -0.598D-02 0.454D+00 0.552D+00
 Gap=     0.211 Goal=   None    Shift=    0.000
 Gap=     0.218 Goal=   None    Shift=    0.000
 RMSDP=7.91D-05 MaxDP=3.86D-03 DE=-3.88D-05 OVMax= 1.17D-03

 Cycle   4  Pass 1  IDiag  1:
 RMSU=  6.38D-05    CP:  9.99D-01  1.12D+00  7.63D-01
 E= -10526.5716969818     Delta-E=       -0.000015561289 Rises=F Damp=F
 DIIS: error= 6.61D-05 at cycle   4 NSaved=   4.
 NSaved= 4 IEnMin= 4 EnMin= -10526.5716969818     IErMin= 4 ErrMin= 6.61D-05
 ErrMax= 6.61D-05  0.00D+00 EMaxC= 1.00D-01 BMatC= 9.03D-06 BMatP= 6.43D-05
 IDIUse=1 WtCom= 1.00D+00 WtEn= 0.00D+00
 Coeff-Com: -0.450D-03-0.990D-01 0.225D+00 0.875D+00
 Coeff:     -0.450D-03-0.990D-01 0.225D+00 0.875D+00
 Gap=     0.211 Goal=   None    Shift=    0.000
 Gap=     0.218 Goal=   None    Shift=    0.000
 RMSDP=3.85D-05 MaxDP=1.47D-03 DE=-1.56D-05 OVMax= 1.45D-03

 Cycle   5  Pass 1  IDiag  1:
 RMSU=  2.41D-05    CP:  9.99D-01  1.14D+00  9.00D-01  1.10D+00
 E= -10526.5717004629     Delta-E=       -0.000003481024 Rises=F Damp=F
 DIIS: error= 3.83D-05 at cycle   5 NSaved=   5.
 NSaved= 5 IEnMin= 5 EnMin= -10526.5717004629     IErMin= 5 ErrMin= 3.83D-05
 ErrMax= 3.83D-05  0.00D+00 EMaxC= 1.00D-01 BMatC= 1.53D-06 BMatP= 9.03D-06
 IDIUse=1 WtCom= 1.00D+00 WtEn= 0.00D+00
 Coeff-Com:  0.268D-03-0.907D-01 0.653D-01 0.447D+00 0.578D+00
 Coeff:      0.268D-03-0.907D-01 0.653D-01 0.447D+00 0.578D+00
 Gap=     0.211 Goal=   None    Shift=    0.000
 Gap=     0.218 Goal=   None    Shift=    0.000
 RMSDP=1.18D-05 MaxDP=5.08D-04 DE=-3.48D-06 OVMax= 3.89D-04

 Cycle   6  Pass 1  IDiag  1:
 RMSU=  8.46D-06    CP:  9.99D-01  1.14D+00  9.33D-01  1.17D+00  8.92D-01
 E= -10526.5717009531     Delta-E=       -0.000000490254 Rises=F Damp=F
 DIIS: error= 8.29D-06 at cycle   6 NSaved=   6.
 NSaved= 6 IEnMin= 6 EnMin= -10526.5717009531     IErMin= 6 ErrMin= 8.29D-06
 ErrMax= 8.29D-06  0.00D+00 EMaxC= 1.00D-01 BMatC= 1.24D-07 BMatP= 1.53D-06
 IDIUse=1 WtCom= 1.00D+00 WtEn= 0.00D+00
 Coeff-Com:  0.173D-03-0.235D-01-0.637D-02 0.586D-01 0.220D+00 0.751D+00
 Coeff:      0.173D-03-0.235D-01-0.637D-02 0.586D-01 0.220D+00 0.751D+00
 Gap=     0.211 Goal=   None    Shift=    0.000
 Gap=     0.218 Goal=   None    Shift=    0.000
 RMSDP=7.02D-06 MaxDP=2.98D-04 DE=-4.90D-07 OVMax= 3.11D-04

 Cycle   7  Pass 1  IDiag  1:
 RMSU=  4.16D-06    CP:  9.99D-01  1.14D+00  9.55D-01  1.19D+00  9.17D-01
                    CP:  1.37D+00
 E= -10526.5717010335     Delta-E=       -0.000000080388 Rises=F Damp=F
 DIIS: error= 5.63D-06 at cycle   7 NSaved=   7.
 NSaved= 7 IEnMin= 7 EnMin= -10526.5717010335     IErMin= 7 ErrMin= 5.63D-06
 ErrMax= 5.63D-06  0.00D+00 EMaxC= 1.00D-01 BMatC= 1.95D-08 BMatP= 1.24D-07
 IDIUse=1 WtCom= 1.00D+00 WtEn= 0.00D+00
 Coeff-Com: -0.125D-05 0.108D-01-0.150D-01-0.674D-01-0.454D-01 0.199D+00
 Coeff-Com:  0.918D+00
 Coeff:     -0.125D-05 0.108D-01-0.150D-01-0.674D-01-0.454D-01 0.199D+00
 Coeff:      0.918D+00
 Gap=     0.211 Goal=   None    Shift=    0.000
 Gap=     0.218 Goal=   None    Shift=    0.000
 RMSDP=3.75D-06 MaxDP=2.00D-04 DE=-8.04D-08 OVMax= 2.23D-04

 Cycle   8  Pass 1  IDiag  1:
 RMSU=  1.44D-06    CP:  9.99D-01  1.14D+00  9.55D-01  1.21D+00  9.93D-01
                    CP:  1.66D+00  1.22D+00
 E= -10526.5717010566     Delta-E=       -0.000000023136 Rises=F Damp=F
 DIIS: error= 1.98D-06 at cycle   8 NSaved=   8.
 NSaved= 8 IEnMin= 8 EnMin= -10526.5717010566     IErMin= 8 ErrMin= 1.98D-06
 ErrMax= 1.98D-06  0.00D+00 EMaxC= 1.00D-01 BMatC= 4.65D-09 BMatP= 1.95D-08
 IDIUse=1 WtCom= 1.00D+00 WtEn= 0.00D+00
 Coeff-Com: -0.363D-04 0.944D-02-0.545D-02-0.406D-01-0.585D-01-0.628D-01
 Coeff-Com:  0.346D+00 0.812D+00
 Coeff:     -0.363D-04 0.944D-02-0.545D-02-0.406D-01-0.585D-01-0.628D-01
 Coeff:      0.346D+00 0.812D+00
 Gap=     0.211 Goal=   None    Shift=    0.000
 Gap=     0.218 Goal=   None    Shift=    0.000
 RMSDP=1.68D-06 MaxDP=8.05D-05 DE=-2.31D-08 OVMax= 1.04D-04

 Cycle   9  Pass 1  IDiag  1:
 RMSU=  5.07D-07    CP:  9.99D-01  1.14D+00  9.53D-01  1.22D+00  1.02D+00
                    CP:  1.77D+00  1.40D+00  1.48D+00
 E= -10526.5717010614     Delta-E=       -0.000000004798 Rises=F Damp=F
 DIIS: error= 7.68D-07 at cycle   9 NSaved=   9.
 NSaved= 9 IEnMin= 9 EnMin= -10526.5717010614     IErMin= 9 ErrMin= 7.68D-07
 ErrMax= 7.68D-07  0.00D+00 EMaxC= 1.00D-01 BMatC= 7.04D-10 BMatP= 4.65D-09
 IDIUse=1 WtCom= 1.00D+00 WtEn= 0.00D+00
 Coeff-Com: -0.525D-05-0.487D-03 0.189D-02 0.544D-02 0.248D-03-0.507D-01
 Coeff-Com: -0.111D+00 0.140D+00 0.101D+01
 Coeff:     -0.525D-05-0.487D-03 0.189D-02 0.544D-02 0.248D-03-0.507D-01
 Coeff:     -0.111D+00 0.140D+00 0.101D+01
 Gap=     0.211 Goal=   None    Shift=    0.000
 Gap=     0.218 Goal=   None    Shift=    0.000
 RMSDP=8.34D-07 MaxDP=3.65D-05 DE=-4.80D-09 OVMax= 4.58D-05

 Cycle  10  Pass 1  IDiag  1:
 RMSU=  3.09D-07    CP:  9.99D-01  1.14D+00  9.54D-01  1.22D+00  1.03D+00
                    CP:  1.81D+00  1.50D+00  1.78D+00  1.58D+00
 E= -10526.5717010624     Delta-E=       -0.000000000908 Rises=F Damp=F
 DIIS: error= 3.95D-07 at cycle  10 NSaved=  10.
 NSaved=10 IEnMin=10 EnMin= -10526.5717010624     IErMin=10 ErrMin= 3.95D-07
 ErrMax= 3.95D-07  0.00D+00 EMaxC= 1.00D-01 BMatC= 2.76D-10 BMatP= 7.04D-10
 IDIUse=1 WtCom= 1.00D+00 WtEn= 0.00D+00
 Coeff-Com:  0.386D-05-0.200D-02 0.205D-02 0.102D-01 0.114D-01-0.155D-01
 Coeff-Com: -0.119D+00-0.791D-01 0.525D+00 0.667D+00
 Coeff:      0.386D-05-0.200D-02 0.205D-02 0.102D-01 0.114D-01-0.155D-01
 Coeff:     -0.119D+00-0.791D-01 0.525D+00 0.667D+00
 Gap=     0.211 Goal=   None    Shift=    0.000
 Gap=     0.218 Goal=   None    Shift=    0.000
 RMSDP=2.64D-07 MaxDP=1.24D-05 DE=-9.08D-10 OVMax= 1.21D-05

 Cycle  11  Pass 1  IDiag  1:
 RMSU=  1.44D-07    CP:  9.99D-01  1.14D+00  9.53D-01  1.22D+00  1.03D+00
                    CP:  1.81D+00  1.52D+00  1.90D+00  1.64D+00  9.09D-01
 E= -10526.5717010625     Delta-E=       -0.000000000169 Rises=F Damp=F
 DIIS: error= 2.67D-07 at cycle  11 NSaved=  11.
 NSaved=11 IEnMin=11 EnMin= -10526.5717010625     IErMin=11 ErrMin= 2.67D-07
 ErrMax= 2.67D-07  0.00D+00 EMaxC= 1.00D-01 BMatC= 5.42D-11 BMatP= 2.76D-10
 IDIUse=1 WtCom= 1.00D+00 WtEn= 0.00D+00
 Coeff-Com:  0.232D-05-0.578D-03 0.306D-03 0.220D-02 0.454D-02 0.543D-02
 Coeff-Com: -0.184D-01-0.536D-01-0.454D-01 0.268D+00 0.837D+00
 Coeff:      0.232D-05-0.578D-03 0.306D-03 0.220D-02 0.454D-02 0.543D-02
 Coeff:     -0.184D-01-0.536D-01-0.454D-01 0.268D+00 0.837D+00
 Gap=     0.211 Goal=   None    Shift=    0.000
 Gap=     0.218 Goal=   None    Shift=    0.000
 RMSDP=1.21D-07 MaxDP=6.71D-06 DE=-1.69D-10 OVMax= 5.17D-06

 Cycle  12  Pass 1  IDiag  1:
 RMSU=  5.02D-08    CP:  9.99D-01  1.14D+00  9.53D-01  1.22D+00  1.03D+00
                    CP:  1.81D+00  1.52D+00  1.94D+00  1.65D+00  1.11D+00
                    CP:  1.24D+00
 E= -10526.5717010626     Delta-E=       -0.000000000058 Rises=F Damp=F
 DIIS: error= 1.48D-07 at cycle  12 NSaved=  12.
 NSaved=12 IEnMin=12 EnMin= -10526.5717010626     IErMin=12 ErrMin= 1.48D-07
 ErrMax= 1.48D-07  0.00D+00 EMaxC= 1.00D-01 BMatC= 1.16D-11 BMatP= 5.42D-11
 IDIUse=1 WtCom= 1.00D+00 WtEn= 0.00D+00
 Coeff-Com: -0.395D-06 0.406D-03-0.489D-03-0.240D-02-0.157D-02 0.604D-02
 Coeff-Com:  0.277D-01 0.942D-02-0.175D+00-0.838D-01 0.221D+00 0.999D+00
 Coeff:     -0.395D-06 0.406D-03-0.489D-03-0.240D-02-0.157D-02 0.604D-02
 Coeff:      0.277D-01 0.942D-02-0.175D+00-0.838D-01 0.221D+00 0.999D+00
 Gap=     0.211 Goal=   None    Shift=    0.000
 Gap=     0.218 Goal=   None    Shift=    0.000
 RMSDP=7.96D-08 MaxDP=4.59D-06 DE=-5.82D-11 OVMax= 3.71D-06

 Cycle  13  Pass 1  IDiag  1:
 RMSU=  2.91D-08    CP:  9.99D-01  1.14D+00  9.53D-01  1.22D+00  1.03D+00
                    CP:  1.81D+00  1.52D+00  1.95D+00  1.63D+00  1.25D+00
                    CP:  1.56D+00  1.22D+00
 E= -10526.5717010626     Delta-E=       -0.000000000035 Rises=F Damp=F
 DIIS: error= 7.25D-08 at cycle  13 NSaved=  13.
 NSaved=13 IEnMin=13 EnMin= -10526.5717010626     IErMin=13 ErrMin= 7.25D-08
 ErrMax= 7.25D-08  0.00D+00 EMaxC= 1.00D-01 BMatC= 2.97D-12 BMatP= 1.16D-11
 IDIUse=1 WtCom= 1.00D+00 WtEn= 0.00D+00
 Coeff-Com: -0.821D-06 0.294D-03-0.208D-03-0.137D-02-0.182D-02-0.546D-03
 Coeff-Com:  0.134D-01 0.218D-01-0.368D-01-0.976D-01-0.212D+00 0.287D+00
 Coeff-Com:  0.103D+01
 Coeff:     -0.821D-06 0.294D-03-0.208D-03-0.137D-02-0.182D-02-0.546D-03
 Coeff:      0.134D-01 0.218D-01-0.368D-01-0.976D-01-0.212D+00 0.287D+00
 Coeff:      0.103D+01
 Gap=     0.211 Goal=   None    Shift=    0.000
 Gap=     0.218 Goal=   None    Shift=    0.000
 RMSDP=4.99D-08 MaxDP=2.61D-06 DE=-3.46D-11 OVMax= 2.09D-06

 Cycle  14  Pass 1  IDiag  1:
 RMSU=  1.09D-08    CP:  9.99D-01  1.14D+00  9.53D-01  1.22D+00  1.03D+00
                    CP:  1.80D+00  1.52D+00  1.94D+00  1.60D+00  1.31D+00
                    CP:  1.72D+00  1.34D+00  1.78D+00
 E= -10526.5717010626     Delta-E=        0.000000000044 Rises=F Damp=F
 DIIS: error= 2.65D-08 at cycle  14 NSaved=  14.
 NSaved=14 IEnMin=13 EnMin= -10526.5717010626     IErMin=14 ErrMin= 2.65D-08
 ErrMax= 2.65D-08  0.00D+00 EMaxC= 1.00D-01 BMatC= 4.30D-13 BMatP= 2.97D-12
 IDIUse=1 WtCom= 1.00D+00 WtEn= 0.00D+00
 Coeff-Com:  0.170D-07-0.542D-04 0.779D-04 0.347D-03 0.131D-03-0.118D-02
 Coeff-Com: -0.389D-02-0.615D-03 0.294D-01 0.103D-01-0.601D-01-0.172D+00
 Coeff-Com:  0.911D-01 0.111D+01
 Coeff:      0.170D-07-0.542D-04 0.779D-04 0.347D-03 0.131D-03-0.118D-02
 Coeff:     -0.389D-02-0.615D-03 0.294D-01 0.103D-01-0.601D-01-0.172D+00
 Coeff:      0.911D-01 0.111D+01
 Gap=     0.211 Goal=   None    Shift=    0.000
 Gap=     0.218 Goal=   None    Shift=    0.000
 RMSDP=2.07D-08 MaxDP=1.03D-06 DE= 4.37D-11 OVMax= 6.07D-07

 Cycle  15  Pass 1  IDiag  1:
 RMSU=  5.68D-09    CP:  9.99D-01  1.14D+00  9.53D-01  1.22D+00  1.03D+00
                    CP:  1.80D+00  1.52D+00  1.95D+00  1.58D+00  1.32D+00
                    CP:  1.77D+00  1.41D+00  2.10D+00  1.33D+00
 E= -10526.5717010625     Delta-E=        0.000000000025 Rises=F Damp=F
 DIIS: error= 1.26D-08 at cycle  15 NSaved=  15.
 NSaved=15 IEnMin=13 EnMin= -10526.5717010626     IErMin=15 ErrMin= 1.26D-08
 ErrMax= 1.26D-08  0.00D+00 EMaxC= 1.00D-01 BMatC= 1.09D-13 BMatP= 4.30D-13
 IDIUse=1 WtCom= 1.00D+00 WtEn= 0.00D+00
 Coeff-Com:  0.177D-06-0.743D-04 0.617D-04 0.377D-03 0.396D-03-0.187D-03
 Coeff-Com: -0.371D-02-0.445D-02 0.145D-01 0.212D-01 0.320D-01-0.921D-01
 Coeff-Com: -0.192D+00 0.272D+00 0.953D+00
 Coeff:      0.177D-06-0.743D-04 0.617D-04 0.377D-03 0.396D-03-0.187D-03
 Coeff:     -0.371D-02-0.445D-02 0.145D-01 0.212D-01 0.320D-01-0.921D-01
 Coeff:     -0.192D+00 0.272D+00 0.953D+00
 Gap=     0.211 Goal=   None    Shift=    0.000
 Gap=     0.218 Goal=   None    Shift=    0.000
 RMSDP=5.54D-09 MaxDP=2.23D-07 DE= 2.55D-11 OVMax= 2.51D-07

 Error on total polarization charges =  0.00780
 SCF Done:  E(UM062X) =  -10526.5717011     A.U. after   15 cycles
            NFock= 15  Conv=0.55D-08     -V/T= 2.0012
 <Sx>= 0.0000 <Sy>= 0.0000 <Sz>= 0.5000 <S**2>= 0.7580 S= 0.5040
 <L.S>=  0.00000000000    
 KE= 1.051343535658D+04 PE=-2.892030385307D+04 EE= 6.007457033545D+03
 SMD-CDS (non-electrostatic) energy       (kcal/mol) =       0.19
 (included in total energy above)
 Annihilation of the first spin contaminant:
 S**2 before annihilation     0.7580,   after     0.7500
 Leave Link  502 at Mon Sep 28 08:54:58 2026, MaxMem=  1610612736 cpu:            1198.9 elap:             150.1
 (Enter /share/software/user/restricted/gaussian/g16.B01/l701.exe)
 ... and contract with generalized density number  0.
 Compute integral first derivatives.
 D1PCM: PCM CHGder 1st derivatives, ID1Alg=3 FixD1E=F DoIter=F DoCFld=F I1PDM=0.
 GePol: Maximum number of non-zero 1st derivatives   =     470
 Leave Link  701 at Mon Sep 28 08:55:00 2026, MaxMem=  1610612736 cpu:              13.7 elap:               1.8
 (Enter /share/software/user/restricted/gaussian/g16.B01/l702.exe)
 L702 exits ... SP integral derivatives will be done elsewhere.
 Leave Link  702 at Mon Sep 28 08:55:00 2026, MaxMem=  1610612736 cpu:               0.3 elap:               0.0
 (Enter /share/software/user/restricted/gaussian/g16.B01/l703.exe)
 Integral derivatives from FoFJK, PRISM(SPDF).
 Compute integral first derivatives, UseDBF=F ICtDFT=           0.
 Calling FoFJK, ICntrl=      2127 FMM=F ISym2X=0 I1Cent= 0 IOpClX= 1 NMat=1 NMatS=1 NMatT=0.
 FoFJK:  IHMeth= 1 ICntrl=    2127 DoSepK=F KAlg= 0 I1Cent=           0 FoldK=F
 IRaf=         0 NMat=       1 IRICut=       1 DoRegI=T DoRafI=F ISym2E= 0 IDoP0=0 IntGTp=1.
 FoFCou: FMM=F IPFlag=           0 FMFlag=      100000 FMFlg1=         800
         NFxFlg=           0 DoJE=F BraDBF=F KetDBF=F FulRan=T
         wScrn=  0.000000 ICntrl=      2127 IOpCl=  1 I1Cent=           0 NGrid=           0
         NMat0=    1 NMatS0=      1 NMatT0=    0 NMatD0=    1 NMtDS0=    0 NMtDT0=    0
 Symmetry not used in FoFCou.
 Leave Link  703 at Mon Sep 28 08:55:17 2026, MaxMem=  1610612736 cpu:             130.2 elap:              16.3
 (Enter /share/software/user/restricted/gaussian/g16.B01/l716.exe)
 Dipole        =-2.54059875D+00 2.90349532D+00-1.13698876D-01
 ***** Axes restored to original set *****
 -------------------------------------------------------------------
 Center     Atomic                   Forces (Hartrees/Bohr)
 Number     Number              X              Y              Z
 -------------------------------------------------------------------
      1        6           0.000209911    0.001737516   -0.000149447
      2        6           0.000121908   -0.001120418   -0.001145790
      3        6          -0.000031884    0.000620804    0.000117281
      4        6          -0.000071307   -0.000472484    0.000420460
      5        6          -0.000027672    0.000295737   -0.000171524
      6        6          -0.000070750    0.000143997    0.000209913
      7       35          -0.000183535   -0.001671622   -0.000044111
      8       35          -0.000118588    0.000165602    0.000410729
      9       35           0.000125168   -0.000310490    0.000425403
     10       35          -0.000015333    0.000485714   -0.000073744
     11        1           0.000064454    0.000045618    0.000096836
     12        1          -0.000002374    0.000080027   -0.000096007
 -------------------------------------------------------------------
 Cartesian Forces:  Max     0.001737516 RMS     0.000534039
 Leave Link  716 at Mon Sep 28 08:55:17 2026, MaxMem=  1610612736 cpu:               0.3 elap:               0.1
 (Enter /share/software/user/restricted/gaussian/g16.B01/l103.exe)

 GradGradGradGradGradGradGradGradGradGradGradGradGradGradGradGradGradGrad
 Berny optimization.
 Using GEDIIS/GDIIS optimizer.
 FormGI is forming the generalized inverse of G from B-inverse, IUseBI=4.
 Internal  Forces:  Max     0.001675118 RMS     0.000313178
 Search for a local minimum.
 Step number   4 out of a maximum of   64
 All quantities printed in internal units (Hartrees-Bohrs-Radians)
 RMS Force = .31318D-03 SwitMx=.10000D-02 MixMth= 2
 Mixed Optimization -- En-DIIS/RFO-DIIS
 Update second derivatives using D2CorX and points    3    2    4
 DE= -2.14D-04 DEPred=-3.09D-04 R= 6.93D-01
 TightC=F SS=  1.41D+00  RLast= 1.40D-01 DXNew= 8.4853D-01 4.1901D-01
 Trust test= 6.93D-01 RLast= 1.40D-01 DXMaxT set to 5.05D-01
 ITU=  1  0  1  0
 Use linear search instead of GDIIS.
     Eigenvalues ---    0.00478   0.00907   0.01779   0.01992   0.02271
     Eigenvalues ---    0.02464   0.02630   0.02888   0.03029   0.03284
     Eigenvalues ---    0.10699   0.11256   0.11470   0.12063   0.12748
     Eigenvalues ---    0.15674   0.19413   0.20003   0.22492   0.23656
     Eigenvalues ---    0.25844   0.28215   0.36074   0.36538   0.37478
     Eigenvalues ---    0.44230   0.45523   0.49714   0.53273   0.56087
 RFO step:  Lambda=-3.61742110D-05 EMin= 4.77721538D-03
 Quartic linear search produced a step of -0.12456.
 Iteration  1 RMS(Cart)=  0.00582735 RMS(Int)=  0.00002730
 Iteration  2 RMS(Cart)=  0.00003597 RMS(Int)=  0.00000816
 Iteration  3 RMS(Cart)=  0.00000000 RMS(Int)=  0.00000816
 ITry= 1 IFail=0 DXMaxC= 2.62D-02 DCOld= 1.00D+10 DXMaxT= 5.05D-01 DXLimC= 3.00D+00 Rises=F
 Variable       Old X    -DE/DX   Delta X   Delta X   Delta X     New X
                                 (Linear)    (Quad)   (Total)
    R1        2.59331   0.00009  -0.00018   0.00104   0.00086   2.59417
    R2        2.63255  -0.00045  -0.00015   0.00005  -0.00010   2.63245
    R3        3.65173  -0.00168  -0.00337  -0.00861  -0.01198   3.63976
    R4        2.60305  -0.00053  -0.00203  -0.00019  -0.00222   2.60083
    R5        4.78414   0.00045  -0.00642   0.02277   0.01635   4.80049
    R6        2.64174  -0.00017   0.00019  -0.00011   0.00008   2.64182
    R7        3.62606   0.00053   0.00068   0.00107   0.00174   3.62780
    R8        2.63050   0.00035   0.00008   0.00108   0.00116   2.63166
    R9        3.60477  -0.00048  -0.00147  -0.00147  -0.00294   3.60183
   R10        2.62452  -0.00013  -0.00022   0.00016  -0.00007   2.62445
   R11        2.04626  -0.00011  -0.00009  -0.00024  -0.00034   2.04592
   R12        2.04809   0.00012   0.00012   0.00036   0.00049   2.04858
    A1        2.13031  -0.00011  -0.00068  -0.00373  -0.00439   2.12591
    A2        2.11443   0.00029   0.00077   0.00158   0.00235   2.11678
    A3        2.03829  -0.00018  -0.00013   0.00222   0.00209   2.04037
    A4        2.07998   0.00055   0.00149   0.00460   0.00610   2.08607
    A5        2.07550  -0.00013  -0.00133  -0.00245  -0.00381   2.07169
    A6        2.09573  -0.00042  -0.00013  -0.00496  -0.00512   2.09061
    A7        2.09805  -0.00041  -0.00059  -0.00256  -0.00313   2.09492
    A8        2.08921   0.00029   0.00095   0.00147   0.00243   2.09163
    A9        2.09578   0.00012  -0.00042   0.00111   0.00069   2.09647
   A10        2.09520   0.00001  -0.00045  -0.00008  -0.00052   2.09468
   A11        2.14359   0.00015   0.00055   0.00025   0.00080   2.14439
   A12        2.04440  -0.00016  -0.00010  -0.00017  -0.00028   2.04412
   A13        2.09181   0.00017   0.00068   0.00092   0.00161   2.09342
   A14        2.09770  -0.00010  -0.00053  -0.00066  -0.00119   2.09652
   A15        2.09367  -0.00007  -0.00016  -0.00026  -0.00042   2.09324
   A16        2.07094  -0.00021  -0.00056   0.00090   0.00035   2.07129
   A17        2.12030   0.00009   0.00044  -0.00052  -0.00007   2.12022
   A18        2.09195   0.00012   0.00011  -0.00038  -0.00028   2.09168
    D1        0.00702  -0.00001   0.00144  -0.00311  -0.00167   0.00535
    D2       -2.86592   0.00006   0.00131   0.00922   0.01054  -2.85538
    D3       -3.11436  -0.00007   0.00308  -0.00771  -0.00464  -3.11900
    D4        0.29589  -0.00001   0.00296   0.00462   0.00757   0.30346
    D5        0.00389   0.00001   0.00199  -0.00040   0.00158   0.00547
    D6       -3.13798   0.00001   0.00133   0.00042   0.00174  -3.13623
    D7        3.12611   0.00008   0.00043   0.00401   0.00443   3.13054
    D8       -0.01576   0.00008  -0.00023   0.00483   0.00460  -0.01116
    D9       -0.00848  -0.00002  -0.00381   0.00342  -0.00039  -0.00887
   D10        3.11462  -0.00004  -0.00625   0.00494  -0.00130   3.11332
   D11        2.86128  -0.00004  -0.00387  -0.00864  -0.01251   2.84878
   D12       -0.29880  -0.00006  -0.00631  -0.00712  -0.01342  -0.31221
   D13       -0.00086   0.00005   0.00277  -0.00027   0.00250   0.00164
   D14        3.14008   0.00003   0.00313  -0.00067   0.00246  -3.14065
   D15       -3.12389   0.00006   0.00519  -0.00181   0.00340  -3.12050
   D16        0.01704   0.00005   0.00555  -0.00220   0.00336   0.02040
   D17        0.01187  -0.00004   0.00068  -0.00329  -0.00261   0.00927
   D18       -3.13332  -0.00005  -0.00001  -0.00282  -0.00283  -3.13614
   D19       -3.12910  -0.00003   0.00034  -0.00292  -0.00257  -3.13167
   D20        0.00890  -0.00003  -0.00035  -0.00244  -0.00279   0.00611
   D21       -0.01326   0.00001  -0.00300   0.00360   0.00059  -0.01267
   D22        3.12861   0.00002  -0.00235   0.00278   0.00043   3.12904
   D23        3.13192   0.00002  -0.00231   0.00312   0.00081   3.13274
   D24       -0.00940   0.00002  -0.00166   0.00231   0.00065  -0.00875
         Item               Value     Threshold  Converged?
 Maximum Force            0.001675     0.000015     NO 
 RMS     Force            0.000313     0.000010     NO 
 Maximum Displacement     0.026172     0.000060     NO 
 RMS     Displacement     0.005845     0.000040     NO 
 Predicted change in Energy=-2.241958D-05
 Lowest energy point so far.  Saving SCF results.
 GradGradGradGradGradGradGradGradGradGradGradGradGradGradGradGradGradGrad

 Leave Link  103 at Mon Sep 28 08:55:17 2026, MaxMem=  1610612736 cpu:               0.3 elap:               0.0
 (Enter /share/software/user/restricted/gaussian/g16.B01/l202.exe)
                          Input orientation:                          
 ---------------------------------------------------------------------
 Center     Atomic      Atomic             Coordinates (Angstroms)
 Number     Number       Type             X           Y           Z
 ---------------------------------------------------------------------
      1          6           0        0.078621    1.288805   -1.157615
      2          6           0        0.118562    0.623542    0.042526
      3          6           0        0.084028   -0.752253    0.056808
      4          6           0       -0.001913   -1.462452   -1.144280
      5          6           0       -0.050664   -0.778221   -2.356231
      6          6           0       -0.002703    0.609669   -2.371161
      7         35           0        0.161214    3.211403   -1.238618
      8         35           0       -0.365691    1.920089    2.172699
      9         35           0        0.186369   -1.693112    1.727061
     10         35           0       -0.056517   -3.366226   -1.218540
     11          1           0       -0.122321   -1.326358   -3.287119
     12          1           0       -0.028984    1.140239   -3.316144
 ---------------------------------------------------------------------
                    Distance matrix (angstroms):
                    1          2          3          4          5
     1  C    0.000000
     2  C    1.372774   0.000000
     3  C    2.375031   1.376303   0.000000
     4  C    2.752467   2.402996   1.397992   0.000000
     5  C    2.392905   2.783453   2.416935   1.392614   0.000000
     6  C    1.393031   2.416771   2.785209   2.408095   1.388798
     7  Br   1.926076   2.887936   4.170690   4.677652   4.148621
     8  Br   3.418613   2.540309   3.438117   4.751448   5.281223
     9  Br   4.150276   2.865160   1.919748   2.886737   4.191239
    10  Br   4.657391   4.187982   2.911893   1.906005   2.827038
    11  H    3.378497   3.866092   3.399121   2.150530   1.082655
    12  H    2.166310   3.401383   3.869251   3.389945   2.145319
                    6          7          8          9         10
     6  C    0.000000
     7  Br   2.842279   0.000000
     8  Br   4.742955   3.685404   0.000000
     9  Br   4.704676   5.731505   3.682198   0.000000
    10  Br   4.139948   6.581263   6.288181   3.396303   0.000000
    11  H    2.145107   4.986785   6.356748   5.037043   2.905927
    12  H    1.084061   2.939730   5.554181   5.788625   4.970808
                   11         12
    11  H    0.000000
    12  H    2.468533   0.000000
 Stoichiometry    C6H2Br4(1-,2)
 Framework group  C1[X(C6H2Br4)]
 Deg. of freedom    30
 Full point group                 C1      NOp   1
 RotChk:  IX=1 Diff= 8.76D-04
 Largest Abelian subgroup         C1      NOp   1
 Largest concise Abelian subgroup C1      NOp   1
                         Standard orientation:                         
 ---------------------------------------------------------------------
 Center     Atomic      Atomic             Coordinates (Angstroms)
 Number     Number       Type             X           Y           Z
 ---------------------------------------------------------------------
      1          6           0        1.174067    1.290419   -0.046895
      2          6           0        0.624779    0.035230   -0.132276
      3          6           0       -0.743026   -0.110948   -0.088094
      4          6           0       -1.562518    1.012772    0.053562
      5          6           0       -0.995364    2.281146    0.148100
      6          6           0        0.384266    2.429668    0.090440
      7         35           0        3.079338    1.556824   -0.140374
      8         35           0        2.122266   -1.980409    0.252306
      9         35           0       -1.522947   -1.857313   -0.253520
     10         35           0       -3.464042    0.903736    0.125463
     11          1           0       -1.628160    3.152080    0.262917
     12          1           0        0.823429    3.418849    0.152454
 ---------------------------------------------------------------------
 Rotational constants (GHZ):           0.4869713           0.2176786           0.1516713
 Leave Link  202 at Mon Sep 28 08:55:17 2026, MaxMem=  1610612736 cpu:               0.0 elap:               0.0
 (Enter /share/software/user/restricted/gaussian/g16.B01/l301.exe)
 Standard basis: 6-311++G(d) (5D, 7F)
 Ernie: Thresh=  0.10000D-02 Tol=  0.10000D-05 Strict=F.
 There are   350 symmetry adapted cartesian basis functions of A   symmetry.
 There are   332 symmetry adapted basis functions of A   symmetry.
   332 basis functions,   604 primitive gaussians,   350 cartesian basis functions
    90 alpha electrons       89 beta electrons
       nuclear repulsion energy      1872.6978444061 Hartrees.
 IExCor= 4336 DFT=T Ex+Corr=M062X ExCW=0 ScaHFX=  0.540000
 ScaDFX=  1.000000  1.000000  1.000000  1.000000 ScalE2=  1.000000  1.000000
 IRadAn=      5 IRanWt=     -1 IRanGd=            0 ICorTp=0 IEmpDi=  4
 NAtoms=   12 NActive=   12 NUniq=   12 SFac= 1.00D+00 NAtFMM=   60 NAOKFM=F Big=F
 Integral buffers will be    131072 words long.
 Raffenetti 2 integral format.
 Two-electron integral symmetry is turned on.
 ------------------------------------------------------------------------------
 Polarizable Continuum Model (PCM)
 =================================
 Model                : PCM.
 Atomic radii         : SMD-Coulomb.
 Polarization charges : Total charges.
 Charge compensation  : None.
 Solution method      : Matrix inversion.
 Cavity type          : VdW (van der Waals Surface) (Alpha=1.000).
 Cavity algorithm     : GePol (No added spheres)
                        Default sphere list used, NSphG=   12.
                        Lebedev-Laikov grids with approx.  5.0 points / Ang**2.
                        Smoothing algorithm: York/Karplus (Gamma=1.0000).
                        Polarization charges: spherical gaussians, with
                                              point-specific exponents (IZeta= 3).
                        Self-potential: point-specific (ISelfS= 7).
                        Self-field    : sphere-specific E.n sum rule (ISelfD= 2).
 1st derivatives      : Analytical E(r).r(x)/FMM algorithm (CHGder, D1EAlg=3).
                        Cavity 1st derivative terms included.
 Solvent              : Water, Eps=  78.355300 Eps(inf)=   1.777849
 ------------------------------------------------------------------------------
 Spheres list:
 ISph  on   Nord     Re0    Alpha      Xe            Ye            Ze
    1   C      1    1.8500  1.000      1.174067      1.290419     -0.046895
    2   C      2    1.8500  1.000      0.624779      0.035230     -0.132276
    3   C      3    1.8500  1.000     -0.743026     -0.110948     -0.088094
    4   C      4    1.8500  1.000     -1.562518      1.012772      0.053562
    5   C      5    1.8500  1.000     -0.995364      2.281146      0.148100
    6   C      6    1.8500  1.000      0.384266      2.429668      0.090440
    7  Br      7    3.0600  1.000      3.079338      1.556824     -0.140374
    8  Br      8    3.0600  1.000      2.122266     -1.980409      0.252306
    9  Br      9    3.0600  1.000     -1.522947     -1.857313     -0.253520
   10  Br     10    3.0600  1.000     -3.464042      0.903736      0.125463
   11   H     11    1.2000  1.000     -1.628160      3.152080      0.262917
   12   H     12    1.2000  1.000      0.823429      3.418849      0.152454
 ------------------------------------------------------------------------------
 GePol: Number of generator spheres                  =      12
 GePol: Total number of spheres                      =      12
 GePol: Number of exposed spheres                    =      12 (100.00%)
 GePol: Number of points                             =    1872
 GePol: Average weight of points                     =       0.17
 GePol: Minimum weight of points                     =   0.87D-09
 GePol: Maximum weight of points                     =    0.22025
 GePol: Number of points with low weight             =      58
 GePol: Fraction of low-weight points (<1% of avg)   =       3.10%
 GePol: Cavity surface area                          =    321.754 Ang**2
 GePol: Cavity volume                                =    418.376 Ang**3
 ------------------------------------------------------------------------------
 Atomic radii for non-electrostatic terms: SMD-CDS.
 ------------------------------------------------------------------------------
 PCM non-electrostatic energy =         0.0002998932 Hartrees.
 Nuclear repulsion after PCM non-electrostatic terms =     1872.6981442993 Hartrees.
 Leave Link  301 at Mon Sep 28 08:55:17 2026, MaxMem=  1610612736 cpu:               0.9 elap:               0.1
 (Enter /share/software/user/restricted/gaussian/g16.B01/l302.exe)
 NPDir=0 NMtPBC=     1 NCelOv=     1 NCel=       1 NClECP=     1 NCelD=      1
         NCelK=      1 NCelE2=     1 NClLst=     1 CellRange=     0.0.
 One-electron integrals computed using PRISM.
 One-electron integral symmetry used in STVInt
 NBasis=   332 RedAO= T EigKep=  2.40D-06  NBF=   332
 NBsUse=   331 1.00D-06 EigRej=  4.75D-07 NBFU=   331
 Precomputing XC quadrature grid using
 IXCGrd= 4 IRadAn=           5 IRanWt=          -1 IRanGd=           0 AccXCQ= 0.00D+00.
 Generated NRdTot=       0 NPtTot=           0 NUsed=           0 NTot=          32
 NSgBfM=   337   337   337   337   337 MxSgAt=    12 MxSgA2=    12.
 Leave Link  302 at Mon Sep 28 08:55:17 2026, MaxMem=  1610612736 cpu:               2.0 elap:               0.3
 (Enter /share/software/user/restricted/gaussian/g16.B01/l303.exe)
 DipDrv:  MaxL=1.
 Leave Link  303 at Mon Sep 28 08:55:18 2026, MaxMem=  1610612736 cpu:               0.4 elap:               0.1
 (Enter /share/software/user/restricted/gaussian/g16.B01/l401.exe)
 Initial guess from the checkpoint file:  "calcs/m062x_smd/chks/BrBz_1234_RA.chk"
 B after Tr=    -0.000000   -0.000000    0.000000
         Rot=    1.000000   -0.000020   -0.000028   -0.000169 Ang=  -0.02 deg.
 Guess basis will be translated and rotated to current coordinates.
 JPrj=2 DoOrth=T DoCkMO=T.
 Initial guess <Sx>= 0.0000 <Sy>= 0.0000 <Sz>= 0.5000 <S**2>= 0.7581 S= 0.5040
 Generating alternative initial guess.
 ExpMin= 3.50D-02 ExpMax= 4.40D+05 ExpMxC= 1.51D+04 IAcc=3 IRadAn=         5 AccDes= 0.00D+00
 Harris functional with IExCor= 1009 and IRadAn=       5 diagonalized for initial guess.
 HarFok:  IExCor= 1009 AccDes= 0.00D+00 IRadAn=         5 IDoV= 1 UseB2=F ITyADJ=14
 ICtDFT=  3500011 ScaDFX=  1.000000  1.000000  1.000000  1.000000
 FoFCou: FMM=F IPFlag=           0 FMFlag=      100000 FMFlg1=           0
         NFxFlg=           0 DoJE=T BraDBF=F KetDBF=T FulRan=T
         wScrn=  0.000000 ICntrl=       500 IOpCl=  0 I1Cent=   200000004 NGrid=           0
         NMat0=    1 NMatS0=      1 NMatT0=    0 NMatD0=    1 NMtDS0=    0 NMtDT0=    0
 Petite list used in FoFCou.
 Harris En= -10524.7893789205    
 Leave Link  401 at Mon Sep 28 08:55:19 2026, MaxMem=  1610612736 cpu:              11.9 elap:               1.5
 (Enter /share/software/user/restricted/gaussian/g16.B01/l502.exe)
 Integral symmetry usage will be decided dynamically.
 UHF open shell SCF:
 Using DIIS extrapolation, IDIIS=  1040.
 NGot=  1610612736 LenX=  1610361870 LenY=  1610238929
 Requested convergence on RMS density matrix=1.00D-08 within 128 cycles.
 Requested convergence on MAX density matrix=1.00D-06.
 Requested convergence on             energy=1.00D-06.
 No special actions if energy rises.
 Fock matrices will be formed incrementally for  20 cycles.

 Cycle   1  Pass 1  IDiag  1:
 FoFJK:  IHMeth= 1 ICntrl=       0 DoSepK=F KAlg= 0 I1Cent=           0 FoldK=F
 IRaf= 790000000 NMat=       1 IRICut=       1 DoRegI=T DoRafI=F ISym2E= 0 IDoP0=0 IntGTp=1.
 FoFCou: FMM=F IPFlag=           0 FMFlag=      100000 FMFlg1=           0
         NFxFlg=           0 DoJE=F BraDBF=F KetDBF=F FulRan=T
         wScrn=  0.000000 ICntrl=         0 IOpCl=  1 I1Cent=           0 NGrid=           0
         NMat0=    1 NMatS0=      1 NMatT0=    0 NMatD0=    1 NMtDS0=    0 NMtDT0=    0
 Symmetry not used in FoFCou.
 Inv3:  Mode=1 IEnd=    10513152.
 Iteration    1 A*A^-1 deviation from unit magnitude is 7.55D-15 for   1861.
 Iteration    1 A*A^-1 deviation from orthogonality  is 1.39D-15 for   1856   1855.
 Iteration    1 A^-1*A deviation from unit magnitude is 7.11D-15 for   1861.
 Iteration    1 A^-1*A deviation from orthogonality  is 2.33D-15 for   1564   1207.
 E= -10526.5716418509    
 DIIS: error= 1.60D-03 at cycle   1 NSaved=   1.
 NSaved= 1 IEnMin= 1 EnMin= -10526.5716418509     IErMin= 1 ErrMin= 1.60D-03
 ErrMax= 1.60D-03  0.00D+00 EMaxC= 1.00D-01 BMatC= 1.22D-03 BMatP= 1.22D-03
 IDIUse=3 WtCom= 9.84D-01 WtEn= 1.60D-02
 Coeff-Com:  0.100D+01
 Coeff-En:   0.100D+01
 Coeff:      0.100D+01
 Gap=     0.369 Goal=   None    Shift=    0.000
 Gap=     0.427 Goal=   None    Shift=    0.000
 GapD=    0.369 DampG=1.000 DampE=1.000 DampFc=1.0000 IDamp=-1.
 RMSDP=2.96D-04 MaxDP=1.97D-02              OVMax= 2.53D-03

 Cycle   2  Pass 1  IDiag  1:
 RMSU=  2.88D-04    CP:  9.98D-01
 E= -10526.5717180801     Delta-E=       -0.000076229140 Rises=F Damp=F
 DIIS: error= 6.49D-05 at cycle   2 NSaved=   2.
 NSaved= 2 IEnMin= 2 EnMin= -10526.5717180801     IErMin= 2 ErrMin= 6.49D-05
 ErrMax= 6.49D-05  0.00D+00 EMaxC= 1.00D-01 BMatC= 9.74D-06 BMatP= 1.22D-03
 IDIUse=1 WtCom= 1.00D+00 WtEn= 0.00D+00
 Coeff-Com: -0.338D-02 0.100D+01
 Coeff:     -0.338D-02 0.100D+01
 Gap=     0.212 Goal=   None    Shift=    0.000
 Gap=     0.217 Goal=   None    Shift=    0.000
 RMSDP=5.74D-05 MaxDP=3.96D-03 DE=-7.62D-05 OVMax= 1.09D-03

 Cycle   3  Pass 1  IDiag  1:
 RMSU=  5.65D-05    CP:  9.98D-01  1.03D+00
 E= -10526.5717211673     Delta-E=       -0.000003087189 Rises=F Damp=F
 DIIS: error= 6.44D-05 at cycle   3 NSaved=   3.
 NSaved= 3 IEnMin= 3 EnMin= -10526.5717211673     IErMin= 3 ErrMin= 6.44D-05
 ErrMax= 6.44D-05  0.00D+00 EMaxC= 1.00D-01 BMatC= 9.00D-06 BMatP= 9.74D-06
 IDIUse=1 WtCom= 1.00D+00 WtEn= 0.00D+00
 Coeff-Com: -0.760D-02 0.493D+00 0.515D+00
 Coeff:     -0.760D-02 0.493D+00 0.515D+00
 Gap=     0.212 Goal=   None    Shift=    0.000
 Gap=     0.217 Goal=   None    Shift=    0.000
 RMSDP=2.66D-05 MaxDP=1.81D-03 DE=-3.09D-06 OVMax= 3.82D-04

 Cycle   4  Pass 1  IDiag  1:
 RMSU=  2.35D-05    CP:  9.98D-01  1.07D+00  9.29D-01
 E= -10526.5717233721     Delta-E=       -0.000002204812 Rises=F Damp=F
 DIIS: error= 1.59D-05 at cycle   4 NSaved=   4.
 NSaved= 4 IEnMin= 4 EnMin= -10526.5717233721     IErMin= 4 ErrMin= 1.59D-05
 ErrMax= 1.59D-05  0.00D+00 EMaxC= 1.00D-01 BMatC= 5.34D-07 BMatP= 9.00D-06
 IDIUse=1 WtCom= 1.00D+00 WtEn= 0.00D+00
 Coeff-Com: -0.590D-03-0.890D-01 0.111D+00 0.979D+00
 Coeff:     -0.590D-03-0.890D-01 0.111D+00 0.979D+00
 Gap=     0.212 Goal=   None    Shift=    0.000
 Gap=     0.217 Goal=   None    Shift=    0.000
 RMSDP=1.16D-05 MaxDP=5.63D-04 DE=-2.20D-06 OVMax= 4.79D-04

 Cycle   5  Pass 1  IDiag  1:
 RMSU=  7.36D-06    CP:  9.98D-01  1.08D+00  1.07D+00  1.13D+00
 E= -10526.5717237369     Delta-E=       -0.000000364800 Rises=F Damp=F
 DIIS: error= 1.52D-05 at cycle   5 NSaved=   5.
 NSaved= 5 IEnMin= 5 EnMin= -10526.5717237369     IErMin= 5 ErrMin= 1.52D-05
 ErrMax= 1.52D-05  0.00D+00 EMaxC= 1.00D-01 BMatC= 2.53D-07 BMatP= 5.34D-07
 IDIUse=1 WtCom= 1.00D+00 WtEn= 0.00D+00
 Coeff-Com:  0.522D-03-0.113D+00 0.691D-02 0.569D+00 0.537D+00
 Coeff:      0.522D-03-0.113D+00 0.691D-02 0.569D+00 0.537D+00
 Gap=     0.212 Goal=   None    Shift=    0.000
 Gap=     0.217 Goal=   None    Shift=    0.000
 RMSDP=6.59D-06 MaxDP=3.19D-04 DE=-3.65D-07 OVMax= 1.76D-04

 Cycle   6  Pass 1  IDiag  1:
 RMSU=  2.93D-06    CP:  9.98D-01  1.08D+00  1.16D+00  1.25D+00  9.78D-01
 E= -10526.5717238405     Delta-E=       -0.000000103633 Rises=F Damp=F
 DIIS: error= 4.19D-06 at cycle   6 NSaved=   6.
 NSaved= 6 IEnMin= 6 EnMin= -10526.5717238405     IErMin= 6 ErrMin= 4.19D-06
 ErrMax= 4.19D-06  0.00D+00 EMaxC= 1.00D-01 BMatC= 2.58D-08 BMatP= 2.53D-07
 IDIUse=1 WtCom= 1.00D+00 WtEn= 0.00D+00
 Coeff-Com:  0.387D-03-0.175D-01-0.233D-01-0.633D-01 0.696D-01 0.103D+01
 Coeff:      0.387D-03-0.175D-01-0.233D-01-0.633D-01 0.696D-01 0.103D+01
 Gap=     0.212 Goal=   None    Shift=    0.000
 Gap=     0.217 Goal=   None    Shift=    0.000
 RMSDP=6.02D-06 MaxDP=2.99D-04 DE=-1.04D-07 OVMax= 1.97D-04

 Cycle   7  Pass 1  IDiag  1:
 RMSU=  2.35D-06    CP:  9.98D-01  1.07D+00  1.23D+00  1.26D+00  1.03D+00
                    CP:  1.87D+00
 E= -10526.5717238815     Delta-E=       -0.000000041016 Rises=F Damp=F
 DIIS: error= 3.12D-06 at cycle   7 NSaved=   7.
 NSaved= 7 IEnMin= 7 EnMin= -10526.5717238815     IErMin= 7 ErrMin= 3.12D-06
 ErrMax= 3.12D-06  0.00D+00 EMaxC= 1.00D-01 BMatC= 1.06D-08 BMatP= 2.58D-08
 IDIUse=1 WtCom= 1.00D+00 WtEn= 0.00D+00
 Coeff-Com:  0.118D-04 0.275D-01-0.106D-01-0.183D+00-0.159D+00 0.388D+00
 Coeff-Com:  0.938D+00
 Coeff:      0.118D-04 0.275D-01-0.106D-01-0.183D+00-0.159D+00 0.388D+00
 Coeff:      0.938D+00
 Gap=     0.212 Goal=   None    Shift=    0.000
 Gap=     0.217 Goal=   None    Shift=    0.000
 RMSDP=2.60D-06 MaxDP=1.58D-04 DE=-4.10D-08 OVMax= 1.19D-04

 Cycle   8  Pass 1  IDiag  1:
 RMSU=  7.87D-07    CP:  9.98D-01  1.07D+00  1.26D+00  1.27D+00  1.14D+00
                    CP:  2.43D+00  1.16D+00
 E= -10526.5717238947     Delta-E=       -0.000000013168 Rises=F Damp=F
 DIIS: error= 1.41D-06 at cycle   8 NSaved=   8.
 NSaved= 8 IEnMin= 8 EnMin= -10526.5717238947     IErMin= 8 ErrMin= 1.41D-06
 ErrMax= 1.41D-06  0.00D+00 EMaxC= 1.00D-01 BMatC= 2.74D-09 BMatP= 1.06D-08
 IDIUse=1 WtCom= 1.00D+00 WtEn= 0.00D+00
 Coeff-Com: -0.104D-03 0.207D-01 0.213D-03-0.850D-01-0.105D+00-0.483D-01
 Coeff-Com:  0.439D+00 0.778D+00
 Coeff:     -0.104D-03 0.207D-01 0.213D-03-0.850D-01-0.105D+00-0.483D-01
 Coeff:      0.439D+00 0.778D+00
 Gap=     0.212 Goal=   None    Shift=    0.000
 Gap=     0.217 Goal=   None    Shift=    0.000
 RMSDP=1.17D-06 MaxDP=6.33D-05 DE=-1.32D-08 OVMax= 5.17D-05

 Cycle   9  Pass 1  IDiag  1:
 RMSU=  4.77D-07    CP:  9.98D-01  1.06D+00  1.26D+00  1.28D+00  1.18D+00
                    CP:  2.63D+00  1.35D+00  1.58D+00
 E= -10526.5717238970     Delta-E=       -0.000000002263 Rises=F Damp=F
 DIIS: error= 5.43D-07 at cycle   9 NSaved=   9.
 NSaved= 9 IEnMin= 9 EnMin= -10526.5717238970     IErMin= 9 ErrMin= 5.43D-07
 ErrMax= 5.43D-07  0.00D+00 EMaxC= 1.00D-01 BMatC= 2.07D-10 BMatP= 2.74D-09
 IDIUse=1 WtCom= 1.00D+00 WtEn= 0.00D+00
 Coeff-Com:  0.282D-05-0.485D-02 0.236D-02 0.306D-01 0.174D-01-0.489D-01
 Coeff-Com: -0.126D+00-0.595D-01 0.119D+01
 Coeff:      0.282D-05-0.485D-02 0.236D-02 0.306D-01 0.174D-01-0.489D-01
 Coeff:     -0.126D+00-0.595D-01 0.119D+01
 Gap=     0.212 Goal=   None    Shift=    0.000
 Gap=     0.217 Goal=   None    Shift=    0.000
 RMSDP=5.00D-07 MaxDP=2.76D-05 DE=-2.26D-09 OVMax= 2.18D-05

 Cycle  10  Pass 1  IDiag  1:
 RMSU=  1.66D-07    CP:  9.98D-01  1.06D+00  1.27D+00  1.28D+00  1.17D+00
                    CP:  2.65D+00  1.38D+00  1.88D+00  1.68D+00
 E= -10526.5717238973     Delta-E=       -0.000000000337 Rises=F Damp=F
 DIIS: error= 4.03D-07 at cycle  10 NSaved=  10.
 NSaved=10 IEnMin=10 EnMin= -10526.5717238973     IErMin=10 ErrMin= 4.03D-07
 ErrMax= 4.03D-07  0.00D+00 EMaxC= 1.00D-01 BMatC= 8.65D-11 BMatP= 2.07D-10
 IDIUse=1 WtCom= 1.00D+00 WtEn= 0.00D+00
 Coeff-Com:  0.151D-04-0.492D-02 0.953D-03 0.246D-01 0.208D-01-0.179D-01
 Coeff-Com: -0.114D+00-0.129D+00 0.483D+00 0.737D+00
 Coeff:      0.151D-04-0.492D-02 0.953D-03 0.246D-01 0.208D-01-0.179D-01
 Coeff:     -0.114D+00-0.129D+00 0.483D+00 0.737D+00
 Gap=     0.212 Goal=   None    Shift=    0.000
 Gap=     0.217 Goal=   None    Shift=    0.000
 RMSDP=1.55D-07 MaxDP=6.47D-06 DE=-3.37D-10 OVMax= 6.14D-06

 Cycle  11  Pass 1  IDiag  1:
 RMSU=  8.68D-08    CP:  9.98D-01  1.06D+00  1.27D+00  1.28D+00  1.17D+00
                    CP:  2.66D+00  1.37D+00  1.99D+00  1.79D+00  1.16D+00
 E= -10526.5717238974     Delta-E=       -0.000000000087 Rises=F Damp=F
 DIIS: error= 2.31D-07 at cycle  11 NSaved=  11.
 NSaved=11 IEnMin=11 EnMin= -10526.5717238974     IErMin=11 ErrMin= 2.31D-07
 ErrMax= 2.31D-07  0.00D+00 EMaxC= 1.00D-01 BMatC= 2.69D-11 BMatP= 8.65D-11
 IDIUse=1 WtCom= 1.00D+00 WtEn= 0.00D+00
 Coeff-Com:  0.511D-05 0.976D-04-0.656D-03-0.305D-02 0.142D-02 0.165D-01
 Coeff-Com:  0.930D-02-0.214D-01-0.310D+00 0.270D+00 0.104D+01
 Coeff:      0.511D-05 0.976D-04-0.656D-03-0.305D-02 0.142D-02 0.165D-01
 Coeff:      0.930D-02-0.214D-01-0.310D+00 0.270D+00 0.104D+01
 Gap=     0.212 Goal=   None    Shift=    0.000
 Gap=     0.217 Goal=   None    Shift=    0.000
 RMSDP=8.40D-08 MaxDP=4.59D-06 DE=-8.73D-11 OVMax= 4.98D-06

 Cycle  12  Pass 1  IDiag  1:
 RMSU=  5.07D-08    CP:  9.98D-01  1.06D+00  1.27D+00  1.28D+00  1.17D+00
                    CP:  2.66D+00  1.37D+00  2.01D+00  1.89D+00  1.30D+00
                    CP:  1.30D+00
 E= -10526.5717238974     Delta-E=       -0.000000000065 Rises=F Damp=F
 DIIS: error= 1.25D-07 at cycle  12 NSaved=  12.
 NSaved=12 IEnMin=12 EnMin= -10526.5717238974     IErMin=12 ErrMin= 1.25D-07
 ErrMax= 1.25D-07  0.00D+00 EMaxC= 1.00D-01 BMatC= 8.01D-12 BMatP= 2.69D-11
 IDIUse=1 WtCom= 1.00D+00 WtEn= 0.00D+00
 Coeff-Com: -0.202D-05 0.141D-02-0.534D-03-0.825D-02-0.531D-02 0.119D-01
 Coeff-Com:  0.353D-01 0.219D-01-0.271D+00-0.758D-01 0.455D+00 0.835D+00
 Coeff:     -0.202D-05 0.141D-02-0.534D-03-0.825D-02-0.531D-02 0.119D-01
 Coeff:      0.353D-01 0.219D-01-0.271D+00-0.758D-01 0.455D+00 0.835D+00
 Gap=     0.212 Goal=   None    Shift=    0.000
 Gap=     0.217 Goal=   None    Shift=    0.000
 RMSDP=4.86D-08 MaxDP=2.23D-06 DE=-6.55D-11 OVMax= 2.32D-06

 Cycle  13  Pass 1  IDiag  1:
 RMSU=  1.82D-08    CP:  9.98D-01  1.06D+00  1.27D+00  1.28D+00  1.17D+00
                    CP:  2.66D+00  1.36D+00  2.00D+00  1.92D+00  1.39D+00
                    CP:  1.57D+00  1.12D+00
 E= -10526.5717238974     Delta-E=        0.000000000007 Rises=F Damp=F
 DIIS: error= 6.62D-08 at cycle  13 NSaved=  13.
 NSaved=13 IEnMin=12 EnMin= -10526.5717238974     IErMin=13 ErrMin= 6.62D-08
 ErrMax= 6.62D-08  0.00D+00 EMaxC= 1.00D-01 BMatC= 1.99D-12 BMatP= 8.01D-12
 IDIUse=1 WtCom= 1.00D+00 WtEn= 0.00D+00
 Coeff-Com: -0.227D-05 0.593D-03-0.344D-04-0.273D-02-0.280D-02-0.707D-04
 Coeff-Com:  0.138D-01 0.160D-01-0.293D-01-0.103D+00-0.103D+00 0.373D+00
 Coeff-Com:  0.837D+00
 Coeff:     -0.227D-05 0.593D-03-0.344D-04-0.273D-02-0.280D-02-0.707D-04
 Coeff:      0.138D-01 0.160D-01-0.293D-01-0.103D+00-0.103D+00 0.373D+00
 Coeff:      0.837D+00
 Gap=     0.212 Goal=   None    Shift=    0.000
 Gap=     0.217 Goal=   None    Shift=    0.000
 RMSDP=2.08D-08 MaxDP=1.28D-06 DE= 7.28D-12 OVMax= 1.15D-06

 Cycle  14  Pass 1  IDiag  1:
 RMSU=  6.87D-09    CP:  9.98D-01  1.06D+00  1.27D+00  1.28D+00  1.17D+00
                    CP:  2.66D+00  1.37D+00  1.99D+00  1.92D+00  1.37D+00
                    CP:  1.60D+00  1.31D+00  1.41D+00
 E= -10526.5717238974     Delta-E=        0.000000000005 Rises=F Damp=F
 DIIS: error= 2.32D-08 at cycle  14 NSaved=  14.
 NSaved=14 IEnMin=12 EnMin= -10526.5717238974     IErMin=14 ErrMin= 2.32D-08
 ErrMax= 2.32D-08  0.00D+00 EMaxC= 1.00D-01 BMatC= 2.74D-13 BMatP= 1.99D-12
 IDIUse=1 WtCom= 1.00D+00 WtEn= 0.00D+00
 Coeff-Com: -0.340D-07-0.162D-03 0.908D-04 0.109D-02 0.610D-03-0.242D-02
 Coeff-Com: -0.429D-02-0.118D-02 0.479D-01-0.149D-02-0.120D+00-0.766D-01
 Coeff-Com:  0.175D+00 0.982D+00
 Coeff:     -0.340D-07-0.162D-03 0.908D-04 0.109D-02 0.610D-03-0.242D-02
 Coeff:     -0.429D-02-0.118D-02 0.479D-01-0.149D-02-0.120D+00-0.766D-01
 Coeff:      0.175D+00 0.982D+00
 Gap=     0.212 Goal=   None    Shift=    0.000
 Gap=     0.217 Goal=   None    Shift=    0.000
 RMSDP=1.37D-08 MaxDP=6.14D-07 DE= 5.46D-12 OVMax= 4.67D-07

 Cycle  15  Pass 1  IDiag  1:
 RMSU=  4.94D-09    CP:  9.98D-01  1.06D+00  1.27D+00  1.28D+00  1.17D+00
                    CP:  2.66D+00  1.37D+00  1.99D+00  1.90D+00  1.34D+00
                    CP:  1.59D+00  1.36D+00  1.56D+00  1.22D+00
 E= -10526.5717238974     Delta-E=        0.000000000035 Rises=F Damp=F
 DIIS: error= 8.72D-09 at cycle  15 NSaved=  15.
 NSaved=15 IEnMin=12 EnMin= -10526.5717238974     IErMin=15 ErrMin= 8.72D-09
 ErrMax= 8.72D-09  0.00D+00 EMaxC= 1.00D-01 BMatC= 6.93D-14 BMatP= 2.74D-13
 IDIUse=1 WtCom= 1.00D+00 WtEn= 0.00D+00
 Coeff-Com:  0.581D-06-0.207D-03 0.304D-04 0.105D-02 0.958D-03-0.747D-03
 Coeff-Com: -0.503D-02-0.446D-02 0.218D-01 0.282D-01-0.130D-01-0.116D+00
 Coeff-Com: -0.164D+00 0.309D+00 0.943D+00
 Coeff:      0.581D-06-0.207D-03 0.304D-04 0.105D-02 0.958D-03-0.747D-03
 Coeff:     -0.503D-02-0.446D-02 0.218D-01 0.282D-01-0.130D-01-0.116D+00
 Coeff:     -0.164D+00 0.309D+00 0.943D+00
 Gap=     0.212 Goal=   None    Shift=    0.000
 Gap=     0.217 Goal=   None    Shift=    0.000
 RMSDP=5.96D-09 MaxDP=3.43D-07 DE= 3.46D-11 OVMax= 2.18D-07

 Error on total polarization charges =  0.00780
 SCF Done:  E(UM062X) =  -10526.5717239     A.U. after   15 cycles
            NFock= 15  Conv=0.60D-08     -V/T= 2.0012
 <Sx>= 0.0000 <Sy>= 0.0000 <Sz>= 0.5000 <S**2>= 0.7582 S= 0.5041
 <L.S>=  0.00000000000    
 KE= 1.051344061767D+04 PE=-2.892001565768D+04 EE= 6.007305171816D+03
 SMD-CDS (non-electrostatic) energy       (kcal/mol) =       0.19
 (included in total energy above)
 Annihilation of the first spin contaminant:
 S**2 before annihilation     0.7582,   after     0.7500
 Leave Link  502 at Mon Sep 28 08:57:48 2026, MaxMem=  1610612736 cpu:            1191.3 elap:             149.1
 (Enter /share/software/user/restricted/gaussian/g16.B01/l701.exe)
 ... and contract with generalized density number  0.
 Compute integral first derivatives.
 D1PCM: PCM CHGder 1st derivatives, ID1Alg=3 FixD1E=F DoIter=F DoCFld=F I1PDM=0.
 GePol: Maximum number of non-zero 1st derivatives   =     470
 Leave Link  701 at Mon Sep 28 08:57:50 2026, MaxMem=  1610612736 cpu:              13.8 elap:               1.8
 (Enter /share/software/user/restricted/gaussian/g16.B01/l702.exe)
 L702 exits ... SP integral derivatives will be done elsewhere.
 Leave Link  702 at Mon Sep 28 08:57:50 2026, MaxMem=  1610612736 cpu:               0.2 elap:               0.0
 (Enter /share/software/user/restricted/gaussian/g16.B01/l703.exe)
 Integral derivatives from FoFJK, PRISM(SPDF).
 Compute integral first derivatives, UseDBF=F ICtDFT=           0.
 Calling FoFJK, ICntrl=      2127 FMM=F ISym2X=0 I1Cent= 0 IOpClX= 1 NMat=1 NMatS=1 NMatT=0.
 FoFJK:  IHMeth= 1 ICntrl=    2127 DoSepK=F KAlg= 0 I1Cent=           0 FoldK=F
 IRaf=         0 NMat=       1 IRICut=       1 DoRegI=T DoRafI=F ISym2E= 0 IDoP0=0 IntGTp=1.
 FoFCou: FMM=F IPFlag=           0 FMFlag=      100000 FMFlg1=         800
         NFxFlg=           0 DoJE=F BraDBF=F KetDBF=F FulRan=T
         wScrn=  0.000000 ICntrl=      2127 IOpCl=  1 I1Cent=           0 NGrid=           0
         NMat0=    1 NMatS0=      1 NMatT0=    0 NMatD0=    1 NMtDS0=    0 NMtDT0=    0
 Symmetry not used in FoFCou.
 Leave Link  703 at Mon Sep 28 08:58:06 2026, MaxMem=  1610612736 cpu:             129.6 elap:              16.2
 (Enter /share/software/user/restricted/gaussian/g16.B01/l716.exe)
 Dipole        =-2.54063207D+00 2.92512765D+00-1.24338718D-01
 ***** Axes restored to original set *****
 -------------------------------------------------------------------
 Center     Atomic                   Forces (Hartrees/Bohr)
 Number     Number              X              Y              Z
 -------------------------------------------------------------------
      1        6          -0.000014213   -0.000174991   -0.000005322
      2        6           0.000020511    0.000114465    0.000046467
      3        6          -0.000011026    0.000026820   -0.000220226
      4        6           0.000015940    0.000127910   -0.000057006
      5        6          -0.000024844   -0.000008008    0.000138799
      6        6           0.000009000    0.000016137   -0.000011729
      7       35          -0.000016647   -0.000064002   -0.000015897
      8       35          -0.000038328    0.000023580    0.000158147
      9       35           0.000080633   -0.000002200   -0.000036985
     10       35           0.000009166   -0.000047019   -0.000004619
     11        1          -0.000013835   -0.000005712   -0.000024867
     12        1          -0.000016355   -0.000006980    0.000033237
 -------------------------------------------------------------------
 Cartesian Forces:  Max     0.000220226 RMS     0.000070766
 Leave Link  716 at Mon Sep 28 08:58:07 2026, MaxMem=  1610612736 cpu:               0.3 elap:               0.0
 (Enter /share/software/user/restricted/gaussian/g16.B01/l103.exe)

 GradGradGradGradGradGradGradGradGradGradGradGradGradGradGradGradGradGrad
 Berny optimization.
 Using GEDIIS/GDIIS optimizer.
 FormGI is forming the generalized inverse of G from B-inverse, IUseBI=4.
 Internal  Forces:  Max     0.000195058 RMS     0.000061673
 Search for a local minimum.
 Step number   5 out of a maximum of   64
 All quantities printed in internal units (Hartrees-Bohrs-Radians)
 RMS Force = .61673D-04 SwitMx=.10000D-02 MixMth= 2
 Mixed Optimization -- En-DIIS/RFO-DIIS
 Swapping is turned off.
 Update second derivatives using D2CorX and points    3    2    4    5
 DE= -2.28D-05 DEPred=-2.24D-05 R= 1.02D+00
 TightC=F SS=  1.41D+00  RLast= 3.47D-02 DXNew= 8.4853D-01 1.0399D-01
 Trust test= 1.02D+00 RLast= 3.47D-02 DXMaxT set to 5.05D-01
 ITU=  1  1  0  1  0
     Eigenvalues ---    0.00465   0.00891   0.01779   0.02024   0.02265
     Eigenvalues ---    0.02434   0.02626   0.02740   0.02953   0.03283
     Eigenvalues ---    0.10819   0.11259   0.11929   0.12392   0.12667
     Eigenvalues ---    0.15668   0.19612   0.20000   0.22207   0.23491
     Eigenvalues ---    0.25624   0.28753   0.36102   0.36499   0.37502
     Eigenvalues ---    0.44635   0.45654   0.49618   0.53372   0.56051
 En-DIIS/RFO-DIIS/Sim-DIIS IScMMF=       -3 using points:     5    4
 RFO step:  Lambda=-1.95786343D-06.
 NNeg= 0 NGDIIS= 2 SimSw=  2.50D-01 Rises=F DC= -2.28D-05 SmlDif=  1.00D-05
 NRisDI= 0 DoIntr=F SqrtH=F CThrHd= 10.0 CDAdj=  3.0
 RMS Error=  0.1390909847D-02 NUsed= 2 OKEnD=T EnDIS=F
 InvSVX:  RCond= 3.00D-04 Info=           0 Equed=N FErr=  1.44D-15 BErr=  0.00D+00
 DidBck=F Rises=F RFO-DIIS coefs:    1.22391   -0.22391
 Iteration  1 RMS(Cart)=  0.00217958 RMS(Int)=  0.00000251
 Iteration  2 RMS(Cart)=  0.00000246 RMS(Int)=  0.00000141
 Iteration  3 RMS(Cart)=  0.00000000 RMS(Int)=  0.00000141
 ITry= 1 IFail=0 DXMaxC= 9.42D-03 DCOld= 1.00D+10 DXMaxT= 5.05D-01 DXLimC= 3.00D+00 Rises=F
 Variable       Old X    -DE/DX   Delta X   Delta X   Delta X     New X
                                 (Linear)    (Quad)   (Total)
    R1        2.59417  -0.00004   0.00019  -0.00028  -0.00008   2.59408
    R2        2.63245  -0.00002  -0.00002  -0.00013  -0.00016   2.63229
    R3        3.63976  -0.00006  -0.00268   0.00247  -0.00021   3.63954
    R4        2.60083  -0.00002  -0.00050   0.00048  -0.00001   2.60082
    R5        4.80049   0.00015   0.00366   0.00105   0.00471   4.80520
    R6        2.64182  -0.00008   0.00002  -0.00012  -0.00010   2.64172
    R7        3.62780  -0.00003   0.00039  -0.00086  -0.00047   3.62733
    R8        2.63166  -0.00017   0.00026  -0.00052  -0.00026   2.63140
    R9        3.60183   0.00005  -0.00066   0.00041  -0.00025   3.60158
   R10        2.62445  -0.00007  -0.00002  -0.00011  -0.00013   2.62432
   R11        2.04592   0.00003  -0.00008   0.00010   0.00003   2.04595
   R12        2.04858  -0.00003   0.00011  -0.00017  -0.00006   2.04852
    A1        2.12591   0.00008  -0.00098   0.00137   0.00039   2.12630
    A2        2.11678   0.00001   0.00053  -0.00074  -0.00022   2.11656
    A3        2.04037  -0.00010   0.00047  -0.00064  -0.00017   2.04021
    A4        2.08607  -0.00019   0.00137  -0.00188  -0.00052   2.08555
    A5        2.07169   0.00020  -0.00085   0.00145   0.00059   2.07228
    A6        2.09061  -0.00001  -0.00115   0.00049  -0.00066   2.08994
    A7        2.09492   0.00013  -0.00070   0.00099   0.00029   2.09520
    A8        2.09163  -0.00005   0.00054  -0.00072  -0.00018   2.09145
    A9        2.09647  -0.00007   0.00015  -0.00028  -0.00013   2.09635
   A10        2.09468   0.00000  -0.00012   0.00008  -0.00004   2.09464
   A11        2.14439  -0.00002   0.00018  -0.00019  -0.00001   2.14438
   A12        2.04412   0.00001  -0.00006   0.00011   0.00004   2.04416
   A13        2.09342  -0.00003   0.00036  -0.00037  -0.00001   2.09341
   A14        2.09652   0.00002  -0.00027   0.00025  -0.00002   2.09650
   A15        2.09324   0.00002  -0.00009   0.00012   0.00002   2.09327
   A16        2.07129   0.00001   0.00008  -0.00020  -0.00012   2.07116
   A17        2.12022  -0.00000  -0.00002   0.00004   0.00002   2.12024
   A18        2.09168  -0.00000  -0.00006   0.00016   0.00010   2.09178
    D1        0.00535   0.00001  -0.00037   0.00044   0.00006   0.00541
    D2       -2.85538   0.00003   0.00236   0.00012   0.00248  -2.85289
    D3       -3.11900   0.00002  -0.00104   0.00121   0.00017  -3.11884
    D4        0.30346   0.00004   0.00170   0.00089   0.00259   0.30605
    D5        0.00547   0.00002   0.00035   0.00084   0.00119   0.00666
    D6       -3.13623   0.00001   0.00039   0.00048   0.00087  -3.13536
    D7        3.13054   0.00001   0.00099   0.00010   0.00109   3.13163
    D8       -0.01116  -0.00000   0.00103  -0.00026   0.00077  -0.01039
    D9       -0.00887  -0.00003  -0.00009  -0.00129  -0.00138  -0.01025
   D10        3.11332  -0.00004  -0.00029  -0.00208  -0.00237   3.11095
   D11        2.84878  -0.00002  -0.00280  -0.00082  -0.00362   2.84516
   D12       -0.31221  -0.00003  -0.00300  -0.00161  -0.00461  -0.31683
   D13        0.00164   0.00002   0.00056   0.00088   0.00144   0.00308
   D14       -3.14065   0.00002   0.00055   0.00112   0.00167  -3.13898
   D15       -3.12050   0.00004   0.00076   0.00167   0.00243  -3.11806
   D16        0.02040   0.00003   0.00075   0.00191   0.00266   0.02306
   D17        0.00927   0.00001  -0.00058   0.00042  -0.00016   0.00910
   D18       -3.13614  -0.00001  -0.00063   0.00002  -0.00062  -3.13676
   D19       -3.13167   0.00001  -0.00057   0.00019  -0.00038  -3.13205
   D20        0.00611  -0.00000  -0.00062  -0.00021  -0.00084   0.00527
   D21       -0.01267  -0.00003   0.00013  -0.00125  -0.00112  -0.01379
   D22        3.12904  -0.00001   0.00010  -0.00090  -0.00081   3.12823
   D23        3.13274  -0.00001   0.00018  -0.00085  -0.00067   3.13207
   D24       -0.00875  -0.00000   0.00015  -0.00050  -0.00035  -0.00910
         Item               Value     Threshold  Converged?
 Maximum Force            0.000195     0.000015     NO 
 RMS     Force            0.000062     0.000010     NO 
 Maximum Displacement     0.009421     0.000060     NO 
 RMS     Displacement     0.002180     0.000040     NO 
 Predicted change in Energy=-9.790413D-07
 Lowest energy point so far.  Saving SCF results.
 GradGradGradGradGradGradGradGradGradGradGradGradGradGradGradGradGradGrad

 Leave Link  103 at Mon Sep 28 08:58:07 2026, MaxMem=  1610612736 cpu:               0.3 elap:               0.1
 (Enter /share/software/user/restricted/gaussian/g16.B01/l202.exe)
                          Input orientation:                          
 ---------------------------------------------------------------------
 Center     Atomic      Atomic             Coordinates (Angstroms)
 Number     Number       Type             X           Y           Z
 ---------------------------------------------------------------------
      1          6           0        0.079310    1.288591   -1.157866
      2          6           0        0.119336    0.623785    0.042473
      3          6           0        0.084991   -0.752011    0.056529
      4          6           0       -0.002477   -1.462299   -1.144332
      5          6           0       -0.051229   -0.778251   -2.356228
      6          6           0       -0.001951    0.609522   -2.371359
      7         35           0        0.161892    3.211066   -1.239144
      8         35           0       -0.370676    1.919846    2.174596
      9         35           0        0.191352   -1.692811    1.726278
     10         35           0       -0.059580   -3.365886   -1.218182
     11          1           0       -0.123495   -1.326481   -3.287030
     12          1           0       -0.027473    1.140053   -3.316348
 ---------------------------------------------------------------------
                    Distance matrix (angstroms):
                    1          2          3          4          5
     1  C    0.000000
     2  C    1.372729   0.000000
     3  C    2.374625   1.376296   0.000000
     4  C    2.752139   2.403142   1.397937   0.000000
     5  C    2.392687   2.783624   2.416742   1.392476   0.000000
     6  C    1.392948   2.416919   2.784954   2.407911   1.388730
     7  Br   1.925963   2.887625   4.170211   4.677215   4.148246
     8  Br   3.421443   2.542800   3.439863   4.752868   5.283005
     9  Br   4.149650   2.864786   1.919500   2.886366   4.190718
    10  Br   4.656939   4.187927   2.911723   1.905875   2.826848
    11  H    3.378324   3.866277   3.398951   2.150406   1.082668
    12  H    2.166220   3.401436   3.868960   3.389765   2.145294
                    6          7          8          9         10
     6  C    0.000000
     7  Br   2.841969   0.000000
     8  Br   4.745378   3.688427   0.000000
     9  Br   4.704118   5.730847   3.683497   0.000000
    10  Br   4.139686   6.580713   6.288615   3.395879   0.000000
    11  H    2.145072   4.986443   6.358388   5.036525   2.905751
    12  H    1.084029   2.939342   5.556647   5.788011   4.970595
                   11         12
    11  H    0.000000
    12  H    2.468577   0.000000
 Stoichiometry    C6H2Br4(1-,2)
 Framework group  C1[X(C6H2Br4)]
 Deg. of freedom    30
 Full point group                 C1      NOp   1
 RotChk:  IX=1 Diff= 3.96D-04
 Largest Abelian subgroup         C1      NOp   1
 Largest concise Abelian subgroup C1      NOp   1
                         Standard orientation:                         
 ---------------------------------------------------------------------
 Center     Atomic      Atomic             Coordinates (Angstroms)
 Number     Number       Type             X           Y           Z
 ---------------------------------------------------------------------
      1          6           0        1.173489    1.291110   -0.048173
      2          6           0        0.624938    0.035647   -0.133547
      3          6           0       -0.742850   -0.110602   -0.089311
      4          6           0       -1.562619    1.012639    0.053992
      5          6           0       -0.995908    2.281068    0.148424
      6          6           0        0.383528    2.430139    0.089222
      7         35           0        3.078536    1.558199   -0.141953
      8         35           0        2.122707   -1.981878    0.256473
      9         35           0       -1.522446   -1.856470   -0.258586
     10         35           0       -3.463852    0.902686    0.128695
     11          1           0       -1.628957    3.151742    0.263946
     12          1           0        0.822432    3.419452    0.150397
 ---------------------------------------------------------------------
 Rotational constants (GHZ):           0.4865388           0.2176780           0.1516726
 Leave Link  202 at Mon Sep 28 08:58:07 2026, MaxMem=  1610612736 cpu:               0.0 elap:               0.0
 (Enter /share/software/user/restricted/gaussian/g16.B01/l301.exe)
 Standard basis: 6-311++G(d) (5D, 7F)
 Ernie: Thresh=  0.10000D-02 Tol=  0.10000D-05 Strict=F.
 There are   350 symmetry adapted cartesian basis functions of A   symmetry.
 There are   332 symmetry adapted basis functions of A   symmetry.
   332 basis functions,   604 primitive gaussians,   350 cartesian basis functions
    90 alpha electrons       89 beta electrons
       nuclear repulsion energy      1872.4854388497 Hartrees.
 IExCor= 4336 DFT=T Ex+Corr=M062X ExCW=0 ScaHFX=  0.540000
 ScaDFX=  1.000000  1.000000  1.000000  1.000000 ScalE2=  1.000000  1.000000
 IRadAn=      5 IRanWt=     -1 IRanGd=            0 ICorTp=0 IEmpDi=  4
 NAtoms=   12 NActive=   12 NUniq=   12 SFac= 1.00D+00 NAtFMM=   60 NAOKFM=F Big=F
 Integral buffers will be    131072 words long.
 Raffenetti 2 integral format.
 Two-electron integral symmetry is turned on.
 ------------------------------------------------------------------------------
 Polarizable Continuum Model (PCM)
 =================================
 Model                : PCM.
 Atomic radii         : SMD-Coulomb.
 Polarization charges : Total charges.
 Charge compensation  : None.
 Solution method      : Matrix inversion.
 Cavity type          : VdW (van der Waals Surface) (Alpha=1.000).
 Cavity algorithm     : GePol (No added spheres)
                        Default sphere list used, NSphG=   12.
                        Lebedev-Laikov grids with approx.  5.0 points / Ang**2.
                        Smoothing algorithm: York/Karplus (Gamma=1.0000).
                        Polarization charges: spherical gaussians, with
                                              point-specific exponents (IZeta= 3).
                        Self-potential: point-specific (ISelfS= 7).
                        Self-field    : sphere-specific E.n sum rule (ISelfD= 2).
 1st derivatives      : Analytical E(r).r(x)/FMM algorithm (CHGder, D1EAlg=3).
                        Cavity 1st derivative terms included.
 Solvent              : Water, Eps=  78.355300 Eps(inf)=   1.777849
 ------------------------------------------------------------------------------
 Spheres list:
 ISph  on   Nord     Re0    Alpha      Xe            Ye            Ze
    1   C      1    1.8500  1.000      1.173489      1.291110     -0.048173
    2   C      2    1.8500  1.000      0.624938      0.035647     -0.133547
    3   C      3    1.8500  1.000     -0.742850     -0.110602     -0.089311
    4   C      4    1.8500  1.000     -1.562619      1.012639      0.053992
    5   C      5    1.8500  1.000     -0.995908      2.281068      0.148424
    6   C      6    1.8500  1.000      0.383528      2.430139      0.089222
    7  Br      7    3.0600  1.000      3.078536      1.558199     -0.141953
    8  Br      8    3.0600  1.000      2.122707     -1.981878      0.256473
    9  Br      9    3.0600  1.000     -1.522446     -1.856470     -0.258586
   10  Br     10    3.0600  1.000     -3.463852      0.902686      0.128695
   11   H     11    1.2000  1.000     -1.628957      3.151742      0.263946
   12   H     12    1.2000  1.000      0.822432      3.419452      0.150397
 ------------------------------------------------------------------------------
 GePol: Number of generator spheres                  =      12
 GePol: Total number of spheres                      =      12
 GePol: Number of exposed spheres                    =      12 (100.00%)
 GePol: Number of points                             =    1868
 GePol: Average weight of points                     =       0.17
 GePol: Minimum weight of points                     =   0.42D-08
 GePol: Maximum weight of points                     =    0.22025
 GePol: Number of points with low weight             =      55
 GePol: Fraction of low-weight points (<1% of avg)   =       2.94%
 GePol: Cavity surface area                          =    321.763 Ang**2
 GePol: Cavity volume                                =    418.414 Ang**3
 ------------------------------------------------------------------------------
 Atomic radii for non-electrostatic terms: SMD-CDS.
 ------------------------------------------------------------------------------
 PCM non-electrostatic energy =         0.0002991624 Hartrees.
 Nuclear repulsion after PCM non-electrostatic terms =     1872.4857380121 Hartrees.
 Leave Link  301 at Mon Sep 28 08:58:07 2026, MaxMem=  1610612736 cpu:               0.8 elap:               0.1
 (Enter /share/software/user/restricted/gaussian/g16.B01/l302.exe)
 NPDir=0 NMtPBC=     1 NCelOv=     1 NCel=       1 NClECP=     1 NCelD=      1
         NCelK=      1 NCelE2=     1 NClLst=     1 CellRange=     0.0.
 One-electron integrals computed using PRISM.
 One-electron integral symmetry used in STVInt
 NBasis=   332 RedAO= T EigKep=  2.41D-06  NBF=   332
 NBsUse=   331 1.00D-06 EigRej=  4.76D-07 NBFU=   331
 Precomputing XC quadrature grid using
 IXCGrd= 4 IRadAn=           5 IRanWt=          -1 IRanGd=           0 AccXCQ= 0.00D+00.
 Generated NRdTot=       0 NPtTot=           0 NUsed=           0 NTot=          32
 NSgBfM=   337   337   337   337   337 MxSgAt=    12 MxSgA2=    12.
 Leave Link  302 at Mon Sep 28 08:58:07 2026, MaxMem=  1610612736 cpu:               2.2 elap:               0.3
 (Enter /share/software/user/restricted/gaussian/g16.B01/l303.exe)
 DipDrv:  MaxL=1.
 Leave Link  303 at Mon Sep 28 08:58:07 2026, MaxMem=  1610612736 cpu:               0.4 elap:               0.1
 (Enter /share/software/user/restricted/gaussian/g16.B01/l401.exe)
 Initial guess from the checkpoint file:  "calcs/m062x_smd/chks/BrBz_1234_RA.chk"
 B after Tr=     0.000000    0.000000   -0.000000
         Rot=    1.000000   -0.000068   -0.000003   -0.000086 Ang=  -0.01 deg.
 Guess basis will be translated and rotated to current coordinates.
 JPrj=2 DoOrth=T DoCkMO=T.
 Initial guess <Sx>= 0.0000 <Sy>= 0.0000 <Sz>= 0.5000 <S**2>= 0.7582 S= 0.5041
 Leave Link  401 at Mon Sep 28 08:58:08 2026, MaxMem=  1610612736 cpu:               2.6 elap:               0.3
 (Enter /share/software/user/restricted/gaussian/g16.B01/l502.exe)
 Integral symmetry usage will be decided dynamically.
 UHF open shell SCF:
 Using DIIS extrapolation, IDIIS=  1040.
 NGot=  1610612736 LenX=  1610361870 LenY=  1610238929
 Requested convergence on RMS density matrix=1.00D-08 within 128 cycles.
 Requested convergence on MAX density matrix=1.00D-06.
 Requested convergence on             energy=1.00D-06.
 No special actions if energy rises.
 Fock matrices will be formed incrementally for  20 cycles.

 Cycle   1  Pass 1  IDiag  1:
 FoFJK:  IHMeth= 1 ICntrl=       0 DoSepK=F KAlg= 0 I1Cent=           0 FoldK=F
 IRaf= 790000000 NMat=       1 IRICut=       1 DoRegI=T DoRafI=F ISym2E= 0 IDoP0=0 IntGTp=1.
 FoFCou: FMM=F IPFlag=           0 FMFlag=      100000 FMFlg1=           0
         NFxFlg=           0 DoJE=F BraDBF=F KetDBF=F FulRan=T
         wScrn=  0.000000 ICntrl=         0 IOpCl=  1 I1Cent=           0 NGrid=           0
         NMat0=    1 NMatS0=      1 NMatT0=    0 NMatD0=    1 NMtDS0=    0 NMtDT0=    0
 Symmetry not used in FoFCou.
 Inv3:  Mode=1 IEnd=    10468272.
 Iteration    1 A*A^-1 deviation from unit magnitude is 5.11D-15 for   1865.
 Iteration    1 A*A^-1 deviation from orthogonality  is 1.69D-15 for   1857   1659.
 Iteration    1 A^-1*A deviation from unit magnitude is 5.55D-15 for   1865.
 Iteration    1 A^-1*A deviation from orthogonality  is 1.04D-15 for    273    253.
 E= -10526.5717195678    
 DIIS: error= 4.60D-04 at cycle   1 NSaved=   1.
 NSaved= 1 IEnMin= 1 EnMin= -10526.5717195678     IErMin= 1 ErrMin= 4.60D-04
 ErrMax= 4.60D-04  0.00D+00 EMaxC= 1.00D-01 BMatC= 5.66D-05 BMatP= 5.66D-05
 IDIUse=3 WtCom= 9.95D-01 WtEn= 4.60D-03
 Coeff-Com:  0.100D+01
 Coeff-En:   0.100D+01
 Coeff:      0.100D+01
 Gap=     0.370 Goal=   None    Shift=    0.000
 Gap=     0.427 Goal=   None    Shift=    0.000
 RMSDP=6.50D-05 MaxDP=2.77D-03              OVMax= 7.66D-04

 Cycle   2  Pass 1  IDiag  1:
 RMSU=  6.46D-05    CP:  1.00D+00
 E= -10526.5717245302     Delta-E=       -0.000004962369 Rises=F Damp=F
 DIIS: error= 1.40D-05 at cycle   2 NSaved=   2.
 NSaved= 2 IEnMin= 2 EnMin= -10526.5717245302     IErMin= 2 ErrMin= 1.40D-05
 ErrMax= 1.40D-05  0.00D+00 EMaxC= 1.00D-01 BMatC= 4.23D-07 BMatP= 5.66D-05
 IDIUse=1 WtCom= 1.00D+00 WtEn= 0.00D+00
 Coeff-Com: -0.122D-01 0.101D+01
 Coeff:     -0.122D-01 0.101D+01
 Gap=     0.212 Goal=   None    Shift=    0.000
 Gap=     0.217 Goal=   None    Shift=    0.000
 RMSDP=1.51D-05 MaxDP=6.49D-04 DE=-4.96D-06 OVMax= 3.21D-04

 Cycle   3  Pass 1  IDiag  1:
 RMSU=  1.28D-05    CP:  1.00D+00  1.12D+00
 E= -10526.5717248359     Delta-E=       -0.000000305743 Rises=F Damp=F
 DIIS: error= 1.04D-05 at cycle   3 NSaved=   3.
 NSaved= 3 IEnMin= 3 EnMin= -10526.5717248359     IErMin= 3 ErrMin= 1.04D-05
 ErrMax= 1.04D-05  0.00D+00 EMaxC= 1.00D-01 BMatC= 1.52D-07 BMatP= 4.23D-07
 IDIUse=1 WtCom= 1.00D+00 WtEn= 0.00D+00
 Coeff-Com: -0.834D-02 0.305D+00 0.704D+00
 Coeff:     -0.834D-02 0.305D+00 0.704D+00
 Gap=     0.212 Goal=   None    Shift=    0.000
 Gap=     0.217 Goal=   None    Shift=    0.000
 RMSDP=4.22D-06 MaxDP=1.88D-04 DE=-3.06D-07 OVMax= 1.13D-04

 Cycle   4  Pass 1  IDiag  1:
 RMSU=  3.73D-06    CP:  1.00D+00  1.15D+00  9.26D-01
 E= -10526.5717248835     Delta-E=       -0.000000047559 Rises=F Damp=F
 DIIS: error= 4.20D-06 at cycle   4 NSaved=   4.
 NSaved= 4 IEnMin= 4 EnMin= -10526.5717248835     IErMin= 4 ErrMin= 4.20D-06
 ErrMax= 4.20D-06  0.00D+00 EMaxC= 1.00D-01 BMatC= 4.46D-08 BMatP= 1.52D-07
 IDIUse=1 WtCom= 1.00D+00 WtEn= 0.00D+00
 Coeff-Com: -0.310D-03-0.130D+00 0.300D+00 0.831D+00
 Coeff:     -0.310D-03-0.130D+00 0.300D+00 0.831D+00
 Gap=     0.212 Goal=   None    Shift=    0.000
 Gap=     0.217 Goal=   None    Shift=    0.000
 RMSDP=3.00D-06 MaxDP=1.16D-04 DE=-4.76D-08 OVMax= 1.14D-04

 Cycle   5  Pass 1  IDiag  1:
 RMSU=  1.52D-06    CP:  1.00D+00  1.16D+00  1.09D+00  1.26D+00
 E= -10526.5717249051     Delta-E=       -0.000000021628 Rises=F Damp=F
 DIIS: error= 2.04D-06 at cycle   5 NSaved=   5.
 NSaved= 5 IEnMin= 5 EnMin= -10526.5717249051     IErMin= 5 ErrMin= 2.04D-06
 ErrMax= 2.04D-06  0.00D+00 EMaxC= 1.00D-01 BMatC= 7.93D-09 BMatP= 4.46D-08
 IDIUse=1 WtCom= 1.00D+00 WtEn= 0.00D+00
 Coeff-Com:  0.651D-03-0.100D+00 0.925D-01 0.398D+00 0.608D+00
 Coeff:      0.651D-03-0.100D+00 0.925D-01 0.398D+00 0.608D+00
 Gap=     0.212 Goal=   None    Shift=    0.000
 Gap=     0.217 Goal=   None    Shift=    0.000
 RMSDP=1.34D-06 MaxDP=5.52D-05 DE=-2.16D-08 OVMax= 4.50D-05

 Cycle   6  Pass 1  IDiag  1:
 RMSU=  8.37D-07    CP:  1.00D+00  1.16D+00  1.17D+00  1.21D+00  9.68D-01
 E= -10526.5717249090     Delta-E=       -0.000000003894 Rises=F Damp=F
 DIIS: error= 9.81D-07 at cycle   6 NSaved=   6.
 NSaved= 6 IEnMin= 6 EnMin= -10526.5717249090     IErMin= 6 ErrMin= 9.81D-07
 ErrMax= 9.81D-07  0.00D+00 EMaxC= 1.00D-01 BMatC= 1.52D-09 BMatP= 7.93D-09
 IDIUse=1 WtCom= 1.00D+00 WtEn= 0.00D+00
 Coeff-Com:  0.419D-03-0.119D-01-0.305D-01-0.540D-01 0.225D+00 0.871D+00
 Coeff:      0.419D-03-0.119D-01-0.305D-01-0.540D-01 0.225D+00 0.871D+00
 Gap=     0.212 Goal=   None    Shift=    0.000
 Gap=     0.217 Goal=   None    Shift=    0.000
 RMSDP=1.03D-06 MaxDP=5.11D-05 DE=-3.89D-09 OVMax= 4.21D-05

 Cycle   7  Pass 1  IDiag  1:
 RMSU=  3.72D-07    CP:  1.00D+00  1.16D+00  1.23D+00  1.19D+00  1.14D+00
                    CP:  1.49D+00
 E= -10526.5717249106     Delta-E=       -0.000000001583 Rises=F Damp=F
 DIIS: error= 4.60D-07 at cycle   7 NSaved=   7.
 NSaved= 7 IEnMin= 7 EnMin= -10526.5717249106     IErMin= 7 ErrMin= 4.60D-07
 ErrMax= 4.60D-07  0.00D+00 EMaxC= 1.00D-01 BMatC= 3.97D-10 BMatP= 1.52D-09
 IDIUse=1 WtCom= 1.00D+00 WtEn= 0.00D+00
 Coeff-Com: -0.431D-04 0.278D-01-0.393D-01-0.140D+00-0.923D-01 0.297D+00
 Coeff-Com:  0.946D+00
 Coeff:     -0.431D-04 0.278D-01-0.393D-01-0.140D+00-0.923D-01 0.297D+00
 Coeff:      0.946D+00
 Gap=     0.212 Goal=   None    Shift=    0.000
 Gap=     0.217 Goal=   None    Shift=    0.000
 RMSDP=5.38D-07 MaxDP=2.90D-05 DE=-1.58D-09 OVMax= 2.81D-05

 Cycle   8  Pass 1  IDiag  1:
 RMSU=  1.82D-07    CP:  1.00D+00  1.16D+00  1.25D+00  1.19D+00  1.29D+00
                    CP:  1.90D+00  1.07D+00
 E= -10526.5717249111     Delta-E=       -0.000000000526 Rises=F Damp=F
 DIIS: error= 2.89D-07 at cycle   8 NSaved=   8.
 NSaved= 8 IEnMin= 8 EnMin= -10526.5717249111     IErMin= 8 ErrMin= 2.89D-07
 ErrMax= 2.89D-07  0.00D+00 EMaxC= 1.00D-01 BMatC= 1.24D-10 BMatP= 3.97D-10
 IDIUse=1 WtCom= 1.00D+00 WtEn= 0.00D+00
 Coeff-Com: -0.127D-03 0.183D-01-0.145D-01-0.654D-01-0.916D-01-0.378D-01
 Coeff-Com:  0.461D+00 0.730D+00
 Coeff:     -0.127D-03 0.183D-01-0.145D-01-0.654D-01-0.916D-01-0.378D-01
 Coeff:      0.461D+00 0.730D+00
 Gap=     0.212 Goal=   None    Shift=    0.000
 Gap=     0.217 Goal=   None    Shift=    0.000
 RMSDP=2.14D-07 MaxDP=1.06D-05 DE=-5.26D-10 OVMax= 1.04D-05

 Cycle   9  Pass 1  IDiag  1:
 RMSU=  1.06D-07    CP:  1.00D+00  1.16D+00  1.26D+00  1.20D+00  1.35D+00
                    CP:  2.00D+00  1.17D+00  1.39D+00
 E= -10526.5717249113     Delta-E=       -0.000000000162 Rises=F Damp=F
 DIIS: error= 1.20D-07 at cycle   9 NSaved=   9.
 NSaved= 9 IEnMin= 9 EnMin= -10526.5717249113     IErMin= 9 ErrMin= 1.20D-07
 ErrMax= 1.20D-07  0.00D+00 EMaxC= 1.00D-01 BMatC= 1.37D-11 BMatP= 1.24D-10
 IDIUse=1 WtCom= 1.00D+00 WtEn= 0.00D+00
 Coeff-Com:  0.824D-05-0.578D-02 0.921D-02 0.264D-01 0.191D-01-0.589D-01
 Coeff-Com: -0.196D+00 0.205D-01 0.119D+01
 Coeff:      0.824D-05-0.578D-02 0.921D-02 0.264D-01 0.191D-01-0.589D-01
 Coeff:     -0.196D+00 0.205D-01 0.119D+01
 Gap=     0.212 Goal=   None    Shift=    0.000
 Gap=     0.217 Goal=   None    Shift=    0.000
 RMSDP=1.12D-07 MaxDP=6.44D-06 DE=-1.62D-10 OVMax= 5.60D-06

 Cycle  10  Pass 1  IDiag  1:
 RMSU=  2.90D-08    CP:  1.00D+00  1.16D+00  1.26D+00  1.20D+00  1.37D+00
                    CP:  2.01D+00  1.13D+00  1.76D+00  1.52D+00
 E= -10526.5717249113     Delta-E=       -0.000000000004 Rises=F Damp=F
 DIIS: error= 9.45D-08 at cycle  10 NSaved=  10.
 NSaved=10 IEnMin=10 EnMin= -10526.5717249113     IErMin=10 ErrMin= 9.45D-08
 ErrMax= 9.45D-08  0.00D+00 EMaxC= 1.00D-01 BMatC= 4.23D-12 BMatP= 1.37D-11
 IDIUse=1 WtCom= 1.00D+00 WtEn= 0.00D+00
 Coeff-Com:  0.218D-04-0.497D-02 0.580D-02 0.196D-01 0.200D-01-0.158D-01
 Coeff-Com: -0.142D+00-0.116D+00 0.423D+00 0.811D+00
 Coeff:      0.218D-04-0.497D-02 0.580D-02 0.196D-01 0.200D-01-0.158D-01
 Coeff:     -0.142D+00-0.116D+00 0.423D+00 0.811D+00
 Gap=     0.212 Goal=   None    Shift=    0.000
 Gap=     0.217 Goal=   None    Shift=    0.000
 RMSDP=4.30D-08 MaxDP=2.08D-06 DE=-3.64D-12 OVMax= 1.71D-06

 Cycle  11  Pass 1  IDiag  1:
 RMSU=  1.58D-08    CP:  1.00D+00  1.16D+00  1.26D+00  1.21D+00  1.37D+00
                    CP:  2.01D+00  1.13D+00  1.89D+00  1.71D+00  1.51D+00
 E= -10526.5717249112     Delta-E=        0.000000000075 Rises=F Damp=F
 DIIS: error= 4.81D-08 at cycle  11 NSaved=  11.
 NSaved=11 IEnMin=10 EnMin= -10526.5717249113     IErMin=11 ErrMin= 4.81D-08
 ErrMax= 4.81D-08  0.00D+00 EMaxC= 1.00D-01 BMatC= 1.16D-12 BMatP= 4.23D-12
 IDIUse=1 WtCom= 1.00D+00 WtEn= 0.00D+00
 Coeff-Com:  0.515D-05 0.124D-03-0.913D-03-0.162D-02 0.131D-02 0.129D-01
 Coeff-Com:  0.146D-01-0.369D-01-0.217D+00 0.264D+00 0.963D+00
 Coeff:      0.515D-05 0.124D-03-0.913D-03-0.162D-02 0.131D-02 0.129D-01
 Coeff:      0.146D-01-0.369D-01-0.217D+00 0.264D+00 0.963D+00
 Gap=     0.212 Goal=   None    Shift=    0.000
 Gap=     0.217 Goal=   None    Shift=    0.000
 RMSDP=2.03D-08 MaxDP=1.46D-06 DE= 7.46D-11 OVMax= 1.20D-06

 Cycle  12  Pass 1  IDiag  1:
 RMSU=  1.12D-08    CP:  1.00D+00  1.16D+00  1.26D+00  1.20D+00  1.37D+00
                    CP:  2.01D+00  1.12D+00  1.89D+00  1.80D+00  1.74D+00
                    CP:  1.32D+00
 E= -10526.5717249113     Delta-E=       -0.000000000076 Rises=F Damp=F
 DIIS: error= 3.10D-08 at cycle  12 NSaved=  12.
 NSaved=12 IEnMin=12 EnMin= -10526.5717249113     IErMin=12 ErrMin= 3.10D-08
 ErrMax= 3.10D-08  0.00D+00 EMaxC= 1.00D-01 BMatC= 5.49D-13 BMatP= 1.16D-12
 IDIUse=1 WtCom= 1.00D+00 WtEn= 0.00D+00
 Coeff-Com: -0.475D-05 0.185D-02-0.255D-02-0.797D-02-0.648D-02 0.130D-01
 Coeff-Com:  0.586D-01 0.184D-01-0.290D+00-0.141D+00 0.543D+00 0.814D+00
 Coeff:     -0.475D-05 0.185D-02-0.255D-02-0.797D-02-0.648D-02 0.130D-01
 Coeff:      0.586D-01 0.184D-01-0.290D+00-0.141D+00 0.543D+00 0.814D+00
 Gap=     0.212 Goal=   None    Shift=    0.000
 Gap=     0.217 Goal=   None    Shift=    0.000
 RMSDP=1.42D-08 MaxDP=6.04D-07 DE=-7.64D-11 OVMax= 5.79D-07

 Cycle  13  Pass 1  IDiag  1:
 RMSU=  4.40D-09    CP:  1.00D+00  1.16D+00  1.26D+00  1.20D+00  1.37D+00
                    CP:  2.00D+00  1.11D+00  1.91D+00  1.84D+00  2.01D+00
                    CP:  1.80D+00  1.00D+00
 E= -10526.5717249112     Delta-E=        0.000000000042 Rises=F Damp=F
 DIIS: error= 1.19D-08 at cycle  13 NSaved=  13.
 NSaved=13 IEnMin=12 EnMin= -10526.5717249113     IErMin=13 ErrMin= 1.19D-08
 ErrMax= 1.19D-08  0.00D+00 EMaxC= 1.00D-01 BMatC= 6.71D-14 BMatP= 5.49D-13
 IDIUse=1 WtCom= 1.00D+00 WtEn= 0.00D+00
 Coeff-Com: -0.200D-05 0.396D-03-0.405D-03-0.150D-02-0.189D-02 0.363D-03
 Coeff-Com:  0.109D-01 0.114D-01-0.226D-01-0.813D-01-0.694D-01 0.235D+00
 Coeff-Com:  0.919D+00
 Coeff:     -0.200D-05 0.396D-03-0.405D-03-0.150D-02-0.189D-02 0.363D-03
 Coeff:      0.109D-01 0.114D-01-0.226D-01-0.813D-01-0.694D-01 0.235D+00
 Coeff:      0.919D+00
 Gap=     0.212 Goal=   None    Shift=    0.000
 Gap=     0.217 Goal=   None    Shift=    0.000
 RMSDP=4.80D-09 MaxDP=1.84D-07 DE= 4.18D-11 OVMax= 2.10D-07

 Error on total polarization charges =  0.00779
 SCF Done:  E(UM062X) =  -10526.5717249     A.U. after   13 cycles
            NFock= 13  Conv=0.48D-08     -V/T= 2.0012
 <Sx>= 0.0000 <Sy>= 0.0000 <Sz>= 0.5000 <S**2>= 0.7582 S= 0.5041
 <L.S>=  0.00000000000    
 KE= 1.051344165515D+04 PE=-2.891958746364D+04 EE= 6.007088345563D+03
 SMD-CDS (non-electrostatic) energy       (kcal/mol) =       0.19
 (included in total energy above)
 Annihilation of the first spin contaminant:
 S**2 before annihilation     0.7582,   after     0.7500
 Leave Link  502 at Mon Sep 28 09:00:17 2026, MaxMem=  1610612736 cpu:            1032.9 elap:             129.3
 (Enter /share/software/user/restricted/gaussian/g16.B01/l701.exe)
 ... and contract with generalized density number  0.
 Compute integral first derivatives.
 D1PCM: PCM CHGder 1st derivatives, ID1Alg=3 FixD1E=F DoIter=F DoCFld=F I1PDM=0.
 GePol: Maximum number of non-zero 1st derivatives   =     469
 Leave Link  701 at Mon Sep 28 09:00:19 2026, MaxMem=  1610612736 cpu:              13.9 elap:               1.8
 (Enter /share/software/user/restricted/gaussian/g16.B01/l702.exe)
 L702 exits ... SP integral derivatives will be done elsewhere.
 Leave Link  702 at Mon Sep 28 09:00:19 2026, MaxMem=  1610612736 cpu:               0.3 elap:               0.0
 (Enter /share/software/user/restricted/gaussian/g16.B01/l703.exe)
 Integral derivatives from FoFJK, PRISM(SPDF).
 Compute integral first derivatives, UseDBF=F ICtDFT=           0.
 Calling FoFJK, ICntrl=      2127 FMM=F ISym2X=0 I1Cent= 0 IOpClX= 1 NMat=1 NMatS=1 NMatT=0.
 FoFJK:  IHMeth= 1 ICntrl=    2127 DoSepK=F KAlg= 0 I1Cent=           0 FoldK=F
 IRaf=         0 NMat=       1 IRICut=       1 DoRegI=T DoRafI=F ISym2E= 0 IDoP0=0 IntGTp=1.
 FoFCou: FMM=F IPFlag=           0 FMFlag=      100000 FMFlg1=         800
         NFxFlg=           0 DoJE=F BraDBF=F KetDBF=F FulRan=T
         wScrn=  0.000000 ICntrl=      2127 IOpCl=  1 I1Cent=           0 NGrid=           0
         NMat0=    1 NMatS0=      1 NMatT0=    0 NMatD0=    1 NMtDS0=    0 NMtDT0=    0
 Symmetry not used in FoFCou.
 Leave Link  703 at Mon Sep 28 09:00:35 2026, MaxMem=  1610612736 cpu:             130.4 elap:              16.3
 (Enter /share/software/user/restricted/gaussian/g16.B01/l716.exe)
 Dipole        =-2.54447578D+00 2.92871379D+00-1.28447170D-01
 ***** Axes restored to original set *****
 -------------------------------------------------------------------
 Center     Atomic                   Forces (Hartrees/Bohr)
 Number     Number              X              Y              Z
 -------------------------------------------------------------------
      1        6          -0.000015013    0.000017261   -0.000008627
      2        6           0.000031067    0.000123969    0.000100212
      3        6           0.000007022   -0.000044879   -0.000104105
      4        6           0.000009272    0.000093033   -0.000034376
      5        6          -0.000002830   -0.000031347    0.000018181
      6        6          -0.000024620   -0.000002010   -0.000018485
      7       35          -0.000012912   -0.000032873    0.000006297
      8       35          -0.000010058   -0.000034946    0.000032257
      9       35           0.000044690   -0.000011438    0.000014483
     10       35           0.000022221   -0.000080460   -0.000006939
     11        1          -0.000018225    0.000002789   -0.000020192
     12        1          -0.000030613    0.000000901    0.000021293
 -------------------------------------------------------------------
 Cartesian Forces:  Max     0.000123969 RMS     0.000043209
 Leave Link  716 at Mon Sep 28 09:00:35 2026, MaxMem=  1610612736 cpu:               0.2 elap:               0.0
 (Enter /share/software/user/restricted/gaussian/g16.B01/l103.exe)

 GradGradGradGradGradGradGradGradGradGradGradGradGradGradGradGradGradGrad
 Berny optimization.
 Using GEDIIS/GDIIS optimizer.
 FormGI is forming the generalized inverse of G from B-inverse, IUseBI=4.
 Internal  Forces:  Max     0.000097460 RMS     0.000029209
 Search for a local minimum.
 Step number   6 out of a maximum of   64
 All quantities printed in internal units (Hartrees-Bohrs-Radians)
 RMS Force = .29209D-04 SwitMx=.10000D-02 MixMth= 2
 Mixed Optimization -- En-DIIS/RFO-DIIS
 Swapping is turned off.
 Update second derivatives using D2CorX and points    3    2    4    5    6
 DE= -1.01D-06 DEPred=-9.79D-07 R= 1.04D+00
 TightC=F SS=  1.41D+00  RLast= 1.02D-02 DXNew= 8.4853D-01 3.0666D-02
 Trust test= 1.04D+00 RLast= 1.02D-02 DXMaxT set to 5.05D-01
 ITU=  1  1  1  0  1  0
     Eigenvalues ---    0.00352   0.00974   0.01781   0.02035   0.02272
     Eigenvalues ---    0.02493   0.02619   0.02816   0.02975   0.03310
     Eigenvalues ---    0.10796   0.11175   0.11518   0.12110   0.12662
     Eigenvalues ---    0.15700   0.19061   0.20027   0.21593   0.23328
     Eigenvalues ---    0.25506   0.27793   0.36089   0.36408   0.37452
     Eigenvalues ---    0.44128   0.45548   0.49987   0.53529   0.57340
 En-DIIS/RFO-DIIS/Sim-DIIS IScMMF=       -3 using points:     6    5    4
 RFO step:  Lambda=-6.66484003D-07.
 NNeg= 0 NGDIIS= 3 SimSw=  2.50D-01 Rises=F DC= -1.01D-06 SmlDif=  1.00D-05
 NRisDI= 0 DoIntr=F SqrtH=F CThrHd= 10.0 CDAdj=  3.0
 RMS Error=  0.1522361970D-02 NUsed= 3 OKEnD=F EnDIS=F
 InvSVX:  RCond= 4.74D-06 Info=           0 Equed=N FErr=  1.76D-14 BErr=  7.12D-17
 DidBck=F Rises=F RFO-DIIS coefs:    1.29397   -0.13146   -0.16251
 Iteration  1 RMS(Cart)=  0.00208183 RMS(Int)=  0.00000344
 Iteration  2 RMS(Cart)=  0.00000282 RMS(Int)=  0.00000191
 Iteration  3 RMS(Cart)=  0.00000000 RMS(Int)=  0.00000191
 ITry= 1 IFail=0 DXMaxC= 1.09D-02 DCOld= 1.00D+10 DXMaxT= 5.05D-01 DXLimC= 3.00D+00 Rises=F
 Variable       Old X    -DE/DX   Delta X   Delta X   Delta X     New X
                                 (Linear)    (Quad)   (Total)
    R1        2.59408   0.00002   0.00011  -0.00011   0.00000   2.59409
    R2        2.63229   0.00005  -0.00006   0.00004  -0.00002   2.63227
    R3        3.63954  -0.00003  -0.00201   0.00180  -0.00021   3.63934
    R4        2.60082   0.00006  -0.00036   0.00030  -0.00007   2.60076
    R5        4.80520   0.00001   0.00404  -0.00256   0.00148   4.80667
    R6        2.64172  -0.00000  -0.00002  -0.00005  -0.00007   2.64165
    R7        3.62733   0.00002   0.00014  -0.00004   0.00011   3.62744
    R8        2.63140  -0.00004   0.00011  -0.00023  -0.00012   2.63128
    R9        3.60158   0.00008  -0.00055   0.00055   0.00000   3.60158
   R10        2.62432   0.00001  -0.00005   0.00000  -0.00005   2.62427
   R11        2.04595   0.00002  -0.00005   0.00007   0.00002   2.04596
   R12        2.04852  -0.00002   0.00006  -0.00009  -0.00002   2.04849
    A1        2.12630   0.00001  -0.00060   0.00071   0.00011   2.12641
    A2        2.11656   0.00001   0.00032  -0.00041  -0.00010   2.11646
    A3        2.04021  -0.00002   0.00029  -0.00031  -0.00002   2.04019
    A4        2.08555  -0.00008   0.00084  -0.00107  -0.00024   2.08531
    A5        2.07228   0.00010  -0.00044   0.00060   0.00015   2.07243
    A6        2.08994  -0.00003  -0.00103   0.00015  -0.00088   2.08906
    A7        2.09520   0.00006  -0.00042   0.00060   0.00018   2.09538
    A8        2.09145  -0.00005   0.00034  -0.00047  -0.00013   2.09133
    A9        2.09635  -0.00001   0.00008  -0.00013  -0.00006   2.09629
   A10        2.09464   0.00000  -0.00010   0.00009  -0.00001   2.09463
   A11        2.14438  -0.00002   0.00013  -0.00015  -0.00003   2.14436
   A12        2.04416   0.00002  -0.00003   0.00007   0.00004   2.04420
   A13        2.09341  -0.00002   0.00026  -0.00032  -0.00006   2.09335
   A14        2.09650   0.00001  -0.00020   0.00022   0.00003   2.09653
   A15        2.09327   0.00001  -0.00006   0.00009   0.00003   2.09330
   A16        2.07116   0.00003   0.00002  -0.00001   0.00001   2.07117
   A17        2.12024  -0.00002  -0.00001  -0.00003  -0.00003   2.12021
   A18        2.09178  -0.00002  -0.00001   0.00004   0.00002   2.09180
    D1        0.00541   0.00000  -0.00025   0.00063   0.00037   0.00578
    D2       -2.85289   0.00003   0.00244   0.00185   0.00430  -2.84860
    D3       -3.11884   0.00001  -0.00070   0.00153   0.00083  -3.11801
    D4        0.30605   0.00004   0.00199   0.00275   0.00475   0.31080
    D5        0.00666   0.00000   0.00061  -0.00047   0.00013   0.00680
    D6       -3.13536  -0.00000   0.00054  -0.00052   0.00002  -3.13534
    D7        3.13163  -0.00000   0.00104  -0.00134  -0.00030   3.13133
    D8       -0.01039  -0.00001   0.00097  -0.00139  -0.00041  -0.01080
    D9       -0.01025  -0.00001  -0.00047  -0.00006  -0.00053  -0.01079
   D10        3.11095  -0.00000  -0.00091   0.00008  -0.00083   3.11013
   D11        2.84516  -0.00001  -0.00310  -0.00123  -0.00432   2.84083
   D12       -0.31683  -0.00001  -0.00354  -0.00108  -0.00461  -0.32144
   D13        0.00308   0.00000   0.00083  -0.00064   0.00019   0.00328
   D14       -3.13898   0.00000   0.00089  -0.00062   0.00027  -3.13871
   D15       -3.11806   0.00000   0.00127  -0.00078   0.00049  -3.11758
   D16        0.02306   0.00000   0.00133  -0.00077   0.00056   0.02363
   D17        0.00910   0.00000  -0.00047   0.00079   0.00032   0.00942
   D18       -3.13676   0.00000  -0.00064   0.00080   0.00016  -3.13660
   D19       -3.13205   0.00000  -0.00053   0.00078   0.00025  -3.13180
   D20        0.00527   0.00000  -0.00070   0.00079   0.00009   0.00536
   D21       -0.01379  -0.00000  -0.00023  -0.00024  -0.00048  -0.01426
   D22        3.12823  -0.00000  -0.00017  -0.00020  -0.00036   3.12786
   D23        3.13207  -0.00000  -0.00006  -0.00026  -0.00032   3.13175
   D24       -0.00910  -0.00000   0.00000  -0.00021  -0.00021  -0.00931
         Item               Value     Threshold  Converged?
 Maximum Force            0.000097     0.000015     NO 
 RMS     Force            0.000029     0.000010     NO 
 Maximum Displacement     0.010861     0.000060     NO 
 RMS     Displacement     0.002082     0.000040     NO 
 Predicted change in Energy=-3.207527D-07
 Lowest energy point so far.  Saving SCF results.
 GradGradGradGradGradGradGradGradGradGradGradGradGradGradGradGradGradGrad

 Leave Link  103 at Mon Sep 28 09:00:36 2026, MaxMem=  1610612736 cpu:               0.3 elap:               0.0
 (Enter /share/software/user/restricted/gaussian/g16.B01/l202.exe)
                          Input orientation:                          
 ---------------------------------------------------------------------
 Center     Atomic      Atomic             Coordinates (Angstroms)
 Number     Number       Type             X           Y           Z
 ---------------------------------------------------------------------
      1          6           0        0.080449    1.288632   -1.157989
      2          6           0        0.120911    0.624015    0.042443
      3          6           0        0.086282   -0.751739    0.056415
      4          6           0       -0.002539   -1.462100   -1.144260
      5          6           0       -0.052133   -0.778181   -2.356123
      6          6           0       -0.001963    0.609532   -2.371372
      7         35           0        0.164738    3.210914   -1.239511
      8         35           0       -0.376423    1.918673    2.174654
      9         35           0        0.194612   -1.692535    1.726106
     10         35           0       -0.060537   -3.365673   -1.217801
     11          1           0       -0.125599   -1.326449   -3.286819
     12          1           0       -0.027797    1.140037   -3.316353
 ---------------------------------------------------------------------
                    Distance matrix (angstroms):
                    1          2          3          4          5
     1  C    0.000000
     2  C    1.372731   0.000000
     3  C    2.374432   1.376261   0.000000
     4  C    2.752019   2.403202   1.397899   0.000000
     5  C    2.392660   2.783741   2.416649   1.392413   0.000000
     6  C    1.392935   2.416984   2.784779   2.407793   1.388704
     7  Br   1.925855   2.887450   4.169915   4.676977   4.148100
     8  Br   3.422308   2.543581   3.439787   4.752327   5.282625
     9  Br   4.149505   2.864708   1.919557   2.886342   4.190646
    10  Br   4.656824   4.187929   2.911672   1.905875   2.826828
    11  H    3.378317   3.866402   3.398882   2.150373   1.082678
    12  H    2.166179   3.401456   3.868771   3.389652   2.145273
                    6          7          8          9         10
     6  C    0.000000
     7  Br   2.841846   0.000000
     8  Br   4.745569   3.690428   0.000000
     9  Br   4.703985   5.730583   3.683490   0.000000
    10  Br   4.139615   6.580480   6.287515   3.395744   0.000000
    11  H    2.145077   4.986325   6.357785   5.036464   2.905770
    12  H    1.084016   2.939196   5.556885   5.787859   4.970554
                   11         12
    11  H    0.000000
    12  H    2.468601   0.000000
 Stoichiometry    C6H2Br4(1-,2)
 Framework group  C1[X(C6H2Br4)]
 Deg. of freedom    30
 Full point group                 C1      NOp   1
 RotChk:  IX=1 Diff= 1.00D-03
 Largest Abelian subgroup         C1      NOp   1
 Largest concise Abelian subgroup C1      NOp   1
                         Standard orientation:                         
 ---------------------------------------------------------------------
 Center     Atomic      Atomic             Coordinates (Angstroms)
 Number     Number       Type             X           Y           Z
 ---------------------------------------------------------------------
      1          6           0        1.173901    1.291066   -0.048659
      2          6           0        0.625271    0.035717   -0.135223
      3          6           0       -0.742504   -0.110204   -0.090590
      4          6           0       -1.562059    1.012862    0.054926
      5          6           0       -0.995187    2.281031    0.150953
      6          6           0        0.384190    2.430007    0.090755
      7         35           0        3.078754    1.558119   -0.144245
      8         35           0        2.121380   -1.982902    0.260555
      9         35           0       -1.522510   -1.855658   -0.262868
     10         35           0       -3.463249    0.902909    0.130725
     11          1           0       -1.628052    3.151601    0.268344
     12          1           0        0.823286    3.419164    0.152831
 ---------------------------------------------------------------------
 Rotational constants (GHZ):           0.4862828           0.2176981           0.1516995
 Leave Link  202 at Mon Sep 28 09:00:36 2026, MaxMem=  1610612736 cpu:               0.0 elap:               0.0
 (Enter /share/software/user/restricted/gaussian/g16.B01/l301.exe)
 Standard basis: 6-311++G(d) (5D, 7F)
 Ernie: Thresh=  0.10000D-02 Tol=  0.10000D-05 Strict=F.
 There are   350 symmetry adapted cartesian basis functions of A   symmetry.
 There are   332 symmetry adapted basis functions of A   symmetry.
   332 basis functions,   604 primitive gaussians,   350 cartesian basis functions
    90 alpha electrons       89 beta electrons
       nuclear repulsion energy      1872.4260599385 Hartrees.
 IExCor= 4336 DFT=T Ex+Corr=M062X ExCW=0 ScaHFX=  0.540000
 ScaDFX=  1.000000  1.000000  1.000000  1.000000 ScalE2=  1.000000  1.000000
 IRadAn=      5 IRanWt=     -1 IRanGd=            0 ICorTp=0 IEmpDi=  4
 NAtoms=   12 NActive=   12 NUniq=   12 SFac= 1.00D+00 NAtFMM=   60 NAOKFM=F Big=F
 Integral buffers will be    131072 words long.
 Raffenetti 2 integral format.
 Two-electron integral symmetry is turned on.
 ------------------------------------------------------------------------------
 Polarizable Continuum Model (PCM)
 =================================
 Model                : PCM.
 Atomic radii         : SMD-Coulomb.
 Polarization charges : Total charges.
 Charge compensation  : None.
 Solution method      : Matrix inversion.
 Cavity type          : VdW (van der Waals Surface) (Alpha=1.000).
 Cavity algorithm     : GePol (No added spheres)
                        Default sphere list used, NSphG=   12.
                        Lebedev-Laikov grids with approx.  5.0 points / Ang**2.
                        Smoothing algorithm: York/Karplus (Gamma=1.0000).
                        Polarization charges: spherical gaussians, with
                                              point-specific exponents (IZeta= 3).
                        Self-potential: point-specific (ISelfS= 7).
                        Self-field    : sphere-specific E.n sum rule (ISelfD= 2).
 1st derivatives      : Analytical E(r).r(x)/FMM algorithm (CHGder, D1EAlg=3).
                        Cavity 1st derivative terms included.
 Solvent              : Water, Eps=  78.355300 Eps(inf)=   1.777849
 ------------------------------------------------------------------------------
 Spheres list:
 ISph  on   Nord     Re0    Alpha      Xe            Ye            Ze
    1   C      1    1.8500  1.000      1.173901      1.291066     -0.048659
    2   C      2    1.8500  1.000      0.625271      0.035717     -0.135223
    3   C      3    1.8500  1.000     -0.742504     -0.110204     -0.090590
    4   C      4    1.8500  1.000     -1.562059      1.012862      0.054926
    5   C      5    1.8500  1.000     -0.995187      2.281031      0.150953
    6   C      6    1.8500  1.000      0.384190      2.430007      0.090755
    7  Br      7    3.0600  1.000      3.078754      1.558119     -0.144245
    8  Br      8    3.0600  1.000      2.121380     -1.982902      0.260555
    9  Br      9    3.0600  1.000     -1.522510     -1.855658     -0.262868
   10  Br     10    3.0600  1.000     -3.463249      0.902909      0.130725
   11   H     11    1.2000  1.000     -1.628052      3.151601      0.268344
   12   H     12    1.2000  1.000      0.823286      3.419164      0.152831
 ------------------------------------------------------------------------------
 GePol: Number of generator spheres                  =      12
 GePol: Total number of spheres                      =      12
 GePol: Number of exposed spheres                    =      12 (100.00%)
 GePol: Number of points                             =    1866
 GePol: Average weight of points                     =       0.17
 GePol: Minimum weight of points                     =   0.70D-11
 GePol: Maximum weight of points                     =    0.22025
 GePol: Number of points with low weight             =      48
 GePol: Fraction of low-weight points (<1% of avg)   =       2.57%
 GePol: Cavity surface area                          =    321.742 Ang**2
 GePol: Cavity volume                                =    418.415 Ang**3
 ------------------------------------------------------------------------------
 Atomic radii for non-electrostatic terms: SMD-CDS.
 ------------------------------------------------------------------------------
 PCM non-electrostatic energy =         0.0002987407 Hartrees.
 Nuclear repulsion after PCM non-electrostatic terms =     1872.4263586792 Hartrees.
 Leave Link  301 at Mon Sep 28 09:00:36 2026, MaxMem=  1610612736 cpu:               0.8 elap:               0.1
 (Enter /share/software/user/restricted/gaussian/g16.B01/l302.exe)
 NPDir=0 NMtPBC=     1 NCelOv=     1 NCel=       1 NClECP=     1 NCelD=      1
         NCelK=      1 NCelE2=     1 NClLst=     1 CellRange=     0.0.
 One-electron integrals computed using PRISM.
 One-electron integral symmetry used in STVInt
 NBasis=   332 RedAO= T EigKep=  2.42D-06  NBF=   332
 NBsUse=   331 1.00D-06 EigRej=  4.77D-07 NBFU=   331
 Precomputing XC quadrature grid using
 IXCGrd= 4 IRadAn=           5 IRanWt=          -1 IRanGd=           0 AccXCQ= 0.00D+00.
 Generated NRdTot=       0 NPtTot=           0 NUsed=           0 NTot=          32
 NSgBfM=   337   337   337   337   337 MxSgAt=    12 MxSgA2=    12.
 Leave Link  302 at Mon Sep 28 09:00:36 2026, MaxMem=  1610612736 cpu:               2.1 elap:               0.3
 (Enter /share/software/user/restricted/gaussian/g16.B01/l303.exe)
 DipDrv:  MaxL=1.
 Leave Link  303 at Mon Sep 28 09:00:36 2026, MaxMem=  1610612736 cpu:               0.4 elap:               0.1
 (Enter /share/software/user/restricted/gaussian/g16.B01/l401.exe)
 Initial guess from the checkpoint file:  "calcs/m062x_smd/chks/BrBz_1234_RA.chk"
 B after Tr=    -0.000000   -0.000000   -0.000000
         Rot=    1.000000   -0.000032    0.000008    0.000106 Ang=  -0.01 deg.
 Guess basis will be translated and rotated to current coordinates.
 JPrj=2 DoOrth=T DoCkMO=T.
 Initial guess <Sx>= 0.0000 <Sy>= 0.0000 <Sz>= 0.5000 <S**2>= 0.7582 S= 0.5041
 Leave Link  401 at Mon Sep 28 09:00:37 2026, MaxMem=  1610612736 cpu:               2.7 elap:               0.3
 (Enter /share/software/user/restricted/gaussian/g16.B01/l502.exe)
 Integral symmetry usage will be decided dynamically.
 UHF open shell SCF:
 Using DIIS extrapolation, IDIIS=  1040.
 NGot=  1610612736 LenX=  1610361870 LenY=  1610238929
 Requested convergence on RMS density matrix=1.00D-08 within 128 cycles.
 Requested convergence on MAX density matrix=1.00D-06.
 Requested convergence on             energy=1.00D-06.
 No special actions if energy rises.
 Fock matrices will be formed incrementally for  20 cycles.

 Cycle   1  Pass 1  IDiag  1:
 FoFJK:  IHMeth= 1 ICntrl=       0 DoSepK=F KAlg= 0 I1Cent=           0 FoldK=F
 IRaf= 790000000 NMat=       1 IRICut=       1 DoRegI=T DoRafI=F ISym2E= 0 IDoP0=0 IntGTp=1.
 FoFCou: FMM=F IPFlag=           0 FMFlag=      100000 FMFlg1=           0
         NFxFlg=           0 DoJE=F BraDBF=F KetDBF=F FulRan=T
         wScrn=  0.000000 ICntrl=         0 IOpCl=  1 I1Cent=           0 NGrid=           0
         NMat0=    1 NMatS0=      1 NMatT0=    0 NMatD0=    1 NMtDS0=    0 NMtDT0=    0
 Symmetry not used in FoFCou.
 Inv3:  Mode=1 IEnd=    10445868.
 Iteration    1 A*A^-1 deviation from unit magnitude is 5.33D-15 for   1858.
 Iteration    1 A*A^-1 deviation from orthogonality  is 2.11D-15 for   1860   1169.
 Iteration    1 A^-1*A deviation from unit magnitude is 5.55D-15 for   1858.
 Iteration    1 A^-1*A deviation from orthogonality  is 1.10D-15 for   1757   1296.
 E= -10526.5717159715    
 DIIS: error= 6.30D-04 at cycle   1 NSaved=   1.
 NSaved= 1 IEnMin= 1 EnMin= -10526.5717159715     IErMin= 1 ErrMin= 6.30D-04
 ErrMax= 6.30D-04  0.00D+00 EMaxC= 1.00D-01 BMatC= 1.82D-04 BMatP= 1.82D-04
 IDIUse=3 WtCom= 9.94D-01 WtEn= 6.30D-03
 Coeff-Com:  0.100D+01
 Coeff-En:   0.100D+01
 Coeff:      0.100D+01
 Gap=     0.370 Goal=   None    Shift=    0.000
 Gap=     0.427 Goal=   None    Shift=    0.000
 RMSDP=6.39D-05 MaxDP=3.79D-03              OVMax= 8.46D-04

 Cycle   2  Pass 1  IDiag  1:
 RMSU=  6.39D-05    CP:  1.00D+00
 E= -10526.5717252656     Delta-E=       -0.000009294114 Rises=F Damp=F
 DIIS: error= 3.51D-05 at cycle   2 NSaved=   2.
 NSaved= 2 IEnMin= 2 EnMin= -10526.5717252656     IErMin= 2 ErrMin= 3.51D-05
 ErrMax= 3.51D-05  0.00D+00 EMaxC= 1.00D-01 BMatC= 4.93D-07 BMatP= 1.82D-04
 IDIUse=1 WtCom= 1.00D+00 WtEn= 0.00D+00
 Coeff-Com: -0.909D-02 0.101D+01
 Coeff:     -0.909D-02 0.101D+01
 Gap=     0.212 Goal=   None    Shift=    0.000
 Gap=     0.217 Goal=   None    Shift=    0.000
 RMSDP=1.14D-05 MaxDP=5.62D-04 DE=-9.29D-06 OVMax= 3.35D-04

 Cycle   3  Pass 1  IDiag  1:
 RMSU=  1.02D-05    CP:  1.00D+00  1.08D+00
 E= -10526.5717257037     Delta-E=       -0.000000438053 Rises=F Damp=F
 DIIS: error= 1.00D-05 at cycle   3 NSaved=   3.
 NSaved= 3 IEnMin= 3 EnMin= -10526.5717257037     IErMin= 3 ErrMin= 1.00D-05
 ErrMax= 1.00D-05  0.00D+00 EMaxC= 1.00D-01 BMatC= 7.80D-08 BMatP= 4.93D-07
 IDIUse=1 WtCom= 1.00D+00 WtEn= 0.00D+00
 Coeff-Com: -0.219D-02 0.306D-01 0.972D+00
 Coeff:     -0.219D-02 0.306D-01 0.972D+00
 Gap=     0.212 Goal=   None    Shift=    0.000
 Gap=     0.217 Goal=   None    Shift=    0.000
 RMSDP=5.30D-06 MaxDP=1.92D-04 DE=-4.38D-07 OVMax= 1.76D-04

 Cycle   4  Pass 1  IDiag  1:
 RMSU=  4.35D-06    CP:  1.00D+00  1.12D+00  1.08D+00
 E= -10526.5717257542     Delta-E=       -0.000000050517 Rises=F Damp=F
 DIIS: error= 5.50D-06 at cycle   4 NSaved=   4.
 NSaved= 4 IEnMin= 4 EnMin= -10526.5717257542     IErMin= 4 ErrMin= 5.50D-06
 ErrMax= 5.50D-06  0.00D+00 EMaxC= 1.00D-01 BMatC= 5.36D-08 BMatP= 7.80D-08
 IDIUse=1 WtCom= 1.00D+00 WtEn= 0.00D+00
 Coeff-Com:  0.445D-03-0.163D+00 0.495D+00 0.667D+00
 Coeff:      0.445D-03-0.163D+00 0.495D+00 0.667D+00
 Gap=     0.212 Goal=   None    Shift=    0.000
 Gap=     0.217 Goal=   None    Shift=    0.000
 RMSDP=2.00D-06 MaxDP=7.73D-05 DE=-5.05D-08 OVMax= 9.48D-05

 Cycle   5  Pass 1  IDiag  1:
 RMSU=  1.08D-06    CP:  1.00D+00  1.12D+00  1.24D+00  1.08D+00
 E= -10526.5717257708     Delta-E=       -0.000000016547 Rises=F Damp=F
 DIIS: error= 2.19D-06 at cycle   5 NSaved=   5.
 NSaved= 5 IEnMin= 5 EnMin= -10526.5717257708     IErMin= 5 ErrMin= 2.19D-06
 ErrMax= 2.19D-06  0.00D+00 EMaxC= 1.00D-01 BMatC= 4.19D-09 BMatP= 5.36D-08
 IDIUse=1 WtCom= 1.00D+00 WtEn= 0.00D+00
 Coeff-Com:  0.368D-03-0.695D-01 0.122D+00 0.235D+00 0.712D+00
 Coeff:      0.368D-03-0.695D-01 0.122D+00 0.235D+00 0.712D+00
 Gap=     0.212 Goal=   None    Shift=    0.000
 Gap=     0.217 Goal=   None    Shift=    0.000
 RMSDP=1.51D-06 MaxDP=6.58D-05 DE=-1.65D-08 OVMax= 5.10D-05

 Cycle   6  Pass 1  IDiag  1:
 RMSU=  9.81D-07    CP:  1.00D+00  1.12D+00  1.29D+00  8.81D-01  8.97D-01
 E= -10526.5717257739     Delta-E=       -0.000000003169 Rises=F Damp=F
 DIIS: error= 1.10D-06 at cycle   6 NSaved=   6.
 NSaved= 6 IEnMin= 6 EnMin= -10526.5717257739     IErMin= 6 ErrMin= 1.10D-06
 ErrMax= 1.10D-06  0.00D+00 EMaxC= 1.00D-01 BMatC= 1.80D-09 BMatP= 4.19D-09
 IDIUse=1 WtCom= 1.00D+00 WtEn= 0.00D+00
 Coeff-Com:  0.484D-04 0.196D-01-0.103D+00-0.122D+00 0.368D+00 0.837D+00
 Coeff:      0.484D-04 0.196D-01-0.103D+00-0.122D+00 0.368D+00 0.837D+00
 Gap=     0.212 Goal=   None    Shift=    0.000
 Gap=     0.217 Goal=   None    Shift=    0.000
 RMSDP=7.71D-07 MaxDP=3.26D-05 DE=-3.17D-09 OVMax= 4.84D-05

 Cycle   7  Pass 1  IDiag  1:
 RMSU=  3.49D-07    CP:  1.00D+00  1.11D+00  1.34D+00  8.47D-01  1.20D+00
                    CP:  1.26D+00
 E= -10526.5717257757     Delta-E=       -0.000000001741 Rises=F Damp=F
 DIIS: error= 4.26D-07 at cycle   7 NSaved=   7.
 NSaved= 7 IEnMin= 7 EnMin= -10526.5717257757     IErMin= 7 ErrMin= 4.26D-07
 ErrMax= 4.26D-07  0.00D+00 EMaxC= 1.00D-01 BMatC= 2.34D-10 BMatP= 1.80D-09
 IDIUse=1 WtCom= 1.00D+00 WtEn= 0.00D+00
 Coeff-Com: -0.102D-03 0.295D-01-0.758D-01-0.106D+00-0.681D-01 0.231D+00
 Coeff-Com:  0.989D+00
 Coeff:     -0.102D-03 0.295D-01-0.758D-01-0.106D+00-0.681D-01 0.231D+00
 Coeff:      0.989D+00
 Gap=     0.212 Goal=   None    Shift=    0.000
 Gap=     0.217 Goal=   None    Shift=    0.000
 RMSDP=3.38D-07 MaxDP=1.44D-05 DE=-1.74D-09 OVMax= 3.05D-05

 Cycle   8  Pass 1  IDiag  1:
 RMSU=  1.79D-07    CP:  1.00D+00  1.11D+00  1.34D+00  8.53D-01  1.36D+00
                    CP:  1.49D+00  1.15D+00
 E= -10526.5717257761     Delta-E=       -0.000000000406 Rises=F Damp=F
 DIIS: error= 1.39D-07 at cycle   8 NSaved=   8.
 NSaved= 8 IEnMin= 8 EnMin= -10526.5717257761     IErMin= 8 ErrMin= 1.39D-07
 ErrMax= 1.39D-07  0.00D+00 EMaxC= 1.00D-01 BMatC= 3.49D-11 BMatP= 2.34D-10
 IDIUse=1 WtCom= 1.00D+00 WtEn= 0.00D+00
 Coeff-Com: -0.384D-04 0.789D-02-0.151D-01-0.251D-01-0.487D-01-0.105D-01
 Coeff-Com:  0.309D+00 0.783D+00
 Coeff:     -0.384D-04 0.789D-02-0.151D-01-0.251D-01-0.487D-01-0.105D-01
 Coeff:      0.309D+00 0.783D+00
 Gap=     0.212 Goal=   None    Shift=    0.000
 Gap=     0.217 Goal=   None    Shift=    0.000
 RMSDP=8.59D-08 MaxDP=2.73D-06 DE=-4.06D-10 OVMax= 5.89D-06

 Cycle   9  Pass 1  IDiag  1:
 RMSU=  6.31D-08    CP:  1.00D+00  1.11D+00  1.35D+00  8.55D-01  1.38D+00
                    CP:  1.50D+00  1.23D+00  1.20D+00
 E= -10526.5717257760     Delta-E=        0.000000000027 Rises=F Damp=F
 DIIS: error= 7.88D-08 at cycle   9 NSaved=   9.
 NSaved= 9 IEnMin= 8 EnMin= -10526.5717257761     IErMin= 9 ErrMin= 7.88D-08
 ErrMax= 7.88D-08  0.00D+00 EMaxC= 1.00D-01 BMatC= 1.39D-11 BMatP= 3.49D-11
 IDIUse=1 WtCom= 1.00D+00 WtEn= 0.00D+00
 Coeff-Com:  0.893D-05-0.437D-02 0.141D-01 0.155D-01-0.288D-02-0.755D-01
 Coeff-Com: -0.122D+00 0.413D+00 0.763D+00
 Coeff:      0.893D-05-0.437D-02 0.141D-01 0.155D-01-0.288D-02-0.755D-01
 Coeff:     -0.122D+00 0.413D+00 0.763D+00
 Gap=     0.212 Goal=   None    Shift=    0.000
 Gap=     0.217 Goal=   None    Shift=    0.000
 RMSDP=5.49D-08 MaxDP=2.18D-06 DE= 2.73D-11 OVMax= 2.57D-06

 Cycle  10  Pass 1  IDiag  1:
 RMSU=  2.12D-08    CP:  1.00D+00  1.11D+00  1.35D+00  8.54D-01  1.40D+00
                    CP:  1.50D+00  1.26D+00  1.44D+00  9.96D-01
 E= -10526.5717257761     Delta-E=       -0.000000000049 Rises=F Damp=F
 DIIS: error= 3.48D-08 at cycle  10 NSaved=  10.
 NSaved=10 IEnMin=10 EnMin= -10526.5717257761     IErMin=10 ErrMin= 3.48D-08
 ErrMax= 3.48D-08  0.00D+00 EMaxC= 1.00D-01 BMatC= 1.51D-12 BMatP= 1.39D-11
 IDIUse=1 WtCom= 1.00D+00 WtEn= 0.00D+00
 Coeff-Com:  0.741D-05-0.266D-02 0.770D-02 0.885D-02 0.480D-02-0.347D-01
 Coeff-Com: -0.805D-01 0.117D+00 0.322D+00 0.657D+00
 Coeff:      0.741D-05-0.266D-02 0.770D-02 0.885D-02 0.480D-02-0.347D-01
 Coeff:     -0.805D-01 0.117D+00 0.322D+00 0.657D+00
 Gap=     0.212 Goal=   None    Shift=    0.000
 Gap=     0.217 Goal=   None    Shift=    0.000
 RMSDP=1.69D-08 MaxDP=6.65D-07 DE=-4.91D-11 OVMax= 8.01D-07

 Cycle  11  Pass 1  IDiag  1:
 RMSU=  9.92D-09    CP:  1.00D+00  1.11D+00  1.35D+00  8.54D-01  1.41D+00
                    CP:  1.49D+00  1.25D+00  1.49D+00  1.09D+00  1.05D+00
 E= -10526.5717257761     Delta-E=       -0.000000000038 Rises=F Damp=F
 DIIS: error= 1.64D-08 at cycle  11 NSaved=  11.
 NSaved=11 IEnMin=11 EnMin= -10526.5717257761     IErMin=11 ErrMin= 1.64D-08
 ErrMax= 1.64D-08  0.00D+00 EMaxC= 1.00D-01 BMatC= 4.20D-13 BMatP= 1.51D-12
 IDIUse=1 WtCom= 1.00D+00 WtEn= 0.00D+00
 Coeff-Com: -0.908D-06 0.719D-03-0.257D-02-0.298D-02 0.429D-02 0.135D-01
 Coeff-Com:  0.184D-01-0.101D+00-0.183D+00 0.204D+00 0.105D+01
 Coeff:     -0.908D-06 0.719D-03-0.257D-02-0.298D-02 0.429D-02 0.135D-01
 Coeff:      0.184D-01-0.101D+00-0.183D+00 0.204D+00 0.105D+01
 Gap=     0.212 Goal=   None    Shift=    0.000
 Gap=     0.217 Goal=   None    Shift=    0.000
 RMSDP=1.89D-08 MaxDP=7.88D-07 DE=-3.82D-11 OVMax= 8.45D-07

 Cycle  12  Pass 1  IDiag  1:
 RMSU=  4.95D-09    CP:  1.00D+00  1.11D+00  1.35D+00  8.55D-01  1.41D+00
                    CP:  1.49D+00  1.24D+00  1.54D+00  1.14D+00  1.31D+00
                    CP:  1.66D+00
 E= -10526.5717257761     Delta-E=        0.000000000038 Rises=F Damp=F
 DIIS: error= 9.40D-09 at cycle  12 NSaved=  12.
 NSaved=12 IEnMin=11 EnMin= -10526.5717257761     IErMin=12 ErrMin= 9.40D-09
 ErrMax= 9.40D-09  0.00D+00 EMaxC= 1.00D-01 BMatC= 9.81D-14 BMatP= 4.20D-13
 IDIUse=1 WtCom= 1.00D+00 WtEn= 0.00D+00
 Coeff-Com: -0.221D-05 0.935D-03-0.284D-02-0.342D-02 0.604D-03 0.127D-01
 Coeff-Com:  0.280D-01-0.620D-01-0.152D+00-0.924D-01 0.384D+00 0.887D+00
 Coeff:     -0.221D-05 0.935D-03-0.284D-02-0.342D-02 0.604D-03 0.127D-01
 Coeff:      0.280D-01-0.620D-01-0.152D+00-0.924D-01 0.384D+00 0.887D+00
 Gap=     0.212 Goal=   None    Shift=    0.000
 Gap=     0.217 Goal=   None    Shift=    0.000
 RMSDP=8.06D-09 MaxDP=3.71D-07 DE= 3.82D-11 OVMax= 4.47D-07

 Error on total polarization charges =  0.00779
 SCF Done:  E(UM062X) =  -10526.5717258     A.U. after   12 cycles
            NFock= 12  Conv=0.81D-08     -V/T= 2.0012
 <Sx>= 0.0000 <Sy>= 0.0000 <Sz>= 0.5000 <S**2>= 0.7582 S= 0.5041
 <L.S>=  0.00000000000    
 KE= 1.051344189818D+04 PE=-2.891946746206D+04 EE= 6.007027479422D+03
 SMD-CDS (non-electrostatic) energy       (kcal/mol) =       0.19
 (included in total energy above)
 Annihilation of the first spin contaminant:
 S**2 before annihilation     0.7582,   after     0.7500
 Leave Link  502 at Mon Sep 28 09:02:36 2026, MaxMem=  1610612736 cpu:             954.9 elap:             119.6
 (Enter /share/software/user/restricted/gaussian/g16.B01/l701.exe)
 ... and contract with generalized density number  0.
 Compute integral first derivatives.
 D1PCM: PCM CHGder 1st derivatives, ID1Alg=3 FixD1E=F DoIter=F DoCFld=F I1PDM=0.
 GePol: Maximum number of non-zero 1st derivatives   =     469
 Leave Link  701 at Mon Sep 28 09:02:38 2026, MaxMem=  1610612736 cpu:              13.9 elap:               1.8
 (Enter /share/software/user/restricted/gaussian/g16.B01/l702.exe)
 L702 exits ... SP integral derivatives will be done elsewhere.
 Leave Link  702 at Mon Sep 28 09:02:38 2026, MaxMem=  1610612736 cpu:               0.3 elap:               0.0
 (Enter /share/software/user/restricted/gaussian/g16.B01/l703.exe)
 Integral derivatives from FoFJK, PRISM(SPDF).
 Compute integral first derivatives, UseDBF=F ICtDFT=           0.
 Calling FoFJK, ICntrl=      2127 FMM=F ISym2X=0 I1Cent= 0 IOpClX= 1 NMat=1 NMatS=1 NMatT=0.
 FoFJK:  IHMeth= 1 ICntrl=    2127 DoSepK=F KAlg= 0 I1Cent=           0 FoldK=F
 IRaf=         0 NMat=       1 IRICut=       1 DoRegI=T DoRafI=F ISym2E= 0 IDoP0=0 IntGTp=1.
 FoFCou: FMM=F IPFlag=           0 FMFlag=      100000 FMFlg1=         800
         NFxFlg=           0 DoJE=F BraDBF=F KetDBF=F FulRan=T
         wScrn=  0.000000 ICntrl=      2127 IOpCl=  1 I1Cent=           0 NGrid=           0
         NMat0=    1 NMatS0=      1 NMatT0=    0 NMatD0=    1 NMtDS0=    0 NMtDT0=    0
 Symmetry not used in FoFCou.
 Leave Link  703 at Mon Sep 28 09:02:55 2026, MaxMem=  1610612736 cpu:             130.5 elap:              16.3
 (Enter /share/software/user/restricted/gaussian/g16.B01/l716.exe)
 Dipole        =-2.54342740D+00 2.93025883D+00-1.30679275D-01
 ***** Axes restored to original set *****
 -------------------------------------------------------------------
 Center     Atomic                   Forces (Hartrees/Bohr)
 Number     Number              X              Y              Z
 -------------------------------------------------------------------
      1        6          -0.000005649    0.000061585   -0.000032189
      2        6           0.000031915    0.000154606    0.000132310
      3        6           0.000007598   -0.000125739   -0.000012312
      4        6           0.000002483    0.000050820   -0.000020132
      5        6           0.000003222   -0.000038327   -0.000027648
      6        6          -0.000037910    0.000009561   -0.000012780
      7       35          -0.000018564   -0.000007091    0.000021179
      8       35           0.000003358   -0.000051225   -0.000027440
      9       35           0.000036221    0.000006922   -0.000013306
     10       35           0.000023472   -0.000074140   -0.000009541
     11        1          -0.000014661    0.000008134   -0.000015421
     12        1          -0.000031483    0.000004894    0.000017280
 -------------------------------------------------------------------
 Cartesian Forces:  Max     0.000154606 RMS     0.000048298
 Leave Link  716 at Mon Sep 28 09:02:55 2026, MaxMem=  1610612736 cpu:               0.3 elap:               0.0
 (Enter /share/software/user/restricted/gaussian/g16.B01/l103.exe)

 GradGradGradGradGradGradGradGradGradGradGradGradGradGradGradGradGradGrad
 Berny optimization.
 Using GEDIIS/GDIIS optimizer.
 FormGI is forming the generalized inverse of G from B-inverse, IUseBI=4.
 Internal  Forces:  Max     0.000121842 RMS     0.000027692
 Search for a local minimum.
 Step number   7 out of a maximum of   64
 All quantities printed in internal units (Hartrees-Bohrs-Radians)
 RMS Force = .27692D-04 SwitMx=.10000D-02 MixMth= 2
 Mixed Optimization -- En-DIIS/RFO-DIIS
 Swapping is turned off.
 Update second derivatives using D2CorX and points    3    2    4    5    6
                                                      7
 DE= -8.65D-07 DEPred=-3.21D-07 R= 2.70D+00
 Trust test= 2.70D+00 RLast= 9.36D-03 DXMaxT set to 5.05D-01
 ITU=  0  1  1  1  0  1  0
     Eigenvalues ---    0.00150   0.00973   0.01780   0.02023   0.02269
     Eigenvalues ---    0.02481   0.02641   0.02896   0.03281   0.03844
     Eigenvalues ---    0.10653   0.11290   0.11878   0.12608   0.12909
     Eigenvalues ---    0.15576   0.18179   0.20034   0.21607   0.23495
     Eigenvalues ---    0.26134   0.27024   0.36045   0.36410   0.37437
     Eigenvalues ---    0.44263   0.45543   0.49946   0.53561   0.63888
 En-DIIS/RFO-DIIS/Sim-DIIS IScMMF=       -3 using points:     7    6    5    4
 RFO step:  Lambda=-9.07114212D-07.
 NNeg= 0 NGDIIS= 4 SimSw=  2.50D-01 Rises=F DC= -8.65D-07 SmlDif=  1.00D-05
 NRisDI= 0 DoIntr=F SqrtH=F CThrHd= 10.0 CDAdj=  3.0
 RMS Error=  0.3062255103D-02 NUsed= 4 OKEnD=F EnDIS=F
 InvSVX:  RCond= 3.26D-07 Info=           0 Equed=N FErr=  8.44D-13 BErr=  1.45D-16
 Old DIIS coefficients:      3.57267     -2.61891      0.02303      0.02320
 DidBck=F Rises=F RFO-DIIS coefs:    2.96168   -2.00000    0.01910    0.01923
 Iteration  1 RMS(Cart)=  0.00515883 RMS(Int)=  0.00001906
 Iteration  2 RMS(Cart)=  0.00001767 RMS(Int)=  0.00000523
 Iteration  3 RMS(Cart)=  0.00000000 RMS(Int)=  0.00000523
 ITry= 1 IFail=0 DXMaxC= 2.67D-02 DCOld= 1.00D+10 DXMaxT= 5.05D-01 DXLimC= 3.00D+00 Rises=F
 Variable       Old X    -DE/DX   Delta X   Delta X   Delta X     New X
                                 (Linear)    (Quad)   (Total)
    R1        2.59409   0.00005  -0.00001   0.00005   0.00005   2.59414
    R2        2.63227   0.00005  -0.00004  -0.00001  -0.00005   2.63221
    R3        3.63934  -0.00001  -0.00016   0.00013  -0.00003   3.63930
    R4        2.60076   0.00012  -0.00009   0.00010   0.00001   2.60077
    R5        4.80667  -0.00005   0.00240  -0.00218   0.00022   4.80690
    R6        2.64165   0.00003  -0.00014   0.00006  -0.00007   2.64157
    R7        3.62744  -0.00001   0.00020  -0.00028  -0.00008   3.62735
    R8        2.63128   0.00002  -0.00024   0.00013  -0.00012   2.63116
    R9        3.60158   0.00007   0.00007  -0.00001   0.00005   3.60164
   R10        2.62427   0.00005  -0.00009   0.00007  -0.00002   2.62425
   R11        2.04596   0.00001   0.00004  -0.00002   0.00002   2.04599
   R12        2.04849  -0.00001  -0.00005   0.00002  -0.00003   2.04846
    A1        2.12641  -0.00001   0.00029  -0.00009   0.00020   2.12661
    A2        2.11646  -0.00001  -0.00023  -0.00002  -0.00026   2.11620
    A3        2.04019   0.00002  -0.00007   0.00011   0.00004   2.04023
    A4        2.08531  -0.00004  -0.00056   0.00018  -0.00039   2.08492
    A5        2.07243   0.00004   0.00034  -0.00055  -0.00023   2.07220
    A6        2.08906  -0.00001  -0.00161  -0.00037  -0.00200   2.08706
    A7        2.09538   0.00003   0.00040  -0.00016   0.00025   2.09563
    A8        2.09133  -0.00004  -0.00029   0.00004  -0.00025   2.09107
    A9        2.09629   0.00001  -0.00012   0.00012  -0.00001   2.09628
   A10        2.09463  -0.00000  -0.00001   0.00003   0.00002   2.09465
   A11        2.14436  -0.00001  -0.00007  -0.00001  -0.00008   2.14428
   A12        2.04420   0.00001   0.00007  -0.00002   0.00006   2.04425
   A13        2.09335  -0.00001  -0.00015   0.00003  -0.00012   2.09323
   A14        2.09653   0.00001   0.00007  -0.00001   0.00006   2.09659
   A15        2.09330  -0.00000   0.00007  -0.00002   0.00006   2.09336
   A16        2.07117   0.00003   0.00002   0.00001   0.00003   2.07120
   A17        2.12021  -0.00002  -0.00006   0.00000  -0.00006   2.12015
   A18        2.09180  -0.00002   0.00004  -0.00001   0.00003   2.09183
    D1        0.00578   0.00000   0.00076   0.00006   0.00083   0.00661
    D2       -2.84860   0.00003   0.00813   0.00297   0.01110  -2.83749
    D3       -3.11801  -0.00000   0.00170  -0.00009   0.00161  -3.11640
    D4        0.31080   0.00002   0.00907   0.00282   0.01189   0.32268
    D5        0.00680  -0.00001   0.00019  -0.00012   0.00006   0.00686
    D6       -3.13534  -0.00000  -0.00003  -0.00004  -0.00007  -3.13541
    D7        3.13133  -0.00000  -0.00071   0.00002  -0.00069   3.13064
    D8       -0.01080  -0.00000  -0.00093   0.00011  -0.00082  -0.01163
    D9       -0.01079   0.00000  -0.00099   0.00001  -0.00098  -0.01176
   D10        3.11013   0.00000  -0.00150  -0.00021  -0.00171   3.10841
   D11        2.84083  -0.00002  -0.00810  -0.00295  -0.01105   2.82979
   D12       -0.32144  -0.00001  -0.00862  -0.00317  -0.01178  -0.33323
   D13        0.00328  -0.00000   0.00028  -0.00003   0.00025   0.00353
   D14       -3.13871  -0.00000   0.00042  -0.00006   0.00036  -3.13835
   D15       -3.11758  -0.00000   0.00080   0.00020   0.00100  -3.11658
   D16        0.02363  -0.00000   0.00094   0.00016   0.00110   0.02473
   D17        0.00942  -0.00000   0.00068  -0.00003   0.00065   0.01007
   D18       -3.13660   0.00000   0.00040   0.00005   0.00044  -3.13616
   D19       -3.13180  -0.00000   0.00055  -0.00000   0.00055  -3.13125
   D20        0.00536   0.00000   0.00026   0.00008   0.00034   0.00570
   D21       -0.01426   0.00000  -0.00090   0.00011  -0.00080  -0.01506
   D22        3.12786   0.00000  -0.00069   0.00003  -0.00067   3.12720
   D23        3.13175  -0.00000  -0.00062   0.00003  -0.00059   3.13116
   D24       -0.00931  -0.00000  -0.00041  -0.00006  -0.00046  -0.00977
         Item               Value     Threshold  Converged?
 Maximum Force            0.000122     0.000015     NO 
 RMS     Force            0.000028     0.000010     NO 
 Maximum Displacement     0.026706     0.000060     NO 
 RMS     Displacement     0.005161     0.000040     NO 
 Predicted change in Energy=-4.521568D-07
 Lowest energy point so far.  Saving SCF results.
 GradGradGradGradGradGradGradGradGradGradGradGradGradGradGradGradGradGrad

 Leave Link  103 at Mon Sep 28 09:02:55 2026, MaxMem=  1610612736 cpu:               0.3 elap:               0.0
 (Enter /share/software/user/restricted/gaussian/g16.B01/l202.exe)
                          Input orientation:                          
 ---------------------------------------------------------------------
 Center     Atomic      Atomic             Coordinates (Angstroms)
 Number     Number       Type             X           Y           Z
 ---------------------------------------------------------------------
      1          6           0        0.083481    1.288780   -1.158070
      2          6           0        0.125164    0.624475    0.042524
      3          6           0        0.089537   -0.751260    0.056413
      4          6           0       -0.002669   -1.461685   -1.143924
      5          6           0       -0.054349   -0.777947   -2.355728
      6          6           0       -0.002110    0.609675   -2.371199
      7         35           0        0.171712    3.210851   -1.239947
      8         35           0       -0.390555    1.915473    2.172727
      9         35           0        0.202388   -1.691927    1.725826
     10         35           0       -0.062803   -3.365241   -1.216906
     11          1           0       -0.130854   -1.326226   -3.286185
     12          1           0       -0.028942    1.140158   -3.316144
 ---------------------------------------------------------------------
                    Distance matrix (angstroms):
                    1          2          3          4          5
     1  C    0.000000
     2  C    1.372758   0.000000
     3  C    2.374188   1.376266   0.000000
     4  C    2.751851   2.403344   1.397861   0.000000
     5  C    2.392644   2.783994   2.416576   1.392350   0.000000
     6  C    1.392908   2.417121   2.784572   2.407642   1.388691
     7  Br   1.925836   2.887255   4.169607   4.676775   4.148082
     8  Br   3.422230   2.543700   3.438130   4.749298   5.279626
     9  Br   4.149170   2.864470   1.919513   2.886265   4.190508
    10  Br   4.656692   4.187998   2.911606   1.905903   2.826850
    11  H    3.378325   3.866663   3.398841   2.150364   1.082689
    12  H    2.166106   3.401518   3.868545   3.389516   2.145267
                    6          7          8          9         10
     6  C    0.000000
     7  Br   2.841841   0.000000
     8  Br   4.743760   3.693304   0.000000
     9  Br   4.703701   5.730095   3.683020   0.000000
    10  Br   4.139570   6.580313   6.283548   3.395582   0.000000
    11  H    2.145109   4.986353   6.354194   5.036372   2.905879
    12  H    1.083999   2.939154   5.555140   5.787545   4.970571
                   11         12
    11  H    0.000000
    12  H    2.468671   0.000000
 Stoichiometry    C6H2Br4(1-,2)
 Framework group  C1[X(C6H2Br4)]
 Deg. of freedom    30
 Full point group                 C1      NOp   1
 RotChk:  IX=1 Diff= 2.64D-03
 Largest Abelian subgroup         C1      NOp   1
 Largest concise Abelian subgroup C1      NOp   1
                         Standard orientation:                         
 ---------------------------------------------------------------------
 Center     Atomic      Atomic             Coordinates (Angstroms)
 Number     Number       Type             X           Y           Z
 ---------------------------------------------------------------------
      1          6           0        1.175434    1.290148   -0.050112
      2          6           0        0.626062    0.035310   -0.139756
      3          6           0       -0.741791   -0.109532   -0.093857
      4          6           0       -1.560371    1.013471    0.057165
      5          6           0       -0.992582    2.280853    0.157141
      6          6           0        0.386756    2.429109    0.094622
      7         35           0        3.080176    1.556316   -0.149883
      8         35           0        2.117066   -1.984314    0.270652
      9         35           0       -1.523231   -1.853584   -0.273209
     10         35           0       -3.461527    0.904289    0.135594
     11          1           0       -1.624649    3.151373    0.279214
     12          1           0        0.826672    3.417726    0.159149
 ---------------------------------------------------------------------
 Rotational constants (GHZ):           0.4859741           0.2177379           0.1517944
 Leave Link  202 at Mon Sep 28 09:02:55 2026, MaxMem=  1610612736 cpu:               0.0 elap:               0.0
 (Enter /share/software/user/restricted/gaussian/g16.B01/l301.exe)
 Standard basis: 6-311++G(d) (5D, 7F)
 Ernie: Thresh=  0.10000D-02 Tol=  0.10000D-05 Strict=F.
 There are   350 symmetry adapted cartesian basis functions of A   symmetry.
 There are   332 symmetry adapted basis functions of A   symmetry.
   332 basis functions,   604 primitive gaussians,   350 cartesian basis functions
    90 alpha electrons       89 beta electrons
       nuclear repulsion energy      1872.4696599102 Hartrees.
 IExCor= 4336 DFT=T Ex+Corr=M062X ExCW=0 ScaHFX=  0.540000
 ScaDFX=  1.000000  1.000000  1.000000  1.000000 ScalE2=  1.000000  1.000000
 IRadAn=      5 IRanWt=     -1 IRanGd=            0 ICorTp=0 IEmpDi=  4
 NAtoms=   12 NActive=   12 NUniq=   12 SFac= 1.00D+00 NAtFMM=   60 NAOKFM=F Big=F
 Integral buffers will be    131072 words long.
 Raffenetti 2 integral format.
 Two-electron integral symmetry is turned on.
 ------------------------------------------------------------------------------
 Polarizable Continuum Model (PCM)
 =================================
 Model                : PCM.
 Atomic radii         : SMD-Coulomb.
 Polarization charges : Total charges.
 Charge compensation  : None.
 Solution method      : Matrix inversion.
 Cavity type          : VdW (van der Waals Surface) (Alpha=1.000).
 Cavity algorithm     : GePol (No added spheres)
                        Default sphere list used, NSphG=   12.
                        Lebedev-Laikov grids with approx.  5.0 points / Ang**2.
                        Smoothing algorithm: York/Karplus (Gamma=1.0000).
                        Polarization charges: spherical gaussians, with
                                              point-specific exponents (IZeta= 3).
                        Self-potential: point-specific (ISelfS= 7).
                        Self-field    : sphere-specific E.n sum rule (ISelfD= 2).
 1st derivatives      : Analytical E(r).r(x)/FMM algorithm (CHGder, D1EAlg=3).
                        Cavity 1st derivative terms included.
 Solvent              : Water, Eps=  78.355300 Eps(inf)=   1.777849
 ------------------------------------------------------------------------------
 Spheres list:
 ISph  on   Nord     Re0    Alpha      Xe            Ye            Ze
    1   C      1    1.8500  1.000      1.175434      1.290148     -0.050112
    2   C      2    1.8500  1.000      0.626062      0.035310     -0.139756
    3   C      3    1.8500  1.000     -0.741791     -0.109532     -0.093857
    4   C      4    1.8500  1.000     -1.560371      1.013471      0.057165
    5   C      5    1.8500  1.000     -0.992582      2.280853      0.157141
    6   C      6    1.8500  1.000      0.386756      2.429109      0.094622
    7  Br      7    3.0600  1.000      3.080176      1.556316     -0.149883
    8  Br      8    3.0600  1.000      2.117066     -1.984314      0.270652
    9  Br      9    3.0600  1.000     -1.523231     -1.853584     -0.273209
   10  Br     10    3.0600  1.000     -3.461527      0.904289      0.135594
   11   H     11    1.2000  1.000     -1.624649      3.151373      0.279214
   12   H     12    1.2000  1.000      0.826672      3.417726      0.159149
 ------------------------------------------------------------------------------
 GePol: Number of generator spheres                  =      12
 GePol: Total number of spheres                      =      12
 GePol: Number of exposed spheres                    =      12 (100.00%)
 GePol: Number of points                             =    1866
 GePol: Average weight of points                     =       0.17
 GePol: Minimum weight of points                     =   0.46D-08
 GePol: Maximum weight of points                     =    0.22025
 GePol: Number of points with low weight             =      53
 GePol: Fraction of low-weight points (<1% of avg)   =       2.84%
 GePol: Cavity surface area                          =    321.667 Ang**2
 GePol: Cavity volume                                =    418.381 Ang**3
 ------------------------------------------------------------------------------
 Atomic radii for non-electrostatic terms: SMD-CDS.
 ------------------------------------------------------------------------------
 PCM non-electrostatic energy =         0.0002980381 Hartrees.
 Nuclear repulsion after PCM non-electrostatic terms =     1872.4699579483 Hartrees.
 Leave Link  301 at Mon Sep 28 09:02:55 2026, MaxMem=  1610612736 cpu:               0.8 elap:               0.1
 (Enter /share/software/user/restricted/gaussian/g16.B01/l302.exe)
 NPDir=0 NMtPBC=     1 NCelOv=     1 NCel=       1 NClECP=     1 NCelD=      1
         NCelK=      1 NCelE2=     1 NClLst=     1 CellRange=     0.0.
 One-electron integrals computed using PRISM.
 One-electron integral symmetry used in STVInt
 NBasis=   332 RedAO= T EigKep=  2.46D-06  NBF=   332
 NBsUse=   331 1.00D-06 EigRej=  4.81D-07 NBFU=   331
 Precomputing XC quadrature grid using
 IXCGrd= 4 IRadAn=           5 IRanWt=          -1 IRanGd=           0 AccXCQ= 0.00D+00.
 Generated NRdTot=       0 NPtTot=           0 NUsed=           0 NTot=          32
 NSgBfM=   337   337   337   337   337 MxSgAt=    12 MxSgA2=    12.
 Leave Link  302 at Mon Sep 28 09:02:55 2026, MaxMem=  1610612736 cpu:               2.1 elap:               0.3
 (Enter /share/software/user/restricted/gaussian/g16.B01/l303.exe)
 DipDrv:  MaxL=1.
 Leave Link  303 at Mon Sep 28 09:02:55 2026, MaxMem=  1610612736 cpu:               0.4 elap:               0.1
 (Enter /share/software/user/restricted/gaussian/g16.B01/l401.exe)
 Initial guess from the checkpoint file:  "calcs/m062x_smd/chks/BrBz_1234_RA.chk"
 B after Tr=     0.000000    0.000000    0.000000
         Rot=    1.000000   -0.000036    0.000027    0.000396 Ang=  -0.05 deg.
 Guess basis will be translated and rotated to current coordinates.
 JPrj=2 DoOrth=T DoCkMO=T.
 Initial guess <Sx>= 0.0000 <Sy>= 0.0000 <Sz>= 0.5000 <S**2>= 0.7582 S= 0.5041
 Generating alternative initial guess.
 ExpMin= 3.50D-02 ExpMax= 4.40D+05 ExpMxC= 1.51D+04 IAcc=3 IRadAn=         5 AccDes= 0.00D+00
 Harris functional with IExCor= 1009 and IRadAn=       5 diagonalized for initial guess.
 HarFok:  IExCor= 1009 AccDes= 0.00D+00 IRadAn=         5 IDoV= 1 UseB2=F ITyADJ=14
 ICtDFT=  3500011 ScaDFX=  1.000000  1.000000  1.000000  1.000000
 FoFCou: FMM=F IPFlag=           0 FMFlag=      100000 FMFlg1=           0
         NFxFlg=           0 DoJE=T BraDBF=F KetDBF=T FulRan=T
         wScrn=  0.000000 ICntrl=       500 IOpCl=  0 I1Cent=   200000004 NGrid=           0
         NMat0=    1 NMatS0=      1 NMatT0=    0 NMatD0=    1 NMtDS0=    0 NMtDT0=    0
 Petite list used in FoFCou.
 Harris En= -10524.7893634355    
 Leave Link  401 at Mon Sep 28 09:02:57 2026, MaxMem=  1610612736 cpu:              12.7 elap:               1.6
 (Enter /share/software/user/restricted/gaussian/g16.B01/l502.exe)
 Integral symmetry usage will be decided dynamically.
 UHF open shell SCF:
 Using DIIS extrapolation, IDIIS=  1040.
 NGot=  1610612736 LenX=  1610361870 LenY=  1610238929
 Requested convergence on RMS density matrix=1.00D-08 within 128 cycles.
 Requested convergence on MAX density matrix=1.00D-06.
 Requested convergence on             energy=1.00D-06.
 No special actions if energy rises.
 Fock matrices will be formed incrementally for  20 cycles.

 Cycle   1  Pass 1  IDiag  1:
 FoFJK:  IHMeth= 1 ICntrl=       0 DoSepK=F KAlg= 0 I1Cent=           0 FoldK=F
 IRaf= 790000000 NMat=       1 IRICut=       1 DoRegI=T DoRafI=F ISym2E= 0 IDoP0=0 IntGTp=1.
 FoFCou: FMM=F IPFlag=           0 FMFlag=      100000 FMFlg1=           0
         NFxFlg=           0 DoJE=F BraDBF=F KetDBF=F FulRan=T
         wScrn=  0.000000 ICntrl=         0 IOpCl=  1 I1Cent=           0 NGrid=           0
         NMat0=    1 NMatS0=      1 NMatT0=    0 NMatD0=    1 NMtDS0=    0 NMtDT0=    0
 Symmetry not used in FoFCou.
 Inv3:  Mode=1 IEnd=    10445868.
 Iteration    1 A*A^-1 deviation from unit magnitude is 4.66D-15 for   1858.
 Iteration    1 A*A^-1 deviation from orthogonality  is 1.55D-15 for   1858   1854.
 Iteration    1 A^-1*A deviation from unit magnitude is 4.88D-15 for   1858.
 Iteration    1 A^-1*A deviation from orthogonality  is 1.25D-15 for   1702    308.
 E= -10526.5716635777    
 DIIS: error= 1.60D-03 at cycle   1 NSaved=   1.
 NSaved= 1 IEnMin= 1 EnMin= -10526.5716635777     IErMin= 1 ErrMin= 1.60D-03
 ErrMax= 1.60D-03  0.00D+00 EMaxC= 1.00D-01 BMatC= 1.21D-03 BMatP= 1.21D-03
 IDIUse=3 WtCom= 9.84D-01 WtEn= 1.60D-02
 Coeff-Com:  0.100D+01
 Coeff-En:   0.100D+01
 Coeff:      0.100D+01
 Gap=     0.370 Goal=   None    Shift=    0.000
 Gap=     0.427 Goal=   None    Shift=    0.000
 GapD=    0.370 DampG=1.000 DampE=1.000 DampFc=1.0000 IDamp=-1.
 RMSDP=1.59D-04 MaxDP=9.56D-03              OVMax= 2.17D-03

 Cycle   2  Pass 1  IDiag  1:
 RMSU=  1.59D-04    CP:  1.00D+00
 E= -10526.5717243813     Delta-E=       -0.000060803579 Rises=F Damp=F
 DIIS: error= 9.00D-05 at cycle   2 NSaved=   2.
 NSaved= 2 IEnMin= 2 EnMin= -10526.5717243813     IErMin= 2 ErrMin= 9.00D-05
 ErrMax= 9.00D-05  0.00D+00 EMaxC= 1.00D-01 BMatC= 3.10D-06 BMatP= 1.21D-03
 IDIUse=1 WtCom= 1.00D+00 WtEn= 0.00D+00
 Coeff-Com: -0.908D-02 0.101D+01
 Coeff:     -0.908D-02 0.101D+01
 Gap=     0.213 Goal=   None    Shift=    0.000
 Gap=     0.217 Goal=   None    Shift=    0.000
 RMSDP=2.76D-05 MaxDP=1.40D-03 DE=-6.08D-05 OVMax= 8.97D-04

 Cycle   3  Pass 1  IDiag  1:
 RMSU=  2.46D-05    CP:  1.00D+00  1.08D+00
 E= -10526.5717272258     Delta-E=       -0.000002844534 Rises=F Damp=F
 DIIS: error= 2.59D-05 at cycle   3 NSaved=   3.
 NSaved= 3 IEnMin= 3 EnMin= -10526.5717272258     IErMin= 3 ErrMin= 2.59D-05
 ErrMax= 2.59D-05  0.00D+00 EMaxC= 1.00D-01 BMatC= 4.32D-07 BMatP= 3.10D-06
 IDIUse=1 WtCom= 1.00D+00 WtEn= 0.00D+00
 Coeff-Com: -0.159D-02-0.324D-01 0.103D+01
 Coeff:     -0.159D-02-0.324D-01 0.103D+01
 Gap=     0.213 Goal=   None    Shift=    0.000
 Gap=     0.217 Goal=   None    Shift=    0.000
 RMSDP=1.42D-05 MaxDP=4.96D-04 DE=-2.84D-06 OVMax= 4.73D-04

 Cycle   4  Pass 1  IDiag  1:
 RMSU=  1.12D-05    CP:  1.00D+00  1.13D+00  1.11D+00
 E= -10526.5717275535     Delta-E=       -0.000000327658 Rises=F Damp=F
 DIIS: error= 1.05D-05 at cycle   4 NSaved=   4.
 NSaved= 4 IEnMin= 4 EnMin= -10526.5717275535     IErMin= 4 ErrMin= 1.05D-05
 ErrMax= 1.05D-05  0.00D+00 EMaxC= 1.00D-01 BMatC= 3.48D-07 BMatP= 4.32D-07
 IDIUse=1 WtCom= 1.00D+00 WtEn= 0.00D+00
 Coeff-Com:  0.472D-03-0.168D+00 0.550D+00 0.617D+00
 Coeff:      0.472D-03-0.168D+00 0.550D+00 0.617D+00
 Gap=     0.213 Goal=   None    Shift=    0.000
 Gap=     0.217 Goal=   None    Shift=    0.000
 RMSDP=4.73D-06 MaxDP=1.84D-04 DE=-3.28D-07 OVMax= 2.22D-04

 Cycle   5  Pass 1  IDiag  1:
 RMSU=  2.96D-06    CP:  1.00D+00  1.13D+00  1.26D+00  1.03D+00
 E= -10526.5717276600     Delta-E=       -0.000000106504 Rises=F Damp=F
 DIIS: error= 5.94D-06 at cycle   5 NSaved=   5.
 NSaved= 5 IEnMin= 5 EnMin= -10526.5717276600     IErMin= 5 ErrMin= 5.94D-06
 ErrMax= 5.94D-06  0.00D+00 EMaxC= 1.00D-01 BMatC= 2.98D-08 BMatP= 3.48D-07
 IDIUse=1 WtCom= 1.00D+00 WtEn= 0.00D+00
 Coeff-Com:  0.366D-03-0.690D-01 0.128D+00 0.236D+00 0.705D+00
 Coeff:      0.366D-03-0.690D-01 0.128D+00 0.236D+00 0.705D+00
 Gap=     0.213 Goal=   None    Shift=    0.000
 Gap=     0.217 Goal=   None    Shift=    0.000
 RMSDP=3.90D-06 MaxDP=1.71D-04 DE=-1.07D-07 OVMax= 1.30D-04

 Cycle   6  Pass 1  IDiag  1:
 RMSU=  2.64D-06    CP:  1.00D+00  1.12D+00  1.31D+00  8.51D-01  7.42D-01
 E= -10526.5717276822     Delta-E=       -0.000000022228 Rises=F Damp=F
 DIIS: error= 2.47D-06 at cycle   6 NSaved=   6.
 NSaved= 6 IEnMin= 6 EnMin= -10526.5717276822     IErMin= 6 ErrMin= 2.47D-06
 ErrMax= 2.47D-06  0.00D+00 EMaxC= 1.00D-01 BMatC= 1.04D-08 BMatP= 2.98D-08
 IDIUse=1 WtCom= 1.00D+00 WtEn= 0.00D+00
 Coeff-Com:  0.192D-04 0.255D-01-0.128D+00-0.116D+00 0.328D+00 0.891D+00
 Coeff:      0.192D-04 0.255D-01-0.128D+00-0.116D+00 0.328D+00 0.891D+00
 Gap=     0.213 Goal=   None    Shift=    0.000
 Gap=     0.217 Goal=   None    Shift=    0.000
 RMSDP=1.93D-06 MaxDP=8.62D-05 DE=-2.22D-08 OVMax= 1.28D-04

 Cycle   7  Pass 1  IDiag  1:
 RMSU=  7.54D-07    CP:  1.00D+00  1.12D+00  1.36D+00  8.10D-01  9.92D-01
                    CP:  1.35D+00
 E= -10526.5717276934     Delta-E=       -0.000000011200 Rises=F Damp=F
 DIIS: error= 1.17D-06 at cycle   7 NSaved=   7.
 NSaved= 7 IEnMin= 7 EnMin= -10526.5717276934     IErMin= 7 ErrMin= 1.17D-06
 ErrMax= 1.17D-06  0.00D+00 EMaxC= 1.00D-01 BMatC= 1.41D-09 BMatP= 1.04D-08
 IDIUse=1 WtCom= 1.00D+00 WtEn= 0.00D+00
 Coeff-Com: -0.999D-04 0.292D-01-0.822D-01-0.957D-01-0.594D-01 0.257D+00
 Coeff-Com:  0.951D+00
 Coeff:     -0.999D-04 0.292D-01-0.822D-01-0.957D-01-0.594D-01 0.257D+00
 Coeff:      0.951D+00
 Gap=     0.213 Goal=   None    Shift=    0.000
 Gap=     0.217 Goal=   None    Shift=    0.000
 RMSDP=7.41D-07 MaxDP=3.56D-05 DE=-1.12D-08 OVMax= 7.06D-05

 Cycle   8  Pass 1  IDiag  1:
 RMSU=  3.71D-07    CP:  1.00D+00  1.12D+00  1.36D+00  8.28D-01  1.09D+00
                    CP:  1.53D+00  1.25D+00
 E= -10526.5717276955     Delta-E=       -0.000000002077 Rises=F Damp=F
 DIIS: error= 2.81D-07 at cycle   8 NSaved=   8.
 NSaved= 8 IEnMin= 8 EnMin= -10526.5717276955     IErMin= 8 ErrMin= 2.81D-07
 ErrMax= 2.81D-07  0.00D+00 EMaxC= 1.00D-01 BMatC= 2.25D-10 BMatP= 1.41D-09
 IDIUse=1 WtCom= 1.00D+00 WtEn= 0.00D+00
 Coeff-Com: -0.385D-04 0.816D-02-0.176D-01-0.245D-01-0.484D-01 0.288D-02
 Coeff-Com:  0.327D+00 0.752D+00
 Coeff:     -0.385D-04 0.816D-02-0.176D-01-0.245D-01-0.484D-01 0.288D-02
 Coeff:      0.327D+00 0.752D+00
 Gap=     0.213 Goal=   None    Shift=    0.000
 Gap=     0.217 Goal=   None    Shift=    0.000
 RMSDP=1.79D-07 MaxDP=6.39D-06 DE=-2.08D-09 OVMax= 1.41D-05

 Cycle   9  Pass 1  IDiag  1:
 RMSU=  1.27D-07    CP:  1.00D+00  1.12D+00  1.36D+00  8.29D-01  1.09D+00
                    CP:  1.56D+00  1.36D+00  1.19D+00
 E= -10526.5717276957     Delta-E=       -0.000000000207 Rises=F Damp=F
 DIIS: error= 1.66D-07 at cycle   9 NSaved=   9.
 NSaved= 9 IEnMin= 9 EnMin= -10526.5717276957     IErMin= 9 ErrMin= 1.66D-07
 ErrMax= 1.66D-07  0.00D+00 EMaxC= 1.00D-01 BMatC= 7.34D-11 BMatP= 2.25D-10
 IDIUse=1 WtCom= 1.00D+00 WtEn= 0.00D+00
 Coeff-Com:  0.918D-05-0.432D-02 0.149D-01 0.138D-01-0.533D-02-0.729D-01
 Coeff-Com: -0.113D+00 0.384D+00 0.783D+00
 Coeff:      0.918D-05-0.432D-02 0.149D-01 0.138D-01-0.533D-02-0.729D-01
 Coeff:     -0.113D+00 0.384D+00 0.783D+00
 Gap=     0.213 Goal=   None    Shift=    0.000
 Gap=     0.217 Goal=   None    Shift=    0.000
 RMSDP=1.12D-07 MaxDP=4.37D-06 DE=-2.07D-10 OVMax= 6.33D-06

 Cycle  10  Pass 1  IDiag  1:
 RMSU=  4.73D-08    CP:  1.00D+00  1.12D+00  1.36D+00  8.28D-01  1.11D+00
                    CP:  1.55D+00  1.42D+00  1.40D+00  1.04D+00
 E= -10526.5717276957     Delta-E=       -0.000000000020 Rises=F Damp=F
 DIIS: error= 7.38D-08 at cycle  10 NSaved=  10.
 NSaved=10 IEnMin=10 EnMin= -10526.5717276957     IErMin=10 ErrMin= 7.38D-08
 ErrMax= 7.38D-08  0.00D+00 EMaxC= 1.00D-01 BMatC= 6.30D-12 BMatP= 7.34D-11
 IDIUse=1 WtCom= 1.00D+00 WtEn= 0.00D+00
 Coeff-Com:  0.638D-05-0.239D-02 0.760D-02 0.742D-02 0.198D-02-0.325D-01
 Coeff-Com: -0.697D-01 0.122D+00 0.332D+00 0.633D+00
 Coeff:      0.638D-05-0.239D-02 0.760D-02 0.742D-02 0.198D-02-0.325D-01
 Coeff:     -0.697D-01 0.122D+00 0.332D+00 0.633D+00
 Gap=     0.213 Goal=   None    Shift=    0.000
 Gap=     0.217 Goal=   None    Shift=    0.000
 RMSDP=2.96D-08 MaxDP=1.17D-06 DE=-2.00D-11 OVMax= 1.34D-06

 Cycle  11  Pass 1  IDiag  1:
 RMSU=  2.03D-08    CP:  1.00D+00  1.12D+00  1.36D+00  8.28D-01  1.11D+00
                    CP:  1.55D+00  1.42D+00  1.44D+00  1.12D+00  9.94D-01
 E= -10526.5717276957     Delta-E=        0.000000000044 Rises=F Damp=F
 DIIS: error= 3.63D-08 at cycle  11 NSaved=  11.
 NSaved=11 IEnMin=10 EnMin= -10526.5717276957     IErMin=11 ErrMin= 3.63D-08
 ErrMax= 3.63D-08  0.00D+00 EMaxC= 1.00D-01 BMatC= 1.62D-12 BMatP= 6.30D-12
 IDIUse=1 WtCom= 1.00D+00 WtEn= 0.00D+00
 Coeff-Com: -0.578D-06 0.496D-03-0.200D-02-0.179D-02 0.369D-02 0.103D-01
 Coeff-Com:  0.892D-02-0.750D-01-0.137D+00 0.244D+00 0.948D+00
 Coeff:     -0.578D-06 0.496D-03-0.200D-02-0.179D-02 0.369D-02 0.103D-01
 Coeff:      0.892D-02-0.750D-01-0.137D+00 0.244D+00 0.948D+00
 Gap=     0.213 Goal=   None    Shift=    0.000
 Gap=     0.217 Goal=   None    Shift=    0.000
 RMSDP=3.61D-08 MaxDP=1.53D-06 DE= 4.37D-11 OVMax= 1.27D-06

 Cycle  12  Pass 1  IDiag  1:
 RMSU=  1.24D-08    CP:  1.00D+00  1.12D+00  1.36D+00  8.30D-01  1.11D+00
                    CP:  1.54D+00  1.42D+00  1.48D+00  1.18D+00  1.27D+00
                    CP:  1.46D+00
 E= -10526.5717276957     Delta-E=       -0.000000000002 Rises=F Damp=F
 DIIS: error= 1.26D-08 at cycle  12 NSaved=  12.
 NSaved=12 IEnMin=10 EnMin= -10526.5717276957     IErMin=12 ErrMin= 1.26D-08
 ErrMax= 1.26D-08  0.00D+00 EMaxC= 1.00D-01 BMatC= 2.75D-13 BMatP= 1.62D-12
 IDIUse=1 WtCom= 1.00D+00 WtEn= 0.00D+00
 Coeff-Com: -0.157D-05 0.676D-03-0.227D-02-0.227D-02 0.104D-02 0.979D-02
 Coeff-Com:  0.179D-01-0.480D-01-0.116D+00-0.395D-01 0.296D+00 0.882D+00
 Coeff:     -0.157D-05 0.676D-03-0.227D-02-0.227D-02 0.104D-02 0.979D-02
 Coeff:      0.179D-01-0.480D-01-0.116D+00-0.395D-01 0.296D+00 0.882D+00
 Gap=     0.213 Goal=   None    Shift=    0.000
 Gap=     0.217 Goal=   None    Shift=    0.000
 RMSDP=1.22D-08 MaxDP=5.55D-07 DE=-1.82D-12 OVMax= 6.78D-07

 Cycle  13  Pass 1  IDiag  1:
 RMSU=  5.07D-09    CP:  1.00D+00  1.12D+00  1.36D+00  8.30D-01  1.11D+00
                    CP:  1.54D+00  1.41D+00  1.48D+00  1.21D+00  1.33D+00
                    CP:  1.63D+00  1.18D+00
 E= -10526.5717276957     Delta-E=       -0.000000000044 Rises=F Damp=F
 DIIS: error= 6.58D-09 at cycle  13 NSaved=  13.
 NSaved=13 IEnMin=13 EnMin= -10526.5717276957     IErMin=13 ErrMin= 6.58D-09
 ErrMax= 6.58D-09  0.00D+00 EMaxC= 1.00D-01 BMatC= 7.58D-14 BMatP= 2.75D-13
 IDIUse=1 WtCom= 1.00D+00 WtEn= 0.00D+00
 Coeff-Com: -0.429D-06 0.123D-03-0.316D-03-0.442D-03-0.486D-03 0.865D-03
 Coeff-Com:  0.442D-02 0.149D-02-0.980D-02-0.714D-01-0.138D+00 0.321D+00
 Coeff-Com:  0.893D+00
 Coeff:     -0.429D-06 0.123D-03-0.316D-03-0.442D-03-0.486D-03 0.865D-03
 Coeff:      0.442D-02 0.149D-02-0.980D-02-0.714D-01-0.138D+00 0.321D+00
 Coeff:      0.893D+00
 Gap=     0.213 Goal=   None    Shift=    0.000
 Gap=     0.217 Goal=   None    Shift=    0.000
 RMSDP=6.92D-09 MaxDP=3.53D-07 DE=-4.37D-11 OVMax= 3.02D-07

 Error on total polarization charges =  0.00778
 SCF Done:  E(UM062X) =  -10526.5717277     A.U. after   13 cycles
            NFock= 13  Conv=0.69D-08     -V/T= 2.0012
 <Sx>= 0.0000 <Sy>= 0.0000 <Sz>= 0.5000 <S**2>= 0.7582 S= 0.5041
 <L.S>=  0.00000000000    
 KE= 1.051344211807D+04 PE=-2.891955398426D+04 EE= 6.007070180551D+03
 SMD-CDS (non-electrostatic) energy       (kcal/mol) =       0.19
 (included in total energy above)
 Annihilation of the first spin contaminant:
 S**2 before annihilation     0.7582,   after     0.7500
 Leave Link  502 at Mon Sep 28 09:05:07 2026, MaxMem=  1610612736 cpu:            1039.2 elap:             130.1
 (Enter /share/software/user/restricted/gaussian/g16.B01/l701.exe)
 ... and contract with generalized density number  0.
 Compute integral first derivatives.
 D1PCM: PCM CHGder 1st derivatives, ID1Alg=3 FixD1E=F DoIter=F DoCFld=F I1PDM=0.
 GePol: Maximum number of non-zero 1st derivatives   =     470
 Leave Link  701 at Mon Sep 28 09:05:09 2026, MaxMem=  1610612736 cpu:              13.8 elap:               1.7
 (Enter /share/software/user/restricted/gaussian/g16.B01/l702.exe)
 L702 exits ... SP integral derivatives will be done elsewhere.
 Leave Link  702 at Mon Sep 28 09:05:09 2026, MaxMem=  1610612736 cpu:               0.2 elap:               0.0
 (Enter /share/software/user/restricted/gaussian/g16.B01/l703.exe)
 Integral derivatives from FoFJK, PRISM(SPDF).
 Compute integral first derivatives, UseDBF=F ICtDFT=           0.
 Calling FoFJK, ICntrl=      2127 FMM=F ISym2X=0 I1Cent= 0 IOpClX= 1 NMat=1 NMatS=1 NMatT=0.
 FoFJK:  IHMeth= 1 ICntrl=    2127 DoSepK=F KAlg= 0 I1Cent=           0 FoldK=F
 IRaf=         0 NMat=       1 IRICut=       1 DoRegI=T DoRafI=F ISym2E= 0 IDoP0=0 IntGTp=1.
 FoFCou: FMM=F IPFlag=           0 FMFlag=      100000 FMFlg1=         800
         NFxFlg=           0 DoJE=F BraDBF=F KetDBF=F FulRan=T
         wScrn=  0.000000 ICntrl=      2127 IOpCl=  1 I1Cent=           0 NGrid=           0
         NMat0=    1 NMatS0=      1 NMatT0=    0 NMatD0=    1 NMtDS0=    0 NMtDT0=    0
 Symmetry not used in FoFCou.
 Leave Link  703 at Mon Sep 28 09:05:25 2026, MaxMem=  1610612736 cpu:             129.7 elap:              16.2
 (Enter /share/software/user/restricted/gaussian/g16.B01/l716.exe)
 Dipole        =-2.53807397D+00 2.93048862D+00-1.35794540D-01
 ***** Axes restored to original set *****
 -------------------------------------------------------------------
 Center     Atomic                   Forces (Hartrees/Bohr)
 Number     Number              X              Y              Z
 -------------------------------------------------------------------
      1        6          -0.000003551    0.000138425   -0.000064339
      2        6           0.000030110    0.000183427    0.000159693
      3        6           0.000013849   -0.000216761    0.000062722
      4        6          -0.000006366    0.000003799    0.000001021
      5        6           0.000006454   -0.000042702   -0.000070834
      6        6          -0.000047875    0.000026616   -0.000001916
      7       35          -0.000020493   -0.000012346    0.000038459
      8       35           0.000023820   -0.000064123   -0.000089366
      9       35           0.000018905    0.000016973   -0.000025798
     10       35           0.000024582   -0.000057081   -0.000012881
     11        1          -0.000008702    0.000013881   -0.000009522
     12        1          -0.000030732    0.000009891    0.000012762
 -------------------------------------------------------------------
 Cartesian Forces:  Max     0.000216761 RMS     0.000067914
 Leave Link  716 at Mon Sep 28 09:05:25 2026, MaxMem=  1610612736 cpu:               0.4 elap:               0.1
 (Enter /share/software/user/restricted/gaussian/g16.B01/l103.exe)

 GradGradGradGradGradGradGradGradGradGradGradGradGradGradGradGradGradGrad
 Berny optimization.
 Using GEDIIS/GDIIS optimizer.
 FormGI is forming the generalized inverse of G from B-inverse, IUseBI=4.
 Internal  Forces:  Max     0.000193840 RMS     0.000041235
 Search for a local minimum.
 Step number   8 out of a maximum of   64
 All quantities printed in internal units (Hartrees-Bohrs-Radians)
 RMS Force = .41235D-04 SwitMx=.10000D-02 MixMth= 2
 Mixed Optimization -- En-DIIS/RFO-DIIS
 Swapping is turned off.
 Update second derivatives using D2CorX and points    3    2    4    5    6
                                                      7    8
 DE= -1.92D-06 DEPred=-4.52D-07 R= 4.25D+00
 TightC=F SS=  1.41D+00  RLast= 2.33D-02 DXNew= 8.4853D-01 6.9937D-02
 Trust test= 4.25D+00 RLast= 2.33D-02 DXMaxT set to 5.05D-01
 ITU=  1  0  1  1  1  0  1  0
     Eigenvalues ---    0.00089   0.00992   0.01779   0.02005   0.02264
     Eigenvalues ---    0.02474   0.02635   0.02907   0.03287   0.03927
     Eigenvalues ---    0.10656   0.11273   0.11903   0.12848   0.13647
     Eigenvalues ---    0.15518   0.18369   0.20047   0.21684   0.23540
     Eigenvalues ---    0.26307   0.27203   0.36013   0.36451   0.37439
     Eigenvalues ---    0.44396   0.45627   0.49799   0.53546   0.71402
 En-DIIS/RFO-DIIS/Sim-DIIS IScMMF=       -3 using points:     8    7    6    5    4
 RFO step:  Lambda=-7.10033130D-07.
 NNeg= 0 NGDIIS= 5 SimSw=  2.50D-01 Rises=F DC= -1.92D-06 SmlDif=  1.00D-05
 NRisDI= 0 DoIntr=F SqrtH=F CThrHd= 10.0 CDAdj=  3.0
 RMS Error=  0.3048500082D-02 NUsed= 5 OKEnD=F EnDIS=F
 InvSVX:  RCond= 2.89D-08 Info=           0 Equed=N FErr=  2.32D-11 BErr=  4.58D-17
 DIIS inversion failure, remove point   5.
 InvSVX:  RCond= 4.39D-08 Info=           0 Equed=N FErr=  1.70D-11 BErr=  5.67D-17
 DIIS inversion failure, remove point   4.
 InvSVX:  RCond= 6.68D-08 Info=           0 Equed=N FErr=  1.14D-11 BErr=  8.08D-17
 DIIS inversion failure, remove point   3.
 InvSVX:  RCond= 1.36D-04 Info=           0 Equed=N FErr=  4.23D-15 BErr=  0.00D+00
 RFO-DIIS uses    2 points instead of    5
 DidBck=F Rises=F RFO-DIIS coefs:    1.95376   -0.95376    0.00000    0.00000    0.00000
 Iteration  1 RMS(Cart)=  0.00490328 RMS(Int)=  0.00001842
 Iteration  2 RMS(Cart)=  0.00001588 RMS(Int)=  0.00000792
 Iteration  3 RMS(Cart)=  0.00000000 RMS(Int)=  0.00000792
 ITry= 1 IFail=0 DXMaxC= 2.49D-02 DCOld= 1.00D+10 DXMaxT= 5.05D-01 DXLimC= 3.00D+00 Rises=F
 Variable       Old X    -DE/DX   Delta X   Delta X   Delta X     New X
                                 (Linear)    (Quad)   (Total)
    R1        2.59414   0.00007   0.00005   0.00004   0.00009   2.59423
    R2        2.63221   0.00004  -0.00005   0.00001  -0.00004   2.63217
    R3        3.63930  -0.00002  -0.00003   0.00020   0.00017   3.63947
    R4        2.60077   0.00019   0.00001   0.00013   0.00015   2.60091
    R5        4.80690  -0.00011   0.00021  -0.00235  -0.00214   4.80476
    R6        2.64157   0.00005  -0.00007   0.00001  -0.00006   2.64152
    R7        3.62735  -0.00003  -0.00008  -0.00003  -0.00011   3.62724
    R8        2.63116   0.00008  -0.00012   0.00007  -0.00004   2.63111
    R9        3.60164   0.00006   0.00005   0.00007   0.00013   3.60176
   R10        2.62425   0.00009  -0.00002   0.00006   0.00003   2.62428
   R11        2.04599   0.00000   0.00002  -0.00000   0.00001   2.04600
   R12        2.04846  -0.00001  -0.00003   0.00000  -0.00003   2.04843
    A1        2.12661  -0.00003   0.00020  -0.00002   0.00019   2.12680
    A2        2.11620  -0.00003  -0.00024  -0.00002  -0.00027   2.11594
    A3        2.04023   0.00006   0.00004   0.00003   0.00007   2.04029
    A4        2.08492   0.00001  -0.00037   0.00003  -0.00036   2.08456
    A5        2.07220  -0.00004  -0.00022  -0.00027  -0.00053   2.07167
    A6        2.08706   0.00002  -0.00191   0.00019  -0.00175   2.08531
    A7        2.09563  -0.00002   0.00023  -0.00004   0.00021   2.09583
    A8        2.09107  -0.00002  -0.00024  -0.00003  -0.00028   2.09080
    A9        2.09628   0.00004  -0.00001   0.00007   0.00006   2.09634
   A10        2.09465  -0.00001   0.00002   0.00002   0.00004   2.09469
   A11        2.14428  -0.00000  -0.00007  -0.00001  -0.00009   2.14419
   A12        2.04425   0.00001   0.00005  -0.00000   0.00005   2.04430
   A13        2.09323   0.00001  -0.00012  -0.00000  -0.00012   2.09311
   A14        2.09659   0.00000   0.00006   0.00001   0.00008   2.09667
   A15        2.09336  -0.00001   0.00005  -0.00001   0.00005   2.09340
   A16        2.07120   0.00003   0.00002   0.00002   0.00004   2.07124
   A17        2.12015  -0.00002  -0.00006  -0.00001  -0.00006   2.12009
   A18        2.09183  -0.00001   0.00003  -0.00001   0.00002   2.09185
    D1        0.00661  -0.00000   0.00079   0.00006   0.00085   0.00746
    D2       -2.83749   0.00001   0.01059   0.00020   0.01079  -2.82670
    D3       -3.11640  -0.00001   0.00153   0.00021   0.00175  -3.11465
    D4        0.32268   0.00001   0.01134   0.00035   0.01169   0.33438
    D5        0.00686  -0.00001   0.00006  -0.00033  -0.00027   0.00659
    D6       -3.13541  -0.00000  -0.00007  -0.00019  -0.00026  -3.13566
    D7        3.13064  -0.00001  -0.00066  -0.00048  -0.00114   3.12951
    D8       -0.01163   0.00000  -0.00078  -0.00034  -0.00112  -0.01275
    D9       -0.01176   0.00001  -0.00093   0.00030  -0.00063  -0.01239
   D10        3.10841   0.00002  -0.00163   0.00047  -0.00117   3.10724
   D11        2.82979  -0.00002  -0.01053   0.00008  -0.01044   2.81934
   D12       -0.33323  -0.00001  -0.01124   0.00025  -0.01098  -0.34421
   D13        0.00353  -0.00001   0.00024  -0.00039  -0.00014   0.00338
   D14       -3.13835  -0.00001   0.00034  -0.00052  -0.00018  -3.13853
   D15       -3.11658  -0.00001   0.00095  -0.00055   0.00040  -3.11618
   D16        0.02473  -0.00001   0.00105  -0.00068   0.00037   0.02510
   D17        0.01007  -0.00000   0.00062   0.00011   0.00073   0.01079
   D18       -3.13616   0.00000   0.00042   0.00014   0.00056  -3.13559
   D19       -3.13125  -0.00000   0.00052   0.00023   0.00076  -3.13050
   D20        0.00570   0.00000   0.00033   0.00027   0.00059   0.00630
   D21       -0.01506   0.00001  -0.00076   0.00024  -0.00052  -0.01558
   D22        3.12720   0.00001  -0.00063   0.00010  -0.00053   3.12667
   D23        3.13116   0.00001  -0.00057   0.00021  -0.00036   3.13080
   D24       -0.00977  -0.00000  -0.00044   0.00007  -0.00037  -0.01014
         Item               Value     Threshold  Converged?
 Maximum Force            0.000194     0.000015     NO 
 RMS     Force            0.000041     0.000010     NO 
 Maximum Displacement     0.024913     0.000060     NO 
 RMS     Displacement     0.004905     0.000040     NO 
 Predicted change in Energy=-3.551721D-07
 Lowest energy point so far.  Saving SCF results.
 GradGradGradGradGradGradGradGradGradGradGradGradGradGradGradGradGradGrad

 Leave Link  103 at Mon Sep 28 09:05:26 2026, MaxMem=  1610612736 cpu:               0.3 elap:               0.0
 (Enter /share/software/user/restricted/gaussian/g16.B01/l202.exe)
                          Input orientation:                          
 ---------------------------------------------------------------------
 Center     Atomic      Atomic             Coordinates (Angstroms)
 Number     Number       Type             X           Y           Z
 ---------------------------------------------------------------------
      1          6           0        0.086360    1.288963   -1.157997
      2          6           0        0.129286    0.624899    0.042744
      3          6           0        0.092584   -0.750885    0.056533
      4          6           0       -0.002690   -1.461313   -1.143528
      5          6           0       -0.056541   -0.777677   -2.355267
      6          6           0       -0.002535    0.609892   -2.370884
      7         35           0        0.178870    3.210911   -1.240156
      8         35           0       -0.403739    1.912160    2.169596
      9         35           0        0.209093   -1.691393    1.725717
     10         35           0       -0.064185   -3.364908   -1.216087
     11          1           0       -0.135950   -1.325915   -3.285515
     12          1           0       -0.030553    1.140392   -3.315768
 ---------------------------------------------------------------------
                    Distance matrix (angstroms):
                    1          2          3          4          5
     1  C    0.000000
     2  C    1.372807   0.000000
     3  C    2.374047   1.376343   0.000000
     4  C    2.751755   2.403526   1.397830   0.000000
     5  C    2.392672   2.784279   2.416554   1.392326   0.000000
     6  C    1.392887   2.417271   2.784441   2.407549   1.388708
     7  Br   1.925927   2.887170   4.169493   4.676749   4.148220
     8  Br   3.420738   2.542569   3.435576   4.745308   5.275430
     9  Br   4.148902   2.864259   1.919455   2.886235   4.190450
    10  Br   4.656668   4.188156   2.911573   1.905970   2.826934
    11  H    3.378364   3.866954   3.398849   2.150396   1.082697
    12  H    2.166038   3.401600   3.868398   3.389436   2.145280
                    6          7          8          9         10
     6  C    0.000000
     7  Br   2.841963   0.000000
     8  Br   4.740551   3.694943   0.000000
     9  Br   4.703492   5.729739   3.682144   0.000000
    10  Br   4.139613   6.580354   6.278980   3.395518   0.000000
    11  H    2.145157   4.986521   6.349416   5.036376   2.906059
    12  H    1.083984   2.939229   5.551947   5.787315   4.970667
                   11         12
    11  H    0.000000
    12  H    2.468743   0.000000
 Stoichiometry    C6H2Br4(1-,2)
 Framework group  C1[X(C6H2Br4)]
 Deg. of freedom    30
 Full point group                 C1      NOp   1
 RotChk:  IX=1 Diff= 2.81D-03
 Largest Abelian subgroup         C1      NOp   1
 Largest concise Abelian subgroup C1      NOp   1
                         Standard orientation:                         
 ---------------------------------------------------------------------
 Center     Atomic      Atomic             Coordinates (Angstroms)
 Number     Number       Type             X           Y           Z
 ---------------------------------------------------------------------
      1          6           0        1.177280    1.288731   -0.051144
      2          6           0        0.626888    0.034518   -0.143984
      3          6           0       -0.741137   -0.109014   -0.096800
      4          6           0       -1.558504    1.014119    0.059447
      5          6           0       -0.989509    2.280602    0.163549
      6          6           0        0.389866    2.427831    0.099068
      7         35           0        3.082049    1.553663   -0.155353
      8         35           0        2.112227   -1.985056    0.279980
      9         35           0       -1.524254   -1.851584   -0.282494
     10         35           0       -3.459724    0.906184    0.139658
     11          1           0       -1.620584    3.151198    0.290196
     12          1           0        0.830810    3.415793    0.166307
 ---------------------------------------------------------------------
 Rotational constants (GHZ):           0.4858632           0.2177763           0.1519028
 Leave Link  202 at Mon Sep 28 09:05:26 2026, MaxMem=  1610612736 cpu:               0.0 elap:               0.0
 (Enter /share/software/user/restricted/gaussian/g16.B01/l301.exe)
 Standard basis: 6-311++G(d) (5D, 7F)
 Ernie: Thresh=  0.10000D-02 Tol=  0.10000D-05 Strict=F.
 There are   350 symmetry adapted cartesian basis functions of A   symmetry.
 There are   332 symmetry adapted basis functions of A   symmetry.
   332 basis functions,   604 primitive gaussians,   350 cartesian basis functions
    90 alpha electrons       89 beta electrons
       nuclear repulsion energy      1872.6318560343 Hartrees.
 IExCor= 4336 DFT=T Ex+Corr=M062X ExCW=0 ScaHFX=  0.540000
 ScaDFX=  1.000000  1.000000  1.000000  1.000000 ScalE2=  1.000000  1.000000
 IRadAn=      5 IRanWt=     -1 IRanGd=            0 ICorTp=0 IEmpDi=  4
 NAtoms=   12 NActive=   12 NUniq=   12 SFac= 1.00D+00 NAtFMM=   60 NAOKFM=F Big=F
 Integral buffers will be    131072 words long.
 Raffenetti 2 integral format.
 Two-electron integral symmetry is turned on.
 ------------------------------------------------------------------------------
 Polarizable Continuum Model (PCM)
 =================================
 Model                : PCM.
 Atomic radii         : SMD-Coulomb.
 Polarization charges : Total charges.
 Charge compensation  : None.
 Solution method      : Matrix inversion.
 Cavity type          : VdW (van der Waals Surface) (Alpha=1.000).
 Cavity algorithm     : GePol (No added spheres)
                        Default sphere list used, NSphG=   12.
                        Lebedev-Laikov grids with approx.  5.0 points / Ang**2.
                        Smoothing algorithm: York/Karplus (Gamma=1.0000).
                        Polarization charges: spherical gaussians, with
                                              point-specific exponents (IZeta= 3).
                        Self-potential: point-specific (ISelfS= 7).
                        Self-field    : sphere-specific E.n sum rule (ISelfD= 2).
 1st derivatives      : Analytical E(r).r(x)/FMM algorithm (CHGder, D1EAlg=3).
                        Cavity 1st derivative terms included.
 Solvent              : Water, Eps=  78.355300 Eps(inf)=   1.777849
 ------------------------------------------------------------------------------
 Spheres list:
 ISph  on   Nord     Re0    Alpha      Xe            Ye            Ze
    1   C      1    1.8500  1.000      1.177280      1.288731     -0.051144
    2   C      2    1.8500  1.000      0.626888      0.034518     -0.143984
    3   C      3    1.8500  1.000     -0.741137     -0.109014     -0.096800
    4   C      4    1.8500  1.000     -1.558504      1.014119      0.059447
    5   C      5    1.8500  1.000     -0.989509      2.280602      0.163549
    6   C      6    1.8500  1.000      0.389866      2.427831      0.099068
    7  Br      7    3.0600  1.000      3.082049      1.553663     -0.155353
    8  Br      8    3.0600  1.000      2.112227     -1.985056      0.279980
    9  Br      9    3.0600  1.000     -1.524254     -1.851584     -0.282494
   10  Br     10    3.0600  1.000     -3.459724      0.906184      0.139658
   11   H     11    1.2000  1.000     -1.620584      3.151198      0.290196
   12   H     12    1.2000  1.000      0.830810      3.415793      0.166307
 ------------------------------------------------------------------------------
 GePol: Number of generator spheres                  =      12
 GePol: Total number of spheres                      =      12
 GePol: Number of exposed spheres                    =      12 (100.00%)
 GePol: Number of points                             =    1871
 GePol: Average weight of points                     =       0.17
 GePol: Minimum weight of points                     =   0.76D-09
 GePol: Maximum weight of points                     =    0.22025
 GePol: Number of points with low weight             =      55
 GePol: Fraction of low-weight points (<1% of avg)   =       2.94%
 GePol: Cavity surface area                          =    321.586 Ang**2
 GePol: Cavity volume                                =    418.330 Ang**3
 ------------------------------------------------------------------------------
 Atomic radii for non-electrostatic terms: SMD-CDS.
 ------------------------------------------------------------------------------
 PCM non-electrostatic energy =         0.0002975331 Hartrees.
 Nuclear repulsion after PCM non-electrostatic terms =     1872.6321535675 Hartrees.
 Leave Link  301 at Mon Sep 28 09:05:26 2026, MaxMem=  1610612736 cpu:               0.6 elap:               0.1
 (Enter /share/software/user/restricted/gaussian/g16.B01/l302.exe)
 NPDir=0 NMtPBC=     1 NCelOv=     1 NCel=       1 NClECP=     1 NCelD=      1
         NCelK=      1 NCelE2=     1 NClLst=     1 CellRange=     0.0.
 One-electron integrals computed using PRISM.
 One-electron integral symmetry used in STVInt
 NBasis=   332 RedAO= T EigKep=  2.49D-06  NBF=   332
 NBsUse=   331 1.00D-06 EigRej=  4.85D-07 NBFU=   331
 Precomputing XC quadrature grid using
 IXCGrd= 4 IRadAn=           5 IRanWt=          -1 IRanGd=           0 AccXCQ= 0.00D+00.
 Generated NRdTot=       0 NPtTot=           0 NUsed=           0 NTot=          32
 NSgBfM=   337   337   337   337   337 MxSgAt=    12 MxSgA2=    12.
 Leave Link  302 at Mon Sep 28 09:05:26 2026, MaxMem=  1610612736 cpu:               2.4 elap:               0.3
 (Enter /share/software/user/restricted/gaussian/g16.B01/l303.exe)
 DipDrv:  MaxL=1.
 Leave Link  303 at Mon Sep 28 09:05:26 2026, MaxMem=  1610612736 cpu:               0.4 elap:               0.1
 (Enter /share/software/user/restricted/gaussian/g16.B01/l401.exe)
 Initial guess from the checkpoint file:  "calcs/m062x_smd/chks/BrBz_1234_RA.chk"
 B after Tr=    -0.000000   -0.000000    0.000000
         Rot=    1.000000   -0.000007    0.000031    0.000466 Ang=  -0.05 deg.
 Guess basis will be translated and rotated to current coordinates.
 JPrj=2 DoOrth=T DoCkMO=T.
 Initial guess <Sx>= 0.0000 <Sy>= 0.0000 <Sz>= 0.5000 <S**2>= 0.7582 S= 0.5041
 Generating alternative initial guess.
 ExpMin= 3.50D-02 ExpMax= 4.40D+05 ExpMxC= 1.51D+04 IAcc=3 IRadAn=         5 AccDes= 0.00D+00
 Harris functional with IExCor= 1009 and IRadAn=       5 diagonalized for initial guess.
 HarFok:  IExCor= 1009 AccDes= 0.00D+00 IRadAn=         5 IDoV= 1 UseB2=F ITyADJ=14
 ICtDFT=  3500011 ScaDFX=  1.000000  1.000000  1.000000  1.000000
 FoFCou: FMM=F IPFlag=           0 FMFlag=      100000 FMFlg1=           0
         NFxFlg=           0 DoJE=T BraDBF=F KetDBF=T FulRan=T
         wScrn=  0.000000 ICntrl=       500 IOpCl=  0 I1Cent=   200000004 NGrid=           0
         NMat0=    1 NMatS0=      1 NMatT0=    0 NMatD0=    1 NMtDS0=    0 NMtDT0=    0
 Petite list used in FoFCou.
 Harris En= -10524.7893183311    
 Leave Link  401 at Mon Sep 28 09:05:28 2026, MaxMem=  1610612736 cpu:              12.1 elap:               1.5
 (Enter /share/software/user/restricted/gaussian/g16.B01/l502.exe)
 Integral symmetry usage will be decided dynamically.
 UHF open shell SCF:
 Using DIIS extrapolation, IDIIS=  1040.
 NGot=  1610612736 LenX=  1610361870 LenY=  1610238929
 Requested convergence on RMS density matrix=1.00D-08 within 128 cycles.
 Requested convergence on MAX density matrix=1.00D-06.
 Requested convergence on             energy=1.00D-06.
 No special actions if energy rises.
 Fock matrices will be formed incrementally for  20 cycles.

 Cycle   1  Pass 1  IDiag  1:
 FoFJK:  IHMeth= 1 ICntrl=       0 DoSepK=F KAlg= 0 I1Cent=           0 FoldK=F
 IRaf= 790000000 NMat=       1 IRICut=       1 DoRegI=T DoRafI=F ISym2E= 0 IDoP0=0 IntGTp=1.
 FoFCou: FMM=F IPFlag=           0 FMFlag=      100000 FMFlg1=           0
         NFxFlg=           0 DoJE=F BraDBF=F KetDBF=F FulRan=T
         wScrn=  0.000000 ICntrl=         0 IOpCl=  1 I1Cent=           0 NGrid=           0
         NMat0=    1 NMatS0=      1 NMatT0=    0 NMatD0=    1 NMtDS0=    0 NMtDT0=    0
 Symmetry not used in FoFCou.
 Inv3:  Mode=1 IEnd=    10501923.
 Iteration    1 A*A^-1 deviation from unit magnitude is 5.00D-15 for   1855.
 Iteration    1 A*A^-1 deviation from orthogonality  is 4.09D-15 for   1865   1170.
 Iteration    1 A^-1*A deviation from unit magnitude is 5.33D-15 for   1855.
 Iteration    1 A^-1*A deviation from orthogonality  is 1.99D-15 for   1855   1793.
 E= -10526.5716659264    
 DIIS: error= 1.53D-03 at cycle   1 NSaved=   1.
 NSaved= 1 IEnMin= 1 EnMin= -10526.5716659264     IErMin= 1 ErrMin= 1.53D-03
 ErrMax= 1.53D-03  0.00D+00 EMaxC= 1.00D-01 BMatC= 1.20D-03 BMatP= 1.20D-03
 IDIUse=3 WtCom= 9.85D-01 WtEn= 1.53D-02
 Coeff-Com:  0.100D+01
 Coeff-En:   0.100D+01
 Coeff:      0.100D+01
 Gap=     0.370 Goal=   None    Shift=    0.000
 Gap=     0.427 Goal=   None    Shift=    0.000
 GapD=    0.370 DampG=1.000 DampE=1.000 DampFc=1.0000 IDamp=-1.
 RMSDP=1.52D-04 MaxDP=9.12D-03              OVMax= 2.17D-03

 Cycle   2  Pass 1  IDiag  1:
 RMSU=  1.52D-04    CP:  1.00D+00
 E= -10526.5717262976     Delta-E=       -0.000060371240 Rises=F Damp=F
 DIIS: error= 9.06D-05 at cycle   2 NSaved=   2.
 NSaved= 2 IEnMin= 2 EnMin= -10526.5717262976     IErMin= 2 ErrMin= 9.06D-05
 ErrMax= 9.06D-05  0.00D+00 EMaxC= 1.00D-01 BMatC= 3.03D-06 BMatP= 1.20D-03
 IDIUse=1 WtCom= 1.00D+00 WtEn= 0.00D+00
 Coeff-Com: -0.914D-02 0.101D+01
 Coeff:     -0.914D-02 0.101D+01
 Gap=     0.213 Goal=   None    Shift=    0.000
 Gap=     0.217 Goal=   None    Shift=    0.000
 RMSDP=2.69D-05 MaxDP=1.26D-03 DE=-6.04D-05 OVMax= 9.13D-04

 Cycle   3  Pass 1  IDiag  1:
 RMSU=  2.37D-05    CP:  1.00D+00  1.08D+00
 E= -10526.5717290902     Delta-E=       -0.000002792614 Rises=F Damp=F
 DIIS: error= 2.61D-05 at cycle   3 NSaved=   3.
 NSaved= 3 IEnMin= 3 EnMin= -10526.5717290902     IErMin= 3 ErrMin= 2.61D-05
 ErrMax= 2.61D-05  0.00D+00 EMaxC= 1.00D-01 BMatC= 4.30D-07 BMatP= 3.03D-06
 IDIUse=1 WtCom= 1.00D+00 WtEn= 0.00D+00
 Coeff-Com: -0.157D-02-0.348D-01 0.104D+01
 Coeff:     -0.157D-02-0.348D-01 0.104D+01
 Gap=     0.213 Goal=   None    Shift=    0.000
 Gap=     0.217 Goal=   None    Shift=    0.000
 RMSDP=1.34D-05 MaxDP=5.06D-04 DE=-2.79D-06 OVMax= 4.77D-04

 Cycle   4  Pass 1  IDiag  1:
 RMSU=  1.06D-05    CP:  1.00D+00  1.13D+00  1.12D+00
 E= -10526.5717293980     Delta-E=       -0.000000307800 Rises=F Damp=F
 DIIS: error= 1.11D-05 at cycle   4 NSaved=   4.
 NSaved= 4 IEnMin= 4 EnMin= -10526.5717293980     IErMin= 4 ErrMin= 1.11D-05
 ErrMax= 1.11D-05  0.00D+00 EMaxC= 1.00D-01 BMatC= 3.83D-07 BMatP= 4.30D-07
 IDIUse=1 WtCom= 1.00D+00 WtEn= 0.00D+00
 Coeff-Com:  0.480D-03-0.172D+00 0.574D+00 0.597D+00
 Coeff:      0.480D-03-0.172D+00 0.574D+00 0.597D+00
 Gap=     0.213 Goal=   None    Shift=    0.000
 Gap=     0.217 Goal=   None    Shift=    0.000
 RMSDP=5.00D-06 MaxDP=2.53D-04 DE=-3.08D-07 OVMax= 2.23D-04

 Cycle   5  Pass 1  IDiag  1:
 RMSU=  3.59D-06    CP:  1.00D+00  1.13D+00  1.26D+00  1.02D+00
 E= -10526.5717295198     Delta-E=       -0.000000121769 Rises=F Damp=F
 DIIS: error= 5.93D-06 at cycle   5 NSaved=   5.
 NSaved= 5 IEnMin= 5 EnMin= -10526.5717295198     IErMin= 5 ErrMin= 5.93D-06
 ErrMax= 5.93D-06  0.00D+00 EMaxC= 1.00D-01 BMatC= 2.97D-08 BMatP= 3.83D-07
 IDIUse=1 WtCom= 1.00D+00 WtEn= 0.00D+00
 Coeff-Com:  0.362D-03-0.678D-01 0.126D+00 0.227D+00 0.715D+00
 Coeff:      0.362D-03-0.678D-01 0.126D+00 0.227D+00 0.715D+00
 Gap=     0.213 Goal=   None    Shift=    0.000
 Gap=     0.217 Goal=   None    Shift=    0.000
 RMSDP=3.97D-06 MaxDP=1.73D-04 DE=-1.22D-07 OVMax= 1.31D-04

 Cycle   6  Pass 1  IDiag  1:
 RMSU=  2.71D-06    CP:  1.00D+00  1.13D+00  1.32D+00  8.64D-01  6.21D-01
 E= -10526.5717295421     Delta-E=       -0.000000022315 Rises=F Damp=F
 DIIS: error= 2.27D-06 at cycle   6 NSaved=   6.
 NSaved= 6 IEnMin= 6 EnMin= -10526.5717295421     IErMin= 6 ErrMin= 2.27D-06
 ErrMax= 2.27D-06  0.00D+00 EMaxC= 1.00D-01 BMatC= 9.25D-09 BMatP= 2.97D-08
 IDIUse=1 WtCom= 1.00D+00 WtEn= 0.00D+00
 Coeff-Com:  0.602D-05 0.277D-01-0.136D+00-0.109D+00 0.299D+00 0.918D+00
 Coeff:      0.602D-05 0.277D-01-0.136D+00-0.109D+00 0.299D+00 0.918D+00
 Gap=     0.213 Goal=   None    Shift=    0.000
 Gap=     0.217 Goal=   None    Shift=    0.000
 RMSDP=1.86D-06 MaxDP=8.32D-05 DE=-2.23D-08 OVMax= 1.24D-04

 Cycle   7  Pass 1  IDiag  1:
 RMSU=  7.53D-07    CP:  1.00D+00  1.13D+00  1.36D+00  8.32D-01  7.59D-01
                    CP:  1.41D+00
 E= -10526.5717295527     Delta-E=       -0.000000010599 Rises=F Damp=F
 DIIS: error= 1.29D-06 at cycle   7 NSaved=   7.
 NSaved= 7 IEnMin= 7 EnMin= -10526.5717295527     IErMin= 7 ErrMin= 1.29D-06
 ErrMax= 1.29D-06  0.00D+00 EMaxC= 1.00D-01 BMatC= 1.58D-09 BMatP= 9.25D-09
 IDIUse=1 WtCom= 1.00D+00 WtEn= 0.00D+00
 Coeff-Com: -0.962D-04 0.298D-01-0.888D-01-0.943D-01-0.458D-01 0.318D+00
 Coeff-Com:  0.881D+00
 Coeff:     -0.962D-04 0.298D-01-0.888D-01-0.943D-01-0.458D-01 0.318D+00
 Coeff:      0.881D+00
 Gap=     0.213 Goal=   None    Shift=    0.000
 Gap=     0.217 Goal=   None    Shift=    0.000
 RMSDP=7.00D-07 MaxDP=3.39D-05 DE=-1.06D-08 OVMax= 6.28D-05

 Cycle   8  Pass 1  IDiag  1:
 RMSU=  3.54D-07    CP:  1.00D+00  1.13D+00  1.36D+00  8.51D-01  8.28D-01
                    CP:  1.58D+00  1.18D+00
 E= -10526.5717295547     Delta-E=       -0.000000001985 Rises=F Damp=F
 DIIS: error= 4.01D-07 at cycle   8 NSaved=   8.
 NSaved= 8 IEnMin= 8 EnMin= -10526.5717295547     IErMin= 8 ErrMin= 4.01D-07
 ErrMax= 4.01D-07  0.00D+00 EMaxC= 1.00D-01 BMatC= 3.51D-10 BMatP= 1.58D-09
 IDIUse=1 WtCom= 1.00D+00 WtEn= 0.00D+00
 Coeff-Com: -0.466D-04 0.104D-01-0.245D-01-0.302D-01-0.554D-01 0.252D-01
 Coeff-Com:  0.387D+00 0.687D+00
 Coeff:     -0.466D-04 0.104D-01-0.245D-01-0.302D-01-0.554D-01 0.252D-01
 Coeff:      0.387D+00 0.687D+00
 Gap=     0.213 Goal=   None    Shift=    0.000
 Gap=     0.217 Goal=   None    Shift=    0.000
 RMSDP=1.86D-07 MaxDP=7.37D-06 DE=-1.98D-09 OVMax= 1.51D-05

 Cycle   9  Pass 1  IDiag  1:
 RMSU=  1.05D-07    CP:  1.00D+00  1.13D+00  1.36D+00  8.56D-01  8.32D-01
                    CP:  1.60D+00  1.33D+00  1.12D+00
 E= -10526.5717295549     Delta-E=       -0.000000000166 Rises=F Damp=F
 DIIS: error= 1.34D-07 at cycle   9 NSaved=   9.
 NSaved= 9 IEnMin= 9 EnMin= -10526.5717295549     IErMin= 9 ErrMin= 1.34D-07
 ErrMax= 1.34D-07  0.00D+00 EMaxC= 1.00D-01 BMatC= 4.94D-11 BMatP= 3.51D-10
 IDIUse=1 WtCom= 1.00D+00 WtEn= 0.00D+00
 Coeff-Com:  0.844D-05-0.411D-02 0.146D-01 0.128D-01-0.717D-02-0.740D-01
 Coeff-Com: -0.929D-01 0.236D+00 0.915D+00
 Coeff:      0.844D-05-0.411D-02 0.146D-01 0.128D-01-0.717D-02-0.740D-01
 Coeff:     -0.929D-01 0.236D+00 0.915D+00
 Gap=     0.213 Goal=   None    Shift=    0.000
 Gap=     0.217 Goal=   None    Shift=    0.000
 RMSDP=1.08D-07 MaxDP=5.31D-06 DE=-1.66D-10 OVMax= 7.06D-06

 Cycle  10  Pass 1  IDiag  1:
 RMSU=  4.58D-08    CP:  1.00D+00  1.13D+00  1.36D+00  8.54D-01  8.38D-01
                    CP:  1.61D+00  1.41D+00  1.33D+00  1.17D+00
 E= -10526.5717295549     Delta-E=       -0.000000000055 Rises=F Damp=F
 DIIS: error= 8.83D-08 at cycle  10 NSaved=  10.
 NSaved=10 IEnMin=10 EnMin= -10526.5717295549     IErMin=10 ErrMin= 8.83D-08
 ErrMax= 8.83D-08  0.00D+00 EMaxC= 1.00D-01 BMatC= 9.15D-12 BMatP= 4.94D-11
 IDIUse=1 WtCom= 1.00D+00 WtEn= 0.00D+00
 Coeff-Com:  0.690D-05-0.262D-02 0.854D-02 0.802D-02 0.722D-03-0.373D-01
 Coeff-Com: -0.682D-01 0.699D-01 0.443D+00 0.578D+00
 Coeff:      0.690D-05-0.262D-02 0.854D-02 0.802D-02 0.722D-03-0.373D-01
 Coeff:     -0.682D-01 0.699D-01 0.443D+00 0.578D+00
 Gap=     0.213 Goal=   None    Shift=    0.000
 Gap=     0.217 Goal=   None    Shift=    0.000
 RMSDP=2.66D-08 MaxDP=1.01D-06 DE=-5.46D-11 OVMax= 1.02D-06

 Cycle  11  Pass 1  IDiag  1:
 RMSU=  2.01D-08    CP:  1.00D+00  1.13D+00  1.36D+00  8.54D-01  8.38D-01
                    CP:  1.60D+00  1.41D+00  1.35D+00  1.26D+00  9.16D-01
 E= -10526.5717295549     Delta-E=       -0.000000000002 Rises=F Damp=F
 DIIS: error= 5.19D-08 at cycle  11 NSaved=  11.
 NSaved=11 IEnMin=11 EnMin= -10526.5717295549     IErMin=11 ErrMin= 5.19D-08
 ErrMax= 5.19D-08  0.00D+00 EMaxC= 1.00D-01 BMatC= 1.83D-12 BMatP= 9.15D-12
 IDIUse=1 WtCom= 1.00D+00 WtEn= 0.00D+00
 Coeff-Com: -0.816D-06 0.624D-03-0.254D-02-0.197D-02 0.386D-02 0.136D-01
 Coeff-Com:  0.957D-02-0.624D-01-0.183D+00 0.185D+00 0.104D+01
 Coeff:     -0.816D-06 0.624D-03-0.254D-02-0.197D-02 0.386D-02 0.136D-01
 Coeff:      0.957D-02-0.624D-01-0.183D+00 0.185D+00 0.104D+01
 Gap=     0.213 Goal=   None    Shift=    0.000
 Gap=     0.217 Goal=   None    Shift=    0.000
 RMSDP=3.48D-08 MaxDP=1.53D-06 DE=-1.82D-12 OVMax= 9.81D-07

 Cycle  12  Pass 1  IDiag  1:
 RMSU=  1.19D-08    CP:  1.00D+00  1.13D+00  1.36D+00  8.55D-01  8.40D-01
                    CP:  1.60D+00  1.41D+00  1.37D+00  1.31D+00  1.17D+00
                    CP:  1.33D+00
 E= -10526.5717295549     Delta-E=       -0.000000000004 Rises=F Damp=F
 DIIS: error= 2.61D-08 at cycle  12 NSaved=  12.
 NSaved=12 IEnMin=12 EnMin= -10526.5717295549     IErMin=12 ErrMin= 2.61D-08
 ErrMax= 2.61D-08  0.00D+00 EMaxC= 1.00D-01 BMatC= 3.85D-13 BMatP= 1.83D-12
 IDIUse=1 WtCom= 1.00D+00 WtEn= 0.00D+00
 Coeff-Com: -0.188D-05 0.797D-03-0.272D-02-0.251D-02 0.955D-03 0.122D-01
 Coeff-Com:  0.188D-01-0.327D-01-0.153D+00-0.745D-01 0.276D+00 0.956D+00
 Coeff:     -0.188D-05 0.797D-03-0.272D-02-0.251D-02 0.955D-03 0.122D-01
 Coeff:      0.188D-01-0.327D-01-0.153D+00-0.745D-01 0.276D+00 0.956D+00
 Gap=     0.213 Goal=   None    Shift=    0.000
 Gap=     0.217 Goal=   None    Shift=    0.000
 RMSDP=1.06D-08 MaxDP=4.91D-07 DE=-3.64D-12 OVMax= 5.34D-07

 Cycle  13  Pass 1  IDiag  1:
 RMSU=  5.50D-09    CP:  1.00D+00  1.13D+00  1.36D+00  8.56D-01  8.40D-01
                    CP:  1.59D+00  1.41D+00  1.36D+00  1.34D+00  1.21D+00
                    CP:  1.47D+00  1.08D+00
 E= -10526.5717295550     Delta-E=       -0.000000000031 Rises=F Damp=F
 DIIS: error= 1.29D-08 at cycle  13 NSaved=  13.
 NSaved=13 IEnMin=13 EnMin= -10526.5717295550     IErMin=13 ErrMin= 1.29D-08
 ErrMax= 1.29D-08  0.00D+00 EMaxC= 1.00D-01 BMatC= 1.16D-13 BMatP= 3.85D-13
 IDIUse=1 WtCom= 1.00D+00 WtEn= 0.00D+00
 Coeff-Com: -0.453D-06 0.110D-03-0.249D-03-0.365D-03-0.853D-03 0.524D-03
 Coeff-Com:  0.417D-02 0.608D-02-0.216D-02-0.811D-01-0.203D+00 0.333D+00
 Coeff-Com:  0.944D+00
 Coeff:     -0.453D-06 0.110D-03-0.249D-03-0.365D-03-0.853D-03 0.524D-03
 Coeff:      0.417D-02 0.608D-02-0.216D-02-0.811D-01-0.203D+00 0.333D+00
 Coeff:      0.944D+00
 Gap=     0.213 Goal=   None    Shift=    0.000
 Gap=     0.217 Goal=   None    Shift=    0.000
 RMSDP=5.37D-09 MaxDP=2.08D-07 DE=-3.09D-11 OVMax= 3.09D-07

 Error on total polarization charges =  0.00778
 SCF Done:  E(UM062X) =  -10526.5717296     A.U. after   13 cycles
            NFock= 13  Conv=0.54D-08     -V/T= 2.0012
 <Sx>= 0.0000 <Sy>= 0.0000 <Sz>= 0.5000 <S**2>= 0.7582 S= 0.5041
 <L.S>=  0.00000000000    
 KE= 1.051344210738D+04 PE=-2.891987938778D+04 EE= 6.007233397278D+03
 SMD-CDS (non-electrostatic) energy       (kcal/mol) =       0.19
 (included in total energy above)
 Annihilation of the first spin contaminant:
 S**2 before annihilation     0.7582,   after     0.7500
 Leave Link  502 at Mon Sep 28 09:07:38 2026, MaxMem=  1610612736 cpu:            1040.6 elap:             130.3
 (Enter /share/software/user/restricted/gaussian/g16.B01/l701.exe)
 ... and contract with generalized density number  0.
 Compute integral first derivatives.
 D1PCM: PCM CHGder 1st derivatives, ID1Alg=3 FixD1E=F DoIter=F DoCFld=F I1PDM=0.
 GePol: Maximum number of non-zero 1st derivatives   =     470
 Leave Link  701 at Mon Sep 28 09:07:40 2026, MaxMem=  1610612736 cpu:              13.7 elap:               1.7
 (Enter /share/software/user/restricted/gaussian/g16.B01/l702.exe)
 L702 exits ... SP integral derivatives will be done elsewhere.
 Leave Link  702 at Mon Sep 28 09:07:40 2026, MaxMem=  1610612736 cpu:               0.2 elap:               0.0
 (Enter /share/software/user/restricted/gaussian/g16.B01/l703.exe)
 Integral derivatives from FoFJK, PRISM(SPDF).
 Compute integral first derivatives, UseDBF=F ICtDFT=           0.
 Calling FoFJK, ICntrl=      2127 FMM=F ISym2X=0 I1Cent= 0 IOpClX= 1 NMat=1 NMatS=1 NMatT=0.
 FoFJK:  IHMeth= 1 ICntrl=    2127 DoSepK=F KAlg= 0 I1Cent=           0 FoldK=F
 IRaf=         0 NMat=       1 IRICut=       1 DoRegI=T DoRafI=F ISym2E= 0 IDoP0=0 IntGTp=1.
 FoFCou: FMM=F IPFlag=           0 FMFlag=      100000 FMFlg1=         800
         NFxFlg=           0 DoJE=F BraDBF=F KetDBF=F FulRan=T
         wScrn=  0.000000 ICntrl=      2127 IOpCl=  1 I1Cent=           0 NGrid=           0
         NMat0=    1 NMatS0=      1 NMatT0=    0 NMatD0=    1 NMtDS0=    0 NMtDT0=    0
 Symmetry not used in FoFCou.
 Leave Link  703 at Mon Sep 28 09:07:56 2026, MaxMem=  1610612736 cpu:             130.2 elap:              16.3
 (Enter /share/software/user/restricted/gaussian/g16.B01/l716.exe)
 Dipole        =-2.53079109D+00 2.92849097D+00-1.39927581D-01
 ***** Axes restored to original set *****
 -------------------------------------------------------------------
 Center     Atomic                   Forces (Hartrees/Bohr)
 Number     Number              X              Y              Z
 -------------------------------------------------------------------
      1        6           0.000005334    0.000182033   -0.000078060
      2        6           0.000026130    0.000157352    0.000134005
      3        6           0.000015447   -0.000230034    0.000092224
      4        6          -0.000011406   -0.000027757    0.000016660
      5        6           0.000005630   -0.000034072   -0.000085068
      6        6          -0.000048448    0.000034724    0.000009412
      7       35          -0.000022918   -0.000042242    0.000044770
      8       35           0.000032168   -0.000055774   -0.000093067
      9       35           0.000008214    0.000016650   -0.000028041
     10       35           0.000020046   -0.000031463   -0.000016186
     11        1          -0.000003456    0.000016630   -0.000004555
     12        1          -0.000026742    0.000013953    0.000007906
 -------------------------------------------------------------------
 Cartesian Forces:  Max     0.000230034 RMS     0.000070465
 Leave Link  716 at Mon Sep 28 09:07:56 2026, MaxMem=  1610612736 cpu:               0.3 elap:               0.1
 (Enter /share/software/user/restricted/gaussian/g16.B01/l103.exe)

 GradGradGradGradGradGradGradGradGradGradGradGradGradGradGradGradGradGrad
 Berny optimization.
 Using GEDIIS/GDIIS optimizer.
 FormGI is forming the generalized inverse of G from B-inverse, IUseBI=4.
 Internal  Forces:  Max     0.000198387 RMS     0.000044454
 Search for a local minimum.
 Step number   9 out of a maximum of   64
 All quantities printed in internal units (Hartrees-Bohrs-Radians)
 RMS Force = .44454D-04 SwitMx=.10000D-02 MixMth= 2
 Mixed Optimization -- En-DIIS/RFO-DIIS
 Swapping is turned off.
 Update second derivatives using D2CorX and points    3    2    4    5    6
                                                      7    8    9
 DE= -1.86D-06 DEPred=-3.55D-07 R= 5.23D+00
 TightC=F SS=  1.41D+00  RLast= 2.24D-02 DXNew= 8.4853D-01 6.7258D-02
 Trust test= 5.23D+00 RLast= 2.24D-02 DXMaxT set to 5.05D-01
 ITU=  1  1  0  1  1  1  0  1  0
     Eigenvalues ---    0.00078   0.00987   0.01779   0.02005   0.02260
     Eigenvalues ---    0.02433   0.02631   0.02887   0.03289   0.03427
     Eigenvalues ---    0.10674   0.11268   0.11930   0.12848   0.14230
     Eigenvalues ---    0.15551   0.17946   0.20051   0.21794   0.23482
     Eigenvalues ---    0.26033   0.27525   0.35992   0.36424   0.37446
     Eigenvalues ---    0.44524   0.45749   0.49776   0.53545   0.67541
 En-DIIS/RFO-DIIS/Sim-DIIS IScMMF=       -3 using points:     9    8    7    6    5    4
 RFO step:  Lambda=-5.75209039D-07.
 NNeg= 0 NGDIIS= 6 SimSw=  2.50D-01 Rises=F DC= -1.86D-06 SmlDif=  1.00D-05
 NRisDI= 0 DoIntr=F SqrtH=F CThrHd= 10.0 CDAdj=  3.0
 RMS Error=  0.2288940404D-02 NUsed= 6 OKEnD=F EnDIS=F
 InvSVX:  RCond= 1.49D-09 Info=           0 Equed=N FErr=  2.75D-10 BErr=  8.76D-17
 DIIS inversion failure, remove point   6.
 InvSVX:  RCond= 3.31D-09 Info=           0 Equed=N FErr=  1.87D-10 BErr=  5.87D-17
 DIIS inversion failure, remove point   5.
 InvSVX:  RCond= 2.21D-08 Info=           0 Equed=N FErr=  3.57D-11 BErr=  8.61D-17
 DIIS inversion failure, remove point   4.
 InvSVX:  RCond= 1.57D-07 Info=           0 Equed=N FErr=  3.62D-12 BErr=  2.79D-17
 Old DIIS coefficients:      2.76066     -2.97472      1.21406      0.00000      0.00000
 Old DIIS coefficients:      0.00000
 RFO-DIIS uses    3 points instead of    6
 DidBck=F Rises=F RFO-DIIS coefs:    2.08366   -2.00000    0.91634    0.00000    0.00000
                  RFO-DIIS coefs:    0.00000
 Iteration  1 RMS(Cart)=  0.00272408 RMS(Int)=  0.00000777
 Iteration  2 RMS(Cart)=  0.00000494 RMS(Int)=  0.00000584
 Iteration  3 RMS(Cart)=  0.00000000 RMS(Int)=  0.00000584
 ITry= 1 IFail=0 DXMaxC= 1.28D-02 DCOld= 1.00D+10 DXMaxT= 5.05D-01 DXLimC= 3.00D+00 Rises=F
 Variable       Old X    -DE/DX   Delta X   Delta X   Delta X     New X
                                 (Linear)    (Quad)   (Total)
    R1        2.59423   0.00008   0.00005   0.00014   0.00019   2.59442
    R2        2.63217   0.00003   0.00000   0.00000   0.00001   2.63218
    R3        3.63947  -0.00005   0.00022  -0.00027  -0.00006   3.63942
    R4        2.60091   0.00020   0.00015   0.00020   0.00035   2.60126
    R5        4.80476  -0.00011  -0.00252  -0.00137  -0.00389   4.80087
    R6        2.64152   0.00005   0.00000  -0.00001  -0.00001   2.64151
    R7        3.62724  -0.00003  -0.00004  -0.00015  -0.00019   3.62705
    R8        2.63111   0.00010   0.00006   0.00005   0.00011   2.63123
    R9        3.60176   0.00003   0.00009   0.00010   0.00018   3.60195
   R10        2.62428   0.00009   0.00005   0.00005   0.00011   2.62439
   R11        2.04600  -0.00000  -0.00000   0.00000  -0.00000   2.04600
   R12        2.04843  -0.00000   0.00000  -0.00000  -0.00000   2.04843
    A1        2.12680  -0.00004   0.00001  -0.00001   0.00000   2.12680
    A2        2.11594  -0.00003  -0.00005  -0.00014  -0.00019   2.11575
    A3        2.04029   0.00007   0.00004   0.00014   0.00018   2.04048
    A4        2.08456   0.00004  -0.00003  -0.00010  -0.00012   2.08444
    A5        2.07167  -0.00007  -0.00036  -0.00035  -0.00068   2.07099
    A6        2.08531   0.00003  -0.00006  -0.00075  -0.00079   2.08452
    A7        2.09583  -0.00004  -0.00000   0.00005   0.00004   2.09588
    A8        2.09080  -0.00001  -0.00007  -0.00016  -0.00022   2.09058
    A9        2.09634   0.00005   0.00007   0.00011   0.00018   2.09652
   A10        2.09469  -0.00001   0.00002   0.00003   0.00005   2.09474
   A11        2.14419   0.00000  -0.00002  -0.00005  -0.00007   2.14412
   A12        2.04430   0.00000   0.00000   0.00002   0.00002   2.04433
   A13        2.09311   0.00002  -0.00002  -0.00006  -0.00008   2.09303
   A14        2.09667  -0.00000   0.00003   0.00004   0.00007   2.09674
   A15        2.09340  -0.00001  -0.00000   0.00001   0.00001   2.09341
   A16        2.07124   0.00003   0.00003   0.00009   0.00011   2.07136
   A17        2.12009  -0.00002  -0.00001  -0.00007  -0.00008   2.12001
   A18        2.09185  -0.00001  -0.00001  -0.00002  -0.00003   2.09182
    D1        0.00746  -0.00000   0.00016   0.00036   0.00052   0.00798
    D2       -2.82670   0.00000   0.00152   0.00480   0.00631  -2.82038
    D3       -3.11465  -0.00001   0.00042   0.00057   0.00099  -3.11367
    D4        0.33438  -0.00000   0.00178   0.00500   0.00678   0.34115
    D5        0.00659  -0.00001  -0.00035  -0.00036  -0.00072   0.00588
    D6       -3.13566  -0.00000  -0.00021  -0.00024  -0.00046  -3.13612
    D7        3.12951  -0.00001  -0.00060  -0.00056  -0.00116   3.12834
    D8       -0.01275   0.00000  -0.00046  -0.00044  -0.00090  -0.01365
    D9       -0.01239   0.00001   0.00021  -0.00005   0.00016  -0.01224
   D10        3.10724   0.00002   0.00030  -0.00015   0.00016   3.10739
   D11        2.81934  -0.00001  -0.00120  -0.00445  -0.00566   2.81368
   D12       -0.34421  -0.00000  -0.00111  -0.00454  -0.00566  -0.34987
   D13        0.00338  -0.00001  -0.00039  -0.00024  -0.00063   0.00276
   D14       -3.13853  -0.00001  -0.00052  -0.00032  -0.00084  -3.13937
   D15       -3.11618  -0.00002  -0.00048  -0.00014  -0.00062  -3.11680
   D16        0.02510  -0.00002  -0.00061  -0.00022  -0.00083   0.02426
   D17        0.01079  -0.00001   0.00019   0.00023   0.00043   0.01122
   D18       -3.13559  -0.00000   0.00020   0.00021   0.00042  -3.13518
   D19       -3.13050  -0.00001   0.00032   0.00031   0.00063  -3.12987
   D20        0.00630   0.00000   0.00033   0.00029   0.00061   0.00691
   D21       -0.01558   0.00002   0.00017   0.00006   0.00023  -0.01535
   D22        3.12667   0.00001   0.00003  -0.00006  -0.00003   3.12664
   D23        3.13080   0.00001   0.00016   0.00008   0.00024   3.13104
   D24       -0.01014   0.00000   0.00002  -0.00004  -0.00002  -0.01016
         Item               Value     Threshold  Converged?
 Maximum Force            0.000198     0.000015     NO 
 RMS     Force            0.000044     0.000010     NO 
 Maximum Displacement     0.012796     0.000060     NO 
 RMS     Displacement     0.002724     0.000040     NO 
 Predicted change in Energy=-2.168598D-07
 Lowest energy point so far.  Saving SCF results.
 GradGradGradGradGradGradGradGradGradGradGradGradGradGradGradGradGradGrad

 Leave Link  103 at Mon Sep 28 09:07:57 2026, MaxMem=  1610612736 cpu:               0.5 elap:               0.1
 (Enter /share/software/user/restricted/gaussian/g16.B01/l202.exe)
                          Input orientation:                          
 ---------------------------------------------------------------------
 Center     Atomic      Atomic             Coordinates (Angstroms)
 Number     Number       Type             X           Y           Z
 ---------------------------------------------------------------------
      1          6           0        0.088031    1.289186   -1.157821
      2          6           0        0.131791    0.625122    0.043006
      3          6           0        0.094228   -0.750825    0.056752
      4          6           0       -0.002548   -1.461171   -1.143231
      5          6           0       -0.057797   -0.777487   -2.354948
      6          6           0       -0.003167    0.610116   -2.370543
      7         35           0        0.183302    3.210972   -1.239939
      8         35           0       -0.410510    1.910126    2.166415
      9         35           0        0.211633   -1.691083    1.725896
     10         35           0       -0.063959   -3.364870   -1.215718
     11          1           0       -0.138758   -1.325629   -3.285117
     12          1           0       -0.032245    1.140669   -3.315364
 ---------------------------------------------------------------------
                    Distance matrix (angstroms):
                    1          2          3          4          5
     1  C    0.000000
     2  C    1.372910   0.000000
     3  C    2.374210   1.376528   0.000000
     4  C    2.751886   2.403710   1.397825   0.000000
     5  C    2.392805   2.784499   2.416633   1.392385   0.000000
     6  C    1.392891   2.417365   2.784494   2.407597   1.388765
     7  Br   1.925897   2.887078   4.169553   4.676837   4.148394
     8  Br   3.418282   2.540510   3.433089   4.741922   5.271659
     9  Br   4.148868   2.864140   1.919352   2.886281   4.190529
    10  Br   4.656897   4.188405   2.911603   1.906068   2.827089
    11  H    3.378473   3.867173   3.398936   2.150488   1.082695
    12  H    2.165990   3.401668   3.868450   3.389486   2.145314
                    6          7          8          9         10
     6  C    0.000000
     7  Br   2.842091   0.000000
     8  Br   4.737081   3.694328   0.000000
     9  Br   4.703453   5.729496   3.681009   0.000000
    10  Br   4.139786   6.580533   6.275707   3.395674   0.000000
    11  H    2.145214   4.986705   6.345325   5.036524   2.906287
    12  H    1.083983   2.939388   5.548427   5.787279   4.970854
                   11         12
    11  H    0.000000
    12  H    2.468782   0.000000
 Stoichiometry    C6H2Br4(1-,2)
 Framework group  C1[X(C6H2Br4)]
 Deg. of freedom    30
 Full point group                 C1      NOp   1
 RotChk:  IX=1 Diff= 1.87D-03
 Largest Abelian subgroup         C1      NOp   1
 Largest concise Abelian subgroup C1      NOp   1
                         Standard orientation:                         
 ---------------------------------------------------------------------
 Center     Atomic      Atomic             Coordinates (Angstroms)
 Number     Number       Type             X           Y           Z
 ---------------------------------------------------------------------
      1          6           0        1.178735    1.287467   -0.051410
      2          6           0        0.627426    0.033705   -0.146383
      3          6           0       -0.740850   -0.108909   -0.098288
      4          6           0       -1.557279    1.014499    0.060812
      5          6           0       -0.987292    2.280375    0.167615
      6          6           0        0.392206    2.426695    0.102464
      7         35           0        3.083486    1.551218   -0.158371
      8         35           0        2.108930   -1.984611    0.284586
      9         35           0       -1.525012   -1.850607   -0.286674
     10         35           0       -3.458662    0.907764    0.141103
     11          1           0       -1.617602    3.151142    0.296859
     12          1           0        0.833941    3.414159    0.171778
 ---------------------------------------------------------------------
 Rotational constants (GHZ):           0.4860380           0.2178036           0.1519828
 Leave Link  202 at Mon Sep 28 09:07:57 2026, MaxMem=  1610612736 cpu:               0.0 elap:               0.1
 (Enter /share/software/user/restricted/gaussian/g16.B01/l301.exe)
 Standard basis: 6-311++G(d) (5D, 7F)
 Ernie: Thresh=  0.10000D-02 Tol=  0.10000D-05 Strict=F.
 There are   350 symmetry adapted cartesian basis functions of A   symmetry.
 There are   332 symmetry adapted basis functions of A   symmetry.
   332 basis functions,   604 primitive gaussians,   350 cartesian basis functions
    90 alpha electrons       89 beta electrons
       nuclear repulsion energy      1872.8818804478 Hartrees.
 IExCor= 4336 DFT=T Ex+Corr=M062X ExCW=0 ScaHFX=  0.540000
 ScaDFX=  1.000000  1.000000  1.000000  1.000000 ScalE2=  1.000000  1.000000
 IRadAn=      5 IRanWt=     -1 IRanGd=            0 ICorTp=0 IEmpDi=  4
 NAtoms=   12 NActive=   12 NUniq=   12 SFac= 1.00D+00 NAtFMM=   60 NAOKFM=F Big=F
 Integral buffers will be    131072 words long.
 Raffenetti 2 integral format.
 Two-electron integral symmetry is turned on.
 ------------------------------------------------------------------------------
 Polarizable Continuum Model (PCM)
 =================================
 Model                : PCM.
 Atomic radii         : SMD-Coulomb.
 Polarization charges : Total charges.
 Charge compensation  : None.
 Solution method      : Matrix inversion.
 Cavity type          : VdW (van der Waals Surface) (Alpha=1.000).
 Cavity algorithm     : GePol (No added spheres)
                        Default sphere list used, NSphG=   12.
                        Lebedev-Laikov grids with approx.  5.0 points / Ang**2.
                        Smoothing algorithm: York/Karplus (Gamma=1.0000).
                        Polarization charges: spherical gaussians, with
                                              point-specific exponents (IZeta= 3).
                        Self-potential: point-specific (ISelfS= 7).
                        Self-field    : sphere-specific E.n sum rule (ISelfD= 2).
 1st derivatives      : Analytical E(r).r(x)/FMM algorithm (CHGder, D1EAlg=3).
                        Cavity 1st derivative terms included.
 Solvent              : Water, Eps=  78.355300 Eps(inf)=   1.777849
 ------------------------------------------------------------------------------
 Spheres list:
 ISph  on   Nord     Re0    Alpha      Xe            Ye            Ze
    1   C      1    1.8500  1.000      1.178735      1.287467     -0.051410
    2   C      2    1.8500  1.000      0.627426      0.033705     -0.146383
    3   C      3    1.8500  1.000     -0.740850     -0.108909     -0.098288
    4   C      4    1.8500  1.000     -1.557279      1.014499      0.060812
    5   C      5    1.8500  1.000     -0.987292      2.280375      0.167615
    6   C      6    1.8500  1.000      0.392206      2.426695      0.102464
    7  Br      7    3.0600  1.000      3.083486      1.551218     -0.158371
    8  Br      8    3.0600  1.000      2.108930     -1.984611      0.284586
    9  Br      9    3.0600  1.000     -1.525012     -1.850607     -0.286674
   10  Br     10    3.0600  1.000     -3.458662      0.907764      0.141103
   11   H     11    1.2000  1.000     -1.617602      3.151142      0.296859
   12   H     12    1.2000  1.000      0.833941      3.414159      0.171778
 ------------------------------------------------------------------------------
 GePol: Number of generator spheres                  =      12
 GePol: Total number of spheres                      =      12
 GePol: Number of exposed spheres                    =      12 (100.00%)
 GePol: Number of points                             =    1872
 GePol: Average weight of points                     =       0.17
 GePol: Minimum weight of points                     =   0.12D-09
 GePol: Maximum weight of points                     =    0.22025
 GePol: Number of points with low weight             =      56
 GePol: Fraction of low-weight points (<1% of avg)   =       2.99%
 GePol: Cavity surface area                          =    321.518 Ang**2
 GePol: Cavity volume                                =    418.268 Ang**3
 ------------------------------------------------------------------------------
 Atomic radii for non-electrostatic terms: SMD-CDS.
 ------------------------------------------------------------------------------
 PCM non-electrostatic energy =         0.0002976412 Hartrees.
 Nuclear repulsion after PCM non-electrostatic terms =     1872.8821780891 Hartrees.
 Leave Link  301 at Mon Sep 28 09:07:57 2026, MaxMem=  1610612736 cpu:               0.8 elap:               0.1
 (Enter /share/software/user/restricted/gaussian/g16.B01/l302.exe)
 NPDir=0 NMtPBC=     1 NCelOv=     1 NCel=       1 NClECP=     1 NCelD=      1
         NCelK=      1 NCelE2=     1 NClLst=     1 CellRange=     0.0.
 One-electron integrals computed using PRISM.
 One-electron integral symmetry used in STVInt
 NBasis=   332 RedAO= T EigKep=  2.51D-06  NBF=   332
 NBsUse=   331 1.00D-06 EigRej=  4.87D-07 NBFU=   331
 Precomputing XC quadrature grid using
 IXCGrd= 4 IRadAn=           5 IRanWt=          -1 IRanGd=           0 AccXCQ= 0.00D+00.
 Generated NRdTot=       0 NPtTot=           0 NUsed=           0 NTot=          32
 NSgBfM=   337   337   337   337   337 MxSgAt=    12 MxSgA2=    12.
 Leave Link  302 at Mon Sep 28 09:07:57 2026, MaxMem=  1610612736 cpu:               2.2 elap:               0.3
 (Enter /share/software/user/restricted/gaussian/g16.B01/l303.exe)
 DipDrv:  MaxL=1.
 Leave Link  303 at Mon Sep 28 09:07:57 2026, MaxMem=  1610612736 cpu:               0.4 elap:               0.1
 (Enter /share/software/user/restricted/gaussian/g16.B01/l401.exe)
 Initial guess from the checkpoint file:  "calcs/m062x_smd/chks/BrBz_1234_RA.chk"
 B after Tr=     0.000000    0.000000   -0.000000
         Rot=    1.000000    0.000033    0.000023    0.000328 Ang=   0.04 deg.
 Guess basis will be translated and rotated to current coordinates.
 JPrj=2 DoOrth=T DoCkMO=T.
 Initial guess <Sx>= 0.0000 <Sy>= 0.0000 <Sz>= 0.5000 <S**2>= 0.7582 S= 0.5041
 Leave Link  401 at Mon Sep 28 09:07:58 2026, MaxMem=  1610612736 cpu:               2.9 elap:               0.4
 (Enter /share/software/user/restricted/gaussian/g16.B01/l502.exe)
 Integral symmetry usage will be decided dynamically.
 UHF open shell SCF:
 Using DIIS extrapolation, IDIIS=  1040.
 NGot=  1610612736 LenX=  1610361870 LenY=  1610238929
 Requested convergence on RMS density matrix=1.00D-08 within 128 cycles.
 Requested convergence on MAX density matrix=1.00D-06.
 Requested convergence on             energy=1.00D-06.
 No special actions if energy rises.
 Fock matrices will be formed incrementally for  20 cycles.

 Cycle   1  Pass 1  IDiag  1:
 FoFJK:  IHMeth= 1 ICntrl=       0 DoSepK=F KAlg= 0 I1Cent=           0 FoldK=F
 IRaf= 790000000 NMat=       1 IRICut=       1 DoRegI=T DoRafI=F ISym2E= 0 IDoP0=0 IntGTp=1.
 FoFCou: FMM=F IPFlag=           0 FMFlag=      100000 FMFlg1=           0
         NFxFlg=           0 DoJE=F BraDBF=F KetDBF=F FulRan=T
         wScrn=  0.000000 ICntrl=         0 IOpCl=  1 I1Cent=           0 NGrid=           0
         NMat0=    1 NMatS0=      1 NMatT0=    0 NMatD0=    1 NMtDS0=    0 NMtDT0=    0
 Symmetry not used in FoFCou.
 Inv3:  Mode=1 IEnd=    10513152.
 Iteration    1 A*A^-1 deviation from unit magnitude is 5.22D-15 for   1854.
 Iteration    1 A*A^-1 deviation from orthogonality  is 1.61D-15 for   1868   1185.
 Iteration    1 A^-1*A deviation from unit magnitude is 5.33D-15 for   1854.
 Iteration    1 A^-1*A deviation from orthogonality  is 1.24D-15 for    704    274.
 E= -10526.5717063993    
 DIIS: error= 8.94D-04 at cycle   1 NSaved=   1.
 NSaved= 1 IEnMin= 1 EnMin= -10526.5717063993     IErMin= 1 ErrMin= 8.94D-04
 ErrMax= 8.94D-04  0.00D+00 EMaxC= 1.00D-01 BMatC= 4.67D-04 BMatP= 4.67D-04
 IDIUse=3 WtCom= 9.91D-01 WtEn= 8.94D-03
 Coeff-Com:  0.100D+01
 Coeff-En:   0.100D+01
 Coeff:      0.100D+01
 Gap=     0.370 Goal=   None    Shift=    0.000
 Gap=     0.427 Goal=   None    Shift=    0.000
 RMSDP=9.09D-05 MaxDP=5.53D-03              OVMax= 1.33D-03

 Cycle   2  Pass 1  IDiag  1:
 RMSU=  9.08D-05    CP:  1.00D+00
 E= -10526.5717297297     Delta-E=       -0.000023330445 Rises=F Damp=F
 DIIS: error= 5.67D-05 at cycle   2 NSaved=   2.
 NSaved= 2 IEnMin= 2 EnMin= -10526.5717297297     IErMin= 2 ErrMin= 5.67D-05
 ErrMax= 5.67D-05  0.00D+00 EMaxC= 1.00D-01 BMatC= 1.15D-06 BMatP= 4.67D-04
 IDIUse=1 WtCom= 1.00D+00 WtEn= 0.00D+00
 Coeff-Com: -0.912D-02 0.101D+01
 Coeff:     -0.912D-02 0.101D+01
 Gap=     0.212 Goal=   None    Shift=    0.000
 Gap=     0.217 Goal=   None    Shift=    0.000
 RMSDP=1.73D-05 MaxDP=7.20D-04 DE=-2.33D-05 OVMax= 5.98D-04

 Cycle   3  Pass 1  IDiag  1:
 RMSU=  1.46D-05    CP:  1.00D+00  1.10D+00
 E= -10526.5717307850     Delta-E=       -0.000001055214 Rises=F Damp=F
 DIIS: error= 1.67D-05 at cycle   3 NSaved=   3.
 NSaved= 3 IEnMin= 3 EnMin= -10526.5717307850     IErMin= 3 ErrMin= 1.67D-05
 ErrMax= 1.67D-05  0.00D+00 EMaxC= 1.00D-01 BMatC= 1.80D-07 BMatP= 1.15D-06
 IDIUse=1 WtCom= 1.00D+00 WtEn= 0.00D+00
 Coeff-Com: -0.182D-02-0.808D-02 0.101D+01
 Coeff:     -0.182D-02-0.808D-02 0.101D+01
 Gap=     0.212 Goal=   None    Shift=    0.000
 Gap=     0.217 Goal=   None    Shift=    0.000
 RMSDP=7.67D-06 MaxDP=4.25D-04 DE=-1.06D-06 OVMax= 3.15D-04

 Cycle   4  Pass 1  IDiag  1:
 RMSU=  6.36D-06    CP:  1.00D+00  1.14D+00  1.12D+00
 E= -10526.5717308942     Delta-E=       -0.000000109234 Rises=F Damp=F
 DIIS: error= 6.78D-06 at cycle   4 NSaved=   4.
 NSaved= 4 IEnMin= 4 EnMin= -10526.5717308942     IErMin= 4 ErrMin= 6.78D-06
 ErrMax= 6.78D-06  0.00D+00 EMaxC= 1.00D-01 BMatC= 1.70D-07 BMatP= 1.80D-07
 IDIUse=1 WtCom= 1.00D+00 WtEn= 0.00D+00
 Coeff-Com:  0.469D-03-0.174D+00 0.579D+00 0.594D+00
 Coeff:      0.469D-03-0.174D+00 0.579D+00 0.594D+00
 Gap=     0.212 Goal=   None    Shift=    0.000
 Gap=     0.217 Goal=   None    Shift=    0.000
 RMSDP=3.76D-06 MaxDP=1.78D-04 DE=-1.09D-07 OVMax= 1.51D-04

 Cycle   5  Pass 1  IDiag  1:
 RMSU=  2.97D-06    CP:  1.00D+00  1.15D+00  1.26D+00  9.81D-01
 E= -10526.5717309536     Delta-E=       -0.000000059430 Rises=F Damp=F
 DIIS: error= 3.57D-06 at cycle   5 NSaved=   5.
 NSaved= 5 IEnMin= 5 EnMin= -10526.5717309536     IErMin= 5 ErrMin= 3.57D-06
 ErrMax= 3.57D-06  0.00D+00 EMaxC= 1.00D-01 BMatC= 1.20D-08 BMatP= 1.70D-07
 IDIUse=1 WtCom= 1.00D+00 WtEn= 0.00D+00
 Coeff-Com:  0.367D-03-0.694D-01 0.128D+00 0.226D+00 0.715D+00
 Coeff:      0.367D-03-0.694D-01 0.128D+00 0.226D+00 0.715D+00
 Gap=     0.212 Goal=   None    Shift=    0.000
 Gap=     0.217 Goal=   None    Shift=    0.000
 RMSDP=2.42D-06 MaxDP=1.00D-04 DE=-5.94D-08 OVMax= 8.74D-05

 Cycle   6  Pass 1  IDiag  1:
 RMSU=  1.69D-06    CP:  1.00D+00  1.15D+00  1.32D+00  8.83D-01  6.25D-01
 E= -10526.5717309623     Delta-E=       -0.000000008713 Rises=F Damp=F
 DIIS: error= 1.35D-06 at cycle   6 NSaved=   6.
 NSaved= 6 IEnMin= 6 EnMin= -10526.5717309623     IErMin= 6 ErrMin= 1.35D-06
 ErrMax= 1.35D-06  0.00D+00 EMaxC= 1.00D-01 BMatC= 3.18D-09 BMatP= 1.20D-08
 IDIUse=1 WtCom= 1.00D+00 WtEn= 0.00D+00
 Coeff-Com: -0.104D-04 0.305D-01-0.141D+00-0.107D+00 0.245D+00 0.973D+00
 Coeff:     -0.104D-04 0.305D-01-0.141D+00-0.107D+00 0.245D+00 0.973D+00
 Gap=     0.212 Goal=   None    Shift=    0.000
 Gap=     0.217 Goal=   None    Shift=    0.000
 RMSDP=1.16D-06 MaxDP=5.21D-05 DE=-8.71D-09 OVMax= 8.38D-05

 Cycle   7  Pass 1  IDiag  1:
 RMSU=  4.84D-07    CP:  1.00D+00  1.15D+00  1.36D+00  8.71D-01  6.96D-01
                    CP:  1.47D+00
 E= -10526.5717309664     Delta-E=       -0.000000004100 Rises=F Damp=F
 DIIS: error= 8.51D-07 at cycle   7 NSaved=   7.
 NSaved= 7 IEnMin= 7 EnMin= -10526.5717309664     IErMin= 7 ErrMin= 8.51D-07
 ErrMax= 8.51D-07  0.00D+00 EMaxC= 1.00D-01 BMatC= 7.33D-10 BMatP= 3.18D-09
 IDIUse=1 WtCom= 1.00D+00 WtEn= 0.00D+00
 Coeff-Com: -0.963D-04 0.312D-01-0.958D-01-0.973D-01-0.455D-01 0.398D+00
 Coeff-Com:  0.809D+00
 Coeff:     -0.963D-04 0.312D-01-0.958D-01-0.973D-01-0.455D-01 0.398D+00
 Coeff:      0.809D+00
 Gap=     0.212 Goal=   None    Shift=    0.000
 Gap=     0.217 Goal=   None    Shift=    0.000
 RMSDP=4.51D-07 MaxDP=2.04D-05 DE=-4.10D-09 OVMax= 3.87D-05

 Cycle   8  Pass 1  IDiag  1:
 RMSU=  2.11D-07    CP:  1.00D+00  1.15D+00  1.36D+00  8.87D-01  7.52D-01
                    CP:  1.67D+00  1.08D+00
 E= -10526.5717309671     Delta-E=       -0.000000000704 Rises=F Damp=F
 DIIS: error= 3.20D-07 at cycle   8 NSaved=   8.
 NSaved= 8 IEnMin= 8 EnMin= -10526.5717309671     IErMin= 8 ErrMin= 3.20D-07
 ErrMax= 3.20D-07  0.00D+00 EMaxC= 1.00D-01 BMatC= 1.41D-10 BMatP= 7.33D-10
 IDIUse=1 WtCom= 1.00D+00 WtEn= 0.00D+00
 Coeff-Com: -0.435D-04 0.940D-02-0.209D-01-0.273D-01-0.569D-01 0.179D-01
 Coeff-Com:  0.337D+00 0.741D+00
 Coeff:     -0.435D-04 0.940D-02-0.209D-01-0.273D-01-0.569D-01 0.179D-01
 Coeff:      0.337D+00 0.741D+00
 Gap=     0.212 Goal=   None    Shift=    0.000
 Gap=     0.217 Goal=   None    Shift=    0.000
 RMSDP=1.47D-07 MaxDP=5.57D-06 DE=-7.04D-10 OVMax= 1.11D-05

 Cycle   9  Pass 1  IDiag  1:
 RMSU=  5.94D-08    CP:  1.00D+00  1.15D+00  1.36D+00  8.95D-01  7.72D-01
                    CP:  1.69D+00  1.24D+00  1.24D+00
 E= -10526.5717309673     Delta-E=       -0.000000000109 Rises=F Damp=F
 DIIS: error= 1.46D-07 at cycle   9 NSaved=   9.
 NSaved= 9 IEnMin= 9 EnMin= -10526.5717309673     IErMin= 9 ErrMin= 1.46D-07
 ErrMax= 1.46D-07  0.00D+00 EMaxC= 1.00D-01 BMatC= 2.02D-11 BMatP= 1.41D-10
 IDIUse=1 WtCom= 1.00D+00 WtEn= 0.00D+00
 Coeff-Com:  0.772D-05-0.405D-02 0.149D-01 0.129D-01-0.992D-02-0.812D-01
 Coeff-Com: -0.713D-01 0.227D+00 0.912D+00
 Coeff:      0.772D-05-0.405D-02 0.149D-01 0.129D-01-0.992D-02-0.812D-01
 Coeff:     -0.713D-01 0.227D+00 0.912D+00
 Gap=     0.212 Goal=   None    Shift=    0.000
 Gap=     0.217 Goal=   None    Shift=    0.000
 RMSDP=7.00D-08 MaxDP=3.28D-06 DE=-1.09D-10 OVMax= 4.23D-06

 Cycle  10  Pass 1  IDiag  1:
 RMSU=  2.83D-08    CP:  1.00D+00  1.15D+00  1.36D+00  8.91D-01  7.69D-01
                    CP:  1.70D+00  1.28D+00  1.45D+00  1.28D+00
 E= -10526.5717309673     Delta-E=       -0.000000000040 Rises=F Damp=F
 DIIS: error= 7.98D-08 at cycle  10 NSaved=  10.
 NSaved=10 IEnMin=10 EnMin= -10526.5717309673     IErMin=10 ErrMin= 7.98D-08
 ErrMax= 7.98D-08  0.00D+00 EMaxC= 1.00D-01 BMatC= 5.94D-12 BMatP= 2.02D-11
 IDIUse=1 WtCom= 1.00D+00 WtEn= 0.00D+00
 Coeff-Com:  0.802D-05-0.288D-02 0.918D-02 0.913D-02 0.624D-03-0.398D-01
 Coeff-Com: -0.667D-01 0.312D-01 0.437D+00 0.622D+00
 Coeff:      0.802D-05-0.288D-02 0.918D-02 0.913D-02 0.624D-03-0.398D-01
 Coeff:     -0.667D-01 0.312D-01 0.437D+00 0.622D+00
 Gap=     0.212 Goal=   None    Shift=    0.000
 Gap=     0.217 Goal=   None    Shift=    0.000
 RMSDP=2.15D-08 MaxDP=9.01D-07 DE=-4.00D-11 OVMax= 8.45D-07

 Cycle  11  Pass 1  IDiag  1:
 RMSU=  1.55D-08    CP:  1.00D+00  1.15D+00  1.36D+00  8.91D-01  7.69D-01
                    CP:  1.70D+00  1.29D+00  1.48D+00  1.40D+00  9.81D-01
 E= -10526.5717309672     Delta-E=        0.000000000044 Rises=F Damp=F
 DIIS: error= 5.51D-08 at cycle  11 NSaved=  11.
 NSaved=11 IEnMin=10 EnMin= -10526.5717309673     IErMin=11 ErrMin= 5.51D-08
 ErrMax= 5.51D-08  0.00D+00 EMaxC= 1.00D-01 BMatC= 1.58D-12 BMatP= 5.94D-12
 IDIUse=1 WtCom= 1.00D+00 WtEn= 0.00D+00
 Coeff-Com: -0.480D-06 0.692D-03-0.310D-02-0.201D-02 0.461D-02 0.199D-01
 Coeff-Com:  0.478D-02-0.808D-01-0.224D+00 0.197D+00 0.108D+01
 Coeff:     -0.480D-06 0.692D-03-0.310D-02-0.201D-02 0.461D-02 0.199D-01
 Coeff:      0.478D-02-0.808D-01-0.224D+00 0.197D+00 0.108D+01
 Gap=     0.212 Goal=   None    Shift=    0.000
 Gap=     0.217 Goal=   None    Shift=    0.000
 RMSDP=2.26D-08 MaxDP=8.47D-07 DE= 4.37D-11 OVMax= 1.04D-06

 Cycle  12  Pass 1  IDiag  1:
 RMSU=  8.90D-09    CP:  1.00D+00  1.15D+00  1.36D+00  8.92D-01  7.71D-01
                    CP:  1.69D+00  1.29D+00  1.50D+00  1.51D+00  1.32D+00
                    CP:  1.25D+00
 E= -10526.5717309673     Delta-E=       -0.000000000015 Rises=F Damp=F
 DIIS: error= 2.69D-08 at cycle  12 NSaved=  12.
 NSaved=12 IEnMin=10 EnMin= -10526.5717309673     IErMin=12 ErrMin= 2.69D-08
 ErrMax= 2.69D-08  0.00D+00 EMaxC= 1.00D-01 BMatC= 4.96D-13 BMatP= 1.58D-12
 IDIUse=1 WtCom= 1.00D+00 WtEn= 0.00D+00
 Coeff-Com: -0.317D-05 0.134D-02-0.460D-02-0.422D-02 0.145D-02 0.227D-01
 Coeff-Com:  0.255D-01-0.415D-01-0.250D+00-0.153D+00 0.437D+00 0.966D+00
 Coeff:     -0.317D-05 0.134D-02-0.460D-02-0.422D-02 0.145D-02 0.227D-01
 Coeff:      0.255D-01-0.415D-01-0.250D+00-0.153D+00 0.437D+00 0.966D+00
 Gap=     0.212 Goal=   None    Shift=    0.000
 Gap=     0.217 Goal=   None    Shift=    0.000
 RMSDP=1.16D-08 MaxDP=4.64D-07 DE=-1.46D-11 OVMax= 6.94D-07

 Cycle  13  Pass 1  IDiag  1:
 RMSU=  5.68D-09    CP:  1.00D+00  1.15D+00  1.36D+00  8.92D-01  7.71D-01
                    CP:  1.69D+00  1.28D+00  1.51D+00  1.57D+00  1.42D+00
                    CP:  1.58D+00  1.22D+00
 E= -10526.5717309673     Delta-E=       -0.000000000025 Rises=F Damp=F
 DIIS: error= 1.08D-08 at cycle  13 NSaved=  13.
 NSaved=13 IEnMin=10 EnMin= -10526.5717309673     IErMin=13 ErrMin= 1.08D-08
 ErrMax= 1.08D-08  0.00D+00 EMaxC= 1.00D-01 BMatC= 8.89D-14 BMatP= 4.96D-13
 IDIUse=1 WtCom= 1.00D+00 WtEn= 0.00D+00
 Coeff-Com: -0.726D-06 0.186D-03-0.445D-03-0.617D-03-0.107D-02 0.112D-02
 Coeff-Com:  0.575D-02 0.103D-01-0.110D-01-0.962D-01-0.153D+00 0.282D+00
 Coeff-Com:  0.963D+00
 Coeff:     -0.726D-06 0.186D-03-0.445D-03-0.617D-03-0.107D-02 0.112D-02
 Coeff:      0.575D-02 0.103D-01-0.110D-01-0.962D-01-0.153D+00 0.282D+00
 Coeff:      0.963D+00
 Gap=     0.212 Goal=   None    Shift=    0.000
 Gap=     0.217 Goal=   None    Shift=    0.000
 RMSDP=6.54D-09 MaxDP=2.62D-07 DE=-2.55D-11 OVMax= 2.96D-07

 Error on total polarization charges =  0.00777
 SCF Done:  E(UM062X) =  -10526.5717310     A.U. after   13 cycles
            NFock= 13  Conv=0.65D-08     -V/T= 2.0012
 <Sx>= 0.0000 <Sy>= 0.0000 <Sz>= 0.5000 <S**2>= 0.7582 S= 0.5041
 <L.S>=  0.00000000000    
 KE= 1.051344176109D+04 PE=-2.892038204196D+04 EE= 6.007486371813D+03
 SMD-CDS (non-electrostatic) energy       (kcal/mol) =       0.19
 (included in total energy above)
 Annihilation of the first spin contaminant:
 S**2 before annihilation     0.7582,   after     0.7500
 Leave Link  502 at Mon Sep 28 09:10:07 2026, MaxMem=  1610612736 cpu:            1035.5 elap:             129.7
 (Enter /share/software/user/restricted/gaussian/g16.B01/l701.exe)
 ... and contract with generalized density number  0.
 Compute integral first derivatives.
 D1PCM: PCM CHGder 1st derivatives, ID1Alg=3 FixD1E=F DoIter=F DoCFld=F I1PDM=0.
 GePol: Maximum number of non-zero 1st derivatives   =     471
 Leave Link  701 at Mon Sep 28 09:10:09 2026, MaxMem=  1610612736 cpu:              13.6 elap:               1.7
 (Enter /share/software/user/restricted/gaussian/g16.B01/l702.exe)
 L702 exits ... SP integral derivatives will be done elsewhere.
 Leave Link  702 at Mon Sep 28 09:10:09 2026, MaxMem=  1610612736 cpu:               0.2 elap:               0.0
 (Enter /share/software/user/restricted/gaussian/g16.B01/l703.exe)
 Integral derivatives from FoFJK, PRISM(SPDF).
 Compute integral first derivatives, UseDBF=F ICtDFT=           0.
 Calling FoFJK, ICntrl=      2127 FMM=F ISym2X=0 I1Cent= 0 IOpClX= 1 NMat=1 NMatS=1 NMatT=0.
 FoFJK:  IHMeth= 1 ICntrl=    2127 DoSepK=F KAlg= 0 I1Cent=           0 FoldK=F
 IRaf=         0 NMat=       1 IRICut=       1 DoRegI=T DoRafI=F ISym2E= 0 IDoP0=0 IntGTp=1.
 FoFCou: FMM=F IPFlag=           0 FMFlag=      100000 FMFlg1=         800
         NFxFlg=           0 DoJE=F BraDBF=F KetDBF=F FulRan=T
         wScrn=  0.000000 ICntrl=      2127 IOpCl=  1 I1Cent=           0 NGrid=           0
         NMat0=    1 NMatS0=      1 NMatT0=    0 NMatD0=    1 NMtDS0=    0 NMtDT0=    0
 Symmetry not used in FoFCou.
 Leave Link  703 at Mon Sep 28 09:10:26 2026, MaxMem=  1610612736 cpu:             130.2 elap:              16.3
 (Enter /share/software/user/restricted/gaussian/g16.B01/l716.exe)
 Dipole        =-2.52420998D+00 2.92483514D+00-1.41165698D-01
 ***** Axes restored to original set *****
 -------------------------------------------------------------------
 Center     Atomic                   Forces (Hartrees/Bohr)
 Number     Number              X              Y              Z
 -------------------------------------------------------------------
      1        6           0.000002195    0.000089176   -0.000034100
      2        6           0.000020879    0.000051288    0.000043575
      3        6           0.000009630   -0.000096489    0.000036164
      4        6          -0.000005930   -0.000020027    0.000007293
      5        6          -0.000001934   -0.000005263   -0.000037066
      6        6          -0.000025930    0.000019089    0.000011228
      7       35          -0.000022414   -0.000033352    0.000029849
      8       35           0.000016827   -0.000020874   -0.000028012
      9       35           0.000019850   -0.000009681   -0.000013609
     10       35           0.000011299   -0.000000838   -0.000016947
     11        1          -0.000005075    0.000013776   -0.000002693
     12        1          -0.000019398    0.000013196    0.000004319
 -------------------------------------------------------------------
 Cartesian Forces:  Max     0.000096489 RMS     0.000030615
 Leave Link  716 at Mon Sep 28 09:10:26 2026, MaxMem=  1610612736 cpu:               0.3 elap:               0.0
 (Enter /share/software/user/restricted/gaussian/g16.B01/l103.exe)

 GradGradGradGradGradGradGradGradGradGradGradGradGradGradGradGradGradGrad
 Berny optimization.
 Using GEDIIS/GDIIS optimizer.
 FormGI is forming the generalized inverse of G from B-inverse, IUseBI=4.
 Internal  Forces:  Max     0.000087124 RMS     0.000019987
 Search for a local minimum.
 Step number  10 out of a maximum of   64
 All quantities printed in internal units (Hartrees-Bohrs-Radians)
 RMS Force = .19987D-04 SwitMx=.10000D-02 MixMth= 2
 Mixed Optimization -- En-DIIS/RFO-DIIS
 Swapping is turned off.
 Update second derivatives using D2CorX and points    3    2    4    5    6
                                                      7    8    9   10
 DE= -1.41D-06 DEPred=-2.17D-07 R= 6.51D+00
 TightC=F SS=  1.41D+00  RLast= 1.32D-02 DXNew= 8.4853D-01 3.9580D-02
 Trust test= 6.51D+00 RLast= 1.32D-02 DXMaxT set to 5.05D-01
 ITU=  1  1  1  0  1  1  1  0  1  0
     Eigenvalues ---    0.00070   0.00999   0.01783   0.02066   0.02279
     Eigenvalues ---    0.02380   0.02618   0.02712   0.02963   0.03296
     Eigenvalues ---    0.10782   0.11269   0.11899   0.12518   0.13166
     Eigenvalues ---    0.15678   0.16944   0.20012   0.21733   0.23491
     Eigenvalues ---    0.25542   0.27154   0.35994   0.36519   0.37444
     Eigenvalues ---    0.44368   0.45720   0.49885   0.53163   0.53608
 En-DIIS/RFO-DIIS/Sim-DIIS IScMMF=       -3 using points:    10    9    8    7    6    5    4
 RFO step:  Lambda=-2.39086231D-07.
 NNeg= 0 NGDIIS= 7 SimSw=  2.50D-01 Rises=F DC= -1.41D-06 SmlDif=  1.00D-05
 NRisDI= 0 DoIntr=F SqrtH=F CThrHd= 10.0 CDAdj=  3.0
 RMS Error=  0.1843018258D-02 NUsed= 7 OKEnD=F EnDIS=F
 InvSVX:  RCond= 1.04D-09 Info=           0 Equed=N FErr=  1.01D-09 BErr=  5.24D-17
 DIIS inversion failure, remove point   7.
 InvSVX:  RCond= 1.86D-09 Info=           0 Equed=N FErr=  6.28D-10 BErr=  8.56D-17
 DIIS inversion failure, remove point   6.
 InvSVX:  RCond= 2.26D-09 Info=           0 Equed=N FErr=  5.26D-10 BErr=  6.18D-17
 DIIS inversion failure, remove point   5.
 InvSVX:  RCond= 1.38D-08 Info=           0 Equed=N FErr=  5.32D-11 BErr=  9.81D-17
 DIIS inversion failure, remove point   4.
 InvSVX:  RCond= 9.22D-07 Info=           0 Equed=N FErr=  1.72D-13 BErr=  0.00D+00
 RFO-DIIS uses    3 points instead of    7
 DidBck=F Rises=F RFO-DIIS coefs:    1.29279    0.12655   -0.41934    0.00000    0.00000
                  RFO-DIIS coefs:    0.00000    0.00000
 Iteration  1 RMS(Cart)=  0.00280167 RMS(Int)=  0.00000783
 Iteration  2 RMS(Cart)=  0.00000547 RMS(Int)=  0.00000533
 Iteration  3 RMS(Cart)=  0.00000000 RMS(Int)=  0.00000533
 ITry= 1 IFail=0 DXMaxC= 1.40D-02 DCOld= 1.00D+10 DXMaxT= 5.05D-01 DXLimC= 3.00D+00 Rises=F
 Variable       Old X    -DE/DX   Delta X   Delta X   Delta X     New X
                                 (Linear)    (Quad)   (Total)
    R1        2.59442   0.00003   0.00010   0.00006   0.00016   2.59459
    R2        2.63218   0.00000  -0.00001  -0.00000  -0.00002   2.63217
    R3        3.63942  -0.00004   0.00006  -0.00024  -0.00018   3.63923
    R4        2.60126   0.00009   0.00016   0.00005   0.00022   2.60148
    R5        4.80087  -0.00004  -0.00204  -0.00038  -0.00241   4.79845
    R6        2.64151   0.00002  -0.00003   0.00001  -0.00001   2.64149
    R7        3.62705  -0.00001  -0.00010  -0.00002  -0.00012   3.62693
    R8        2.63123   0.00004   0.00001   0.00006   0.00007   2.63129
    R9        3.60195   0.00000   0.00011  -0.00006   0.00005   3.60199
   R10        2.62439   0.00003   0.00004   0.00002   0.00006   2.62444
   R11        2.04600  -0.00000   0.00001  -0.00001  -0.00001   2.04599
   R12        2.04843   0.00000  -0.00001   0.00002   0.00000   2.04844
    A1        2.12680  -0.00001   0.00008  -0.00010  -0.00001   2.12679
    A2        2.11575  -0.00002  -0.00017   0.00002  -0.00015   2.11560
    A3        2.04048   0.00003   0.00008   0.00008   0.00016   2.04063
    A4        2.08444   0.00002  -0.00019   0.00013  -0.00007   2.08436
    A5        2.07099  -0.00005  -0.00042  -0.00033  -0.00078   2.07022
    A6        2.08452   0.00003  -0.00097   0.00014  -0.00085   2.08366
    A7        2.09588  -0.00003   0.00010  -0.00009   0.00002   2.09589
    A8        2.09058   0.00001  -0.00018   0.00005  -0.00014   2.09044
    A9        2.09652   0.00001   0.00008   0.00004   0.00011   2.09664
   A10        2.09474  -0.00000   0.00003   0.00000   0.00003   2.09477
   A11        2.14412   0.00000  -0.00006   0.00002  -0.00004   2.14407
   A12        2.04433  -0.00000   0.00003  -0.00002   0.00001   2.04434
   A13        2.09303   0.00001  -0.00007   0.00004  -0.00004   2.09299
   A14        2.09674  -0.00000   0.00005  -0.00002   0.00003   2.09677
   A15        2.09341  -0.00001   0.00002  -0.00001   0.00001   2.09342
   A16        2.07136   0.00001   0.00005   0.00002   0.00008   2.07143
   A17        2.12001  -0.00000  -0.00005  -0.00001  -0.00006   2.11995
   A18        2.09182  -0.00000  -0.00000  -0.00002  -0.00002   2.09180
    D1        0.00798  -0.00000   0.00051  -0.00021   0.00030   0.00828
    D2       -2.82038   0.00000   0.00638   0.00000   0.00638  -2.81400
    D3       -3.11367  -0.00001   0.00102  -0.00048   0.00054  -3.11312
    D4        0.34115  -0.00001   0.00689  -0.00026   0.00663   0.34778
    D5        0.00588  -0.00000  -0.00032   0.00009  -0.00023   0.00565
    D6       -3.13612  -0.00000  -0.00024   0.00012  -0.00012  -3.13624
    D7        3.12834   0.00000  -0.00082   0.00035  -0.00047   3.12787
    D8       -0.01365   0.00001  -0.00073   0.00038  -0.00036  -0.01401
    D9       -0.01224   0.00001  -0.00022   0.00011  -0.00011  -0.01235
   D10        3.10739   0.00001  -0.00045   0.00011  -0.00034   3.10705
   D11        2.81368  -0.00001  -0.00604  -0.00019  -0.00622   2.80746
   D12       -0.34987  -0.00001  -0.00626  -0.00020  -0.00646  -0.35632
   D13        0.00276  -0.00000  -0.00024   0.00010  -0.00014   0.00261
   D14       -3.13937  -0.00000  -0.00032   0.00009  -0.00023  -3.13960
   D15       -3.11680  -0.00001  -0.00001   0.00011   0.00010  -3.11671
   D16        0.02426  -0.00001  -0.00009   0.00009   0.00000   0.02427
   D17        0.01122  -0.00000   0.00043  -0.00022   0.00021   0.01143
   D18       -3.13518  -0.00000   0.00036  -0.00018   0.00018  -3.13500
   D19       -3.12987  -0.00000   0.00050  -0.00021   0.00030  -3.12958
   D20        0.00691  -0.00000   0.00043  -0.00016   0.00027   0.00718
   D21       -0.01535   0.00001  -0.00015   0.00012  -0.00003  -0.01538
   D22        3.12664   0.00000  -0.00023   0.00009  -0.00014   3.12650
   D23        3.13104   0.00000  -0.00008   0.00008  -0.00000   3.13104
   D24       -0.01016   0.00000  -0.00016   0.00005  -0.00011  -0.01027
         Item               Value     Threshold  Converged?
 Maximum Force            0.000087     0.000015     NO 
 RMS     Force            0.000020     0.000010     NO 
 Maximum Displacement     0.013956     0.000060     NO 
 RMS     Displacement     0.002802     0.000040     NO 
 Predicted change in Energy=-1.163902D-07
 Lowest energy point so far.  Saving SCF results.
 GradGradGradGradGradGradGradGradGradGradGradGradGradGradGradGradGradGrad

 Leave Link  103 at Mon Sep 28 09:10:26 2026, MaxMem=  1610612736 cpu:               0.3 elap:               0.0
 (Enter /share/software/user/restricted/gaussian/g16.B01/l202.exe)
                          Input orientation:                          
 ---------------------------------------------------------------------
 Center     Atomic      Atomic             Coordinates (Angstroms)
 Number     Number       Type             X           Y           Z
 ---------------------------------------------------------------------
      1          6           0        0.089810    1.289368   -1.157689
      2          6           0        0.134453    0.625281    0.043191
      3          6           0        0.096059   -0.750759    0.056932
      4          6           0       -0.002566   -1.461017   -1.142943
      5          6           0       -0.058998   -0.777289   -2.354622
      6          6           0       -0.003452    0.610308   -2.370249
      7         35           0        0.187071    3.210958   -1.239756
      8         35           0       -0.417895    1.908361    2.163644
      9         35           0        0.215254   -1.690902    1.725941
     10         35           0       -0.064854   -3.364716   -1.215337
     11          1           0       -0.141560   -1.325355   -3.284690
     12          1           0       -0.033321    1.140887   -3.315033
 ---------------------------------------------------------------------
                    Distance matrix (angstroms):
                    1          2          3          4          5
     1  C    0.000000
     2  C    1.372995   0.000000
     3  C    2.374333   1.376644   0.000000
     4  C    2.751975   2.403815   1.397818   0.000000
     5  C    2.392877   2.784624   2.416680   1.392421   0.000000
     6  C    1.392882   2.417423   2.784531   2.407627   1.388796
     7  Br   1.925800   2.886944   4.169518   4.676824   4.148444
     8  Br   3.416456   2.539233   3.431224   4.739063   5.268420
     9  Br   4.148863   2.864067   1.919288   2.886310   4.190572
    10  Br   4.657009   4.188519   2.911586   1.906093   2.827151
    11  H    3.378526   3.867293   3.398979   2.150536   1.082691
    12  H    2.165950   3.401715   3.868490   3.389518   2.145332
                    6          7          8          9         10
     6  C    0.000000
     7  Br   2.842129   0.000000
     8  Br   4.734225   3.694031   0.000000
     9  Br   4.703421   5.729257   3.680647   0.000000
    10  Br   4.139856   6.580543   6.272758   3.395766   0.000000
    11  H    2.145243   4.986772   6.341736   5.036602   2.906389
    12  H    1.083985   2.939480   5.545522   5.787248   4.970933
                   11         12
    11  H    0.000000
    12  H    2.468803   0.000000
 Stoichiometry    C6H2Br4(1-,2)
 Framework group  C1[X(C6H2Br4)]
 Deg. of freedom    30
 Full point group                 C1      NOp   1
 RotChk:  IX=1 Diff= 1.60D-03
 Largest Abelian subgroup         C1      NOp   1
 Largest concise Abelian subgroup C1      NOp   1
                         Standard orientation:                         
 ---------------------------------------------------------------------
 Center     Atomic      Atomic             Coordinates (Angstroms)
 Number     Number       Type             X           Y           Z
 ---------------------------------------------------------------------
      1          6           0        1.179995    1.286388   -0.052294
      2          6           0        0.627843    0.033050   -0.149196
      3          6           0       -0.740596   -0.108783   -0.100142
      4          6           0       -1.556162    1.014811    0.061980
      5          6           0       -0.985290    2.280138    0.171013
      6          6           0        0.394268    2.425716    0.104824
      7         35           0        3.084677    1.549052   -0.161362
      8         35           0        2.106088   -1.984310    0.289841
      9         35           0       -1.525820   -1.849580   -0.291756
     10         35           0       -3.457577    0.909075    0.143402
     11          1           0       -1.614917    3.151016    0.302767
     12          1           0        0.836683    3.412764    0.175746
 ---------------------------------------------------------------------
 Rotational constants (GHZ):           0.4861330           0.2178186           0.1520578
 Leave Link  202 at Mon Sep 28 09:10:26 2026, MaxMem=  1610612736 cpu:               0.0 elap:               0.0
 (Enter /share/software/user/restricted/gaussian/g16.B01/l301.exe)
 Standard basis: 6-311++G(d) (5D, 7F)
 Ernie: Thresh=  0.10000D-02 Tol=  0.10000D-05 Strict=F.
 There are   350 symmetry adapted cartesian basis functions of A   symmetry.
 There are   332 symmetry adapted basis functions of A   symmetry.
   332 basis functions,   604 primitive gaussians,   350 cartesian basis functions
    90 alpha electrons       89 beta electrons
       nuclear repulsion energy      1873.0610373074 Hartrees.
 IExCor= 4336 DFT=T Ex+Corr=M062X ExCW=0 ScaHFX=  0.540000
 ScaDFX=  1.000000  1.000000  1.000000  1.000000 ScalE2=  1.000000  1.000000
 IRadAn=      5 IRanWt=     -1 IRanGd=            0 ICorTp=0 IEmpDi=  4
 NAtoms=   12 NActive=   12 NUniq=   12 SFac= 1.00D+00 NAtFMM=   60 NAOKFM=F Big=F
 Integral buffers will be    131072 words long.
 Raffenetti 2 integral format.
 Two-electron integral symmetry is turned on.
 ------------------------------------------------------------------------------
 Polarizable Continuum Model (PCM)
 =================================
 Model                : PCM.
 Atomic radii         : SMD-Coulomb.
 Polarization charges : Total charges.
 Charge compensation  : None.
 Solution method      : Matrix inversion.
 Cavity type          : VdW (van der Waals Surface) (Alpha=1.000).
 Cavity algorithm     : GePol (No added spheres)
                        Default sphere list used, NSphG=   12.
                        Lebedev-Laikov grids with approx.  5.0 points / Ang**2.
                        Smoothing algorithm: York/Karplus (Gamma=1.0000).
                        Polarization charges: spherical gaussians, with
                                              point-specific exponents (IZeta= 3).
                        Self-potential: point-specific (ISelfS= 7).
                        Self-field    : sphere-specific E.n sum rule (ISelfD= 2).
 1st derivatives      : Analytical E(r).r(x)/FMM algorithm (CHGder, D1EAlg=3).
                        Cavity 1st derivative terms included.
 Solvent              : Water, Eps=  78.355300 Eps(inf)=   1.777849
 ------------------------------------------------------------------------------
 Spheres list:
 ISph  on   Nord     Re0    Alpha      Xe            Ye            Ze
    1   C      1    1.8500  1.000      1.179995      1.286388     -0.052294
    2   C      2    1.8500  1.000      0.627843      0.033050     -0.149196
    3   C      3    1.8500  1.000     -0.740596     -0.108783     -0.100142
    4   C      4    1.8500  1.000     -1.556162      1.014811      0.061980
    5   C      5    1.8500  1.000     -0.985290      2.280138      0.171013
    6   C      6    1.8500  1.000      0.394268      2.425716      0.104824
    7  Br      7    3.0600  1.000      3.084677      1.549052     -0.161362
    8  Br      8    3.0600  1.000      2.106088     -1.984310      0.289841
    9  Br      9    3.0600  1.000     -1.525820     -1.849580     -0.291756
   10  Br     10    3.0600  1.000     -3.457577      0.909075      0.143402
   11   H     11    1.2000  1.000     -1.614917      3.151016      0.302767
   12   H     12    1.2000  1.000      0.836683      3.412764      0.175746
 ------------------------------------------------------------------------------
 GePol: Number of generator spheres                  =      12
 GePol: Total number of spheres                      =      12
 GePol: Number of exposed spheres                    =      12 (100.00%)
 GePol: Number of points                             =    1876
 GePol: Average weight of points                     =       0.17
 GePol: Minimum weight of points                     =   0.83D-11
 GePol: Maximum weight of points                     =    0.22025
 GePol: Number of points with low weight             =      64
 GePol: Fraction of low-weight points (<1% of avg)   =       3.41%
 GePol: Cavity surface area                          =    321.466 Ang**2
 GePol: Cavity volume                                =    418.227 Ang**3
 ------------------------------------------------------------------------------
 Atomic radii for non-electrostatic terms: SMD-CDS.
 ------------------------------------------------------------------------------
 PCM non-electrostatic energy =         0.0002975534 Hartrees.
 Nuclear repulsion after PCM non-electrostatic terms =     1873.0613348608 Hartrees.
 Leave Link  301 at Mon Sep 28 09:10:26 2026, MaxMem=  1610612736 cpu:               0.9 elap:               0.1
 (Enter /share/software/user/restricted/gaussian/g16.B01/l302.exe)
 NPDir=0 NMtPBC=     1 NCelOv=     1 NCel=       1 NClECP=     1 NCelD=      1
         NCelK=      1 NCelE2=     1 NClLst=     1 CellRange=     0.0.
 One-electron integrals computed using PRISM.
 One-electron integral symmetry used in STVInt
 NBasis=   332 RedAO= T EigKep=  2.53D-06  NBF=   332
 NBsUse=   331 1.00D-06 EigRej=  4.89D-07 NBFU=   331
 Precomputing XC quadrature grid using
 IXCGrd= 4 IRadAn=           5 IRanWt=          -1 IRanGd=           0 AccXCQ= 0.00D+00.
 Generated NRdTot=       0 NPtTot=           0 NUsed=           0 NTot=          32
 NSgBfM=   337   337   337   337   337 MxSgAt=    12 MxSgA2=    12.
 Leave Link  302 at Mon Sep 28 09:10:26 2026, MaxMem=  1610612736 cpu:               2.2 elap:               0.3
 (Enter /share/software/user/restricted/gaussian/g16.B01/l303.exe)
 DipDrv:  MaxL=1.
 Leave Link  303 at Mon Sep 28 09:10:27 2026, MaxMem=  1610612736 cpu:               0.4 elap:               0.1
 (Enter /share/software/user/restricted/gaussian/g16.B01/l401.exe)
 Initial guess from the checkpoint file:  "calcs/m062x_smd/chks/BrBz_1234_RA.chk"
 B after Tr=    -0.000000   -0.000000    0.000000
         Rot=    1.000000    0.000023    0.000017    0.000293 Ang=   0.03 deg.
 Guess basis will be translated and rotated to current coordinates.
 JPrj=2 DoOrth=T DoCkMO=T.
 Initial guess <Sx>= 0.0000 <Sy>= 0.0000 <Sz>= 0.5000 <S**2>= 0.7582 S= 0.5041
 Leave Link  401 at Mon Sep 28 09:10:27 2026, MaxMem=  1610612736 cpu:               2.8 elap:               0.4
 (Enter /share/software/user/restricted/gaussian/g16.B01/l502.exe)
 Integral symmetry usage will be decided dynamically.
 UHF open shell SCF:
 Using DIIS extrapolation, IDIIS=  1040.
 NGot=  1610612736 LenX=  1610361870 LenY=  1610238929
 Requested convergence on RMS density matrix=1.00D-08 within 128 cycles.
 Requested convergence on MAX density matrix=1.00D-06.
 Requested convergence on             energy=1.00D-06.
 No special actions if energy rises.
 Fock matrices will be formed incrementally for  20 cycles.

 Cycle   1  Pass 1  IDiag  1:
 FoFJK:  IHMeth= 1 ICntrl=       0 DoSepK=F KAlg= 0 I1Cent=           0 FoldK=F
 IRaf= 790000000 NMat=       1 IRICut=       1 DoRegI=T DoRafI=F ISym2E= 0 IDoP0=0 IntGTp=1.
 FoFCou: FMM=F IPFlag=           0 FMFlag=      100000 FMFlg1=           0
         NFxFlg=           0 DoJE=F BraDBF=F KetDBF=F FulRan=T
         wScrn=  0.000000 ICntrl=         0 IOpCl=  1 I1Cent=           0 NGrid=           0
         NMat0=    1 NMatS0=      1 NMatT0=    0 NMatD0=    1 NMtDS0=    0 NMtDT0=    0
 Symmetry not used in FoFCou.
 Inv3:  Mode=1 IEnd=    10558128.
 Iteration    1 A*A^-1 deviation from unit magnitude is 4.22D-15 for   1861.
 Iteration    1 A*A^-1 deviation from orthogonality  is 2.36D-15 for   1872   1174.
 Iteration    1 A^-1*A deviation from unit magnitude is 4.22D-15 for   1861.
 Iteration    1 A^-1*A deviation from orthogonality  is 1.60D-15 for   1864   1668.
 E= -10526.5717099669    
 DIIS: error= 8.87D-04 at cycle   1 NSaved=   1.
 NSaved= 1 IEnMin= 1 EnMin= -10526.5717099669     IErMin= 1 ErrMin= 8.87D-04
 ErrMax= 8.87D-04  0.00D+00 EMaxC= 1.00D-01 BMatC= 4.19D-04 BMatP= 4.19D-04
 IDIUse=3 WtCom= 9.91D-01 WtEn= 8.87D-03
 Coeff-Com:  0.100D+01
 Coeff-En:   0.100D+01
 Coeff:      0.100D+01
 Gap=     0.370 Goal=   None    Shift=    0.000
 Gap=     0.427 Goal=   None    Shift=    0.000
 RMSDP=8.91D-05 MaxDP=5.85D-03              OVMax= 1.27D-03

 Cycle   2  Pass 1  IDiag  1:
 RMSU=  8.91D-05    CP:  1.00D+00
 E= -10526.5717307191     Delta-E=       -0.000020752243 Rises=F Damp=F
 DIIS: error= 5.18D-05 at cycle   2 NSaved=   2.
 NSaved= 2 IEnMin= 2 EnMin= -10526.5717307191     IErMin= 2 ErrMin= 5.18D-05
 ErrMax= 5.18D-05  0.00D+00 EMaxC= 1.00D-01 BMatC= 1.02D-06 BMatP= 4.19D-04
 IDIUse=1 WtCom= 1.00D+00 WtEn= 0.00D+00
 Coeff-Com: -0.903D-02 0.101D+01
 Coeff:     -0.903D-02 0.101D+01
 Gap=     0.212 Goal=   None    Shift=    0.000
 Gap=     0.217 Goal=   None    Shift=    0.000
 RMSDP=1.59D-05 MaxDP=7.88D-04 DE=-2.08D-05 OVMax= 5.68D-04

 Cycle   3  Pass 1  IDiag  1:
 RMSU=  1.38D-05    CP:  1.00D+00  1.09D+00
 E= -10526.5717316750     Delta-E=       -0.000000955821 Rises=F Damp=F
 DIIS: error= 1.54D-05 at cycle   3 NSaved=   3.
 NSaved= 3 IEnMin= 3 EnMin= -10526.5717316750     IErMin= 3 ErrMin= 1.54D-05
 ErrMax= 1.54D-05  0.00D+00 EMaxC= 1.00D-01 BMatC= 1.43D-07 BMatP= 1.02D-06
 IDIUse=1 WtCom= 1.00D+00 WtEn= 0.00D+00
 Coeff-Com: -0.141D-02-0.513D-01 0.105D+01
 Coeff:     -0.141D-02-0.513D-01 0.105D+01
 Gap=     0.212 Goal=   None    Shift=    0.000
 Gap=     0.217 Goal=   None    Shift=    0.000
 RMSDP=8.04D-06 MaxDP=3.11D-04 DE=-9.56D-07 OVMax= 3.06D-04

 Cycle   4  Pass 1  IDiag  1:
 RMSU=  6.42D-06    CP:  1.00D+00  1.13D+00  1.12D+00
 E= -10526.5717317810     Delta-E=       -0.000000106051 Rises=F Damp=F
 DIIS: error= 6.43D-06 at cycle   4 NSaved=   4.
 NSaved= 4 IEnMin= 4 EnMin= -10526.5717317810     IErMin= 4 ErrMin= 6.43D-06
 ErrMax= 6.43D-06  0.00D+00 EMaxC= 1.00D-01 BMatC= 1.35D-07 BMatP= 1.43D-07
 IDIUse=1 WtCom= 1.00D+00 WtEn= 0.00D+00
 Coeff-Com:  0.496D-03-0.175D+00 0.594D+00 0.581D+00
 Coeff:      0.496D-03-0.175D+00 0.594D+00 0.581D+00
 Gap=     0.212 Goal=   None    Shift=    0.000
 Gap=     0.217 Goal=   None    Shift=    0.000
 RMSDP=3.09D-06 MaxDP=1.52D-04 DE=-1.06D-07 OVMax= 1.34D-04

 Cycle   5  Pass 1  IDiag  1:
 RMSU=  2.36D-06    CP:  1.00D+00  1.14D+00  1.26D+00  1.01D+00
 E= -10526.5717318273     Delta-E=       -0.000000046306 Rises=F Damp=F
 DIIS: error= 3.47D-06 at cycle   5 NSaved=   5.
 NSaved= 5 IEnMin= 5 EnMin= -10526.5717318273     IErMin= 5 ErrMin= 3.47D-06
 ErrMax= 3.47D-06  0.00D+00 EMaxC= 1.00D-01 BMatC= 1.02D-08 BMatP= 1.35D-07
 IDIUse=1 WtCom= 1.00D+00 WtEn= 0.00D+00
 Coeff-Com:  0.358D-03-0.638D-01 0.109D+00 0.211D+00 0.743D+00
 Coeff:      0.358D-03-0.638D-01 0.109D+00 0.211D+00 0.743D+00
 Gap=     0.212 Goal=   None    Shift=    0.000
 Gap=     0.217 Goal=   None    Shift=    0.000
 RMSDP=2.51D-06 MaxDP=1.08D-04 DE=-4.63D-08 OVMax= 8.57D-05

 Cycle   6  Pass 1  IDiag  1:
 RMSU=  1.68D-06    CP:  1.00D+00  1.13D+00  1.32D+00  8.57D-01  6.05D-01
 E= -10526.5717318356     Delta-E=       -0.000000008320 Rises=F Damp=F
 DIIS: error= 1.25D-06 at cycle   6 NSaved=   6.
 NSaved= 6 IEnMin= 6 EnMin= -10526.5717318356     IErMin= 6 ErrMin= 1.25D-06
 ErrMax= 1.25D-06  0.00D+00 EMaxC= 1.00D-01 BMatC= 2.99D-09 BMatP= 1.02D-08
 IDIUse=1 WtCom= 1.00D+00 WtEn= 0.00D+00
 Coeff-Com: -0.169D-04 0.328D-01-0.152D+00-0.113D+00 0.277D+00 0.955D+00
 Coeff:     -0.169D-04 0.328D-01-0.152D+00-0.113D+00 0.277D+00 0.955D+00
 Gap=     0.212 Goal=   None    Shift=    0.000
 Gap=     0.217 Goal=   None    Shift=    0.000
 RMSDP=1.07D-06 MaxDP=5.05D-05 DE=-8.32D-09 OVMax= 7.78D-05

 Cycle   7  Pass 1  IDiag  1:
 RMSU=  4.22D-07    CP:  1.00D+00  1.13D+00  1.36D+00  8.38D-01  7.35D-01
                    CP:  1.41D+00
 E= -10526.5717318393     Delta-E=       -0.000000003625 Rises=F Damp=F
 DIIS: error= 7.29D-07 at cycle   7 NSaved=   7.
 NSaved= 7 IEnMin= 7 EnMin= -10526.5717318393     IErMin= 7 ErrMin= 7.29D-07
 ErrMax= 7.29D-07  0.00D+00 EMaxC= 1.00D-01 BMatC= 5.60D-10 BMatP= 2.99D-09
 IDIUse=1 WtCom= 1.00D+00 WtEn= 0.00D+00
 Coeff-Com: -0.977D-04 0.302D-01-0.923D-01-0.926D-01-0.431D-01 0.357D+00
 Coeff-Com:  0.840D+00
 Coeff:     -0.977D-04 0.302D-01-0.923D-01-0.926D-01-0.431D-01 0.357D+00
 Coeff:      0.840D+00
 Gap=     0.212 Goal=   None    Shift=    0.000
 Gap=     0.217 Goal=   None    Shift=    0.000
 RMSDP=4.00D-07 MaxDP=1.94D-05 DE=-3.63D-09 OVMax= 3.57D-05

 Cycle   8  Pass 1  IDiag  1:
 RMSU=  1.94D-07    CP:  1.00D+00  1.13D+00  1.36D+00  8.56D-01  7.95D-01
                    CP:  1.57D+00  1.16D+00
 E= -10526.5717318400     Delta-E=       -0.000000000708 Rises=F Damp=F
 DIIS: error= 2.59D-07 at cycle   8 NSaved=   8.
 NSaved= 8 IEnMin= 8 EnMin= -10526.5717318400     IErMin= 8 ErrMin= 2.59D-07
 ErrMax= 2.59D-07  0.00D+00 EMaxC= 1.00D-01 BMatC= 1.09D-10 BMatP= 5.60D-10
 IDIUse=1 WtCom= 1.00D+00 WtEn= 0.00D+00
 Coeff-Com: -0.421D-04 0.915D-02-0.209D-01-0.270D-01-0.522D-01 0.277D-01
 Coeff-Com:  0.347D+00 0.716D+00
 Coeff:     -0.421D-04 0.915D-02-0.209D-01-0.270D-01-0.522D-01 0.277D-01
 Coeff:      0.347D+00 0.716D+00
 Gap=     0.212 Goal=   None    Shift=    0.000
 Gap=     0.217 Goal=   None    Shift=    0.000
 RMSDP=1.10D-07 MaxDP=4.26D-06 DE=-7.08D-10 OVMax= 8.59D-06

 Cycle   9  Pass 1  IDiag  1:
 RMSU=  5.40D-08    CP:  1.00D+00  1.13D+00  1.36D+00  8.62D-01  8.04D-01
                    CP:  1.58D+00  1.33D+00  1.14D+00
 E= -10526.5717318400     Delta-E=       -0.000000000025 Rises=F Damp=F
 DIIS: error= 1.13D-07 at cycle   9 NSaved=   9.
 NSaved= 9 IEnMin= 9 EnMin= -10526.5717318400     IErMin= 9 ErrMin= 1.13D-07
 ErrMax= 1.13D-07  0.00D+00 EMaxC= 1.00D-01 BMatC= 1.88D-11 BMatP= 1.09D-10
 IDIUse=1 WtCom= 1.00D+00 WtEn= 0.00D+00
 Coeff-Com:  0.807D-05-0.405D-02 0.151D-01 0.120D-01-0.947D-02-0.786D-01
 Coeff-Com: -0.735D-01 0.273D+00 0.866D+00
 Coeff:      0.807D-05-0.405D-02 0.151D-01 0.120D-01-0.947D-02-0.786D-01
 Coeff:     -0.735D-01 0.273D+00 0.866D+00
 Gap=     0.212 Goal=   None    Shift=    0.000
 Gap=     0.217 Goal=   None    Shift=    0.000
 RMSDP=6.01D-08 MaxDP=3.02D-06 DE=-2.55D-11 OVMax= 3.74D-06

 Cycle  10  Pass 1  IDiag  1:
 RMSU=  2.59D-08    CP:  1.00D+00  1.13D+00  1.36D+00  8.59D-01  8.05D-01
                    CP:  1.59D+00  1.39D+00  1.34D+00  1.18D+00
 E= -10526.5717318400     Delta-E=       -0.000000000062 Rises=F Damp=F
 DIIS: error= 5.85D-08 at cycle  10 NSaved=  10.
 NSaved=10 IEnMin=10 EnMin= -10526.5717318400     IErMin=10 ErrMin= 5.85D-08
 ErrMax= 5.85D-08  0.00D+00 EMaxC= 1.00D-01 BMatC= 4.16D-12 BMatP= 1.88D-11
 IDIUse=1 WtCom= 1.00D+00 WtEn= 0.00D+00
 Coeff-Com:  0.746D-05-0.275D-02 0.908D-02 0.823D-02 0.127D-03-0.406D-01
 Coeff-Com: -0.642D-01 0.685D-01 0.426D+00 0.596D+00
 Coeff:      0.746D-05-0.275D-02 0.908D-02 0.823D-02 0.127D-03-0.406D-01
 Coeff:     -0.642D-01 0.685D-01 0.426D+00 0.596D+00
 Gap=     0.212 Goal=   None    Shift=    0.000
 Gap=     0.217 Goal=   None    Shift=    0.000
 RMSDP=1.72D-08 MaxDP=5.25D-07 DE=-6.18D-11 OVMax= 5.89D-07

 Cycle  11  Pass 1  IDiag  1:
 RMSU=  1.26D-08    CP:  1.00D+00  1.13D+00  1.36D+00  8.59D-01  8.06D-01
                    CP:  1.58D+00  1.40D+00  1.36D+00  1.28D+00  9.32D-01
 E= -10526.5717318400     Delta-E=        0.000000000035 Rises=F Damp=F
 DIIS: error= 3.58D-08 at cycle  11 NSaved=  11.
 NSaved=11 IEnMin=10 EnMin= -10526.5717318400     IErMin=11 ErrMin= 3.58D-08
 ErrMax= 3.58D-08  0.00D+00 EMaxC= 1.00D-01 BMatC= 8.62D-13 BMatP= 4.16D-12
 IDIUse=1 WtCom= 1.00D+00 WtEn= 0.00D+00
 Coeff-Com: -0.952D-06 0.737D-03-0.311D-02-0.208D-02 0.434D-02 0.171D-01
 Coeff-Com:  0.798D-02-0.815D-01-0.197D+00 0.157D+00 0.110D+01
 Coeff:     -0.952D-06 0.737D-03-0.311D-02-0.208D-02 0.434D-02 0.171D-01
 Coeff:      0.798D-02-0.815D-01-0.197D+00 0.157D+00 0.110D+01
 Gap=     0.212 Goal=   None    Shift=    0.000
 Gap=     0.217 Goal=   None    Shift=    0.000
 RMSDP=1.98D-08 MaxDP=8.43D-07 DE= 3.46D-11 OVMax= 7.79D-07

 Cycle  12  Pass 1  IDiag  1:
 RMSU=  6.14D-09    CP:  1.00D+00  1.13D+00  1.36D+00  8.60D-01  8.08D-01
                    CP:  1.58D+00  1.41D+00  1.37D+00  1.34D+00  1.22D+00
                    CP:  1.26D+00
 E= -10526.5717318401     Delta-E=       -0.000000000038 Rises=F Damp=F
 DIIS: error= 2.02D-08 at cycle  12 NSaved=  12.
 NSaved=12 IEnMin=12 EnMin= -10526.5717318401     IErMin=12 ErrMin= 2.02D-08
 ErrMax= 2.02D-08  0.00D+00 EMaxC= 1.00D-01 BMatC= 2.55D-13 BMatP= 8.62D-13
 IDIUse=1 WtCom= 1.00D+00 WtEn= 0.00D+00
 Coeff-Com: -0.256D-05 0.108D-02-0.379D-02-0.326D-02 0.157D-02 0.181D-01
 Coeff-Com:  0.212D-01-0.483D-01-0.196D+00-0.116D+00 0.405D+00 0.920D+00
 Coeff:     -0.256D-05 0.108D-02-0.379D-02-0.326D-02 0.157D-02 0.181D-01
 Coeff:      0.212D-01-0.483D-01-0.196D+00-0.116D+00 0.405D+00 0.920D+00
 Gap=     0.212 Goal=   None    Shift=    0.000
 Gap=     0.217 Goal=   None    Shift=    0.000
 RMSDP=7.41D-09 MaxDP=3.07D-07 DE=-3.82D-11 OVMax= 4.51D-07

 Error on total polarization charges =  0.00777
 SCF Done:  E(UM062X) =  -10526.5717318     A.U. after   12 cycles
            NFock= 12  Conv=0.74D-08     -V/T= 2.0012
 <Sx>= 0.0000 <Sy>= 0.0000 <Sz>= 0.5000 <S**2>= 0.7581 S= 0.5041
 <L.S>=  0.00000000000    
 KE= 1.051344166074D+04 PE=-2.892074190224D+04 EE= 6.007667174806D+03
 SMD-CDS (non-electrostatic) energy       (kcal/mol) =       0.19
 (included in total energy above)
 Annihilation of the first spin contaminant:
 S**2 before annihilation     0.7581,   after     0.7500
 Leave Link  502 at Mon Sep 28 09:12:27 2026, MaxMem=  1610612736 cpu:             962.8 elap:             120.5
 (Enter /share/software/user/restricted/gaussian/g16.B01/l701.exe)
 ... and contract with generalized density number  0.
 Compute integral first derivatives.
 D1PCM: PCM CHGder 1st derivatives, ID1Alg=3 FixD1E=F DoIter=F DoCFld=F I1PDM=0.
 GePol: Maximum number of non-zero 1st derivatives   =     472
 Leave Link  701 at Mon Sep 28 09:12:30 2026, MaxMem=  1610612736 cpu:              13.9 elap:               2.0
 (Enter /share/software/user/restricted/gaussian/g16.B01/l702.exe)
 L702 exits ... SP integral derivatives will be done elsewhere.
 Leave Link  702 at Mon Sep 28 09:12:30 2026, MaxMem=  1610612736 cpu:               0.3 elap:               0.0
 (Enter /share/software/user/restricted/gaussian/g16.B01/l703.exe)
 Integral derivatives from FoFJK, PRISM(SPDF).
 Compute integral first derivatives, UseDBF=F ICtDFT=           0.
 Calling FoFJK, ICntrl=      2127 FMM=F ISym2X=0 I1Cent= 0 IOpClX= 1 NMat=1 NMatS=1 NMatT=0.
 FoFJK:  IHMeth= 1 ICntrl=    2127 DoSepK=F KAlg= 0 I1Cent=           0 FoldK=F
 IRaf=         0 NMat=       1 IRICut=       1 DoRegI=T DoRafI=F ISym2E= 0 IDoP0=0 IntGTp=1.
 FoFCou: FMM=F IPFlag=           0 FMFlag=      100000 FMFlg1=         800
         NFxFlg=           0 DoJE=F BraDBF=F KetDBF=F FulRan=T
         wScrn=  0.000000 ICntrl=      2127 IOpCl=  1 I1Cent=           0 NGrid=           0
         NMat0=    1 NMatS0=      1 NMatT0=    0 NMatD0=    1 NMtDS0=    0 NMtDT0=    0
 Symmetry not used in FoFCou.
 Leave Link  703 at Mon Sep 28 09:12:46 2026, MaxMem=  1610612736 cpu:             130.7 elap:              16.4
 (Enter /share/software/user/restricted/gaussian/g16.B01/l716.exe)
 Dipole        =-2.51890200D+00 2.92241600D+00-1.43378605D-01
 ***** Axes restored to original set *****
 -------------------------------------------------------------------
 Center     Atomic                   Forces (Hartrees/Bohr)
 Number     Number              X              Y              Z
 -------------------------------------------------------------------
      1        6          -0.000005725    0.000020725   -0.000004624
      2        6           0.000008681    0.000002428    0.000002747
      3        6           0.000011971   -0.000028991    0.000002255
      4        6           0.000000235   -0.000006912   -0.000000483
      5        6          -0.000006553    0.000004803   -0.000008452
      6        6          -0.000011412    0.000013373    0.000007881
      7       35          -0.000010847   -0.000012616    0.000018936
      8       35           0.000010796   -0.000009593    0.000008459
      9       35           0.000018845   -0.000012221   -0.000011461
     10       35           0.000007861    0.000005834   -0.000016254
     11        1          -0.000007589    0.000010940   -0.000004370
     12        1          -0.000016263    0.000012231    0.000005366
 -------------------------------------------------------------------
 Cartesian Forces:  Max     0.000028991 RMS     0.000011388
 Leave Link  716 at Mon Sep 28 09:12:46 2026, MaxMem=  1610612736 cpu:               0.3 elap:               0.0
 (Enter /share/software/user/restricted/gaussian/g16.B01/l103.exe)

 GradGradGradGradGradGradGradGradGradGradGradGradGradGradGradGradGradGrad
 Berny optimization.
 Using GEDIIS/GDIIS optimizer.
 FormGI is forming the generalized inverse of G from B-inverse, IUseBI=4.
 Internal  Forces:  Max     0.000020780 RMS     0.000005726
 Search for a local minimum.
 Step number  11 out of a maximum of   64
 All quantities printed in internal units (Hartrees-Bohrs-Radians)
 RMS Force = .57263D-05 SwitMx=.10000D-02 MixMth= 2
 Mixed Optimization -- En-DIIS/RFO-DIIS
 Swapping is turned off.
 Update second derivatives using D2CorX and points    3    2    4    5    6
                                                      7    8    9   10   11
 DE= -8.73D-07 DEPred=-1.16D-07 R= 7.50D+00
 Trust test= 7.50D+00 RLast= 1.32D-02 DXMaxT set to 5.05D-01
 ITU=  0  1  1  1  0  1  1  1  0  1  0
     Eigenvalues ---    0.00047   0.01009   0.01782   0.02053   0.02275
     Eigenvalues ---    0.02475   0.02635   0.02781   0.03004   0.03297
     Eigenvalues ---    0.10495   0.11274   0.11678   0.12169   0.13005
     Eigenvalues ---    0.15589   0.16762   0.20016   0.21677   0.23435
     Eigenvalues ---    0.25684   0.26357   0.35991   0.36383   0.37440
     Eigenvalues ---    0.44288   0.45534   0.49967   0.51830   0.53730
 En-DIIS/RFO-DIIS/Sim-DIIS IScMMF=       -3 using points:    11   10    9    8    7    6    5    4
 RFO step:  Lambda=-2.15879347D-08.
 NNeg= 0 NGDIIS= 8 SimSw=  2.50D-01 Rises=F DC= -8.73D-07 SmlDif=  1.00D-05
 NRisDI= 0 DoIntr=F SqrtH=F CThrHd= 10.0 CDAdj=  3.0
 RMS Error=  0.7180894232D-03 NUsed= 8 OKEnD=F EnDIS=F
 InvSVX:  RCond= 1.00D+00 Info=           0 Equed=N FErr=  6.66D-16 BErr=  0.00D+00
 Use linear search instead of GDIIS.
 RFO step:  Lambda= 0.00000000D+00 EMin= 4.74595680D-04
 Quartic linear search produced a step of  0.00986.
 Iteration  1 RMS(Cart)=  0.00040134 RMS(Int)=  0.00000011
 Iteration  2 RMS(Cart)=  0.00000010 RMS(Int)=  0.00000004
 ITry= 1 IFail=0 DXMaxC= 1.98D-03 DCOld= 1.00D+10 DXMaxT= 5.05D-01 DXLimC= 3.00D+00 Rises=F
 Variable       Old X    -DE/DX   Delta X   Delta X   Delta X     New X
                                 (Linear)    (Quad)   (Total)
    R1        2.59459   0.00000   0.00000   0.00001   0.00001   2.59460
    R2        2.63217  -0.00001  -0.00000  -0.00000  -0.00000   2.63217
    R3        3.63923  -0.00001  -0.00000  -0.00010  -0.00010   3.63913
    R4        2.60148   0.00002   0.00000   0.00002   0.00002   2.60150
    R5        4.79845   0.00000  -0.00002   0.00030   0.00027   4.79873
    R6        2.64149   0.00000  -0.00000   0.00000   0.00000   2.64150
    R7        3.62693  -0.00000  -0.00000  -0.00003  -0.00003   3.62689
    R8        2.63129   0.00001   0.00000   0.00002   0.00002   2.63131
    R9        3.60199  -0.00000   0.00000  -0.00003  -0.00003   3.60197
   R10        2.62444   0.00001   0.00000   0.00001   0.00001   2.62445
   R11        2.04599  -0.00000  -0.00000  -0.00000  -0.00000   2.04599
   R12        2.04844   0.00000   0.00000   0.00000   0.00000   2.04844
    A1        2.12679   0.00000  -0.00000  -0.00004  -0.00004   2.12675
    A2        2.11560  -0.00001  -0.00000   0.00003   0.00002   2.11562
    A3        2.04063   0.00001   0.00000   0.00002   0.00002   2.04065
    A4        2.08436   0.00001  -0.00000   0.00006   0.00006   2.08443
    A5        2.07022  -0.00002  -0.00001  -0.00005  -0.00006   2.07016
    A6        2.08366   0.00001  -0.00001   0.00022   0.00021   2.08388
    A7        2.09589  -0.00001   0.00000  -0.00004  -0.00004   2.09585
    A8        2.09044   0.00001  -0.00000   0.00002   0.00002   2.09046
    A9        2.09664   0.00000   0.00000   0.00002   0.00002   2.09666
   A10        2.09477   0.00000   0.00000  -0.00000  -0.00000   2.09477
   A11        2.14407   0.00000  -0.00000   0.00001   0.00001   2.14408
   A12        2.04434  -0.00000   0.00000  -0.00000  -0.00000   2.04434
   A13        2.09299   0.00000  -0.00000   0.00002   0.00002   2.09301
   A14        2.09677  -0.00000   0.00000  -0.00001  -0.00001   2.09675
   A15        2.09342  -0.00000   0.00000  -0.00001  -0.00001   2.09341
   A16        2.07143  -0.00000   0.00000   0.00000   0.00000   2.07144
   A17        2.11995  -0.00000  -0.00000  -0.00000  -0.00000   2.11995
   A18        2.09180   0.00000  -0.00000  -0.00000  -0.00000   2.09180
    D1        0.00828   0.00000   0.00000  -0.00007  -0.00007   0.00821
    D2       -2.81400  -0.00000   0.00006  -0.00091  -0.00085  -2.81485
    D3       -3.11312  -0.00000   0.00001  -0.00015  -0.00014  -3.11326
    D4        0.34778  -0.00000   0.00007  -0.00099  -0.00092   0.34686
    D5        0.00565  -0.00000  -0.00000   0.00001   0.00000   0.00565
    D6       -3.13624   0.00000  -0.00000   0.00002   0.00002  -3.13622
    D7        3.12787  -0.00000  -0.00000   0.00008   0.00008   3.12795
    D8       -0.01401   0.00000  -0.00000   0.00009   0.00009  -0.01392
    D9       -0.01235   0.00000  -0.00000   0.00006   0.00006  -0.01229
   D10        3.10705   0.00000  -0.00000   0.00016   0.00015   3.10721
   D11        2.80746  -0.00000  -0.00006   0.00086   0.00080   2.80826
   D12       -0.35632  -0.00000  -0.00006   0.00095   0.00089  -0.35543
   D13        0.00261  -0.00000  -0.00000   0.00001   0.00001   0.00263
   D14       -3.13960   0.00000  -0.00000   0.00000   0.00000  -3.13960
   D15       -3.11671  -0.00000   0.00000  -0.00009  -0.00008  -3.11679
   D16        0.02427  -0.00000   0.00000  -0.00009  -0.00009   0.02417
   D17        0.01143  -0.00000   0.00000  -0.00008  -0.00008   0.01136
   D18       -3.13500  -0.00000   0.00000  -0.00008  -0.00007  -3.13507
   D19       -3.12958  -0.00000   0.00000  -0.00007  -0.00007  -3.12964
   D20        0.00718  -0.00000   0.00000  -0.00007  -0.00007   0.00711
   D21       -0.01538   0.00000  -0.00000   0.00007   0.00007  -0.01531
   D22        3.12650   0.00000  -0.00000   0.00006   0.00006   3.12655
   D23        3.13104   0.00000  -0.00000   0.00007   0.00007   3.13111
   D24       -0.01027   0.00000  -0.00000   0.00006   0.00006  -0.01021
         Item               Value     Threshold  Converged?
 Maximum Force            0.000021     0.000015     NO 
 RMS     Force            0.000006     0.000010     YES
 Maximum Displacement     0.001978     0.000060     NO 
 RMS     Displacement     0.000401     0.000040     NO 
 Predicted change in Energy=-1.006302D-09
 Lowest energy point so far.  Saving SCF results.
 GradGradGradGradGradGradGradGradGradGradGradGradGradGradGradGradGradGrad

 Leave Link  103 at Mon Sep 28 09:12:46 2026, MaxMem=  1610612736 cpu:               0.3 elap:               0.0
 (Enter /share/software/user/restricted/gaussian/g16.B01/l202.exe)
                          Input orientation:                          
 ---------------------------------------------------------------------
 Center     Atomic      Atomic             Coordinates (Angstroms)
 Number     Number       Type             X           Y           Z
 ---------------------------------------------------------------------
      1          6           0        0.089587    1.289357   -1.157685
      2          6           0        0.134155    0.625213    0.043173
      3          6           0        0.095843   -0.750839    0.056929
      4          6           0       -0.002554   -1.461074   -1.142981
      5          6           0       -0.058826   -0.777311   -2.354659
      6          6           0       -0.003439    0.610296   -2.370262
      7         35           0        0.186503    3.210913   -1.239680
      8         35           0       -0.416848    1.908788    2.163849
      9         35           0        0.214679   -1.690971    1.725949
     10         35           0       -0.064721   -3.364759   -1.215446
     11          1           0       -0.141142   -1.325370   -3.284751
     12          1           0       -0.033237    1.140883   -3.315048
 ---------------------------------------------------------------------
                    Distance matrix (angstroms):
                    1          2          3          4          5
     1  C    0.000000
     2  C    1.373001   0.000000
     3  C    2.374390   1.376654   0.000000
     4  C    2.752013   2.403798   1.397820   0.000000
     5  C    2.392883   2.784585   2.416688   1.392431   0.000000
     6  C    1.392882   2.417400   2.784565   2.407654   1.388799
     7  Br   1.925745   2.886918   4.169519   4.676810   4.148408
     8  Br   3.416542   2.539377   3.431557   4.739487   5.268797
     9  Br   4.148897   2.864076   1.919270   2.886313   4.190578
    10  Br   4.657032   4.188503   2.911580   1.906078   2.827142
    11  H    3.378527   3.867252   3.398981   2.150535   1.082689
    12  H    2.165951   3.401703   3.868527   3.389542   2.145336
                    6          7          8          9         10
     6  C    0.000000
     7  Br   2.842094   0.000000
     8  Br   4.734464   3.693720   0.000000
     9  Br   4.703441   5.729242   3.680876   0.000000
    10  Br   4.139858   6.580514   6.273271   3.395797   0.000000
    11  H    2.145240   4.986735   6.342163   5.036604   2.906367
    12  H    1.083988   2.939466   5.545732   5.787271   4.970928
                   11         12
    11  H    0.000000
    12  H    2.468798   0.000000
 Stoichiometry    C6H2Br4(1-,2)
 Framework group  C1[X(C6H2Br4)]
 Deg. of freedom    30
 Full point group                 C1      NOp   1
 RotChk:  IX=1 Diff= 2.46D-04
 Largest Abelian subgroup         C1      NOp   1
 Largest concise Abelian subgroup C1      NOp   1
                         Standard orientation:                         
 ---------------------------------------------------------------------
 Center     Atomic      Atomic             Coordinates (Angstroms)
 Number     Number       Type             X           Y           Z
 ---------------------------------------------------------------------
      1          6           0        1.179796    1.286526   -0.052218
      2          6           0        0.627730    0.033127   -0.148892
      3          6           0       -0.740706   -0.108866   -0.099936
      4          6           0       -1.556386    1.014704    0.061795
      5          6           0       -0.985625    2.280119    0.170517
      6          6           0        0.393932    2.425815    0.104498
      7         35           0        3.084428    1.549301   -0.160933
      8         35           0        2.106688   -1.984123    0.289085
      9         35           0       -1.525712   -1.849804   -0.290983
     10         35           0       -3.457786    0.908842    0.143068
     11          1           0       -1.615353    3.150980    0.301896
     12          1           0        0.836239    3.412927    0.175232
 ---------------------------------------------------------------------
 Rotational constants (GHZ):           0.4861575           0.2178111           0.1520479
 Leave Link  202 at Mon Sep 28 09:12:46 2026, MaxMem=  1610612736 cpu:               0.0 elap:               0.0
 (Enter /share/software/user/restricted/gaussian/g16.B01/l301.exe)
 Standard basis: 6-311++G(d) (5D, 7F)
 Ernie: Thresh=  0.10000D-02 Tol=  0.10000D-05 Strict=F.
 There are   350 symmetry adapted cartesian basis functions of A   symmetry.
 There are   332 symmetry adapted basis functions of A   symmetry.
   332 basis functions,   604 primitive gaussians,   350 cartesian basis functions
    90 alpha electrons       89 beta electrons
       nuclear repulsion energy      1873.0467358793 Hartrees.
 IExCor= 4336 DFT=T Ex+Corr=M062X ExCW=0 ScaHFX=  0.540000
 ScaDFX=  1.000000  1.000000  1.000000  1.000000 ScalE2=  1.000000  1.000000
 IRadAn=      5 IRanWt=     -1 IRanGd=            0 ICorTp=0 IEmpDi=  4
 NAtoms=   12 NActive=   12 NUniq=   12 SFac= 1.00D+00 NAtFMM=   60 NAOKFM=F Big=F
 Integral buffers will be    131072 words long.
 Raffenetti 2 integral format.
 Two-electron integral symmetry is turned on.
 ------------------------------------------------------------------------------
 Polarizable Continuum Model (PCM)
 =================================
 Model                : PCM.
 Atomic radii         : SMD-Coulomb.
 Polarization charges : Total charges.
 Charge compensation  : None.
 Solution method      : Matrix inversion.
 Cavity type          : VdW (van der Waals Surface) (Alpha=1.000).
 Cavity algorithm     : GePol (No added spheres)
                        Default sphere list used, NSphG=   12.
                        Lebedev-Laikov grids with approx.  5.0 points / Ang**2.
                        Smoothing algorithm: York/Karplus (Gamma=1.0000).
                        Polarization charges: spherical gaussians, with
                                              point-specific exponents (IZeta= 3).
                        Self-potential: point-specific (ISelfS= 7).
                        Self-field    : sphere-specific E.n sum rule (ISelfD= 2).
 1st derivatives      : Analytical E(r).r(x)/FMM algorithm (CHGder, D1EAlg=3).
                        Cavity 1st derivative terms included.
 Solvent              : Water, Eps=  78.355300 Eps(inf)=   1.777849
 ------------------------------------------------------------------------------
 Spheres list:
 ISph  on   Nord     Re0    Alpha      Xe            Ye            Ze
    1   C      1    1.8500  1.000      1.179796      1.286526     -0.052218
    2   C      2    1.8500  1.000      0.627730      0.033127     -0.148892
    3   C      3    1.8500  1.000     -0.740706     -0.108866     -0.099936
    4   C      4    1.8500  1.000     -1.556386      1.014704      0.061795
    5   C      5    1.8500  1.000     -0.985625      2.280119      0.170517
    6   C      6    1.8500  1.000      0.393932      2.425815      0.104498
    7  Br      7    3.0600  1.000      3.084428      1.549301     -0.160933
    8  Br      8    3.0600  1.000      2.106688     -1.984123      0.289085
    9  Br      9    3.0600  1.000     -1.525712     -1.849804     -0.290983
   10  Br     10    3.0600  1.000     -3.457786      0.908842      0.143068
   11   H     11    1.2000  1.000     -1.615353      3.150980      0.301896
   12   H     12    1.2000  1.000      0.836239      3.412927      0.175232
 ------------------------------------------------------------------------------
 GePol: Number of generator spheres                  =      12
 GePol: Total number of spheres                      =      12
 GePol: Number of exposed spheres                    =      12 (100.00%)
 GePol: Number of points                             =    1876
 GePol: Average weight of points                     =       0.17
 GePol: Minimum weight of points                     =   0.14D-10
 GePol: Maximum weight of points                     =    0.22025
 GePol: Number of points with low weight             =      64
 GePol: Fraction of low-weight points (<1% of avg)   =       3.41%
 GePol: Cavity surface area                          =    321.470 Ang**2
 GePol: Cavity volume                                =    418.228 Ang**3
 ------------------------------------------------------------------------------
 Atomic radii for non-electrostatic terms: SMD-CDS.
 ------------------------------------------------------------------------------
 PCM non-electrostatic energy =         0.0002976285 Hartrees.
 Nuclear repulsion after PCM non-electrostatic terms =     1873.0470335078 Hartrees.
 Leave Link  301 at Mon Sep 28 09:12:47 2026, MaxMem=  1610612736 cpu:               0.8 elap:               0.1
 (Enter /share/software/user/restricted/gaussian/g16.B01/l302.exe)
 NPDir=0 NMtPBC=     1 NCelOv=     1 NCel=       1 NClECP=     1 NCelD=      1
         NCelK=      1 NCelE2=     1 NClLst=     1 CellRange=     0.0.
 One-electron integrals computed using PRISM.
 One-electron integral symmetry used in STVInt
 NBasis=   332 RedAO= T EigKep=  2.52D-06  NBF=   332
 NBsUse=   331 1.00D-06 EigRej=  4.89D-07 NBFU=   331
 Precomputing XC quadrature grid using
 IXCGrd= 4 IRadAn=           5 IRanWt=          -1 IRanGd=           0 AccXCQ= 0.00D+00.
 Generated NRdTot=       0 NPtTot=           0 NUsed=           0 NTot=          32
 NSgBfM=   337   337   337   337   337 MxSgAt=    12 MxSgA2=    12.
 Leave Link  302 at Mon Sep 28 09:12:47 2026, MaxMem=  1610612736 cpu:               2.2 elap:               0.3
 (Enter /share/software/user/restricted/gaussian/g16.B01/l303.exe)
 DipDrv:  MaxL=1.
 Leave Link  303 at Mon Sep 28 09:12:47 2026, MaxMem=  1610612736 cpu:               0.4 elap:               0.1
 (Enter /share/software/user/restricted/gaussian/g16.B01/l401.exe)
 Initial guess from the checkpoint file:  "calcs/m062x_smd/chks/BrBz_1234_RA.chk"
 B after Tr=     0.000000    0.000000   -0.000000
         Rot=    1.000000    0.000003   -0.000005   -0.000056 Ang=   0.01 deg.
 Guess basis will be translated and rotated to current coordinates.
 JPrj=2 DoOrth=T DoCkMO=T.
 Initial guess <Sx>= 0.0000 <Sy>= 0.0000 <Sz>= 0.5000 <S**2>= 0.7581 S= 0.5041
 Leave Link  401 at Mon Sep 28 09:12:47 2026, MaxMem=  1610612736 cpu:               2.7 elap:               0.4
 (Enter /share/software/user/restricted/gaussian/g16.B01/l502.exe)
 Integral symmetry usage will be decided dynamically.
 UHF open shell SCF:
 Using DIIS extrapolation, IDIIS=  1040.
 NGot=  1610612736 LenX=  1610361870 LenY=  1610238929
 Requested convergence on RMS density matrix=1.00D-08 within 128 cycles.
 Requested convergence on MAX density matrix=1.00D-06.
 Requested convergence on             energy=1.00D-06.
 No special actions if energy rises.
 Fock matrices will be formed incrementally for  20 cycles.

 Cycle   1  Pass 1  IDiag  1:
 FoFJK:  IHMeth= 1 ICntrl=       0 DoSepK=F KAlg= 0 I1Cent=           0 FoldK=F
 IRaf= 790000000 NMat=       1 IRICut=       1 DoRegI=T DoRafI=F ISym2E= 0 IDoP0=0 IntGTp=1.
 FoFCou: FMM=F IPFlag=           0 FMFlag=      100000 FMFlg1=           0
         NFxFlg=           0 DoJE=F BraDBF=F KetDBF=F FulRan=T
         wScrn=  0.000000 ICntrl=         0 IOpCl=  1 I1Cent=           0 NGrid=           0
         NMat0=    1 NMatS0=      1 NMatT0=    0 NMatD0=    1 NMtDS0=    0 NMtDT0=    0
 Symmetry not used in FoFCou.
 Inv3:  Mode=1 IEnd=    10558128.
 Iteration    1 A*A^-1 deviation from unit magnitude is 4.44D-15 for   1872.
 Iteration    1 A*A^-1 deviation from orthogonality  is 1.90D-15 for   1872   1174.
 Iteration    1 A^-1*A deviation from unit magnitude is 4.22D-15 for   1860.
 Iteration    1 A^-1*A deviation from orthogonality  is 1.35D-15 for   1856   1855.
 E= -10526.5717313533    
 DIIS: error= 1.18D-04 at cycle   1 NSaved=   1.
 NSaved= 1 IEnMin= 1 EnMin= -10526.5717313533     IErMin= 1 ErrMin= 1.18D-04
 ErrMax= 1.18D-04  0.00D+00 EMaxC= 1.00D-01 BMatC= 6.57D-06 BMatP= 6.57D-06
 IDIUse=3 WtCom= 9.99D-01 WtEn= 1.18D-03
 Coeff-Com:  0.100D+01
 Coeff-En:   0.100D+01
 Coeff:      0.100D+01
 Gap=     0.370 Goal=   None    Shift=    0.000
 Gap=     0.427 Goal=   None    Shift=    0.000
 RMSDP=1.29D-05 MaxDP=7.08D-04              OVMax= 1.62D-04

 Cycle   2  Pass 1  IDiag  1:
 RMSU=  1.28D-05    CP:  1.00D+00
 E= -10526.5717317016     Delta-E=       -0.000000348367 Rises=F Damp=F
 DIIS: error= 6.83D-06 at cycle   2 NSaved=   2.
 NSaved= 2 IEnMin= 2 EnMin= -10526.5717317016     IErMin= 2 ErrMin= 6.83D-06
 ErrMax= 6.83D-06  0.00D+00 EMaxC= 1.00D-01 BMatC= 1.91D-08 BMatP= 6.57D-06
 IDIUse=1 WtCom= 1.00D+00 WtEn= 0.00D+00
 Coeff-Com: -0.934D-02 0.101D+01
 Coeff:     -0.934D-02 0.101D+01
 Gap=     0.212 Goal=   None    Shift=    0.000
 Gap=     0.217 Goal=   None    Shift=    0.000
 RMSDP=2.35D-06 MaxDP=9.14D-05 DE=-3.48D-07 OVMax= 7.20D-05

 Cycle   3  Pass 1  IDiag  1:
 RMSU=  2.12D-06    CP:  1.00D+00  1.08D+00
 E= -10526.5717317183     Delta-E=       -0.000000016707 Rises=F Damp=F
 DIIS: error= 1.72D-06 at cycle   3 NSaved=   3.
 NSaved= 3 IEnMin= 3 EnMin= -10526.5717317183     IErMin= 3 ErrMin= 1.72D-06
 ErrMax= 1.72D-06  0.00D+00 EMaxC= 1.00D-01 BMatC= 3.93D-09 BMatP= 1.91D-08
 IDIUse=1 WtCom= 1.00D+00 WtEn= 0.00D+00
 Coeff-Com: -0.301D-02 0.108D+00 0.895D+00
 Coeff:     -0.301D-02 0.108D+00 0.895D+00
 Gap=     0.212 Goal=   None    Shift=    0.000
 Gap=     0.217 Goal=   None    Shift=    0.000
 RMSDP=9.97D-07 MaxDP=5.74D-05 DE=-1.67D-08 OVMax= 3.14D-05

 Cycle   4  Pass 1  IDiag  1:
 RMSU=  7.65D-07    CP:  1.00D+00  1.13D+00  1.06D+00
 E= -10526.5717317203     Delta-E=       -0.000000001970 Rises=F Damp=F
 DIIS: error= 8.69D-07 at cycle   4 NSaved=   4.
 NSaved= 4 IEnMin= 4 EnMin= -10526.5717317203     IErMin= 4 ErrMin= 8.69D-07
 ErrMax= 8.69D-07  0.00D+00 EMaxC= 1.00D-01 BMatC= 2.81D-09 BMatP= 3.93D-09
 IDIUse=1 WtCom= 1.00D+00 WtEn= 0.00D+00
 Coeff-Com:  0.449D-03-0.171D+00 0.494D+00 0.677D+00
 Coeff:      0.449D-03-0.171D+00 0.494D+00 0.677D+00
 Gap=     0.212 Goal=   None    Shift=    0.000
 Gap=     0.217 Goal=   None    Shift=    0.000
 RMSDP=4.90D-07 MaxDP=2.33D-05 DE=-1.97D-09 OVMax= 2.24D-05

 Cycle   5  Pass 1  IDiag  1:
 RMSU=  3.42D-07    CP:  1.00D+00  1.13D+00  1.22D+00  1.06D+00
 E= -10526.5717317214     Delta-E=       -0.000000001059 Rises=F Damp=F
 DIIS: error= 4.62D-07 at cycle   5 NSaved=   5.
 NSaved= 5 IEnMin= 5 EnMin= -10526.5717317214     IErMin= 5 ErrMin= 4.62D-07
 ErrMax= 4.62D-07  0.00D+00 EMaxC= 1.00D-01 BMatC= 1.96D-10 BMatP= 2.81D-09
 IDIUse=1 WtCom= 1.00D+00 WtEn= 0.00D+00
 Coeff-Com:  0.408D-03-0.752D-01 0.116D+00 0.248D+00 0.711D+00
 Coeff:      0.408D-03-0.752D-01 0.116D+00 0.248D+00 0.711D+00
 Gap=     0.212 Goal=   None    Shift=    0.000
 Gap=     0.217 Goal=   None    Shift=    0.000
 RMSDP=3.02D-07 MaxDP=1.26D-05 DE=-1.06D-09 OVMax= 1.03D-05

 Cycle   6  Pass 1  IDiag  1:
 RMSU=  2.13D-07    CP:  1.00D+00  1.12D+00  1.27D+00  9.64D-01  6.81D-01
 E= -10526.5717317215     Delta-E=       -0.000000000085 Rises=F Damp=F
 DIIS: error= 2.16D-07 at cycle   6 NSaved=   6.
 NSaved= 6 IEnMin= 6 EnMin= -10526.5717317215     IErMin= 6 ErrMin= 2.16D-07
 ErrMax= 2.16D-07  0.00D+00 EMaxC= 1.00D-01 BMatC= 6.56D-11 BMatP= 1.96D-10
 IDIUse=1 WtCom= 1.00D+00 WtEn= 0.00D+00
 Coeff-Com:  0.590D-04 0.194D-01-0.104D+00-0.104D+00 0.317D+00 0.871D+00
 Coeff:      0.590D-04 0.194D-01-0.104D+00-0.104D+00 0.317D+00 0.871D+00
 Gap=     0.212 Goal=   None    Shift=    0.000
 Gap=     0.217 Goal=   None    Shift=    0.000
 RMSDP=1.63D-07 MaxDP=6.77D-06 DE=-8.55D-11 OVMax= 9.26D-06

 Cycle   7  Pass 1  IDiag  1:
 RMSU=  7.29D-08    CP:  1.00D+00  1.12D+00  1.32D+00  9.41D-01  7.22D-01
                    CP:  1.44D+00
 E= -10526.5717317216     Delta-E=       -0.000000000136 Rises=F Damp=F
 DIIS: error= 1.30D-07 at cycle   7 NSaved=   7.
 NSaved= 7 IEnMin= 7 EnMin= -10526.5717317216     IErMin= 7 ErrMin= 1.30D-07
 ErrMax= 1.30D-07  0.00D+00 EMaxC= 1.00D-01 BMatC= 1.52D-11 BMatP= 6.56D-11
 IDIUse=1 WtCom= 1.00D+00 WtEn= 0.00D+00
 Coeff-Com: -0.939D-04 0.319D-01-0.836D-01-0.115D+00-0.462D-01 0.381D+00
 Coeff-Com:  0.832D+00
 Coeff:     -0.939D-04 0.319D-01-0.836D-01-0.115D+00-0.462D-01 0.381D+00
 Coeff:      0.832D+00
 Gap=     0.212 Goal=   None    Shift=    0.000
 Gap=     0.217 Goal=   None    Shift=    0.000
 RMSDP=6.28D-08 MaxDP=3.00D-06 DE=-1.36D-10 OVMax= 5.27D-06

 Cycle   8  Pass 1  IDiag  1:
 RMSU=  3.08D-08    CP:  1.00D+00  1.12D+00  1.32D+00  9.54D-01  7.85D-01
                    CP:  1.66D+00  1.05D+00
 E= -10526.5717317216     Delta-E=        0.000000000038 Rises=F Damp=F
 DIIS: error= 3.64D-08 at cycle   8 NSaved=   8.
 NSaved= 8 IEnMin= 7 EnMin= -10526.5717317216     IErMin= 8 ErrMin= 3.64D-08
 ErrMax= 3.64D-08  0.00D+00 EMaxC= 1.00D-01 BMatC= 2.83D-12 BMatP= 1.52D-11
 IDIUse=1 WtCom= 1.00D+00 WtEn= 0.00D+00
 Coeff-Com: -0.572D-04 0.127D-01-0.253D-01-0.382D-01-0.661D-01 0.388D-01
 Coeff-Com:  0.364D+00 0.714D+00
 Coeff:     -0.572D-04 0.127D-01-0.253D-01-0.382D-01-0.661D-01 0.388D-01
 Coeff:      0.364D+00 0.714D+00
 Gap=     0.212 Goal=   None    Shift=    0.000
 Gap=     0.217 Goal=   None    Shift=    0.000
 RMSDP=1.88D-08 MaxDP=7.74D-07 DE= 3.82D-11 OVMax= 1.46D-06

 Cycle   9  Pass 1  IDiag  1:
 RMSU=  7.73D-09    CP:  1.00D+00  1.12D+00  1.32D+00  9.63D-01  7.99D-01
                    CP:  1.69D+00  1.17D+00  1.26D+00
 E= -10526.5717317216     Delta-E=       -0.000000000015 Rises=F Damp=F
 DIIS: error= 1.25D-08 at cycle   9 NSaved=   9.
 NSaved= 9 IEnMin= 7 EnMin= -10526.5717317216     IErMin= 9 ErrMin= 1.25D-08
 ErrMax= 1.25D-08  0.00D+00 EMaxC= 1.00D-01 BMatC= 2.25D-13 BMatP= 2.83D-12
 IDIUse=1 WtCom= 1.00D+00 WtEn= 0.00D+00
 Coeff-Com:  0.915D-05-0.431D-02 0.125D-01 0.160D-01-0.291D-02-0.668D-01
 Coeff-Com: -0.104D+00 0.920D-01 0.106D+01
 Coeff:      0.915D-05-0.431D-02 0.125D-01 0.160D-01-0.291D-02-0.668D-01
 Coeff:     -0.104D+00 0.920D-01 0.106D+01
 Gap=     0.212 Goal=   None    Shift=    0.000
 Gap=     0.217 Goal=   None    Shift=    0.000
 RMSDP=1.03D-08 MaxDP=4.82D-07 DE=-1.46D-11 OVMax= 5.73D-07

 Cycle  10  Pass 1  IDiag  1:
 RMSU=  4.25D-09    CP:  1.00D+00  1.12D+00  1.32D+00  9.61D-01  8.01D-01
                    CP:  1.69D+00  1.24D+00  1.48D+00  1.40D+00
 E= -10526.5717317216     Delta-E=       -0.000000000033 Rises=F Damp=F
 DIIS: error= 9.40D-09 at cycle  10 NSaved=  10.
 NSaved=10 IEnMin=10 EnMin= -10526.5717317216     IErMin=10 ErrMin= 9.40D-09
 ErrMax= 9.40D-09  0.00D+00 EMaxC= 1.00D-01 BMatC= 6.61D-14 BMatP= 2.25D-13
 IDIUse=1 WtCom= 1.00D+00 WtEn= 0.00D+00
 Coeff-Com:  0.773D-05-0.274D-02 0.717D-02 0.961D-02 0.338D-02-0.316D-01
 Coeff-Com: -0.698D-01-0.557D-02 0.467D+00 0.622D+00
 Coeff:      0.773D-05-0.274D-02 0.717D-02 0.961D-02 0.338D-02-0.316D-01
 Coeff:     -0.698D-01-0.557D-02 0.467D+00 0.622D+00
 Gap=     0.212 Goal=   None    Shift=    0.000
 Gap=     0.217 Goal=   None    Shift=    0.000
 RMSDP=2.36D-09 MaxDP=9.63D-08 DE=-3.27D-11 OVMax= 8.33D-08

 Error on total polarization charges =  0.00777
 SCF Done:  E(UM062X) =  -10526.5717317     A.U. after   10 cycles
            NFock= 10  Conv=0.24D-08     -V/T= 2.0012
 <Sx>= 0.0000 <Sy>= 0.0000 <Sz>= 0.5000 <S**2>= 0.7581 S= 0.5041
 <L.S>=  0.00000000000    
 KE= 1.051344165337D+04 PE=-2.892071311767D+04 EE= 6.007652699078D+03
 SMD-CDS (non-electrostatic) energy       (kcal/mol) =       0.19
 (included in total energy above)
 Annihilation of the first spin contaminant:
 S**2 before annihilation     0.7581,   after     0.7500
 Leave Link  502 at Mon Sep 28 09:14:28 2026, MaxMem=  1610612736 cpu:             800.0 elap:             100.2
 (Enter /share/software/user/restricted/gaussian/g16.B01/l701.exe)
 ... and contract with generalized density number  0.
 Compute integral first derivatives.
 D1PCM: PCM CHGder 1st derivatives, ID1Alg=3 FixD1E=F DoIter=F DoCFld=F I1PDM=0.
 GePol: Maximum number of non-zero 1st derivatives   =     472
 Leave Link  701 at Mon Sep 28 09:14:29 2026, MaxMem=  1610612736 cpu:              13.8 elap:               1.8
 (Enter /share/software/user/restricted/gaussian/g16.B01/l702.exe)
 L702 exits ... SP integral derivatives will be done elsewhere.
 Leave Link  702 at Mon Sep 28 09:14:30 2026, MaxMem=  1610612736 cpu:               0.2 elap:               0.0
 (Enter /share/software/user/restricted/gaussian/g16.B01/l703.exe)
 Integral derivatives from FoFJK, PRISM(SPDF).
 Compute integral first derivatives, UseDBF=F ICtDFT=           0.
 Calling FoFJK, ICntrl=      2127 FMM=F ISym2X=0 I1Cent= 0 IOpClX= 1 NMat=1 NMatS=1 NMatT=0.
 FoFJK:  IHMeth= 1 ICntrl=    2127 DoSepK=F KAlg= 0 I1Cent=           0 FoldK=F
 IRaf=         0 NMat=       1 IRICut=       1 DoRegI=T DoRafI=F ISym2E= 0 IDoP0=0 IntGTp=1.
 FoFCou: FMM=F IPFlag=           0 FMFlag=      100000 FMFlg1=         800
         NFxFlg=           0 DoJE=F BraDBF=F KetDBF=F FulRan=T
         wScrn=  0.000000 ICntrl=      2127 IOpCl=  1 I1Cent=           0 NGrid=           0
         NMat0=    1 NMatS0=      1 NMatT0=    0 NMatD0=    1 NMtDS0=    0 NMtDT0=    0
 Symmetry not used in FoFCou.
 Leave Link  703 at Mon Sep 28 09:14:46 2026, MaxMem=  1610612736 cpu:             130.3 elap:              16.3
 (Enter /share/software/user/restricted/gaussian/g16.B01/l716.exe)
 Dipole        =-2.51973078D+00 2.92255684D+00-1.43055647D-01
 ***** Axes restored to original set *****
 -------------------------------------------------------------------
 Center     Atomic                   Forces (Hartrees/Bohr)
 Number     Number              X              Y              Z
 -------------------------------------------------------------------
      1        6          -0.000006585   -0.000000101    0.000005172
      2        6           0.000008320   -0.000000966    0.000004332
      3        6           0.000008463   -0.000008683   -0.000006842
      4        6           0.000001730    0.000001767   -0.000007141
      5        6          -0.000005569    0.000005708   -0.000002449
      6        6          -0.000010472    0.000006540    0.000003935
      7       35          -0.000010308    0.000002474    0.000016158
      8       35           0.000011275   -0.000013828    0.000009489
      9       35           0.000020732   -0.000014713   -0.000007936
     10       35           0.000008258    0.000000521   -0.000015425
     11        1          -0.000009278    0.000010458   -0.000005346
     12        1          -0.000016567    0.000010823    0.000006051
 -------------------------------------------------------------------
 Cartesian Forces:  Max     0.000020732 RMS     0.000009275
 Leave Link  716 at Mon Sep 28 09:14:46 2026, MaxMem=  1610612736 cpu:               0.4 elap:               0.0
 (Enter /share/software/user/restricted/gaussian/g16.B01/l103.exe)

 GradGradGradGradGradGradGradGradGradGradGradGradGradGradGradGradGradGrad
 Berny optimization.
 Using GEDIIS/GDIIS optimizer.
 FormGI is forming the generalized inverse of G from B-inverse, IUseBI=4.
 Internal  Forces:  Max     0.000007654 RMS     0.000002002
 Search for a local minimum.
 Step number  12 out of a maximum of   64
 All quantities printed in internal units (Hartrees-Bohrs-Radians)
 RMS Force = .20021D-05 SwitMx=.10000D-02 MixMth= 2
 Mixed Optimization -- En-DIIS/RFO-DIIS
 Swapping is turned off.
 Update second derivatives using D2CorX and points    3    2    4    5    6
                                                      7    8    9   10   11
                                                     12
 DE=  1.18D-07 DEPred=-1.01D-09 R=-1.18D+02
 Trust test=-1.18D+02 RLast= 1.81D-03 DXMaxT set to 2.52D-01
 ITU= -1  0  1  1  1  0  1  1  1  0  1  0
     Eigenvalues ---    0.00043   0.01022   0.01781   0.01976   0.02276
     Eigenvalues ---    0.02402   0.02648   0.02751   0.03028   0.03295
     Eigenvalues ---    0.09227   0.11206   0.11844   0.12404   0.13570
     Eigenvalues ---    0.15783   0.17156   0.20030   0.21577   0.22683
     Eigenvalues ---    0.25539   0.26140   0.35601   0.36002   0.37447
     Eigenvalues ---    0.44728   0.45571   0.49823   0.50285   0.54236
 En-DIIS/RFO-DIIS/Sim-DIIS IScMMF=       -3 using points:    12   11   10    9    8    7    6    5    4
 RFO step:  Lambda=-1.95006043D-08.
 NNeg= 0 NGDIIS= 9 SimSw=  2.50D-03 Rises=F DC=  1.18D-07 SmlDif=  1.00D-05
 NRisDI= 0 DoIntr=F SqrtH=F CThrHd= 10.0 CDAdj=  3.0
 RMS Error=  0.8886767198D-03 NUsed= 9 OKEnD=F EnDIS=F
 InvSVX:  RCond= 7.35D-10 Info=           0 Equed=N FErr=  8.51D-10 BErr=  7.88D-17
 DIIS inversion failure, remove point   9.
 InvSVX:  RCond= 7.50D-10 Info=           0 Equed=N FErr=  7.98D-10 BErr=  7.42D-17
 DIIS inversion failure, remove point   8.
 InvSVX:  RCond= 8.71D-10 Info=           0 Equed=N FErr=  7.38D-10 BErr=  5.66D-17
 DIIS inversion failure, remove point   7.
 InvSVX:  RCond= 1.48D-09 Info=           0 Equed=N FErr=  8.66D-11 BErr=  1.10D-16
 DIIS inversion failure, remove point   6.
 InvSVX:  RCond= 5.04D-09 Info=           0 Equed=N FErr=  5.72D-12 BErr=  6.29D-17
 DIIS inversion failure, remove point   5.
 InvSVX:  RCond= 1.62D-08 Info=           0 Equed=N FErr=  7.36D-13 BErr=  5.09D-17
 DIIS inversion failure, remove point   4.
 InvSVX:  RCond= 2.16D-08 Info=           0 Equed=N FErr=  5.42D-13 BErr=  5.58D-17
 DIIS inversion failure, remove point   3.
 InvSVX:  RCond= 8.17D-07 Info=           0 Equed=N FErr=  1.89D-14 BErr=  8.40D-17
 Old DIIS coefficients:     -2.56515      3.56515      0.00000      0.00000      0.00000
 Old DIIS coefficients:      0.00000      0.00000      0.00000      0.00000
 RFO-DIIS uses    2 points instead of    9
 DidBck=T Rises=F RFO-DIIS coefs:   -2.00000    3.00000    0.00000    0.00000    0.00000
                  RFO-DIIS coefs:    0.00000    0.00000    0.00000    0.00000
 Iteration  1 RMS(Cart)=  0.00141522 RMS(Int)=  0.00000145
 Iteration  2 RMS(Cart)=  0.00000136 RMS(Int)=  0.00000027
 Iteration  3 RMS(Cart)=  0.00000000 RMS(Int)=  0.00000027
 ITry= 1 IFail=0 DXMaxC= 7.17D-03 DCOld= 1.00D+10 DXMaxT= 2.52D-01 DXLimC= 3.00D+00 Rises=F
 Variable       Old X    -DE/DX   Delta X   Delta X   Delta X     New X
                                 (Linear)    (Quad)   (Total)
    R1        2.59460  -0.00000  -0.00003   0.00007   0.00004   2.59463
    R2        2.63217  -0.00000   0.00000  -0.00002  -0.00002   2.63215
    R3        3.63913   0.00000   0.00031  -0.00031   0.00001   3.63914
    R4        2.60150   0.00001  -0.00006   0.00011   0.00005   2.60155
    R5        4.79873  -0.00000  -0.00082   0.00016  -0.00065   4.79807
    R6        2.64150  -0.00000  -0.00001  -0.00000  -0.00001   2.64148
    R7        3.62689   0.00000   0.00010  -0.00014  -0.00004   3.62686
    R8        2.63131  -0.00000  -0.00006   0.00006  -0.00000   2.63131
    R9        3.60197   0.00000   0.00008  -0.00008   0.00000   3.60197
   R10        2.62445   0.00000  -0.00002   0.00003   0.00001   2.62446
   R11        2.04599   0.00000   0.00001  -0.00001  -0.00000   2.04599
   R12        2.04844  -0.00000  -0.00001   0.00001  -0.00000   2.04844
    A1        2.12675   0.00000   0.00012  -0.00009   0.00003   2.12678
    A2        2.11562  -0.00000  -0.00007   0.00000  -0.00007   2.11555
    A3        2.04065   0.00000  -0.00005   0.00009   0.00004   2.04069
    A4        2.08443  -0.00000  -0.00018   0.00011  -0.00007   2.08436
    A5        2.07016  -0.00001   0.00018  -0.00047  -0.00029   2.06987
    A6        2.08388   0.00001  -0.00064   0.00016  -0.00048   2.08340
    A7        2.09585  -0.00000   0.00012  -0.00009   0.00003   2.09589
    A8        2.09046   0.00000  -0.00006  -0.00001  -0.00007   2.09040
    A9        2.09666  -0.00000  -0.00007   0.00009   0.00003   2.09669
   A10        2.09477   0.00000   0.00001   0.00000   0.00001   2.09478
   A11        2.14408  -0.00000  -0.00002   0.00000  -0.00002   2.14406
   A12        2.04434  -0.00000   0.00001  -0.00000   0.00001   2.04435
   A13        2.09301   0.00000  -0.00006   0.00004  -0.00002   2.09299
   A14        2.09675  -0.00000   0.00004  -0.00003   0.00001   2.09676
   A15        2.09341  -0.00000   0.00002  -0.00001   0.00001   2.09342
   A16        2.07144   0.00000  -0.00001   0.00003   0.00001   2.07145
   A17        2.11995  -0.00000   0.00000  -0.00002  -0.00002   2.11993
   A18        2.09180  -0.00000   0.00001  -0.00000   0.00000   2.09180
    D1        0.00821  -0.00000   0.00020  -0.00002   0.00019   0.00840
    D2       -2.81485   0.00000   0.00255   0.00061   0.00316  -2.81169
    D3       -3.11326  -0.00000   0.00043  -0.00002   0.00041  -3.11286
    D4        0.34686   0.00000   0.00277   0.00060   0.00338   0.35023
    D5        0.00565   0.00000  -0.00001  -0.00006  -0.00007   0.00558
    D6       -3.13622   0.00000  -0.00005  -0.00000  -0.00005  -3.13627
    D7        3.12795  -0.00000  -0.00023  -0.00005  -0.00028   3.12767
    D8       -0.01392   0.00000  -0.00027   0.00000  -0.00026  -0.01418
    D9       -0.01229   0.00000  -0.00018   0.00005  -0.00013  -0.01242
   D10        3.10721   0.00000  -0.00046   0.00020  -0.00027   3.10694
   D11        2.80826  -0.00000  -0.00239  -0.00070  -0.00308   2.80517
   D12       -0.35543  -0.00000  -0.00267  -0.00055  -0.00323  -0.35866
   D13        0.00263  -0.00000  -0.00003  -0.00002  -0.00005   0.00258
   D14       -3.13960  -0.00000  -0.00001  -0.00007  -0.00008  -3.13967
   D15       -3.11679  -0.00000   0.00025  -0.00016   0.00010  -3.11669
   D16        0.02417  -0.00000   0.00028  -0.00021   0.00007   0.02424
   D17        0.01136  -0.00000   0.00023  -0.00006   0.00016   0.01152
   D18       -3.13507  -0.00000   0.00022  -0.00011   0.00012  -3.13496
   D19       -3.12964  -0.00000   0.00020  -0.00001   0.00019  -3.12945
   D20        0.00711  -0.00000   0.00020  -0.00006   0.00014   0.00726
   D21       -0.01531   0.00000  -0.00020   0.00010  -0.00010  -0.01542
   D22        3.12655   0.00000  -0.00017   0.00004  -0.00012   3.12643
   D23        3.13111   0.00000  -0.00020   0.00014  -0.00006   3.13105
   D24       -0.01021  -0.00000  -0.00017   0.00009  -0.00008  -0.01029
         Item               Value     Threshold  Converged?
 Maximum Force            0.000008     0.000015     YES
 RMS     Force            0.000002     0.000010     YES
 Maximum Displacement     0.007174     0.000060     NO 
 RMS     Displacement     0.001415     0.000040     NO 
 Predicted change in Energy=-9.749705D-09
 GradGradGradGradGradGradGradGradGradGradGradGradGradGradGradGradGradGrad

 Leave Link  103 at Mon Sep 28 09:14:46 2026, MaxMem=  1610612736 cpu:               0.2 elap:               0.0
 (Enter /share/software/user/restricted/gaussian/g16.B01/l202.exe)
                          Input orientation:                          
 ---------------------------------------------------------------------
 Center     Atomic      Atomic             Coordinates (Angstroms)
 Number     Number       Type             X           Y           Z
 ---------------------------------------------------------------------
      1          6           0        0.090444    1.289411   -1.157644
      2          6           0        0.135418    0.625302    0.043240
      3          6           0        0.096749   -0.750767    0.056982
      4          6           0       -0.002566   -1.460980   -1.142856
      5          6           0       -0.059452   -0.777220   -2.354507
      6          6           0       -0.003566    0.610371   -2.370146
      7         35           0        0.188496    3.210911   -1.239682
      8         35           0       -0.420644    1.907910    2.162766
      9         35           0        0.216588   -1.690863    1.725927
     10         35           0       -0.065154   -3.364656   -1.215239
     11          1           0       -0.142587   -1.325258   -3.284538
     12          1           0       -0.033726    1.140967   -3.314913
 ---------------------------------------------------------------------
                    Distance matrix (angstroms):
                    1          2          3          4          5
     1  C    0.000000
     2  C    1.373021   0.000000
     3  C    2.374380   1.376680   0.000000
     4  C    2.752003   2.403838   1.397812   0.000000
     5  C    2.392888   2.784642   2.416687   1.392430   0.000000
     6  C    1.392873   2.417431   2.784548   2.407641   1.388804
     7  Br   1.925748   2.886881   4.169490   4.676799   4.148434
     8  Br   3.415973   2.539031   3.430828   4.738285   5.267460
     9  Br   4.148847   2.864026   1.919250   2.886311   4.190571
    10  Br   4.657024   4.188528   2.911559   1.906080   2.827153
    11  H    3.378532   3.867309   3.398982   2.150541   1.082689
    12  H    2.165932   3.401722   3.868508   3.389533   2.145340
                    6          7          8          9         10
     6  C    0.000000
     7  Br   2.842120   0.000000
     8  Br   4.733376   3.693983   0.000000
     9  Br   4.703399   5.729137   3.680769   0.000000
    10  Br   4.139861   6.580503   6.271941   3.395794   0.000000
    11  H    2.145250   4.986771   6.340648   5.036609   2.906397
    12  H    1.083986   2.939495   5.544625   5.787226   4.970942
                   11         12
    11  H    0.000000
    12  H    2.468814   0.000000
 Stoichiometry    C6H2Br4(1-,2)
 Framework group  C1[X(C6H2Br4)]
 Deg. of freedom    30
 Full point group                 C1      NOp   1
 RotChk:  IX=1 Diff= 8.02D-04
 Largest Abelian subgroup         C1      NOp   1
 Largest concise Abelian subgroup C1      NOp   1
                         Standard orientation:                         
 ---------------------------------------------------------------------
 Center     Atomic      Atomic             Coordinates (Angstroms)
 Number     Number       Type             X           Y           Z
 ---------------------------------------------------------------------
      1          6           0        1.180336    1.286072   -0.052581
      2          6           0        0.627932    0.032874   -0.150210
      3          6           0       -0.740554   -0.108753   -0.100831
      4          6           0       -1.555855    1.014861    0.062428
      5          6           0       -0.984713    2.280003    0.172312
      6          6           0        0.394854    2.425391    0.105736
      7         35           0        3.084959    1.548442   -0.162487
      8         35           0        2.105349   -1.984195    0.291775
      9         35           0       -1.526062   -1.849248   -0.293636
     10         35           0       -3.457255    0.909404    0.144252
     11          1           0       -1.614140    3.150885    0.304986
     12          1           0        0.837469    3.412307    0.177259
 ---------------------------------------------------------------------
 Rotational constants (GHZ):           0.4861488           0.2178183           0.1520812
 Leave Link  202 at Mon Sep 28 09:14:46 2026, MaxMem=  1610612736 cpu:               0.0 elap:               0.0
 (Enter /share/software/user/restricted/gaussian/g16.B01/l301.exe)
 Standard basis: 6-311++G(d) (5D, 7F)
 Ernie: Thresh=  0.10000D-02 Tol=  0.10000D-05 Strict=F.
 There are   350 symmetry adapted cartesian basis functions of A   symmetry.
 There are   332 symmetry adapted basis functions of A   symmetry.
   332 basis functions,   604 primitive gaussians,   350 cartesian basis functions
    90 alpha electrons       89 beta electrons
       nuclear repulsion energy      1873.1012032922 Hartrees.
 IExCor= 4336 DFT=T Ex+Corr=M062X ExCW=0 ScaHFX=  0.540000
 ScaDFX=  1.000000  1.000000  1.000000  1.000000 ScalE2=  1.000000  1.000000
 IRadAn=      5 IRanWt=     -1 IRanGd=            0 ICorTp=0 IEmpDi=  4
 NAtoms=   12 NActive=   12 NUniq=   12 SFac= 1.00D+00 NAtFMM=   60 NAOKFM=F Big=F
 Integral buffers will be    131072 words long.
 Raffenetti 2 integral format.
 Two-electron integral symmetry is turned on.
 ------------------------------------------------------------------------------
 Polarizable Continuum Model (PCM)
 =================================
 Model                : PCM.
 Atomic radii         : SMD-Coulomb.
 Polarization charges : Total charges.
 Charge compensation  : None.
 Solution method      : Matrix inversion.
 Cavity type          : VdW (van der Waals Surface) (Alpha=1.000).
 Cavity algorithm     : GePol (No added spheres)
                        Default sphere list used, NSphG=   12.
                        Lebedev-Laikov grids with approx.  5.0 points / Ang**2.
                        Smoothing algorithm: York/Karplus (Gamma=1.0000).
                        Polarization charges: spherical gaussians, with
                                              point-specific exponents (IZeta= 3).
                        Self-potential: point-specific (ISelfS= 7).
                        Self-field    : sphere-specific E.n sum rule (ISelfD= 2).
 1st derivatives      : Analytical E(r).r(x)/FMM algorithm (CHGder, D1EAlg=3).
                        Cavity 1st derivative terms included.
 Solvent              : Water, Eps=  78.355300 Eps(inf)=   1.777849
 ------------------------------------------------------------------------------
 Spheres list:
 ISph  on   Nord     Re0    Alpha      Xe            Ye            Ze
    1   C      1    1.8500  1.000      1.180336      1.286072     -0.052581
    2   C      2    1.8500  1.000      0.627932      0.032874     -0.150210
    3   C      3    1.8500  1.000     -0.740554     -0.108753     -0.100831
    4   C      4    1.8500  1.000     -1.555855      1.014861      0.062428
    5   C      5    1.8500  1.000     -0.984713      2.280003      0.172312
    6   C      6    1.8500  1.000      0.394854      2.425391      0.105736
    7  Br      7    3.0600  1.000      3.084959      1.548442     -0.162487
    8  Br      8    3.0600  1.000      2.105349     -1.984195      0.291775
    9  Br      9    3.0600  1.000     -1.526062     -1.849248     -0.293636
   10  Br     10    3.0600  1.000     -3.457255      0.909404      0.144252
   11   H     11    1.2000  1.000     -1.614140      3.150885      0.304986
   12   H     12    1.2000  1.000      0.837469      3.412307      0.177259
 ------------------------------------------------------------------------------
 GePol: Number of generator spheres                  =      12
 GePol: Total number of spheres                      =      12
 GePol: Number of exposed spheres                    =      12 (100.00%)
 GePol: Number of points                             =    1875
 GePol: Average weight of points                     =       0.17
 GePol: Minimum weight of points                     =   0.11D-11
 GePol: Maximum weight of points                     =    0.22025
 GePol: Number of points with low weight             =      63
 GePol: Fraction of low-weight points (<1% of avg)   =       3.36%
 GePol: Cavity surface area                          =    321.452 Ang**2
 GePol: Cavity volume                                =    418.217 Ang**3
 ------------------------------------------------------------------------------
 Atomic radii for non-electrostatic terms: SMD-CDS.
 ------------------------------------------------------------------------------
 PCM non-electrostatic energy =         0.0002974823 Hartrees.
 Nuclear repulsion after PCM non-electrostatic terms =     1873.1015007744 Hartrees.
 Leave Link  301 at Mon Sep 28 09:14:46 2026, MaxMem=  1610612736 cpu:               0.8 elap:               0.1
 (Enter /share/software/user/restricted/gaussian/g16.B01/l302.exe)
 NPDir=0 NMtPBC=     1 NCelOv=     1 NCel=       1 NClECP=     1 NCelD=      1
         NCelK=      1 NCelE2=     1 NClLst=     1 CellRange=     0.0.
 One-electron integrals computed using PRISM.
 One-electron integral symmetry used in STVInt
 NBasis=   332 RedAO= T EigKep=  2.53D-06  NBF=   332
 NBsUse=   331 1.00D-06 EigRej=  4.90D-07 NBFU=   331
 Precomputing XC quadrature grid using
 IXCGrd= 4 IRadAn=           5 IRanWt=          -1 IRanGd=           0 AccXCQ= 0.00D+00.
 Generated NRdTot=       0 NPtTot=           0 NUsed=           0 NTot=          32
 NSgBfM=   337   337   337   337   337 MxSgAt=    12 MxSgA2=    12.
 Leave Link  302 at Mon Sep 28 09:14:47 2026, MaxMem=  1610612736 cpu:               2.0 elap:               0.3
 (Enter /share/software/user/restricted/gaussian/g16.B01/l303.exe)
 DipDrv:  MaxL=1.
 Leave Link  303 at Mon Sep 28 09:14:47 2026, MaxMem=  1610612736 cpu:               0.4 elap:               0.1
 (Enter /share/software/user/restricted/gaussian/g16.B01/l401.exe)
 Initial guess from the checkpoint file:  "calcs/m062x_smd/chks/BrBz_1234_RA.chk"
 B after Tr=     0.000000   -0.000000    0.000000
         Rot=    1.000000    0.000002    0.000008    0.000135 Ang=   0.02 deg.
 Guess basis will be translated and rotated to current coordinates.
 JPrj=2 DoOrth=T DoCkMO=T.
 Initial guess <Sx>= 0.0000 <Sy>= 0.0000 <Sz>= 0.5000 <S**2>= 0.7581 S= 0.5041
 Leave Link  401 at Mon Sep 28 09:14:47 2026, MaxMem=  1610612736 cpu:               2.7 elap:               0.3
 (Enter /share/software/user/restricted/gaussian/g16.B01/l502.exe)
 Integral symmetry usage will be decided dynamically.
 UHF open shell SCF:
 Using DIIS extrapolation, IDIIS=  1040.
 NGot=  1610612736 LenX=  1610361870 LenY=  1610238929
 Requested convergence on RMS density matrix=1.00D-08 within 128 cycles.
 Requested convergence on MAX density matrix=1.00D-06.
 Requested convergence on             energy=1.00D-06.
 No special actions if energy rises.
 Fock matrices will be formed incrementally for  20 cycles.

 Cycle   1  Pass 1  IDiag  1:
 FoFJK:  IHMeth= 1 ICntrl=       0 DoSepK=F KAlg= 0 I1Cent=           0 FoldK=F
 IRaf= 790000000 NMat=       1 IRICut=       1 DoRegI=T DoRafI=F ISym2E= 0 IDoP0=0 IntGTp=1.
 FoFCou: FMM=F IPFlag=           0 FMFlag=      100000 FMFlg1=           0
         NFxFlg=           0 DoJE=F BraDBF=F KetDBF=F FulRan=T
         wScrn=  0.000000 ICntrl=         0 IOpCl=  1 I1Cent=           0 NGrid=           0
         NMat0=    1 NMatS0=      1 NMatT0=    0 NMatD0=    1 NMtDS0=    0 NMtDT0=    0
 Symmetry not used in FoFCou.
 Inv3:  Mode=1 IEnd=    10546875.
 Iteration    1 A*A^-1 deviation from unit magnitude is 6.66D-15 for   1871.
 Iteration    1 A*A^-1 deviation from orthogonality  is 6.84D-15 for   1871   1173.
 Iteration    1 A^-1*A deviation from unit magnitude is 6.66D-15 for   1871.
 Iteration    1 A^-1*A deviation from orthogonality  is 2.21D-15 for   1023    242.
 E= -10526.5717266784    
 DIIS: error= 4.46D-04 at cycle   1 NSaved=   1.
 NSaved= 1 IEnMin= 1 EnMin= -10526.5717266784     IErMin= 1 ErrMin= 4.46D-04
 ErrMax= 4.46D-04  0.00D+00 EMaxC= 1.00D-01 BMatC= 1.02D-04 BMatP= 1.02D-04
 IDIUse=3 WtCom= 9.96D-01 WtEn= 4.46D-03
 Coeff-Com:  0.100D+01
 Coeff-En:   0.100D+01
 Coeff:      0.100D+01
 Gap=     0.370 Goal=   None    Shift=    0.000
 Gap=     0.427 Goal=   None    Shift=    0.000
 RMSDP=4.35D-05 MaxDP=2.70D-03              OVMax= 6.31D-04

 Cycle   2  Pass 1  IDiag  1:
 RMSU=  4.35D-05    CP:  1.00D+00
 E= -10526.5717318051     Delta-E=       -0.000005126671 Rises=F Damp=F
 DIIS: error= 2.59D-05 at cycle   2 NSaved=   2.
 NSaved= 2 IEnMin= 2 EnMin= -10526.5717318051     IErMin= 2 ErrMin= 2.59D-05
 ErrMax= 2.59D-05  0.00D+00 EMaxC= 1.00D-01 BMatC= 2.55D-07 BMatP= 1.02D-04
 IDIUse=1 WtCom= 1.00D+00 WtEn= 0.00D+00
 Coeff-Com: -0.916D-02 0.101D+01
 Coeff:     -0.916D-02 0.101D+01
 Gap=     0.212 Goal=   None    Shift=    0.000
 Gap=     0.217 Goal=   None    Shift=    0.000
 RMSDP=7.75D-06 MaxDP=3.70D-04 DE=-5.13D-06 OVMax= 2.70D-04

 Cycle   3  Pass 1  IDiag  1:
 RMSU=  6.80D-06    CP:  1.00D+00  1.09D+00
 E= -10526.5717320415     Delta-E=       -0.000000236418 Rises=F Damp=F
 DIIS: error= 7.59D-06 at cycle   3 NSaved=   3.
 NSaved= 3 IEnMin= 3 EnMin= -10526.5717320415     IErMin= 3 ErrMin= 7.59D-06
 ErrMax= 7.59D-06  0.00D+00 EMaxC= 1.00D-01 BMatC= 3.61D-08 BMatP= 2.55D-07
 IDIUse=1 WtCom= 1.00D+00 WtEn= 0.00D+00
 Coeff-Com: -0.152D-02-0.402D-01 0.104D+01
 Coeff:     -0.152D-02-0.402D-01 0.104D+01
 Gap=     0.212 Goal=   None    Shift=    0.000
 Gap=     0.217 Goal=   None    Shift=    0.000
 RMSDP=3.88D-06 MaxDP=1.42D-04 DE=-2.36D-07 OVMax= 1.42D-04

 Cycle   4  Pass 1  IDiag  1:
 RMSU=  3.07D-06    CP:  1.00D+00  1.13D+00  1.12D+00
 E= -10526.5717320675     Delta-E=       -0.000000025946 Rises=F Damp=F
 DIIS: error= 3.33D-06 at cycle   4 NSaved=   4.
 NSaved= 4 IEnMin= 4 EnMin= -10526.5717320675     IErMin= 4 ErrMin= 3.33D-06
 ErrMax= 3.33D-06  0.00D+00 EMaxC= 1.00D-01 BMatC= 3.34D-08 BMatP= 3.61D-08
 IDIUse=1 WtCom= 1.00D+00 WtEn= 0.00D+00
 Coeff-Com:  0.491D-03-0.174D+00 0.584D+00 0.589D+00
 Coeff:      0.491D-03-0.174D+00 0.584D+00 0.589D+00
 Gap=     0.212 Goal=   None    Shift=    0.000
 Gap=     0.217 Goal=   None    Shift=    0.000
 RMSDP=1.47D-06 MaxDP=7.40D-05 DE=-2.59D-08 OVMax= 6.52D-05

 Cycle   5  Pass 1  IDiag  1:
 RMSU=  1.08D-06    CP:  1.00D+00  1.14D+00  1.27D+00  1.03D+00
 E= -10526.5717320781     Delta-E=       -0.000000010685 Rises=F Damp=F
 DIIS: error= 1.72D-06 at cycle   5 NSaved=   5.
 NSaved= 5 IEnMin= 5 EnMin= -10526.5717320781     IErMin= 5 ErrMin= 1.72D-06
 ErrMax= 1.72D-06  0.00D+00 EMaxC= 1.00D-01 BMatC= 2.50D-09 BMatP= 3.34D-08
 IDIUse=1 WtCom= 1.00D+00 WtEn= 0.00D+00
 Coeff-Com:  0.362D-03-0.668D-01 0.123D+00 0.220D+00 0.723D+00
 Coeff:      0.362D-03-0.668D-01 0.123D+00 0.220D+00 0.723D+00
 Gap=     0.212 Goal=   None    Shift=    0.000
 Gap=     0.217 Goal=   None    Shift=    0.000
 RMSDP=1.19D-06 MaxDP=5.19D-05 DE=-1.07D-08 OVMax= 3.95D-05

 Cycle   6  Pass 1  IDiag  1:
 RMSU=  8.01D-07    CP:  1.00D+00  1.13D+00  1.32D+00  8.69D-01  5.97D-01
 E= -10526.5717320801     Delta-E=       -0.000000001919 Rises=F Damp=F
 DIIS: error= 6.56D-07 at cycle   6 NSaved=   6.
 NSaved= 6 IEnMin= 6 EnMin= -10526.5717320801     IErMin= 6 ErrMin= 6.56D-07
 ErrMax= 6.56D-07  0.00D+00 EMaxC= 1.00D-01 BMatC= 7.84D-10 BMatP= 2.50D-09
 IDIUse=1 WtCom= 1.00D+00 WtEn= 0.00D+00
 Coeff-Com: -0.258D-05 0.298D-01-0.142D+00-0.113D+00 0.298D+00 0.928D+00
 Coeff:     -0.258D-05 0.298D-01-0.142D+00-0.113D+00 0.298D+00 0.928D+00
 Gap=     0.212 Goal=   None    Shift=    0.000
 Gap=     0.217 Goal=   None    Shift=    0.000
 RMSDP=5.42D-07 MaxDP=2.46D-05 DE=-1.92D-09 OVMax= 3.69D-05

 Cycle   7  Pass 1  IDiag  1:
 RMSU=  2.10D-07    CP:  1.00D+00  1.13D+00  1.36D+00  8.39D-01  7.27D-01
                    CP:  1.42D+00
 E= -10526.5717320810     Delta-E=       -0.000000000906 Rises=F Damp=F
 DIIS: error= 3.58D-07 at cycle   7 NSaved=   7.
 NSaved= 7 IEnMin= 7 EnMin= -10526.5717320810     IErMin= 7 ErrMin= 3.58D-07
 ErrMax= 3.58D-07  0.00D+00 EMaxC= 1.00D-01 BMatC= 1.29D-10 BMatP= 7.84D-10
 IDIUse=1 WtCom= 1.00D+00 WtEn= 0.00D+00
 Coeff-Com: -0.970D-04 0.297D-01-0.894D-01-0.925D-01-0.431D-01 0.314D+00
 Coeff-Com:  0.881D+00
 Coeff:     -0.970D-04 0.297D-01-0.894D-01-0.925D-01-0.431D-01 0.314D+00
 Coeff:      0.881D+00
 Gap=     0.212 Goal=   None    Shift=    0.000
 Gap=     0.217 Goal=   None    Shift=    0.000
 RMSDP=2.04D-07 MaxDP=1.00D-05 DE=-9.06D-10 OVMax= 1.82D-05

 Cycle   8  Pass 1  IDiag  1:
 RMSU=  1.01D-07    CP:  1.00D+00  1.13D+00  1.36D+00  8.61D-01  7.96D-01
                    CP:  1.58D+00  1.19D+00
 E= -10526.5717320812     Delta-E=       -0.000000000195 Rises=F Damp=F
 DIIS: error= 1.07D-07 at cycle   8 NSaved=   8.
 NSaved= 8 IEnMin= 8 EnMin= -10526.5717320812     IErMin= 8 ErrMin= 1.07D-07
 ErrMax= 1.07D-07  0.00D+00 EMaxC= 1.00D-01 BMatC= 2.86D-11 BMatP= 1.29D-10
 IDIUse=1 WtCom= 1.00D+00 WtEn= 0.00D+00
 Coeff-Com: -0.450D-04 0.997D-02-0.234D-01-0.288D-01-0.531D-01 0.222D-01
 Coeff-Com:  0.381D+00 0.692D+00
 Coeff:     -0.450D-04 0.997D-02-0.234D-01-0.288D-01-0.531D-01 0.222D-01
 Coeff:      0.381D+00 0.692D+00
 Gap=     0.212 Goal=   None    Shift=    0.000
 Gap=     0.217 Goal=   None    Shift=    0.000
 RMSDP=5.31D-08 MaxDP=2.12D-06 DE=-1.95D-10 OVMax= 4.30D-06

 Cycle   9  Pass 1  IDiag  1:
 RMSU=  3.11D-08    CP:  1.00D+00  1.13D+00  1.36D+00  8.65D-01  7.99D-01
                    CP:  1.61D+00  1.34D+00  1.13D+00
 E= -10526.5717320812     Delta-E=       -0.000000000016 Rises=F Damp=F
 DIIS: error= 4.25D-08 at cycle   9 NSaved=   9.
 NSaved= 9 IEnMin= 9 EnMin= -10526.5717320812     IErMin= 9 ErrMin= 4.25D-08
 ErrMax= 4.25D-08  0.00D+00 EMaxC= 1.00D-01 BMatC= 4.58D-12 BMatP= 2.86D-11
 IDIUse=1 WtCom= 1.00D+00 WtEn= 0.00D+00
 Coeff-Com:  0.831D-05-0.409D-02 0.149D-01 0.123D-01-0.834D-02-0.750D-01
 Coeff-Com: -0.874D-01 0.260D+00 0.888D+00
 Coeff:      0.831D-05-0.409D-02 0.149D-01 0.123D-01-0.834D-02-0.750D-01
 Coeff:     -0.874D-01 0.260D+00 0.888D+00
 Gap=     0.212 Goal=   None    Shift=    0.000
 Gap=     0.217 Goal=   None    Shift=    0.000
 RMSDP=3.13D-08 MaxDP=1.54D-06 DE=-1.64D-11 OVMax= 2.02D-06

 Cycle  10  Pass 1  IDiag  1:
 RMSU=  1.36D-08    CP:  1.00D+00  1.13D+00  1.36D+00  8.63D-01  8.05D-01
                    CP:  1.61D+00  1.41D+00  1.33D+00  1.15D+00
 E= -10526.5717320812     Delta-E=        0.000000000005 Rises=F Damp=F
 DIIS: error= 2.63D-08 at cycle  10 NSaved=  10.
 NSaved=10 IEnMin= 9 EnMin= -10526.5717320812     IErMin=10 ErrMin= 2.63D-08
 ErrMax= 2.63D-08  0.00D+00 EMaxC= 1.00D-01 BMatC= 8.46D-13 BMatP= 4.58D-12
 IDIUse=1 WtCom= 1.00D+00 WtEn= 0.00D+00
 Coeff-Com:  0.711D-05-0.268D-02 0.883D-02 0.796D-02 0.370D-03-0.382D-01
 Coeff-Com: -0.679D-01 0.768D-01 0.434D+00 0.581D+00
 Coeff:      0.711D-05-0.268D-02 0.883D-02 0.796D-02 0.370D-03-0.382D-01
 Coeff:     -0.679D-01 0.768D-01 0.434D+00 0.581D+00
 Gap=     0.212 Goal=   None    Shift=    0.000
 Gap=     0.217 Goal=   None    Shift=    0.000
 RMSDP=7.92D-09 MaxDP=2.74D-07 DE= 5.46D-12 OVMax= 3.17D-07

 Error on total polarization charges =  0.00777
 SCF Done:  E(UM062X) =  -10526.5717321     A.U. after   10 cycles
            NFock= 10  Conv=0.79D-08     -V/T= 2.0012
 <Sx>= 0.0000 <Sy>= 0.0000 <Sz>= 0.5000 <S**2>= 0.7581 S= 0.5041
 <L.S>=  0.00000000000    
 KE= 1.051344167416D+04 PE=-2.892082239672D+04 EE= 6.007707489709D+03
 SMD-CDS (non-electrostatic) energy       (kcal/mol) =       0.19
 (included in total energy above)
 Annihilation of the first spin contaminant:
 S**2 before annihilation     0.7581,   after     0.7500
 Leave Link  502 at Mon Sep 28 09:16:28 2026, MaxMem=  1610612736 cpu:             806.8 elap:             101.1
 (Enter /share/software/user/restricted/gaussian/g16.B01/l701.exe)
 ... and contract with generalized density number  0.
 Compute integral first derivatives.
 D1PCM: PCM CHGder 1st derivatives, ID1Alg=3 FixD1E=F DoIter=F DoCFld=F I1PDM=0.
 GePol: Maximum number of non-zero 1st derivatives   =     472
 Leave Link  701 at Mon Sep 28 09:16:30 2026, MaxMem=  1610612736 cpu:              14.1 elap:               1.8
 (Enter /share/software/user/restricted/gaussian/g16.B01/l702.exe)
 L702 exits ... SP integral derivatives will be done elsewhere.
 Leave Link  702 at Mon Sep 28 09:16:30 2026, MaxMem=  1610612736 cpu:               0.2 elap:               0.0
 (Enter /share/software/user/restricted/gaussian/g16.B01/l703.exe)
 Integral derivatives from FoFJK, PRISM(SPDF).
 Compute integral first derivatives, UseDBF=F ICtDFT=           0.
 Calling FoFJK, ICntrl=      2127 FMM=F ISym2X=0 I1Cent= 0 IOpClX= 1 NMat=1 NMatS=1 NMatT=0.
 FoFJK:  IHMeth= 1 ICntrl=    2127 DoSepK=F KAlg= 0 I1Cent=           0 FoldK=F
 IRaf=         0 NMat=       1 IRICut=       1 DoRegI=T DoRafI=F ISym2E= 0 IDoP0=0 IntGTp=1.
 FoFCou: FMM=F IPFlag=           0 FMFlag=      100000 FMFlg1=         800
         NFxFlg=           0 DoJE=F BraDBF=F KetDBF=F FulRan=T
         wScrn=  0.000000 ICntrl=      2127 IOpCl=  1 I1Cent=           0 NGrid=           0
         NMat0=    1 NMatS0=      1 NMatT0=    0 NMatD0=    1 NMtDS0=    0 NMtDT0=    0
 Symmetry not used in FoFCou.
 Leave Link  703 at Mon Sep 28 09:16:46 2026, MaxMem=  1610612736 cpu:             130.2 elap:              16.3
 (Enter /share/software/user/restricted/gaussian/g16.B01/l716.exe)
 Dipole        =-2.51762720D+00 2.92184197D+00-1.44241344D-01
 ***** Axes restored to original set *****
 -------------------------------------------------------------------
 Center     Atomic                   Forces (Hartrees/Bohr)
 Number     Number              X              Y              Z
 -------------------------------------------------------------------
      1        6          -0.000004450    0.000003408    0.000004967
      2        6           0.000002576   -0.000006035    0.000000291
      3        6           0.000009599   -0.000007087   -0.000004744
      4        6           0.000002591    0.000000145   -0.000005255
      5        6          -0.000006155    0.000005946   -0.000003325
      6        6          -0.000008483    0.000008474    0.000003880
      7       35          -0.000007536   -0.000002644    0.000015302
      8       35           0.000011412   -0.000013626    0.000013428
      9       35           0.000018309   -0.000011966   -0.000009457
     10       35           0.000006349    0.000001515   -0.000015711
     11        1          -0.000009077    0.000010416   -0.000005521
     12        1          -0.000015135    0.000011454    0.000006144
 -------------------------------------------------------------------
 Cartesian Forces:  Max     0.000018309 RMS     0.000008839
 Leave Link  716 at Mon Sep 28 09:16:47 2026, MaxMem=  1610612736 cpu:               0.4 elap:               0.1
 (Enter /share/software/user/restricted/gaussian/g16.B01/l103.exe)

 GradGradGradGradGradGradGradGradGradGradGradGradGradGradGradGradGradGrad
 Berny optimization.
 Using GEDIIS/GDIIS optimizer.
 FormGI is forming the generalized inverse of G from B-inverse, IUseBI=4.
 Internal  Forces:  Max     0.000004149 RMS     0.000001123
 Search for a local minimum.
 Step number  13 out of a maximum of   64
 All quantities printed in internal units (Hartrees-Bohrs-Radians)
 RMS Force = .11232D-05 SwitMx=.10000D-02 MixMth= 2
 Mixed Optimization -- En-DIIS/RFO-DIIS
 Swapping is turned off.
 Update second derivatives using D2CorX and points    3    2    4    5    6
                                                      7    8    9   10   11
                                                     12   13
 DE= -3.60D-07 DEPred=-9.75D-09 R= 3.69D+01
 Trust test= 3.69D+01 RLast= 6.53D-03 DXMaxT set to 2.52D-01
 ITU=  0 -1  0  1  1  1  0  1  1  1  0  1  0
     Eigenvalues ---    0.00033   0.01023   0.01777   0.01976   0.02259
     Eigenvalues ---    0.02357   0.02647   0.02861   0.03128   0.03299
     Eigenvalues ---    0.09556   0.11190   0.11980   0.12341   0.13114
     Eigenvalues ---    0.15829   0.16905   0.20023   0.21547   0.22743
     Eigenvalues ---    0.25769   0.25955   0.35831   0.35997   0.37440
     Eigenvalues ---    0.44487   0.45564   0.49736   0.51475   0.54178
 En-DIIS/RFO-DIIS/Sim-DIIS IScMMF=       -3 using points:    13   12   11   10    9    8    7    6    5    4
 RFO step:  Lambda=-4.45495610D-10.
 NNeg= 0 NGDIIS=10 SimSw=  2.50D-03 Rises=F DC= -3.60D-07 SmlDif=  1.00D-05
 NRisDI= 0 DoIntr=F SqrtH=F CThrHd= 10.0 CDAdj=  3.0
 RMS Error=  0.2799401911D-03 NUsed=10 OKEnD=F EnDIS=F
 InvSVX:  RCond= 1.41D-10 Info=           0 Equed=N FErr=  1.84D-09 BErr=  1.05D-16
 DIIS inversion failure, remove point  10.
 InvSVX:  RCond= 2.88D-10 Info=           0 Equed=N FErr=  1.55D-09 BErr=  7.94D-17
 DIIS inversion failure, remove point   9.
 InvSVX:  RCond= 3.87D-10 Info=           0 Equed=N FErr=  1.37D-09 BErr=  8.70D-17
 DIIS inversion failure, remove point   8.
 InvSVX:  RCond= 1.42D-09 Info=           0 Equed=N FErr=  2.91D-10 BErr=  7.85D-17
 DIIS inversion failure, remove point   7.
 InvSVX:  RCond= 7.37D-10 Info=           0 Equed=N FErr=  8.28D-11 BErr=  8.90D-17
 DIIS inversion failure, remove point   6.
 InvSVX:  RCond= 7.34D-09 Info=           0 Equed=N FErr=  2.36D-12 BErr=  2.87D-17
 DIIS inversion failure, remove point   5.
 InvSVX:  RCond= 1.37D-08 Info=           0 Equed=N FErr=  6.87D-13 BErr=  8.04D-17
 DIIS inversion failure, remove point   4.
 InvSVX:  RCond= 1.35D-08 Info=           0 Equed=N FErr=  4.58D-13 BErr=  6.38D-17
 DIIS inversion failure, remove point   3.
 InvSVX:  RCond= 1.07D-05 Info=           0 Equed=N FErr=  1.68D-15 BErr=  7.34D-17
 RFO-DIIS uses    2 points instead of   10
 DidBck=F Rises=F RFO-DIIS coefs:    1.31312   -0.31312    0.00000    0.00000    0.00000
                  RFO-DIIS coefs:    0.00000    0.00000    0.00000    0.00000    0.00000
 Iteration  1 RMS(Cart)=  0.00045351 RMS(Int)=  0.00000020
 Iteration  2 RMS(Cart)=  0.00000013 RMS(Int)=  0.00000014
 ITry= 1 IFail=0 DXMaxC= 2.32D-03 DCOld= 1.00D+10 DXMaxT= 2.52D-01 DXLimC= 3.00D+00 Rises=F
 Variable       Old X    -DE/DX   Delta X   Delta X   Delta X     New X
                                 (Linear)    (Quad)   (Total)
    R1        2.59463  -0.00000   0.00001   0.00000   0.00001   2.59465
    R2        2.63215  -0.00000  -0.00001  -0.00000  -0.00001   2.63214
    R3        3.63914  -0.00000   0.00000  -0.00004  -0.00004   3.63910
    R4        2.60155   0.00000   0.00002   0.00000   0.00002   2.60157
    R5        4.79807   0.00000  -0.00020   0.00016  -0.00005   4.79802
    R6        2.64148  -0.00000  -0.00000  -0.00000  -0.00001   2.64148
    R7        3.62686  -0.00000  -0.00001  -0.00002  -0.00003   3.62682
    R8        2.63131   0.00000  -0.00000   0.00001   0.00000   2.63132
    R9        3.60197  -0.00000   0.00000  -0.00001  -0.00001   3.60196
   R10        2.62446   0.00000   0.00000   0.00000   0.00001   2.62446
   R11        2.04599   0.00000  -0.00000   0.00000   0.00000   2.04599
   R12        2.04844   0.00000  -0.00000   0.00000  -0.00000   2.04844
    A1        2.12678   0.00000   0.00001  -0.00001   0.00000   2.12678
    A2        2.11555  -0.00000  -0.00002   0.00000  -0.00002   2.11553
    A3        2.04069   0.00000   0.00001   0.00001   0.00002   2.04071
    A4        2.08436   0.00000  -0.00002   0.00001  -0.00001   2.08435
    A5        2.06987  -0.00000  -0.00009  -0.00002  -0.00011   2.06976
    A6        2.08340   0.00000  -0.00015   0.00002  -0.00013   2.08327
    A7        2.09589  -0.00000   0.00001  -0.00001   0.00000   2.09589
    A8        2.09040  -0.00000  -0.00002  -0.00000  -0.00003   2.09037
    A9        2.09669   0.00000   0.00001   0.00001   0.00002   2.09671
   A10        2.09478  -0.00000   0.00000  -0.00000   0.00000   2.09478
   A11        2.14406   0.00000  -0.00001  -0.00000  -0.00001   2.14405
   A12        2.04435  -0.00000   0.00000   0.00000   0.00000   2.04435
   A13        2.09299   0.00000  -0.00001   0.00000  -0.00000   2.09298
   A14        2.09676  -0.00000   0.00000  -0.00000   0.00000   2.09676
   A15        2.09342   0.00000   0.00000  -0.00000   0.00000   2.09343
   A16        2.07145  -0.00000   0.00000   0.00000   0.00001   2.07145
   A17        2.11993  -0.00000  -0.00001  -0.00001  -0.00001   2.11992
   A18        2.09180   0.00000   0.00000   0.00000   0.00000   2.09181
    D1        0.00840   0.00000   0.00006   0.00005   0.00011   0.00851
    D2       -2.81169  -0.00000   0.00099   0.00001   0.00099  -2.81070
    D3       -3.11286   0.00000   0.00013   0.00008   0.00021  -3.11265
    D4        0.35023   0.00000   0.00106   0.00003   0.00109   0.35132
    D5        0.00558  -0.00000  -0.00002  -0.00003  -0.00005   0.00552
    D6       -3.13627  -0.00000  -0.00002  -0.00003  -0.00004  -3.13632
    D7        3.12767  -0.00000  -0.00009  -0.00006  -0.00015   3.12752
    D8       -0.01418  -0.00000  -0.00008  -0.00005  -0.00013  -0.01432
    D9       -0.01242  -0.00000  -0.00004  -0.00004  -0.00008  -0.01249
   D10        3.10694  -0.00000  -0.00008  -0.00001  -0.00010   3.10684
   D11        2.80517  -0.00000  -0.00097   0.00000  -0.00096   2.80421
   D12       -0.35866  -0.00000  -0.00101   0.00003  -0.00098  -0.35964
   D13        0.00258   0.00000  -0.00001   0.00000  -0.00001   0.00256
   D14       -3.13967   0.00000  -0.00002   0.00000  -0.00002  -3.13969
   D15       -3.11669  -0.00000   0.00003  -0.00002   0.00001  -3.11669
   D16        0.02424  -0.00000   0.00002  -0.00002  -0.00000   0.02424
   D17        0.01152   0.00000   0.00005   0.00002   0.00007   0.01159
   D18       -3.13496  -0.00000   0.00004   0.00000   0.00004  -3.13492
   D19       -3.12945   0.00000   0.00006   0.00002   0.00008  -3.12937
   D20        0.00726  -0.00000   0.00005   0.00000   0.00005   0.00731
   D21       -0.01542  -0.00000  -0.00003  -0.00001  -0.00004  -0.01546
   D22        3.12643  -0.00000  -0.00004  -0.00001  -0.00005   3.12638
   D23        3.13105   0.00000  -0.00002   0.00001  -0.00001   3.13104
   D24       -0.01029  -0.00000  -0.00002   0.00001  -0.00002  -0.01031
         Item               Value     Threshold  Converged?
 Maximum Force            0.000004     0.000015     YES
 RMS     Force            0.000001     0.000010     YES
 Maximum Displacement     0.002315     0.000060     NO 
 RMS     Displacement     0.000454     0.000040     NO 
 Predicted change in Energy=-1.169089D-09
 Lowest energy point so far.  Saving SCF results.
 GradGradGradGradGradGradGradGradGradGradGradGradGradGradGradGradGradGrad

 Leave Link  103 at Mon Sep 28 09:16:47 2026, MaxMem=  1610612736 cpu:               0.3 elap:               0.0
 (Enter /share/software/user/restricted/gaussian/g16.B01/l202.exe)
                          Input orientation:                          
 ---------------------------------------------------------------------
 Center     Atomic      Atomic             Coordinates (Angstroms)
 Number     Number       Type             X           Y           Z
 ---------------------------------------------------------------------
      1          6           0        0.090705    1.289427   -1.157635
      2          6           0        0.135788    0.625317    0.043253
      3          6           0        0.097037   -0.750758    0.056995
      4          6           0       -0.002559   -1.460960   -1.142824
      5          6           0       -0.059662   -0.777193   -2.354463
      6          6           0       -0.003626    0.610394   -2.370112
      7         35           0        0.189203    3.210882   -1.239674
      8         35           0       -0.421869    1.907693    2.162469
      9         35           0        0.217187   -1.690821    1.725915
     10         35           0       -0.065240   -3.364630   -1.215189
     11          1           0       -0.143054   -1.325224   -3.284476
     12          1           0       -0.033909    1.141000   -3.314870
 ---------------------------------------------------------------------
                    Distance matrix (angstroms):
                    1          2          3          4          5
     1  C    0.000000
     2  C    1.373029   0.000000
     3  C    2.374389   1.376689   0.000000
     4  C    2.752008   2.403844   1.397809   0.000000
     5  C    2.392891   2.784650   2.416688   1.392433   0.000000
     6  C    1.392869   2.417434   2.784550   2.407644   1.388807
     7  Br   1.925726   2.886850   4.169465   4.676780   4.148426
     8  Br   3.415856   2.539005   3.430692   4.737996   5.267113
     9  Br   4.148824   2.863996   1.919232   2.886310   4.190567
    10  Br   4.657025   4.188528   2.911548   1.906076   2.827155
    11  H    3.378535   3.867317   3.398983   2.150544   1.082689
    12  H    2.165923   3.401722   3.868510   3.389537   2.145346
                    6          7          8          9         10
     6  C    0.000000
     7  Br   2.842114   0.000000
     8  Br   4.733096   3.694088   0.000000
     9  Br   4.703381   5.729066   3.680798   0.000000
    10  Br   4.139863   6.580479   6.271615   3.395806   0.000000
    11  H    2.145255   4.986770   6.340244   5.036612   2.906404
    12  H    1.083986   2.939495   5.544328   5.787208   4.970950
                   11         12
    11  H    0.000000
    12  H    2.468825   0.000000
 Stoichiometry    C6H2Br4(1-,2)
 Framework group  C1[X(C6H2Br4)]
 Deg. of freedom    30
 Full point group                 C1      NOp   1
 RotChk:  IX=1 Diff= 2.58D-04
 Largest Abelian subgroup         C1      NOp   1
 Largest concise Abelian subgroup C1      NOp   1
                         Standard orientation:                         
 ---------------------------------------------------------------------
 Center     Atomic      Atomic             Coordinates (Angstroms)
 Number     Number       Type             X           Y           Z
 ---------------------------------------------------------------------
      1          6           0        1.180469    1.285965   -0.052649
      2          6           0        0.627975    0.032822   -0.150579
      3          6           0       -0.740523   -0.108727   -0.101101
      4          6           0       -1.555727    1.014883    0.062652
      5          6           0       -0.984487    2.279947    0.172947
      6          6           0        0.395082    2.425271    0.106202
      7         35           0        3.085056    1.548244   -0.163014
      8         35           0        2.105032   -1.984209    0.292634
      9         35           0       -1.526127   -1.849095   -0.294481
     10         35           0       -3.457123    0.909519    0.144608
     11          1           0       -1.613839    3.150819    0.306040
     12          1           0        0.837776    3.412131    0.177999
 ---------------------------------------------------------------------
 Rotational constants (GHZ):           0.4861390           0.2178194           0.1520906
 Leave Link  202 at Mon Sep 28 09:16:47 2026, MaxMem=  1610612736 cpu:               0.0 elap:               0.0
 (Enter /share/software/user/restricted/gaussian/g16.B01/l301.exe)
 Standard basis: 6-311++G(d) (5D, 7F)
 Ernie: Thresh=  0.10000D-02 Tol=  0.10000D-05 Strict=F.
 There are   350 symmetry adapted cartesian basis functions of A   symmetry.
 There are   332 symmetry adapted basis functions of A   symmetry.
   332 basis functions,   604 primitive gaussians,   350 cartesian basis functions
    90 alpha electrons       89 beta electrons
       nuclear repulsion energy      1873.1112953582 Hartrees.
 IExCor= 4336 DFT=T Ex+Corr=M062X ExCW=0 ScaHFX=  0.540000
 ScaDFX=  1.000000  1.000000  1.000000  1.000000 ScalE2=  1.000000  1.000000
 IRadAn=      5 IRanWt=     -1 IRanGd=            0 ICorTp=0 IEmpDi=  4
 NAtoms=   12 NActive=   12 NUniq=   12 SFac= 1.00D+00 NAtFMM=   60 NAOKFM=F Big=F
 Integral buffers will be    131072 words long.
 Raffenetti 2 integral format.
 Two-electron integral symmetry is turned on.
 ------------------------------------------------------------------------------
 Polarizable Continuum Model (PCM)
 =================================
 Model                : PCM.
 Atomic radii         : SMD-Coulomb.
 Polarization charges : Total charges.
 Charge compensation  : None.
 Solution method      : Matrix inversion.
 Cavity type          : VdW (van der Waals Surface) (Alpha=1.000).
 Cavity algorithm     : GePol (No added spheres)
                        Default sphere list used, NSphG=   12.
                        Lebedev-Laikov grids with approx.  5.0 points / Ang**2.
                        Smoothing algorithm: York/Karplus (Gamma=1.0000).
                        Polarization charges: spherical gaussians, with
                                              point-specific exponents (IZeta= 3).
                        Self-potential: point-specific (ISelfS= 7).
                        Self-field    : sphere-specific E.n sum rule (ISelfD= 2).
 1st derivatives      : Analytical E(r).r(x)/FMM algorithm (CHGder, D1EAlg=3).
                        Cavity 1st derivative terms included.
 Solvent              : Water, Eps=  78.355300 Eps(inf)=   1.777849
 ------------------------------------------------------------------------------
 Spheres list:
 ISph  on   Nord     Re0    Alpha      Xe            Ye            Ze
    1   C      1    1.8500  1.000      1.180469      1.285965     -0.052649
    2   C      2    1.8500  1.000      0.627975      0.032822     -0.150579
    3   C      3    1.8500  1.000     -0.740523     -0.108727     -0.101101
    4   C      4    1.8500  1.000     -1.555727      1.014883      0.062652
    5   C      5    1.8500  1.000     -0.984487      2.279947      0.172947
    6   C      6    1.8500  1.000      0.395082      2.425271      0.106202
    7  Br      7    3.0600  1.000      3.085056      1.548244     -0.163014
    8  Br      8    3.0600  1.000      2.105032     -1.984209      0.292634
    9  Br      9    3.0600  1.000     -1.526127     -1.849095     -0.294481
   10  Br     10    3.0600  1.000     -3.457123      0.909519      0.144608
   11   H     11    1.2000  1.000     -1.613839      3.150819      0.306040
   12   H     12    1.2000  1.000      0.837776      3.412131      0.177999
 ------------------------------------------------------------------------------
 GePol: Number of generator spheres                  =      12
 GePol: Total number of spheres                      =      12
 GePol: Number of exposed spheres                    =      12 (100.00%)
 GePol: Number of points                             =    1873
 GePol: Average weight of points                     =       0.17
 GePol: Minimum weight of points                     =   0.56D-10
 GePol: Maximum weight of points                     =    0.22025
 GePol: Number of points with low weight             =      61
 GePol: Fraction of low-weight points (<1% of avg)   =       3.26%
 GePol: Cavity surface area                          =    321.447 Ang**2
 GePol: Cavity volume                                =    418.214 Ang**3
 ------------------------------------------------------------------------------
 Atomic radii for non-electrostatic terms: SMD-CDS.
 ------------------------------------------------------------------------------
 PCM non-electrostatic energy =         0.0002974322 Hartrees.
 Nuclear repulsion after PCM non-electrostatic terms =     1873.1115927904 Hartrees.
 Leave Link  301 at Mon Sep 28 09:16:47 2026, MaxMem=  1610612736 cpu:               0.8 elap:               0.1
 (Enter /share/software/user/restricted/gaussian/g16.B01/l302.exe)
 NPDir=0 NMtPBC=     1 NCelOv=     1 NCel=       1 NClECP=     1 NCelD=      1
         NCelK=      1 NCelE2=     1 NClLst=     1 CellRange=     0.0.
 One-electron integrals computed using PRISM.
 One-electron integral symmetry used in STVInt
 NBasis=   332 RedAO= T EigKep=  2.54D-06  NBF=   332
 NBsUse=   331 1.00D-06 EigRej=  4.90D-07 NBFU=   331
 Precomputing XC quadrature grid using
 IXCGrd= 4 IRadAn=           5 IRanWt=          -1 IRanGd=           0 AccXCQ= 0.00D+00.
 Generated NRdTot=       0 NPtTot=           0 NUsed=           0 NTot=          32
 NSgBfM=   337   337   337   337   337 MxSgAt=    12 MxSgA2=    12.
 Leave Link  302 at Mon Sep 28 09:16:47 2026, MaxMem=  1610612736 cpu:               2.0 elap:               0.3
 (Enter /share/software/user/restricted/gaussian/g16.B01/l303.exe)
 DipDrv:  MaxL=1.
 Leave Link  303 at Mon Sep 28 09:16:47 2026, MaxMem=  1610612736 cpu:               0.4 elap:               0.1
 (Enter /share/software/user/restricted/gaussian/g16.B01/l401.exe)
 Initial guess from the checkpoint file:  "calcs/m062x_smd/chks/BrBz_1234_RA.chk"
 B after Tr=    -0.000000    0.000000    0.000000
         Rot=    1.000000   -0.000000    0.000002    0.000031 Ang=  -0.00 deg.
 Guess basis will be translated and rotated to current coordinates.
 JPrj=2 DoOrth=T DoCkMO=T.
 Initial guess <Sx>= 0.0000 <Sy>= 0.0000 <Sz>= 0.5000 <S**2>= 0.7581 S= 0.5041
 Leave Link  401 at Mon Sep 28 09:16:48 2026, MaxMem=  1610612736 cpu:               2.3 elap:               0.3
 (Enter /share/software/user/restricted/gaussian/g16.B01/l502.exe)
 Integral symmetry usage will be decided dynamically.
 UHF open shell SCF:
 Using DIIS extrapolation, IDIIS=  1040.
 NGot=  1610612736 LenX=  1610361870 LenY=  1610238929
 Requested convergence on RMS density matrix=1.00D-08 within 128 cycles.
 Requested convergence on MAX density matrix=1.00D-06.
 Requested convergence on             energy=1.00D-06.
 No special actions if energy rises.
 Fock matrices will be formed incrementally for  20 cycles.

 Cycle   1  Pass 1  IDiag  1:
 FoFJK:  IHMeth= 1 ICntrl=       0 DoSepK=F KAlg= 0 I1Cent=           0 FoldK=F
 IRaf= 790000000 NMat=       1 IRICut=       1 DoRegI=T DoRafI=F ISym2E= 0 IDoP0=0 IntGTp=1.
 FoFCou: FMM=F IPFlag=           0 FMFlag=      100000 FMFlg1=           0
         NFxFlg=           0 DoJE=F BraDBF=F KetDBF=F FulRan=T
         wScrn=  0.000000 ICntrl=         0 IOpCl=  1 I1Cent=           0 NGrid=           0
         NMat0=    1 NMatS0=      1 NMatT0=    0 NMatD0=    1 NMtDS0=    0 NMtDT0=    0
 Symmetry not used in FoFCou.
 Inv3:  Mode=1 IEnd=    10524387.
 Iteration    1 A*A^-1 deviation from unit magnitude is 4.00D-15 for   1843.
 Iteration    1 A*A^-1 deviation from orthogonality  is 3.55D-15 for   1867   1170.
 Iteration    1 A^-1*A deviation from unit magnitude is 4.00D-15 for   1843.
 Iteration    1 A^-1*A deviation from orthogonality  is 1.49D-15 for   1844   1652.
 E= -10526.5717316078    
 DIIS: error= 1.42D-04 at cycle   1 NSaved=   1.
 NSaved= 1 IEnMin= 1 EnMin= -10526.5717316078     IErMin= 1 ErrMin= 1.42D-04
 ErrMax= 1.42D-04  0.00D+00 EMaxC= 1.00D-01 BMatC= 1.07D-05 BMatP= 1.07D-05
 IDIUse=3 WtCom= 9.99D-01 WtEn= 1.42D-03
 Coeff-Com:  0.100D+01
 Coeff-En:   0.100D+01
 Coeff:      0.100D+01
 Gap=     0.370 Goal=   None    Shift=    0.000
 Gap=     0.427 Goal=   None    Shift=    0.000
 RMSDP=1.30D-05 MaxDP=7.70D-04              OVMax= 2.05D-04

 Cycle   2  Pass 1  IDiag  1:
 RMSU=  1.30D-05    CP:  1.00D+00
 E= -10526.5717321509     Delta-E=       -0.000000543052 Rises=F Damp=F
 DIIS: error= 8.51D-06 at cycle   2 NSaved=   2.
 NSaved= 2 IEnMin= 2 EnMin= -10526.5717321509     IErMin= 2 ErrMin= 8.51D-06
 ErrMax= 8.51D-06  0.00D+00 EMaxC= 1.00D-01 BMatC= 2.72D-08 BMatP= 1.07D-05
 IDIUse=1 WtCom= 1.00D+00 WtEn= 0.00D+00
 Coeff-Com: -0.932D-02 0.101D+01
 Coeff:     -0.932D-02 0.101D+01
 Gap=     0.212 Goal=   None    Shift=    0.000
 Gap=     0.217 Goal=   None    Shift=    0.000
 RMSDP=2.43D-06 MaxDP=1.09D-04 DE=-5.43D-07 OVMax= 8.24D-05

 Cycle   3  Pass 1  IDiag  1:
 RMSU=  2.11D-06    CP:  1.00D+00  1.09D+00
 E= -10526.5717321756     Delta-E=       -0.000000024784 Rises=F Damp=F
 DIIS: error= 2.58D-06 at cycle   3 NSaved=   3.
 NSaved= 3 IEnMin= 3 EnMin= -10526.5717321756     IErMin= 3 ErrMin= 2.58D-06
 ErrMax= 2.58D-06  0.00D+00 EMaxC= 1.00D-01 BMatC= 3.60D-09 BMatP= 2.72D-08
 IDIUse=1 WtCom= 1.00D+00 WtEn= 0.00D+00
 Coeff-Com: -0.145D-02-0.506D-01 0.105D+01
 Coeff:     -0.145D-02-0.506D-01 0.105D+01
 Gap=     0.212 Goal=   None    Shift=    0.000
 Gap=     0.217 Goal=   None    Shift=    0.000
 RMSDP=1.23D-06 MaxDP=4.40D-05 DE=-2.48D-08 OVMax= 4.38D-05

 Cycle   4  Pass 1  IDiag  1:
 RMSU=  1.02D-06    CP:  1.00D+00  1.13D+00  1.11D+00
 E= -10526.5717321785     Delta-E=       -0.000000002834 Rises=F Damp=F
 DIIS: error= 1.00D-06 at cycle   4 NSaved=   4.
 NSaved= 4 IEnMin= 4 EnMin= -10526.5717321785     IErMin= 4 ErrMin= 1.00D-06
 ErrMax= 1.00D-06  0.00D+00 EMaxC= 1.00D-01 BMatC= 3.09D-09 BMatP= 3.60D-09
 IDIUse=1 WtCom= 1.00D+00 WtEn= 0.00D+00
 Coeff-Com:  0.488D-03-0.169D+00 0.571D+00 0.598D+00
 Coeff:      0.488D-03-0.169D+00 0.571D+00 0.598D+00
 Gap=     0.212 Goal=   None    Shift=    0.000
 Gap=     0.217 Goal=   None    Shift=    0.000
 RMSDP=4.24D-07 MaxDP=1.72D-05 DE=-2.83D-09 OVMax= 1.99D-05

 Cycle   5  Pass 1  IDiag  1:
 RMSU=  2.88D-07    CP:  1.00D+00  1.14D+00  1.25D+00  1.03D+00
 E= -10526.5717321793     Delta-E=       -0.000000000851 Rises=F Damp=F
 DIIS: error= 5.23D-07 at cycle   5 NSaved=   5.
 NSaved= 5 IEnMin= 5 EnMin= -10526.5717321793     IErMin= 5 ErrMin= 5.23D-07
 ErrMax= 5.23D-07  0.00D+00 EMaxC= 1.00D-01 BMatC= 2.31D-10 BMatP= 3.09D-09
 IDIUse=1 WtCom= 1.00D+00 WtEn= 0.00D+00
 Coeff-Com:  0.348D-03-0.651D-01 0.128D+00 0.218D+00 0.719D+00
 Coeff:      0.348D-03-0.651D-01 0.128D+00 0.218D+00 0.719D+00
 Gap=     0.212 Goal=   None    Shift=    0.000
 Gap=     0.217 Goal=   None    Shift=    0.000
 RMSDP=3.67D-07 MaxDP=1.66D-05 DE=-8.51D-10 OVMax= 1.17D-05

 Cycle   6  Pass 1  IDiag  1:
 RMSU=  2.43D-07    CP:  1.00D+00  1.13D+00  1.32D+00  8.50D-01  6.77D-01
 E= -10526.5717321795     Delta-E=       -0.000000000204 Rises=F Damp=F
 DIIS: error= 2.29D-07 at cycle   6 NSaved=   6.
 NSaved= 6 IEnMin= 6 EnMin= -10526.5717321795     IErMin= 6 ErrMin= 2.29D-07
 ErrMax= 2.29D-07  0.00D+00 EMaxC= 1.00D-01 BMatC= 8.47D-11 BMatP= 2.31D-10
 IDIUse=1 WtCom= 1.00D+00 WtEn= 0.00D+00
 Coeff-Com:  0.350D-05 0.272D-01-0.133D+00-0.116D+00 0.333D+00 0.889D+00
 Coeff:      0.350D-05 0.272D-01-0.133D+00-0.116D+00 0.333D+00 0.889D+00
 Gap=     0.212 Goal=   None    Shift=    0.000
 Gap=     0.217 Goal=   None    Shift=    0.000
 RMSDP=1.64D-07 MaxDP=7.55D-06 DE=-2.04D-10 OVMax= 1.11D-05

 Cycle   7  Pass 1  IDiag  1:
 RMSU=  6.29D-08    CP:  1.00D+00  1.13D+00  1.36D+00  8.21D-01  9.15D-01
                    CP:  1.35D+00
 E= -10526.5717321797     Delta-E=       -0.000000000131 Rises=F Damp=F
 DIIS: error= 9.44D-08 at cycle   7 NSaved=   7.
 NSaved= 7 IEnMin= 7 EnMin= -10526.5717321797     IErMin= 7 ErrMin= 9.44D-08
 ErrMax= 9.44D-08  0.00D+00 EMaxC= 1.00D-01 BMatC= 1.24D-11 BMatP= 8.47D-11
 IDIUse=1 WtCom= 1.00D+00 WtEn= 0.00D+00
 Coeff-Com: -0.980D-04 0.291D-01-0.866D-01-0.967D-01-0.455D-01 0.282D+00
 Coeff-Com:  0.918D+00
 Coeff:     -0.980D-04 0.291D-01-0.866D-01-0.967D-01-0.455D-01 0.282D+00
 Coeff:      0.918D+00
 Gap=     0.212 Goal=   None    Shift=    0.000
 Gap=     0.217 Goal=   None    Shift=    0.000
 RMSDP=6.71D-08 MaxDP=3.39D-06 DE=-1.31D-10 OVMax= 6.03D-06

 Cycle   8  Pass 1  IDiag  1:
 RMSU=  3.07D-08    CP:  1.00D+00  1.13D+00  1.36D+00  8.40D-01  1.01D+00
                    CP:  1.53D+00  1.30D+00
 E= -10526.5717321796     Delta-E=        0.000000000049 Rises=F Damp=F
 DIIS: error= 3.21D-08 at cycle   8 NSaved=   8.
 NSaved= 8 IEnMin= 7 EnMin= -10526.5717321797     IErMin= 8 ErrMin= 3.21D-08
 ErrMax= 3.21D-08  0.00D+00 EMaxC= 1.00D-01 BMatC= 2.14D-12 BMatP= 1.24D-11
 IDIUse=1 WtCom= 1.00D+00 WtEn= 0.00D+00
 Coeff-Com: -0.385D-04 0.802D-02-0.178D-01-0.253D-01-0.487D-01 0.124D-02
 Coeff-Com:  0.326D+00 0.757D+00
 Coeff:     -0.385D-04 0.802D-02-0.178D-01-0.253D-01-0.487D-01 0.124D-02
 Coeff:      0.326D+00 0.757D+00
 Gap=     0.212 Goal=   None    Shift=    0.000
 Gap=     0.217 Goal=   None    Shift=    0.000
 RMSDP=1.82D-08 MaxDP=6.08D-07 DE= 4.91D-11 OVMax= 1.40D-06

 Cycle   9  Pass 1  IDiag  1:
 RMSU=  1.35D-08    CP:  1.00D+00  1.13D+00  1.36D+00  8.43D-01  1.02D+00
                    CP:  1.56D+00  1.42D+00  1.16D+00
 E= -10526.5717321796     Delta-E=       -0.000000000002 Rises=F Damp=F
 DIIS: error= 1.86D-08 at cycle   9 NSaved=   9.
 NSaved= 9 IEnMin= 7 EnMin= -10526.5717321797     IErMin= 9 ErrMin= 1.86D-08
 ErrMax= 1.86D-08  0.00D+00 EMaxC= 1.00D-01 BMatC= 6.22D-13 BMatP= 2.14D-12
 IDIUse=1 WtCom= 1.00D+00 WtEn= 0.00D+00
 Coeff-Com:  0.824D-05-0.409D-02 0.151D-01 0.124D-01-0.865D-02-0.763D-01
 Coeff-Com: -0.981D-01 0.359D+00 0.800D+00
 Coeff:      0.824D-05-0.409D-02 0.151D-01 0.124D-01-0.865D-02-0.763D-01
 Coeff:     -0.981D-01 0.359D+00 0.800D+00
 Gap=     0.212 Goal=   None    Shift=    0.000
 Gap=     0.217 Goal=   None    Shift=    0.000
 RMSDP=1.03D-08 MaxDP=4.24D-07 DE=-1.82D-12 OVMax= 6.29D-07

 Cycle  10  Pass 1  IDiag  1:
 RMSU=  4.40D-09    CP:  1.00D+00  1.13D+00  1.36D+00  8.42D-01  1.03D+00
                    CP:  1.56D+00  1.48D+00  1.39D+00  1.12D+00
 E= -10526.5717321796     Delta-E=        0.000000000040 Rises=F Damp=F
 DIIS: error= 7.74D-09 at cycle  10 NSaved=  10.
 NSaved=10 IEnMin= 7 EnMin= -10526.5717321797     IErMin=10 ErrMin= 7.74D-09
 ErrMax= 7.74D-09  0.00D+00 EMaxC= 1.00D-01 BMatC= 7.77D-14 BMatP= 6.22D-13
 IDIUse=1 WtCom= 1.00D+00 WtEn= 0.00D+00
 Coeff-Com:  0.692D-05-0.261D-02 0.878D-02 0.773D-02 0.603D-03-0.381D-01
 Coeff-Com: -0.723D-01 0.122D+00 0.380D+00 0.593D+00
 Coeff:      0.692D-05-0.261D-02 0.878D-02 0.773D-02 0.603D-03-0.381D-01
 Coeff:     -0.723D-01 0.122D+00 0.380D+00 0.593D+00
 Gap=     0.212 Goal=   None    Shift=    0.000
 Gap=     0.217 Goal=   None    Shift=    0.000
 RMSDP=2.89D-09 MaxDP=1.20D-07 DE= 4.00D-11 OVMax= 1.28D-07

 Error on total polarization charges =  0.00777
 SCF Done:  E(UM062X) =  -10526.5717322     A.U. after   10 cycles
            NFock= 10  Conv=0.29D-08     -V/T= 2.0012
 <Sx>= 0.0000 <Sy>= 0.0000 <Sz>= 0.5000 <S**2>= 0.7581 S= 0.5041
 <L.S>=  0.00000000000    
 KE= 1.051344169003D+04 PE=-2.892084254562D+04 EE= 6.007717530623D+03
 SMD-CDS (non-electrostatic) energy       (kcal/mol) =       0.19
 (included in total energy above)
 Annihilation of the first spin contaminant:
 S**2 before annihilation     0.7581,   after     0.7500
 Leave Link  502 at Mon Sep 28 09:18:28 2026, MaxMem=  1610612736 cpu:             803.4 elap:             100.6
 (Enter /share/software/user/restricted/gaussian/g16.B01/l701.exe)
 ... and contract with generalized density number  0.
 Compute integral first derivatives.
 D1PCM: PCM CHGder 1st derivatives, ID1Alg=3 FixD1E=F DoIter=F DoCFld=F I1PDM=0.
 GePol: Maximum number of non-zero 1st derivatives   =     472
 Leave Link  701 at Mon Sep 28 09:18:30 2026, MaxMem=  1610612736 cpu:              13.9 elap:               1.8
 (Enter /share/software/user/restricted/gaussian/g16.B01/l702.exe)
 L702 exits ... SP integral derivatives will be done elsewhere.
 Leave Link  702 at Mon Sep 28 09:18:30 2026, MaxMem=  1610612736 cpu:               0.3 elap:               0.0
 (Enter /share/software/user/restricted/gaussian/g16.B01/l703.exe)
 Integral derivatives from FoFJK, PRISM(SPDF).
 Compute integral first derivatives, UseDBF=F ICtDFT=           0.
 Calling FoFJK, ICntrl=      2127 FMM=F ISym2X=0 I1Cent= 0 IOpClX= 1 NMat=1 NMatS=1 NMatT=0.
 FoFJK:  IHMeth= 1 ICntrl=    2127 DoSepK=F KAlg= 0 I1Cent=           0 FoldK=F
 IRaf=         0 NMat=       1 IRICut=       1 DoRegI=T DoRafI=F ISym2E= 0 IDoP0=0 IntGTp=1.
 FoFCou: FMM=F IPFlag=           0 FMFlag=      100000 FMFlg1=         800
         NFxFlg=           0 DoJE=F BraDBF=F KetDBF=F FulRan=T
         wScrn=  0.000000 ICntrl=      2127 IOpCl=  1 I1Cent=           0 NGrid=           0
         NMat0=    1 NMatS0=      1 NMatT0=    0 NMatD0=    1 NMtDS0=    0 NMtDT0=    0
 Symmetry not used in FoFCou.
 Leave Link  703 at Mon Sep 28 09:18:46 2026, MaxMem=  1610612736 cpu:             130.1 elap:              16.3
 (Enter /share/software/user/restricted/gaussian/g16.B01/l716.exe)
 Dipole        =-2.51716609D+00 2.92172068D+00-1.44635150D-01
 ***** Axes restored to original set *****
 -------------------------------------------------------------------
 Center     Atomic                   Forces (Hartrees/Bohr)
 Number     Number              X              Y              Z
 -------------------------------------------------------------------
      1        6          -0.000003542   -0.000000485    0.000006568
      2        6           0.000003320   -0.000005846    0.000001656
      3        6           0.000007216   -0.000003254   -0.000005082
      4        6           0.000002453    0.000001308   -0.000007151
      5        6          -0.000005485    0.000006569   -0.000002575
      6        6          -0.000008221    0.000006162    0.000003147
      7       35          -0.000007562    0.000001644    0.000014679
      8       35           0.000012084   -0.000015665    0.000012339
      9       35           0.000017535   -0.000012817   -0.000008503
     10       35           0.000005737    0.000000733   -0.000015528
     11        1          -0.000009163    0.000010570   -0.000005502
     12        1          -0.000014372    0.000011081    0.000005951
 -------------------------------------------------------------------
 Cartesian Forces:  Max     0.000017535 RMS     0.000008620
 Leave Link  716 at Mon Sep 28 09:18:47 2026, MaxMem=  1610612736 cpu:               0.3 elap:               0.0
 (Enter /share/software/user/restricted/gaussian/g16.B01/l103.exe)

 GradGradGradGradGradGradGradGradGradGradGradGradGradGradGradGradGradGrad
 Berny optimization.
 Using GEDIIS/GDIIS optimizer.
 FormGI is forming the generalized inverse of G from B-inverse, IUseBI=4.
 Internal  Forces:  Max     0.000001604 RMS     0.000000366
 Search for a local minimum.
 Step number  14 out of a maximum of   64
 All quantities printed in internal units (Hartrees-Bohrs-Radians)
 RMS Force = .36587D-06 SwitMx=.10000D-02 MixMth= 2
 Mixed Optimization -- En-DIIS/RFO-DIIS
 Swapping is turned off.
 Update second derivatives using D2CorX and points    3    2    4    5    6
                                                      7    8    9   10   11
                                                     12   13   14
 DE= -9.84D-08 DEPred=-1.17D-09 R= 8.42D+01
 Trust test= 8.42D+01 RLast= 2.06D-03 DXMaxT set to 2.52D-01
 ITU=  0  0 -1  0  1  1  1  0  1  1  1  0  1  0
     Eigenvalues ---    0.00035   0.00997   0.01776   0.01985   0.02230
     Eigenvalues ---    0.02323   0.02638   0.02804   0.02984   0.03299
     Eigenvalues ---    0.09904   0.11166   0.11982   0.12306   0.12851
     Eigenvalues ---    0.15862   0.16988   0.20029   0.21663   0.22667
     Eigenvalues ---    0.25691   0.26195   0.35974   0.36071   0.37437
     Eigenvalues ---    0.44306   0.45630   0.49827   0.52256   0.54142
 En-DIIS/RFO-DIIS/Sim-DIIS IScMMF=       -3 using points:    14   13   12   11   10    9    8    7    6    5
 RFO step:  Lambda=-2.86388120D-11.
 NNeg= 0 NGDIIS=10 SimSw=  2.50D-03 Rises=F DC= -9.84D-08 SmlDif=  1.00D-05
 NRisDI= 0 DoIntr=F SqrtH=F CThrHd= 10.0 CDAdj=  3.0
 RMS Error=  0.6581804206D-05 NUsed=10 OKEnD=F EnDIS=F
 InvSVX:  RCond= 5.41D-12 Info=           0 Equed=N FErr=  4.08D-09 BErr=  9.19D-17
 DIIS inversion failure, remove point  10.
 InvSVX:  RCond= 6.46D-12 Info=           0 Equed=N FErr=  3.53D-09 BErr=  7.49D-17
 DIIS inversion failure, remove point   9.
 InvSVX:  RCond= 8.37D-12 Info=           0 Equed=N FErr=  1.55D-09 BErr=  8.80D-17
 DIIS inversion failure, remove point   8.
 InvSVX:  RCond= 2.61D-11 Info=           0 Equed=N FErr=  1.26D-10 BErr=  1.02D-16
 DIIS inversion failure, remove point   7.
 InvSVX:  RCond= 2.51D-10 Info=           0 Equed=N FErr=  2.74D-12 BErr=  9.66D-17
 DIIS inversion failure, remove point   6.
 InvSVX:  RCond= 6.49D-10 Info=           0 Equed=N FErr=  7.47D-13 BErr=  8.65D-17
 DIIS inversion failure, remove point   5.
 InvSVX:  RCond= 1.33D-09 Info=           0 Equed=N FErr=  3.71D-13 BErr=  7.68D-17
 DIIS inversion failure, remove point   4.
 InvSVX:  RCond= 4.52D-09 Info=           0 Equed=N FErr=  7.11D-14 BErr=  0.00D+00
 DIIS inversion failure, remove point   3.
 InvSVX:  RCond= 4.76D-06 Info=           0 Equed=N FErr=  8.98D-16 BErr=  2.23D-17
 RFO-DIIS uses    2 points instead of   10
 DidBck=F Rises=F RFO-DIIS coefs:    0.98919    0.01081    0.00000    0.00000    0.00000
                  RFO-DIIS coefs:    0.00000    0.00000    0.00000    0.00000    0.00000
 Iteration  1 RMS(Cart)=  0.00000750 RMS(Int)=  0.00000000
 Iteration  2 RMS(Cart)=  0.00000000 RMS(Int)=  0.00000000
 ITry= 1 IFail=0 DXMaxC= 2.83D-05 DCOld= 1.00D+10 DXMaxT= 2.52D-01 DXLimC= 3.00D+00 Rises=F
 Variable       Old X    -DE/DX   Delta X   Delta X   Delta X     New X
                                 (Linear)    (Quad)   (Total)
    R1        2.59465  -0.00000  -0.00000  -0.00000  -0.00000   2.59465
    R2        2.63214  -0.00000   0.00000  -0.00000  -0.00000   2.63214
    R3        3.63910   0.00000   0.00000  -0.00000   0.00000   3.63910
    R4        2.60157  -0.00000  -0.00000  -0.00000  -0.00000   2.60156
    R5        4.79802   0.00000   0.00000   0.00003   0.00003   4.79806
    R6        2.64148  -0.00000   0.00000  -0.00000  -0.00000   2.64148
    R7        3.62682   0.00000   0.00000   0.00000   0.00000   3.62682
    R8        2.63132  -0.00000  -0.00000  -0.00000  -0.00000   2.63132
    R9        3.60196   0.00000   0.00000  -0.00000  -0.00000   3.60196
   R10        2.62446  -0.00000  -0.00000  -0.00000  -0.00000   2.62446
   R11        2.04599   0.00000  -0.00000   0.00000   0.00000   2.04599
   R12        2.04844  -0.00000   0.00000  -0.00000  -0.00000   2.04844
    A1        2.12678   0.00000  -0.00000   0.00000   0.00000   2.12678
    A2        2.11553  -0.00000   0.00000  -0.00000  -0.00000   2.11553
    A3        2.04071  -0.00000  -0.00000   0.00000   0.00000   2.04071
    A4        2.08435  -0.00000   0.00000  -0.00000  -0.00000   2.08435
    A5        2.06976   0.00000   0.00000   0.00000   0.00000   2.06976
    A6        2.08327   0.00000   0.00000   0.00000   0.00000   2.08327
    A7        2.09589   0.00000  -0.00000   0.00000   0.00000   2.09589
    A8        2.09037  -0.00000   0.00000  -0.00000  -0.00000   2.09037
    A9        2.09671   0.00000  -0.00000   0.00000   0.00000   2.09671
   A10        2.09478   0.00000  -0.00000  -0.00000  -0.00000   2.09478
   A11        2.14405  -0.00000   0.00000  -0.00000  -0.00000   2.14405
   A12        2.04435   0.00000  -0.00000   0.00000   0.00000   2.04435
   A13        2.09298  -0.00000   0.00000  -0.00000  -0.00000   2.09298
   A14        2.09676   0.00000  -0.00000   0.00000   0.00000   2.09676
   A15        2.09343   0.00000  -0.00000   0.00000   0.00000   2.09343
   A16        2.07145  -0.00000  -0.00000  -0.00000  -0.00000   2.07145
   A17        2.11992  -0.00000   0.00000  -0.00000  -0.00000   2.11992
   A18        2.09181   0.00000  -0.00000   0.00000   0.00000   2.09181
    D1        0.00851   0.00000  -0.00000   0.00001   0.00001   0.00852
    D2       -2.81070  -0.00000  -0.00001  -0.00000  -0.00001  -2.81071
    D3       -3.11265   0.00000  -0.00000   0.00002   0.00001  -3.11264
    D4        0.35132   0.00000  -0.00001   0.00000  -0.00001   0.35131
    D5        0.00552  -0.00000   0.00000  -0.00001  -0.00001   0.00552
    D6       -3.13632  -0.00000   0.00000  -0.00001  -0.00001  -3.13632
    D7        3.12752  -0.00000   0.00000  -0.00001  -0.00001   3.12751
    D8       -0.01432  -0.00000   0.00000  -0.00001  -0.00001  -0.01433
    D9       -0.01249  -0.00000   0.00000  -0.00001  -0.00001  -0.01250
   D10        3.10684  -0.00000   0.00000  -0.00001  -0.00000   3.10684
   D11        2.80421   0.00000   0.00001   0.00000   0.00001   2.80423
   D12       -0.35964   0.00000   0.00001   0.00001   0.00002  -0.35962
   D13        0.00256   0.00000   0.00000  -0.00000  -0.00000   0.00256
   D14       -3.13969   0.00000   0.00000   0.00000   0.00000  -3.13969
   D15       -3.11669   0.00000  -0.00000  -0.00000  -0.00000  -3.11669
   D16        0.02424   0.00000   0.00000  -0.00000  -0.00000   0.02424
   D17        0.01159   0.00000  -0.00000   0.00001   0.00000   0.01160
   D18       -3.13492   0.00000  -0.00000   0.00000   0.00000  -3.13491
   D19       -3.12937   0.00000  -0.00000   0.00000   0.00000  -3.12937
   D20        0.00731   0.00000  -0.00000   0.00000   0.00000   0.00731
   D21       -0.01546  -0.00000   0.00000  -0.00000  -0.00000  -0.01546
   D22        3.12638  -0.00000   0.00000  -0.00000  -0.00000   3.12638
   D23        3.13104  -0.00000   0.00000   0.00000   0.00000   3.13104
   D24       -0.01031  -0.00000   0.00000   0.00000   0.00000  -0.01031
         Item               Value     Threshold  Converged?
 Maximum Force            0.000002     0.000015     YES
 RMS     Force            0.000000     0.000010     YES
 Maximum Displacement     0.000028     0.000060     YES
 RMS     Displacement     0.000008     0.000040     YES
 Predicted change in Energy=-2.919775D-11
 Optimization completed.
    -- Stationary point found.
                           ----------------------------
                           !   Optimized Parameters   !
                           ! (Angstroms and Degrees)  !
 --------------------------                            --------------------------
 ! Name  Definition              Value          Derivative Info.                !
 --------------------------------------------------------------------------------
 ! R1    R(1,2)                  1.373          -DE/DX =    0.0                 !
 ! R2    R(1,6)                  1.3929         -DE/DX =    0.0                 !
 ! R3    R(1,7)                  1.9257         -DE/DX =    0.0                 !
 ! R4    R(2,3)                  1.3767         -DE/DX =    0.0                 !
 ! R5    R(2,8)                  2.539          -DE/DX =    0.0                 !
 ! R6    R(3,4)                  1.3978         -DE/DX =    0.0                 !
 ! R7    R(3,9)                  1.9192         -DE/DX =    0.0                 !
 ! R8    R(4,5)                  1.3924         -DE/DX =    0.0                 !
 ! R9    R(4,10)                 1.9061         -DE/DX =    0.0                 !
 ! R10   R(5,6)                  1.3888         -DE/DX =    0.0                 !
 ! R11   R(5,11)                 1.0827         -DE/DX =    0.0                 !
 ! R12   R(6,12)                 1.084          -DE/DX =    0.0                 !
 ! A1    A(2,1,6)              121.8555         -DE/DX =    0.0                 !
 ! A2    A(2,1,7)              121.211          -DE/DX =    0.0                 !
 ! A3    A(6,1,7)              116.9238         -DE/DX =    0.0                 !
 ! A4    A(1,2,3)              119.4243         -DE/DX =    0.0                 !
 ! A5    A(1,2,8)              118.5884         -DE/DX =    0.0                 !
 ! A6    A(3,2,8)              119.3624         -DE/DX =    0.0                 !
 ! A7    A(2,3,4)              120.0856         -DE/DX =    0.0                 !
 ! A8    A(2,3,9)              119.7695         -DE/DX =    0.0                 !
 ! A9    A(4,3,9)              120.1326         -DE/DX =    0.0                 !
 ! A10   A(3,4,5)              120.0219         -DE/DX =    0.0                 !
 ! A11   A(3,4,10)             122.8453         -DE/DX =    0.0                 !
 ! A12   A(5,4,10)             117.1328         -DE/DX =    0.0                 !
 ! A13   A(4,5,6)              119.9192         -DE/DX =    0.0                 !
 ! A14   A(4,5,11)             120.1358         -DE/DX =    0.0                 !
 ! A15   A(6,5,11)             119.9444         -DE/DX =    0.0                 !
 ! A16   A(1,6,5)              118.6856         -DE/DX =    0.0                 !
 ! A17   A(1,6,12)             121.4626         -DE/DX =    0.0                 !
 ! A18   A(5,6,12)             119.8518         -DE/DX =    0.0                 !
 ! D1    D(6,1,2,3)              0.4878         -DE/DX =    0.0                 !
 ! D2    D(6,1,2,8)           -161.0413         -DE/DX =    0.0                 !
 ! D3    D(7,1,2,3)           -178.3418         -DE/DX =    0.0                 !
 ! D4    D(7,1,2,8)             20.1291         -DE/DX =    0.0                 !
 ! D5    D(2,1,6,5)              0.3166         -DE/DX =    0.0                 !
 ! D6    D(2,1,6,12)          -179.6977         -DE/DX =    0.0                 !
 ! D7    D(7,1,6,5)            179.1939         -DE/DX =    0.0                 !
 ! D8    D(7,1,6,12)            -0.8203         -DE/DX =    0.0                 !
 ! D9    D(1,2,3,4)             -0.7157         -DE/DX =    0.0                 !
 ! D10   D(1,2,3,9)            178.0089         -DE/DX =    0.0                 !
 ! D11   D(8,2,3,4)            160.6696         -DE/DX =    0.0                 !
 ! D12   D(8,2,3,9)            -20.6058         -DE/DX =    0.0                 !
 ! D13   D(2,3,4,5)              0.1469         -DE/DX =    0.0                 !
 ! D14   D(2,3,4,10)          -179.8913         -DE/DX =    0.0                 !
 ! D15   D(9,3,4,5)           -178.5731         -DE/DX =    0.0                 !
 ! D16   D(9,3,4,10)             1.3887         -DE/DX =    0.0                 !
 ! D17   D(3,4,5,6)              0.6641         -DE/DX =    0.0                 !
 ! D18   D(3,4,5,11)          -179.6174         -DE/DX =    0.0                 !
 ! D19   D(10,4,5,6)          -179.2998         -DE/DX =    0.0                 !
 ! D20   D(10,4,5,11)            0.4187         -DE/DX =    0.0                 !
 ! D21   D(4,5,6,1)             -0.8855         -DE/DX =    0.0                 !
 ! D22   D(4,5,6,12)           179.1285         -DE/DX =    0.0                 !
 ! D23   D(11,5,6,1)           179.3955         -DE/DX =    0.0                 !
 ! D24   D(11,5,6,12)           -0.5905         -DE/DX =    0.0                 !
 --------------------------------------------------------------------------------
 Lowest energy point so far.  Saving SCF results.
 Largest change from initial coordinates is atom   10       4.773 Angstoms.
 GradGradGradGradGradGradGradGradGradGradGradGradGradGradGradGradGradGrad

 Leave Link  103 at Mon Sep 28 09:18:47 2026, MaxMem=  1610612736 cpu:               0.3 elap:               0.0
 (Enter /share/software/user/restricted/gaussian/g16.B01/l202.exe)
                          Input orientation:                          
 ---------------------------------------------------------------------
 Center     Atomic      Atomic             Coordinates (Angstroms)
 Number     Number       Type             X           Y           Z
 ---------------------------------------------------------------------
      1          6           0        0.090705    1.289427   -1.157635
      2          6           0        0.135788    0.625317    0.043253
      3          6           0        0.097037   -0.750758    0.056995
      4          6           0       -0.002559   -1.460960   -1.142824
      5          6           0       -0.059662   -0.777193   -2.354463
      6          6           0       -0.003626    0.610394   -2.370112
      7         35           0        0.189203    3.210882   -1.239674
      8         35           0       -0.421869    1.907693    2.162469
      9         35           0        0.217187   -1.690821    1.725915
     10         35           0       -0.065240   -3.364630   -1.215189
     11          1           0       -0.143054   -1.325224   -3.284476
     12          1           0       -0.033909    1.141000   -3.314870
 ---------------------------------------------------------------------
                    Distance matrix (angstroms):
                    1          2          3          4          5
     1  C    0.000000
     2  C    1.373029   0.000000
     3  C    2.374389   1.376689   0.000000
     4  C    2.752008   2.403844   1.397809   0.000000
     5  C    2.392891   2.784650   2.416688   1.392433   0.000000
     6  C    1.392869   2.417434   2.784550   2.407644   1.388807
     7  Br   1.925726   2.886850   4.169465   4.676780   4.148426
     8  Br   3.415856   2.539005   3.430692   4.737996   5.267113
     9  Br   4.148824   2.863996   1.919232   2.886310   4.190567
    10  Br   4.657025   4.188528   2.911548   1.906076   2.827155
    11  H    3.378535   3.867317   3.398983   2.150544   1.082689
    12  H    2.165923   3.401722   3.868510   3.389537   2.145346
                    6          7          8          9         10
     6  C    0.000000
     7  Br   2.842114   0.000000
     8  Br   4.733096   3.694088   0.000000
     9  Br   4.703381   5.729066   3.680798   0.000000
    10  Br   4.139863   6.580479   6.271615   3.395806   0.000000
    11  H    2.145255   4.986770   6.340244   5.036612   2.906404
    12  H    1.083986   2.939495   5.544328   5.787208   4.970950
                   11         12
    11  H    0.000000
    12  H    2.468825   0.000000
 Stoichiometry    C6H2Br4(1-,2)
 Framework group  C1[X(C6H2Br4)]
 Deg. of freedom    30
 Full point group                 C1      NOp   1
 RotChk:  IX=1 Diff= 7.49D-16
 Largest Abelian subgroup         C1      NOp   1
 Largest concise Abelian subgroup C1      NOp   1
                         Standard orientation:                         
 ---------------------------------------------------------------------
 Center     Atomic      Atomic             Coordinates (Angstroms)
 Number     Number       Type             X           Y           Z
 ---------------------------------------------------------------------
      1          6           0        1.180469    1.285965   -0.052649
      2          6           0        0.627975    0.032822   -0.150579
      3          6           0       -0.740523   -0.108727   -0.101101
      4          6           0       -1.555727    1.014883    0.062652
      5          6           0       -0.984487    2.279947    0.172947
      6          6           0        0.395082    2.425271    0.106202
      7         35           0        3.085056    1.548244   -0.163014
      8         35           0        2.105032   -1.984209    0.292634
      9         35           0       -1.526127   -1.849095   -0.294481
     10         35           0       -3.457123    0.909519    0.144608
     11          1           0       -1.613839    3.150819    0.306040
     12          1           0        0.837776    3.412131    0.177999
 ---------------------------------------------------------------------
 Rotational constants (GHZ):           0.4861390           0.2178194           0.1520906
 Leave Link  202 at Mon Sep 28 09:18:47 2026, MaxMem=  1610612736 cpu:               0.0 elap:               0.0
 (Enter /share/software/user/restricted/gaussian/g16.B01/l601.exe)
 Copying SCF densities to generalized density rwf, IOpCl= 1 IROHF=0.

 **********************************************************************

            Population analysis using the SCF Density.

 **********************************************************************

 Orbital symmetries:
 Alpha Orbitals:
       Occupied  (A) (A) (A) (A) (A) (A) (A) (A) (A) (A) (A) (A)
                 (A) (A) (A) (A) (A) (A) (A) (A) (A) (A) (A) (A)
                 (A) (A) (A) (A) (A) (A) (A) (A) (A) (A) (A) (A)
                 (A) (A) (A) (A) (A) (A) (A) (A) (A) (A) (A) (A)
                 (A) (A) (A) (A) (A) (A) (A) (A) (A) (A) (A) (A)
                 (A) (A) (A) (A) (A) (A) (A) (A) (A) (A) (A) (A)
                 (A) (A) (A) (A) (A) (A) (A) (A) (A) (A) (A) (A)
                 (A) (A) (A) (A) (A) (A)
       Virtual   (A) (A) (A) (A) (A) (A) (A) (A) (A) (A) (A) (A)
                 (A) (A) (A) (A) (A) (A) (A) (A) (A) (A) (A) (A)
                 (A) (A) (A) (A) (A) (A) (A) (A) (A) (A) (A) (A)
                 (A) (A) (A) (A) (A) (A) (A) (A) (A) (A) (A) (A)
                 (A) (A) (A) (A) (A) (A) (A) (A) (A) (A) (A) (A)
                 (A) (A) (A) (A) (A) (A) (A) (A) (A) (A) (A) (A)
                 (A) (A) (A) (A) (A) (A) (A) (A) (A) (A) (A) (A)
                 (A) (A) (A) (A) (A) (A) (A) (A) (A) (A) (A) (A)
                 (A) (A) (A) (A) (A) (A) (A) (A) (A) (A) (A) (A)
                 (A) (A) (A) (A) (A) (A) (A) (A) (A) (A) (A) (A)
                 (A) (A) (A) (A) (A) (A) (A) (A) (A) (A) (A) (A)
                 (A) (A) (A) (A) (A) (A) (A) (A) (A) (A) (A) (A)
                 (A) (A) (A) (A) (A) (A) (A) (A) (A) (A) (A) (A)
                 (A) (A) (A) (A) (A) (A) (A) (A) (A) (A) (A) (A)
                 (A) (A) (A) (A) (A) (A) (A) (A) (A) (A) (A) (A)
                 (A) (A) (A) (A) (A) (A) (A) (A) (A) (A) (A) (A)
                 (A) (A) (A) (A) (A) (A) (A) (A) (A) (A) (A) (A)
                 (A) (A) (A) (A) (A) (A) (A) (A) (A) (A) (A) (A)
                 (A) (A) (A) (A) (A) (A) (A) (A) (A) (A) (A) (A)
                 (A) (A) (A) (A) (A) (A) (A) (A) (A) (A) (A) (A)
                 (A)
 Beta  Orbitals:
       Occupied  (A) (A) (A) (A) (A) (A) (A) (A) (A) (A) (A) (A)
                 (A) (A) (A) (A) (A) (A) (A) (A) (A) (A) (A) (A)
                 (A) (A) (A) (A) (A) (A) (A) (A) (A) (A) (A) (A)
                 (A) (A) (A) (A) (A) (A) (A) (A) (A) (A) (A) (A)
                 (A) (A) (A) (A) (A) (A) (A) (A) (A) (A) (A) (A)
                 (A) (A) (A) (A) (A) (A) (A) (A) (A) (A) (A) (A)
                 (A) (A) (A) (A) (A) (A) (A) (A) (A) (A) (A) (A)
                 (A) (A) (A) (A) (A)
       Virtual   (A) (A) (A) (A) (A) (A) (A) (A) (A) (A) (A) (A)
                 (A) (A) (A) (A) (A) (A) (A) (A) (A) (A) (A) (A)
                 (A) (A) (A) (A) (A) (A) (A) (A) (A) (A) (A) (A)
                 (A) (A) (A) (A) (A) (A) (A) (A) (A) (A) (A) (A)
                 (A) (A) (A) (A) (A) (A) (A) (A) (A) (A) (A) (A)
                 (A) (A) (A) (A) (A) (A) (A) (A) (A) (A) (A) (A)
                 (A) (A) (A) (A) (A) (A) (A) (A) (A) (A) (A) (A)
                 (A) (A) (A) (A) (A) (A) (A) (A) (A) (A) (A) (A)
                 (A) (A) (A) (A) (A) (A) (A) (A) (A) (A) (A) (A)
                 (A) (A) (A) (A) (A) (A) (A) (A) (A) (A) (A) (A)
                 (A) (A) (A) (A) (A) (A) (A) (A) (A) (A) (A) (A)
                 (A) (A) (A) (A) (A) (A) (A) (A) (A) (A) (A) (A)
                 (A) (A) (A) (A) (A) (A) (A) (A) (A) (A) (A) (A)
                 (A) (A) (A) (A) (A) (A) (A) (A) (A) (A) (A) (A)
                 (A) (A) (A) (A) (A) (A) (A) (A) (A) (A) (A) (A)
                 (A) (A) (A) (A) (A) (A) (A) (A) (A) (A) (A) (A)
                 (A) (A) (A) (A) (A) (A) (A) (A) (A) (A) (A) (A)
                 (A) (A) (A) (A) (A) (A) (A) (A) (A) (A) (A) (A)
                 (A) (A) (A) (A) (A) (A) (A) (A) (A) (A) (A) (A)
                 (A) (A) (A) (A) (A) (A) (A) (A) (A) (A) (A) (A)
                 (A) (A)
 The electronic state is 2-A.
 Alpha  occ. eigenvalues -- -485.33551-485.32167-485.31942-485.23939 -63.32734
 Alpha  occ. eigenvalues --  -63.31346 -63.31123 -63.23061 -57.15487 -57.15228
 Alpha  occ. eigenvalues --  -57.15213 -57.14109 -57.13880 -57.13842 -57.13817
 Alpha  occ. eigenvalues --  -57.13619 -57.13603 -57.05832 -57.05582 -57.05567
 Alpha  occ. eigenvalues --  -10.61009 -10.60468 -10.59680 -10.55631 -10.55528
 Alpha  occ. eigenvalues --  -10.55526  -9.01453  -9.00065  -8.99838  -8.91740
 Alpha  occ. eigenvalues --   -6.84261  -6.83229  -6.83186  -6.82891  -6.82641
 Alpha  occ. eigenvalues --   -6.81852  -6.81769  -6.81625  -6.81571  -6.74359
 Alpha  occ. eigenvalues --   -6.73643  -6.73592  -2.87411  -2.87063  -2.87019
 Alpha  occ. eigenvalues --   -2.86110  -2.86109  -2.86028  -2.85779  -2.85695
 Alpha  occ. eigenvalues --   -2.85614  -2.85447  -2.85392  -2.84712  -2.84711
 Alpha  occ. eigenvalues --   -2.84509  -2.84509  -2.77379  -2.77216  -2.77172
 Alpha  occ. eigenvalues --   -2.76662  -2.76661  -0.99604  -0.92120  -0.89156
 Alpha  occ. eigenvalues --   -0.86282  -0.82170  -0.78817  -0.75678  -0.68570
 Alpha  occ. eigenvalues --   -0.65858  -0.56459  -0.55188  -0.49743  -0.47957
 Alpha  occ. eigenvalues --   -0.46893  -0.45896  -0.40960  -0.40098  -0.37173
 Alpha  occ. eigenvalues --   -0.36374  -0.35042  -0.34441  -0.33775  -0.32444
 Alpha  occ. eigenvalues --   -0.30406  -0.28361  -0.27510  -0.27038  -0.20718
 Alpha virt. eigenvalues --    0.00520   0.00627   0.01046   0.01462   0.02110
 Alpha virt. eigenvalues --    0.02767   0.03200   0.03873   0.04449   0.04820
 Alpha virt. eigenvalues --    0.05391   0.05549   0.06487   0.06802   0.07055
 Alpha virt. eigenvalues --    0.07854   0.08431   0.08463   0.09267   0.09520
 Alpha virt. eigenvalues --    0.09847   0.10978   0.11148   0.12412   0.12808
 Alpha virt. eigenvalues --    0.13844   0.14199   0.14336   0.15606   0.16109
 Alpha virt. eigenvalues --    0.16439   0.17494   0.18312   0.18760   0.19609
 Alpha virt. eigenvalues --    0.19633   0.21511   0.22322   0.23051   0.23233
 Alpha virt. eigenvalues --    0.23357   0.24314   0.25618   0.26486   0.26936
 Alpha virt. eigenvalues --    0.27192   0.28103   0.28946   0.30236   0.33463
 Alpha virt. eigenvalues --    0.34415   0.35687   0.36934   0.42905   0.43710
 Alpha virt. eigenvalues --    0.44140   0.45379   0.45648   0.46067   0.47381
 Alpha virt. eigenvalues --    0.47883   0.49370   0.51346   0.51608   0.53103
 Alpha virt. eigenvalues --    0.54528   0.56373   0.57072   0.58390   0.58982
 Alpha virt. eigenvalues --    0.59772   0.60177   0.61848   0.63746   0.64176
 Alpha virt. eigenvalues --    0.64414   0.64769   0.66592   0.67933   0.68418
 Alpha virt. eigenvalues --    0.69347   0.70039   0.70345   0.71259   0.73689
 Alpha virt. eigenvalues --    0.75268   0.75985   0.76565   0.76923   0.78349
 Alpha virt. eigenvalues --    0.79221   0.79764   0.81178   0.81997   0.82844
 Alpha virt. eigenvalues --    0.83160   0.84268   0.85593   0.86085   0.87779
 Alpha virt. eigenvalues --    0.90306   0.90888   0.92414   0.92451   0.94192
 Alpha virt. eigenvalues --    0.95098   0.98481   0.99594   1.01152   1.04355
 Alpha virt. eigenvalues --    1.04947   1.12263   1.12613   1.14614   1.16870
 Alpha virt. eigenvalues --    1.18157   1.21628   1.27530   1.29579   1.30687
 Alpha virt. eigenvalues --    1.32707   1.34006   1.34949   1.46282   1.54439
 Alpha virt. eigenvalues --    1.55973   1.58198   1.64982   1.80016   1.80457
 Alpha virt. eigenvalues --    1.82809   1.84658   1.85779   1.88506   1.94356
 Alpha virt. eigenvalues --    1.95773   1.99029   2.03691   2.04266   2.06679
 Alpha virt. eigenvalues --    2.06967   2.09133   2.11794   2.13747   2.15227
 Alpha virt. eigenvalues --    2.15819   2.17361   2.19997   2.21229   2.26116
 Alpha virt. eigenvalues --    2.27341   2.32022   2.34958   2.36283   2.37470
 Alpha virt. eigenvalues --    2.40223   2.43348   2.53936   2.60962   2.70238
 Alpha virt. eigenvalues --    2.72745   2.82419   2.83281   2.93312   2.95067
 Alpha virt. eigenvalues --    3.00154   3.08065   3.13910   3.17714   3.19730
 Alpha virt. eigenvalues --    3.24977   3.36366   3.36985   3.53705   3.61760
 Alpha virt. eigenvalues --    3.75827   3.95483   3.98684   4.28730   4.30352
 Alpha virt. eigenvalues --    4.30646   4.31994   4.34963   4.35518   4.35838
 Alpha virt. eigenvalues --    4.38024   4.38636   4.39299   4.39948   4.42276
 Alpha virt. eigenvalues --    4.46454   4.49699   4.54658   4.56501   4.58502
 Alpha virt. eigenvalues --    4.67817   4.71734   4.76089   4.83320   6.84201
 Alpha virt. eigenvalues --    6.88628   6.94369   6.97699   7.63698   7.66040
 Alpha virt. eigenvalues --    7.67274   7.72479   7.74778   7.76064   7.77261
 Alpha virt. eigenvalues --    7.78218   7.79754   7.82014   7.82501   7.87376
 Alpha virt. eigenvalues --   23.33469  23.91876  23.93382  24.08559  24.13898
 Alpha virt. eigenvalues --   24.22206  48.38090  48.42286  48.45982  48.48832
 Alpha virt. eigenvalues --  290.78190 290.80772 290.82131 290.88358 290.90472
 Alpha virt. eigenvalues --  290.92368 290.92942 290.95506 290.95943 290.98417
 Alpha virt. eigenvalues --  291.00576 291.055101020.932611020.975491021.03662
 Alpha virt. eigenvalues -- 1021.07321
  Beta  occ. eigenvalues -- -485.33543-485.32146-485.31924-485.23766 -63.32730
  Beta  occ. eigenvalues --  -63.31336 -63.31115 -63.22974 -57.15474 -57.15226
  Beta  occ. eigenvalues --  -57.15211 -57.14069 -57.13845 -57.13839 -57.13813
  Beta  occ. eigenvalues --  -57.13617 -57.13599 -57.05540 -57.05526 -57.05524
  Beta  occ. eigenvalues --  -10.60963 -10.60508 -10.59718 -10.55608 -10.55527
  Beta  occ. eigenvalues --  -10.54705  -9.01443  -9.00039  -8.99816  -8.91508
  Beta  occ. eigenvalues --   -6.84234  -6.83224  -6.83181  -6.82810  -6.82570
  Beta  occ. eigenvalues --   -6.81846  -6.81760  -6.81621  -6.81563  -6.73734
  Beta  occ. eigenvalues --   -6.73541  -6.73493  -2.87396  -2.87050  -2.87006
  Beta  occ. eigenvalues --   -2.86106  -2.86106  -2.85984  -2.85741  -2.85660
  Beta  occ. eigenvalues --   -2.85578  -2.85417  -2.85361  -2.84708  -2.84707
  Beta  occ. eigenvalues --   -2.84506  -2.84506  -2.77024  -2.76927  -2.76883
  Beta  occ. eigenvalues --   -2.76596  -2.76595  -0.99216  -0.91909  -0.88829
  Beta  occ. eigenvalues --   -0.86142  -0.81442  -0.78571  -0.73820  -0.67900
  Beta  occ. eigenvalues --   -0.65328  -0.56036  -0.54729  -0.49396  -0.47610
  Beta  occ. eigenvalues --   -0.46625  -0.44937  -0.40510  -0.39997  -0.36992
  Beta  occ. eigenvalues --   -0.36203  -0.34421  -0.33667  -0.32823  -0.30144
  Beta  occ. eigenvalues --   -0.28936  -0.28243  -0.26770  -0.26389
  Beta virt. eigenvalues --   -0.04681   0.00528   0.00830   0.01352   0.02094
  Beta virt. eigenvalues --    0.02615   0.02710   0.03314   0.03908   0.04367
  Beta virt. eigenvalues --    0.04556   0.05458   0.05843   0.06538   0.06924
  Beta virt. eigenvalues --    0.07068   0.07853   0.08199   0.08527   0.09362
  Beta virt. eigenvalues --    0.09564   0.09884   0.10987   0.11254   0.12169
  Beta virt. eigenvalues --    0.12894   0.13894   0.14258   0.14398   0.15697
  Beta virt. eigenvalues --    0.16152   0.16513   0.17597   0.18379   0.18933
  Beta virt. eigenvalues --    0.19684   0.19946   0.21611   0.22464   0.23242
  Beta virt. eigenvalues --    0.23274   0.23440   0.24391   0.25671   0.26568
  Beta virt. eigenvalues --    0.27069   0.27280   0.28189   0.29120   0.30441
  Beta virt. eigenvalues --    0.33542   0.34688   0.36083   0.37206   0.43008
  Beta virt. eigenvalues --    0.43965   0.44331   0.45495   0.45868   0.46484
  Beta virt. eigenvalues --    0.47506   0.47908   0.49488   0.51569   0.51789
  Beta virt. eigenvalues --    0.53215   0.54702   0.56498   0.57169   0.58546
  Beta virt. eigenvalues --    0.59165   0.59900   0.60939   0.61959   0.63887
  Beta virt. eigenvalues --    0.64561   0.64893   0.65382   0.66904   0.68426
  Beta virt. eigenvalues --    0.68871   0.69757   0.70371   0.70763   0.71386
  Beta virt. eigenvalues --    0.74230   0.75436   0.76192   0.76918   0.77107
  Beta virt. eigenvalues --    0.78635   0.79494   0.80179   0.81546   0.82238
  Beta virt. eigenvalues --    0.83183   0.83484   0.84561   0.86296   0.86451
  Beta virt. eigenvalues --    0.87958   0.90598   0.90989   0.92515   0.93080
  Beta virt. eigenvalues --    0.94813   0.95244   0.98609   1.00062   1.01514
  Beta virt. eigenvalues --    1.04517   1.05370   1.12510   1.13105   1.14898
  Beta virt. eigenvalues --    1.16975   1.18141   1.22132   1.27759   1.29849
  Beta virt. eigenvalues --    1.30774   1.32876   1.34656   1.35574   1.46498
  Beta virt. eigenvalues --    1.54783   1.56514   1.59335   1.65206   1.80441
  Beta virt. eigenvalues --    1.80632   1.83227   1.85093   1.85960   1.89289
  Beta virt. eigenvalues --    1.94454   1.96419   1.99401   2.03848   2.04445
  Beta virt. eigenvalues --    2.07125   2.07169   2.09954   2.12602   2.14558
  Beta virt. eigenvalues --    2.15847   2.16943   2.17787   2.21428   2.24255
  Beta virt. eigenvalues --    2.26623   2.27908   2.32402   2.35295   2.36701
  Beta virt. eigenvalues --    2.38054   2.40742   2.43767   2.54574   2.61136
  Beta virt. eigenvalues --    2.70459   2.73514   2.82430   2.83677   2.93307
  Beta virt. eigenvalues --    2.95845   3.00237   3.09708   3.14336   3.18957
  Beta virt. eigenvalues --    3.20221   3.25381   3.36474   3.37190   3.54298
  Beta virt. eigenvalues --    3.62347   3.76868   3.96112   3.98954   4.28774
  Beta virt. eigenvalues --    4.30432   4.30717   4.32062   4.35142   4.35714
  Beta virt. eigenvalues --    4.36024   4.38444   4.39416   4.40112   4.40783
  Beta virt. eigenvalues --    4.44397   4.47961   4.50883   4.55348   4.57749
  Beta virt. eigenvalues --    4.60004   4.68082   4.72047   4.76331   4.83871
  Beta virt. eigenvalues --    6.84050   6.88406   6.94321   6.97658   7.63697
  Beta virt. eigenvalues --    7.66038   7.67270   7.72388   7.74788   7.76197
  Beta virt. eigenvalues --    7.77294   7.78334   7.79804   7.82166   7.82673
  Beta virt. eigenvalues --    7.87432  23.33553  23.92051  23.93424  24.08565
  Beta virt. eigenvalues --   24.14163  24.22686  48.38086  48.42285  48.45973
  Beta virt. eigenvalues --   48.48824 290.78196 290.80778 290.82141 290.88437
  Beta virt. eigenvalues --  290.90491 290.92466 290.93040 290.95783 290.95969
  Beta virt. eigenvalues --  290.98651 291.00656 291.055721020.933451020.97659
  Beta virt. eigenvalues -- 1021.036791021.07338
          Condensed to atoms (all electrons):
               1          2          3          4          5          6
     1  C    6.851187   0.513956  -0.502251  -0.406632  -0.644030   0.190834
     2  C    0.513956   7.499283   0.457819  -0.972215   0.019167  -1.345092
     3  C   -0.502251   0.457819   7.405256   0.177138  -1.627247   0.016013
     4  C   -0.406632  -0.972215   0.177138   7.570705   0.210421  -0.520019
     5  C   -0.644030   0.019167  -1.627247   0.210421   7.497877   0.472321
     6  C    0.190834  -1.345092   0.016013  -0.520019   0.472321   7.059466
     7  Br  -0.128439   0.013304   0.041846   0.069123   0.057651   0.032993
     8  Br  -0.009589  -0.346348   0.043384   0.049245   0.013528   0.063561
     9  Br   0.028942  -0.062301  -0.053283  -0.003093   0.095308   0.059362
    10  Br   0.075668   0.096442   0.144671  -0.263020  -0.041842   0.070368
    11  H   -0.008604   0.002785   0.005623  -0.059182   0.358410  -0.016623
    12  H   -0.022259  -0.003795   0.004403   0.018683  -0.068808   0.333130
               7          8          9         10         11         12
     1  C   -0.128439  -0.009589   0.028942   0.075668  -0.008604  -0.022259
     2  C    0.013304  -0.346348  -0.062301   0.096442   0.002785  -0.003795
     3  C    0.041846   0.043384  -0.053283   0.144671   0.005623   0.004403
     4  C    0.069123   0.049245  -0.003093  -0.263020  -0.059182   0.018683
     5  C    0.057651   0.013528   0.095308  -0.041842   0.358410  -0.068808
     6  C    0.032993   0.063561   0.059362   0.070368  -0.016623   0.333130
     7  Br  35.221712  -0.054682  -0.004503  -0.001766   0.006267  -0.036626
     8  Br  -0.054682  35.907674  -0.057215   0.001181   0.001082   0.003396
     9  Br  -0.004503  -0.057215  35.222315  -0.058939  -0.000444  -0.000241
    10  Br  -0.001766   0.001181  -0.058939  35.203560  -0.040829   0.008842
    11  H    0.006267   0.001082  -0.000444  -0.040829   0.390725  -0.016046
    12  H   -0.036626   0.003396  -0.000241   0.008842  -0.016046   0.408437
          Atomic-Atomic Spin Densities.
               1          2          3          4          5          6
     1  C   -0.021302   0.043039   0.018908  -0.046138   0.019140  -0.019373
     2  C    0.043039   1.090648  -0.003812  -0.042266  -0.022049  -0.071311
     3  C    0.018908  -0.003812   0.198289  -0.167017  -0.152522  -0.026774
     4  C   -0.046138  -0.042266  -0.167017   0.253852   0.093160   0.017855
     5  C    0.019140  -0.022049  -0.152522   0.093160   0.126880   0.019900
     6  C   -0.019373  -0.071311  -0.026774   0.017855   0.019900   0.082599
     7  Br  -0.011319  -0.007262   0.002445  -0.007149  -0.004027  -0.003328
     8  Br   0.012964  -0.458518   0.056581  -0.006752  -0.032803   0.034944
     9  Br   0.000935  -0.006739   0.013420  -0.033376  -0.010140  -0.003088
    10  Br  -0.005786  -0.000287   0.032588  -0.043012  -0.020499   0.006385
    11  H    0.000109  -0.002583   0.008894   0.007736  -0.024507   0.004376
    12  H   -0.000194  -0.002467   0.008116   0.003596  -0.017377  -0.013670
               7          8          9         10         11         12
     1  C   -0.011319   0.012964   0.000935  -0.005786   0.000109  -0.000194
     2  C   -0.007262  -0.458518  -0.006739  -0.000287  -0.002583  -0.002467
     3  C    0.002445   0.056581   0.013420   0.032588   0.008894   0.008116
     4  C   -0.007149  -0.006752  -0.033376  -0.043012   0.007736   0.003596
     5  C   -0.004027  -0.032803  -0.010140  -0.020499  -0.024507  -0.017377
     6  C   -0.003328   0.034944  -0.003088   0.006385   0.004376  -0.013670
     7  Br   0.058022   0.009243   0.000692  -0.000066   0.000256   0.004458
     8  Br   0.009243   0.714386   0.012237   0.004642   0.000717   0.004984
     9  Br   0.000692   0.012237   0.066992   0.006772   0.000231   0.000108
    10  Br  -0.000066   0.004642   0.006772   0.032749   0.002263   0.001219
    11  H    0.000256   0.000717   0.000231   0.002263  -0.000557   0.003319
    12  H    0.004458   0.004984   0.000108   0.001219   0.003319   0.017403
 Mulliken charges and spin densities:
               1          2
     1  C    0.061216  -0.009018
     2  C    0.126995   0.516393
     3  C   -0.113372  -0.010884
     4  C    0.128846   0.030489
     5  C   -0.342755  -0.024843
     6  C   -0.416313   0.028515
     7  Br  -0.216878   0.041964
     8  Br  -0.615215   0.352625
     9  Br  -0.165909   0.048044
    10  Br  -0.194337   0.016969
    11  H    0.376836   0.000253
    12  H    0.370886   0.009494
 Sum of Mulliken charges =  -1.00000   1.00000
 Mulliken charges and spin densities with hydrogens summed into heavy atoms:
               1          2
     1  C    0.061216  -0.009018
     2  C    0.126995   0.516393
     3  C   -0.113372  -0.010884
     4  C    0.128846   0.030489
     5  C    0.034081  -0.024590
     6  C   -0.045428   0.038009
     7  Br  -0.216878   0.041964
     8  Br  -0.615215   0.352625
     9  Br  -0.165909   0.048044
    10  Br  -0.194337   0.016969
 Electronic spatial extent (au):  <R**2>=           5672.2541
 Charge=             -1.0000 electrons
 Dipole moment (field-independent basis, Debye):
    X=             -6.3980    Y=              7.4263    Z=             -0.3676  Tot=              9.8091
 Quadrupole moment (field-independent basis, Debye-Ang):
   XX=           -139.6079   YY=           -122.6920   ZZ=           -116.7219
   XY=              9.7727   XZ=             -1.8234   YZ=              2.6477
 Traceless Quadrupole moment (field-independent basis, Debye-Ang):
   XX=            -13.2673   YY=              3.6486   ZZ=              9.6187
   XY=              9.7727   XZ=             -1.8234   YZ=              2.6477
 Octapole moment (field-independent basis, Debye-Ang**2):
  XXX=            -44.1526  YYY=             16.8780  ZZZ=             -2.8942  XYY=            -39.2063
  XXY=              8.4338  XXZ=             -3.7802  XZZ=             -4.5279  YZZ=            -12.7452
  YYZ=             -1.1096  XYZ=              4.0027
 Hexadecapole moment (field-independent basis, Debye-Ang**3):
 XXXX=          -3667.7074 YYYY=          -1880.6357 ZZZZ=           -183.7258 XXXY=             96.9919
 XXXZ=            -16.3818 YYYX=             86.5868 YYYZ=             23.4832 ZZZX=             -2.9878
 ZZZY=             -0.5184 XXYY=           -998.1601 XXZZ=           -652.5052 YYZZ=           -370.0881
 XXYZ=             10.4675 YYXZ=             -7.5457 ZZXY=             15.3725
 N-N= 1.873111592790D+03 E-N=-2.892084254330D+04  KE= 1.051344169003D+04
                          Isotropic Fermi Contact Couplings
        Atom                 a.u.       MegaHertz       Gauss      10(-4) cm-1
     1  C(13)             -0.02538     -28.53578     -10.18228      -9.51851
     2  C(13)              0.44523     500.51839     178.59741     166.95496
     3  C(13)             -0.02629     -29.55256     -10.54509      -9.85767
     4  C(13)              0.03843      43.20617      15.41704      14.41203
     5  C(13)             -0.00135      -1.51680      -0.54123      -0.50595
     6  C(13)              0.02408      27.07010       9.65929       9.02961
     7  Br(79)             0.04046      45.47142      16.22533      15.16763
     8  Br(79)             0.60548     680.40375     242.78498     226.95826
     9  Br(79)             0.04571      51.37129      18.33055      17.13562
    10  Br(79)             0.01863      20.93358       7.46962       6.98269
    11  H(1)              -0.00001      -0.04499      -0.01605      -0.01501
    12  H(1)               0.00268      11.98364       4.27606       3.99731
 --------------------------------------------------------
       Center         ----  Spin Dipole Couplings  ----
                      3XX-RR        3YY-RR        3ZZ-RR
 --------------------------------------------------------
     1   Atom        0.007673      0.049911     -0.057584
     2   Atom       -0.040179      0.287759     -0.247580
     3   Atom        0.070782     -0.012195     -0.058588
     4   Atom       -0.011406      0.010345      0.001061
     5   Atom        0.011659      0.014243     -0.025902
     6   Atom       -0.010902      0.014875     -0.003973
     7   Atom        0.458963     -0.205668     -0.253295
     8   Atom       -0.032545      1.618929     -1.586384
     9   Atom       -0.082900      0.362448     -0.279548
    10   Atom        0.172498     -0.091832     -0.080666
    11   Atom        0.000710      0.000938     -0.001647
    12   Atom       -0.002277      0.005278     -0.003001
 --------------------------------------------------------
                        XY            XZ            YZ
 --------------------------------------------------------
     1   Atom        0.048087      0.018135      0.025853
     2   Atom       -0.451577     -0.084917      0.117562
     3   Atom        0.031010     -0.023804     -0.009763
     4   Atom       -0.004585      0.001201     -0.001153
     5   Atom       -0.005148     -0.005357      0.006035
     6   Atom       -0.012838      0.001623     -0.000955
     7   Atom        0.115150     -0.075307     -0.009631
     8   Atom       -2.645953      0.837171     -1.139958
     9   Atom        0.334316      0.053507      0.107513
    10   Atom       -0.057350     -0.017959      0.001036
    11   Atom       -0.000521     -0.000270      0.000444
    12   Atom        0.000977      0.000082      0.000712
 --------------------------------------------------------


 ---------------------------------------------------------------------------------
              Anisotropic Spin Dipole Couplings in Principal Axis System
 ---------------------------------------------------------------------------------

       Atom             a.u.   MegaHertz   Gauss  10(-4) cm-1        Axes

              Baa    -0.0644    -8.648    -3.086    -2.885 -0.1368 -0.1634  0.9770
     1 C(13)  Bbb    -0.0237    -3.181    -1.135    -1.061  0.8331 -0.5527  0.0242
              Bcc     0.0881    11.829     4.221     3.946  0.5360  0.8172  0.2117
 
              Baa    -0.3567   -47.864   -17.079   -15.966  0.8208  0.5708  0.0238
     2 C(13)  Bbb    -0.2715   -36.438   -13.002   -12.154  0.0740 -0.1475  0.9863
              Bcc     0.6282    84.302    30.081    28.120 -0.5665  0.8077  0.1633
 
              Baa    -0.0632    -8.485    -3.028    -2.830  0.1526  0.0954  0.9837
     3 C(13)  Bbb    -0.0224    -3.010    -1.074    -1.004 -0.3249  0.9449 -0.0413
              Bcc     0.0857    11.495     4.102     3.834  0.9334  0.3133 -0.1752
 
              Baa    -0.0124    -1.664    -0.594    -0.555  0.9785  0.1937 -0.0707
     4 C(13)  Bbb     0.0009     0.127     0.045     0.042  0.0433  0.1424  0.9889
              Bcc     0.0115     1.537     0.548     0.513 -0.2016  0.9707 -0.1310
 
              Baa    -0.0273    -3.668    -1.309    -1.223  0.1183 -0.1283  0.9847
     5 C(13)  Bbb     0.0077     1.027     0.366     0.342  0.7823  0.6227 -0.0129
              Bcc     0.0197     2.641     0.942     0.881 -0.6115  0.7719  0.1740
 
              Baa    -0.0163    -2.189    -0.781    -0.730  0.9218  0.3767 -0.0921
     6 C(13)  Bbb    -0.0040    -0.532    -0.190    -0.177  0.0616  0.0923  0.9938
              Bcc     0.0203     2.720     0.971     0.907 -0.3828  0.9217 -0.0619
 
              Baa    -0.2613   -35.053   -12.508   -11.693  0.1139 -0.0641  0.9914
     7 Br(79) Bbb    -0.2248   -30.155   -10.760   -10.059 -0.1568  0.9843  0.0816
              Bcc     0.4861    65.208    23.268    21.751  0.9810  0.1647 -0.1021
 
              Baa    -1.9786  -265.410   -94.705   -88.531  0.8003  0.5988  0.0322
     8 Br(79) Bbb    -1.9491  -261.450   -93.292   -87.210 -0.1739  0.1804  0.9681
              Bcc     3.9278   526.860   187.997   175.742 -0.5739  0.7803 -0.2485
 
              Baa    -0.2971   -39.852   -14.220   -13.293  0.0218 -0.1716  0.9849
     9 Br(79) Bbb    -0.2616   -35.084   -12.519   -11.703  0.8841 -0.4566 -0.0991
              Bcc     0.5587    74.936    26.739    24.996  0.4667  0.8730  0.1418
 
              Baa    -0.1041   -13.957    -4.980    -4.656  0.2090  0.9708  0.1175
    10 Br(79) Bbb    -0.0815   -10.938    -3.903    -3.649  0.0410 -0.1287  0.9908
              Bcc     0.1856    24.895     8.883     8.304  0.9771 -0.2022 -0.0667
 
              Baa    -0.0017    -0.926    -0.330    -0.309  0.0771 -0.1488  0.9859
    11 H(1)   Bbb     0.0003     0.156     0.056     0.052  0.7879  0.6150  0.0312
              Bcc     0.0014     0.770     0.275     0.257 -0.6110  0.7743  0.1647
 
              Baa    -0.0031    -1.633    -0.583    -0.545  0.0019 -0.0853  0.9964
    12 H(1)   Bbb    -0.0024    -1.281    -0.457    -0.427  0.9921 -0.1251 -0.0126
              Bcc     0.0055     2.915     1.040     0.972  0.1257  0.9885  0.0844
 

 ---------------------------------------------------------------------------------

 No NMR shielding tensors so no spin-rotation constants.
 Leave Link  601 at Mon Sep 28 09:18:47 2026, MaxMem=  1610612736 cpu:               2.6 elap:               0.3
 (Enter /share/software/user/restricted/gaussian/g16.B01/l9999.exe)
 1\1\GINC-SH02-01N06\FOpt\UM062X\6-311++G(d)\C6H2Br4(1-,2)\JLAPIER\28-S
 ep-2026\0\\#p Opt=(CalcFC,Tight) Freq M062X/6-311++G(d) SCRF=(SMD,Solv
 ent=Water) Int=UltraFine\\BrBz_1234_RA m062x_smd\\-1,2\C,0.0907053256,
 1.2894272865,-1.1576353207\C,0.1357880392,0.6253166711,0.0432526654\C,
 0.0970371052,-0.7507584175,0.0569947351\C,-0.0025590474,-1.4609603254,
 -1.1428235171\C,-0.0596622265,-0.7771934465,-2.3544632797\C,-0.0036263
 119,0.6103944346,-2.3701121949\Br,0.1892032008,3.2108824037,-1.2396739
 598\Br,-0.4218694724,1.9076929367,2.1624686113\Br,0.2171868091,-1.6908
 210155,1.7259154687\Br,-0.0652404526,-3.3646304303,-1.2151891955\H,-0.
 1430540689,-1.3252239022,-3.2844761558\H,-0.0339089002,1.1409996848,-3
 .3148698569\\Version=ES64L-G16RevB.01\State=2-A\HF=-10526.5717322\S2=0
 .758137\S2-1=0.\S2A=0.750046\RMSD=2.895e-09\RMSF=8.620e-06\Dipole=0.31
 58236,-2.2377022,-3.1283287\Quadrupole=6.907604,-8.4125082,1.5049042,1
 .7000718,2.4272643,-8.200286\PG=C01 [X(C6H2Br4)]\\@


 VIRTUE IS LEARNED AT YOUR MOTHER'S KNEE,
 VICES ARE PICKED UP AT SOME OTHER JOINT.
 Leave Link 9999 at Mon Sep 28 09:18:47 2026, MaxMem=  1610612736 cpu:               0.4 elap:               0.1
 Job cpu time:       0 days  6 hours 11 minutes 34.0 seconds.
 Elapsed time:       0 days  0 hours 46 minutes 31.6 seconds.
 File lengths (MBytes):  RWF=    448 Int=      0 D2E=      0 Chk=     67 Scr=      1
 Normal termination of Gaussian 16 at Mon Sep 28 09:18:47 2026.
 (Enter /share/software/user/restricted/gaussian/g16.B01/l1.exe)
 Link1:  Proceeding to internal job step number  2.
 ----------------------------------------------------------------------
 #P Geom=AllCheck Guess=TCheck SCRF=Check GenChk UM062X/6-311++G(d) Fre
 q
 ----------------------------------------------------------------------
 1/7=10,10=4,29=7,30=1,38=1,40=1/1,3;
 2/12=2,40=1/2;
 3/5=4,6=6,7=1011,11=2,14=-4,25=1,30=1,70=2,71=2,74=-55,75=-5,116=2,140=1/1,2,3;
 4/5=101/1;
 5/5=2,38=6,98=1/2;
 8/6=4,10=90,11=11/1;
 11/6=1,8=1,9=11,15=111,16=1/1,2,10;
 10/6=1/2;
 6/7=2,8=2,9=2,10=2,28=1/1;
 7/8=1,10=1,25=1/1,2,3,16;
 1/7=10,10=4,30=1/3;
 99//99;
 Leave Link    1 at Mon Sep 28 09:18:48 2026, MaxMem=  1610612736 cpu:               0.4 elap:               0.0
 (Enter /share/software/user/restricted/gaussian/g16.B01/l101.exe)
 Structure from the checkpoint file:  "calcs/m062x_smd/chks/BrBz_1234_RA.chk"
 ----------------------
 BrBz_1234_RA m062x_smd
 ----------------------
 Charge = -1 Multiplicity = 2
 Redundant internal coordinates found in file.  (old form).
 C,0,0.0907053256,1.2894272865,-1.1576353207
 C,0,0.1357880392,0.6253166711,0.0432526654
 C,0,0.0970371052,-0.7507584175,0.0569947351
 C,0,-0.0025590474,-1.4609603254,-1.1428235171
 C,0,-0.0596622265,-0.7771934465,-2.3544632797
 C,0,-0.0036263119,0.6103944346,-2.3701121949
 Br,0,0.1892032008,3.2108824037,-1.2396739598
 Br,0,-0.4218694724,1.9076929367,2.1624686113
 Br,0,0.2171868091,-1.6908210155,1.7259154687
 Br,0,-0.0652404526,-3.3646304303,-1.2151891955
 H,0,-0.1430540689,-1.3252239022,-3.2844761558
 H,0,-0.0339089002,1.1409996848,-3.3148698569
 Recover connectivity data from disk.
 ITRead=  0  0  0  0  0  0  0  0  0  0  0  0
 MicOpt= -1 -1 -1 -1 -1 -1 -1 -1 -1 -1 -1 -1
 NAtoms=     12 NQM=       12 NQMF=       0 NMMI=      0 NMMIF=      0
                NMic=       0 NMicF=      0.
                    Isotopes and Nuclear Properties:
 (Nuclear quadrupole moments (NQMom) in fm**2, nuclear magnetic moments (NMagM)
  in nuclear magnetons)

  Atom         1           2           3           4           5           6           7           8           9          10
 IAtWgt=          12          12          12          12          12          12          79          79          79          79
 AtmWgt=  12.0000000  12.0000000  12.0000000  12.0000000  12.0000000  12.0000000  78.9183361  78.9183361  78.9183361  78.9183361
 NucSpn=           0           0           0           0           0           0           3           3           3           3
 AtZEff=   3.6000000   3.6000000   3.6000000   3.6000000   3.6000000   3.6000000  24.5000000  24.5000000  24.5000000  24.5000000
 NQMom=    0.0000000   0.0000000   0.0000000   0.0000000   0.0000000   0.0000000  31.3000000  31.3000000  31.3000000  31.3000000
 NMagM=    0.0000000   0.0000000   0.0000000   0.0000000   0.0000000   0.0000000   2.1063990   2.1063990   2.1063990   2.1063990
 AtZNuc=   6.0000000   6.0000000   6.0000000   6.0000000   6.0000000   6.0000000  35.0000000  35.0000000  35.0000000  35.0000000

  Atom        11          12
 IAtWgt=           1           1
 AtmWgt=   1.0078250   1.0078250
 NucSpn=           1           1
 AtZEff=   1.0000000   1.0000000
 NQMom=    0.0000000   0.0000000
 NMagM=    2.7928460   2.7928460
 AtZNuc=   1.0000000   1.0000000
 Leave Link  101 at Mon Sep 28 09:18:48 2026, MaxMem=  1610612736 cpu:               4.8 elap:               0.6
 (Enter /share/software/user/restricted/gaussian/g16.B01/l103.exe)

 GradGradGradGradGradGradGradGradGradGradGradGradGradGradGradGradGradGrad
 Berny optimization.
 Initialization pass.
                           ----------------------------
                           !    Initial Parameters    !
                           ! (Angstroms and Degrees)  !
 --------------------------                            --------------------------
 ! Name  Definition              Value          Derivative Info.                !
 --------------------------------------------------------------------------------
 ! R1    R(1,2)                  1.373          calculate D2E/DX2 analytically  !
 ! R2    R(1,6)                  1.3929         calculate D2E/DX2 analytically  !
 ! R3    R(1,7)                  1.9257         calculate D2E/DX2 analytically  !
 ! R4    R(2,3)                  1.3767         calculate D2E/DX2 analytically  !
 ! R5    R(2,8)                  2.539          calculate D2E/DX2 analytically  !
 ! R6    R(3,4)                  1.3978         calculate D2E/DX2 analytically  !
 ! R7    R(3,9)                  1.9192         calculate D2E/DX2 analytically  !
 ! R8    R(4,5)                  1.3924         calculate D2E/DX2 analytically  !
 ! R9    R(4,10)                 1.9061         calculate D2E/DX2 analytically  !
 ! R10   R(5,6)                  1.3888         calculate D2E/DX2 analytically  !
 ! R11   R(5,11)                 1.0827         calculate D2E/DX2 analytically  !
 ! R12   R(6,12)                 1.084          calculate D2E/DX2 analytically  !
 ! A1    A(2,1,6)              121.8555         calculate D2E/DX2 analytically  !
 ! A2    A(2,1,7)              121.211          calculate D2E/DX2 analytically  !
 ! A3    A(6,1,7)              116.9238         calculate D2E/DX2 analytically  !
 ! A4    A(1,2,3)              119.4243         calculate D2E/DX2 analytically  !
 ! A5    A(1,2,8)              118.5884         calculate D2E/DX2 analytically  !
 ! A6    A(3,2,8)              119.3624         calculate D2E/DX2 analytically  !
 ! A7    A(2,3,4)              120.0856         calculate D2E/DX2 analytically  !
 ! A8    A(2,3,9)              119.7695         calculate D2E/DX2 analytically  !
 ! A9    A(4,3,9)              120.1326         calculate D2E/DX2 analytically  !
 ! A10   A(3,4,5)              120.0219         calculate D2E/DX2 analytically  !
 ! A11   A(3,4,10)             122.8453         calculate D2E/DX2 analytically  !
 ! A12   A(5,4,10)             117.1328         calculate D2E/DX2 analytically  !
 ! A13   A(4,5,6)              119.9192         calculate D2E/DX2 analytically  !
 ! A14   A(4,5,11)             120.1358         calculate D2E/DX2 analytically  !
 ! A15   A(6,5,11)             119.9444         calculate D2E/DX2 analytically  !
 ! A16   A(1,6,5)              118.6856         calculate D2E/DX2 analytically  !
 ! A17   A(1,6,12)             121.4626         calculate D2E/DX2 analytically  !
 ! A18   A(5,6,12)             119.8518         calculate D2E/DX2 analytically  !
 ! D1    D(6,1,2,3)              0.4878         calculate D2E/DX2 analytically  !
 ! D2    D(6,1,2,8)           -161.0413         calculate D2E/DX2 analytically  !
 ! D3    D(7,1,2,3)           -178.3418         calculate D2E/DX2 analytically  !
 ! D4    D(7,1,2,8)             20.1291         calculate D2E/DX2 analytically  !
 ! D5    D(2,1,6,5)              0.3166         calculate D2E/DX2 analytically  !
 ! D6    D(2,1,6,12)          -179.6977         calculate D2E/DX2 analytically  !
 ! D7    D(7,1,6,5)            179.1939         calculate D2E/DX2 analytically  !
 ! D8    D(7,1,6,12)            -0.8203         calculate D2E/DX2 analytically  !
 ! D9    D(1,2,3,4)             -0.7157         calculate D2E/DX2 analytically  !
 ! D10   D(1,2,3,9)            178.0089         calculate D2E/DX2 analytically  !
 ! D11   D(8,2,3,4)            160.6696         calculate D2E/DX2 analytically  !
 ! D12   D(8,2,3,9)            -20.6058         calculate D2E/DX2 analytically  !
 ! D13   D(2,3,4,5)              0.1469         calculate D2E/DX2 analytically  !
 ! D14   D(2,3,4,10)          -179.8913         calculate D2E/DX2 analytically  !
 ! D15   D(9,3,4,5)           -178.5731         calculate D2E/DX2 analytically  !
 ! D16   D(9,3,4,10)             1.3887         calculate D2E/DX2 analytically  !
 ! D17   D(3,4,5,6)              0.6641         calculate D2E/DX2 analytically  !
 ! D18   D(3,4,5,11)          -179.6174         calculate D2E/DX2 analytically  !
 ! D19   D(10,4,5,6)          -179.2998         calculate D2E/DX2 analytically  !
 ! D20   D(10,4,5,11)            0.4187         calculate D2E/DX2 analytically  !
 ! D21   D(4,5,6,1)             -0.8855         calculate D2E/DX2 analytically  !
 ! D22   D(4,5,6,12)           179.1285         calculate D2E/DX2 analytically  !
 ! D23   D(11,5,6,1)           179.3955         calculate D2E/DX2 analytically  !
 ! D24   D(11,5,6,12)           -0.5905         calculate D2E/DX2 analytically  !
 --------------------------------------------------------------------------------
 Trust Radius=3.00D-01 FncErr=1.00D-07 GrdErr=1.00D-07 EigMax=2.50D+02 EigMin=1.00D-04
 Number of steps in this run=      2 maximum allowed number of steps=      2.
 GradGradGradGradGradGradGradGradGradGradGradGradGradGradGradGradGradGrad

 Leave Link  103 at Mon Sep 28 09:18:48 2026, MaxMem=  1610612736 cpu:               0.1 elap:               0.0
 (Enter /share/software/user/restricted/gaussian/g16.B01/l202.exe)
                          Input orientation:                          
 ---------------------------------------------------------------------
 Center     Atomic      Atomic             Coordinates (Angstroms)
 Number     Number       Type             X           Y           Z
 ---------------------------------------------------------------------
      1          6           0        0.090705    1.289427   -1.157635
      2          6           0        0.135788    0.625317    0.043253
      3          6           0        0.097037   -0.750758    0.056995
      4          6           0       -0.002559   -1.460960   -1.142824
      5          6           0       -0.059662   -0.777193   -2.354463
      6          6           0       -0.003626    0.610394   -2.370112
      7         35           0        0.189203    3.210882   -1.239674
      8         35           0       -0.421869    1.907693    2.162469
      9         35           0        0.217187   -1.690821    1.725915
     10         35           0       -0.065240   -3.364630   -1.215189
     11          1           0       -0.143054   -1.325224   -3.284476
     12          1           0       -0.033909    1.141000   -3.314870
 ---------------------------------------------------------------------
                    Distance matrix (angstroms):
                    1          2          3          4          5
     1  C    0.000000
     2  C    1.373029   0.000000
     3  C    2.374389   1.376689   0.000000
     4  C    2.752008   2.403844   1.397809   0.000000
     5  C    2.392891   2.784650   2.416688   1.392433   0.000000
     6  C    1.392869   2.417434   2.784550   2.407644   1.388807
     7  Br   1.925726   2.886850   4.169465   4.676780   4.148426
     8  Br   3.415856   2.539005   3.430692   4.737996   5.267113
     9  Br   4.148824   2.863996   1.919232   2.886310   4.190567
    10  Br   4.657025   4.188528   2.911548   1.906076   2.827155
    11  H    3.378535   3.867317   3.398983   2.150544   1.082689
    12  H    2.165923   3.401722   3.868510   3.389537   2.145346
                    6          7          8          9         10
     6  C    0.000000
     7  Br   2.842114   0.000000
     8  Br   4.733096   3.694088   0.000000
     9  Br   4.703381   5.729066   3.680798   0.000000
    10  Br   4.139863   6.580479   6.271615   3.395806   0.000000
    11  H    2.145255   4.986770   6.340244   5.036612   2.906404
    12  H    1.083986   2.939495   5.544328   5.787208   4.970950
                   11         12
    11  H    0.000000
    12  H    2.468825   0.000000
 Stoichiometry    C6H2Br4(1-,2)
 Framework group  C1[X(C6H2Br4)]
 Deg. of freedom    30
 Full point group                 C1      NOp   1
 RotChk:  IX=1 Diff= 6.15D-16
 Largest Abelian subgroup         C1      NOp   1
 Largest concise Abelian subgroup C1      NOp   1
                         Standard orientation:                         
 ---------------------------------------------------------------------
 Center     Atomic      Atomic             Coordinates (Angstroms)
 Number     Number       Type             X           Y           Z
 ---------------------------------------------------------------------
      1          6           0        1.180469    1.285965   -0.052649
      2          6           0        0.627975    0.032822   -0.150579
      3          6           0       -0.740523   -0.108727   -0.101101
      4          6           0       -1.555727    1.014883    0.062652
      5          6           0       -0.984487    2.279947    0.172947
      6          6           0        0.395082    2.425271    0.106202
      7         35           0        3.085056    1.548244   -0.163014
      8         35           0        2.105032   -1.984209    0.292634
      9         35           0       -1.526127   -1.849095   -0.294481
     10         35           0       -3.457123    0.909519    0.144608
     11          1           0       -1.613839    3.150819    0.306040
     12          1           0        0.837776    3.412131    0.177999
 ---------------------------------------------------------------------
 Rotational constants (GHZ):           0.4861390           0.2178194           0.1520906
 Leave Link  202 at Mon Sep 28 09:18:48 2026, MaxMem=  1610612736 cpu:               0.0 elap:               0.0
 (Enter /share/software/user/restricted/gaussian/g16.B01/l301.exe)
 Standard basis: 6-311++G(d) (5D, 7F)
 Ernie: Thresh=  0.10000D-02 Tol=  0.10000D-05 Strict=F.
 There are   350 symmetry adapted cartesian basis functions of A   symmetry.
 There are   332 symmetry adapted basis functions of A   symmetry.
   332 basis functions,   604 primitive gaussians,   350 cartesian basis functions
    90 alpha electrons       89 beta electrons
       nuclear repulsion energy      1873.1112953582 Hartrees.
 IExCor= 4336 DFT=T Ex+Corr=M062X ExCW=0 ScaHFX=  0.540000
 ScaDFX=  1.000000  1.000000  1.000000  1.000000 ScalE2=  1.000000  1.000000
 IRadAn=      5 IRanWt=     -1 IRanGd=            0 ICorTp=0 IEmpDi=  4
 NAtoms=   12 NActive=   12 NUniq=   12 SFac= 1.00D+00 NAtFMM=   60 NAOKFM=F Big=F
 Integral buffers will be    131072 words long.
 Raffenetti 2 integral format.
 Two-electron integral symmetry is turned on.
 Force inversion solution in PCM.
 ------------------------------------------------------------------------------
 Polarizable Continuum Model (PCM)
 =================================
 Model                : PCM.
 Atomic radii         : SMD-Coulomb.
 Polarization charges : Total charges.
 Charge compensation  : None.
 Solution method      : Matrix inversion.
 Cavity type          : VdW (van der Waals Surface) (Alpha=1.000).
 Cavity algorithm     : GePol (No added spheres)
                        Default sphere list used, NSphG=   12.
                        Lebedev-Laikov grids with approx.  5.0 points / Ang**2.
                        Smoothing algorithm: York/Karplus (Gamma=1.0000).
                        Polarization charges: spherical gaussians, with
                                              point-specific exponents (IZeta= 3).
                        Self-potential: point-specific (ISelfS= 7).
                        Self-field    : sphere-specific E.n sum rule (ISelfD= 2).
 1st derivatives      : Analytical E(r).r(x)/FMM algorithm (CHGder, D1EAlg=3).
                        Cavity 1st derivative terms included.
 2nd derivatives      : Analytical E(r).r(xy)/FMM algorithm (CHGder, D2EAlg=3).
                        Cavity 2nd derivative terms included.
 Solvent              : Water, Eps=  78.355300 Eps(inf)=   1.777849
 ------------------------------------------------------------------------------
 Spheres list:
 ISph  on   Nord     Re0    Alpha      Xe            Ye            Ze
    1   C      1    1.8500  1.000      1.180469      1.285965     -0.052649
    2   C      2    1.8500  1.000      0.627975      0.032822     -0.150579
    3   C      3    1.8500  1.000     -0.740523     -0.108727     -0.101101
    4   C      4    1.8500  1.000     -1.555727      1.014883      0.062652
    5   C      5    1.8500  1.000     -0.984487      2.279947      0.172947
    6   C      6    1.8500  1.000      0.395082      2.425271      0.106202
    7  Br      7    3.0600  1.000      3.085056      1.548244     -0.163014
    8  Br      8    3.0600  1.000      2.105032     -1.984209      0.292634
    9  Br      9    3.0600  1.000     -1.526127     -1.849095     -0.294481
   10  Br     10    3.0600  1.000     -3.457123      0.909519      0.144608
   11   H     11    1.2000  1.000     -1.613839      3.150819      0.306040
   12   H     12    1.2000  1.000      0.837776      3.412131      0.177999
 ------------------------------------------------------------------------------
 GePol: Number of generator spheres                  =      12
 GePol: Total number of spheres                      =      12
 GePol: Number of exposed spheres                    =      12 (100.00%)
 GePol: Number of points                             =    1873
 GePol: Average weight of points                     =       0.17
 GePol: Minimum weight of points                     =   0.56D-10
 GePol: Maximum weight of points                     =    0.22025
 GePol: Number of points with low weight             =      61
 GePol: Fraction of low-weight points (<1% of avg)   =       3.26%
 GePol: Cavity surface area                          =    321.447 Ang**2
 GePol: Cavity volume                                =    418.214 Ang**3
 ------------------------------------------------------------------------------
 Atomic radii for non-electrostatic terms: SMD-CDS.
 ------------------------------------------------------------------------------
 PCM non-electrostatic energy =         0.0002974322 Hartrees.
 Nuclear repulsion after PCM non-electrostatic terms =     1873.1115927904 Hartrees.
 Leave Link  301 at Mon Sep 28 09:18:48 2026, MaxMem=  1610612736 cpu:               0.9 elap:               0.1
 (Enter /share/software/user/restricted/gaussian/g16.B01/l302.exe)
 NPDir=0 NMtPBC=     1 NCelOv=     1 NCel=       1 NClECP=     1 NCelD=      1
         NCelK=      1 NCelE2=     1 NClLst=     1 CellRange=     0.0.
 One-electron integrals computed using PRISM.
 One-electron integral symmetry used in STVInt
 NBasis=   332 RedAO= T EigKep=  2.54D-06  NBF=   332
 NBsUse=   331 1.00D-06 EigRej=  4.90D-07 NBFU=   331
 Precomputing XC quadrature grid using
 IXCGrd= 4 IRadAn=           5 IRanWt=          -1 IRanGd=           0 AccXCQ= 0.00D+00.
 Generated NRdTot=       0 NPtTot=           0 NUsed=           0 NTot=          32
 NSgBfM=   337   337   337   337   337 MxSgAt=    12 MxSgA2=    12.
 Leave Link  302 at Mon Sep 28 09:18:49 2026, MaxMem=  1610612736 cpu:               2.2 elap:               0.3
 (Enter /share/software/user/restricted/gaussian/g16.B01/l303.exe)
 DipDrv:  MaxL=1.
 Leave Link  303 at Mon Sep 28 09:18:49 2026, MaxMem=  1610612736 cpu:               0.4 elap:               0.1
 (Enter /share/software/user/restricted/gaussian/g16.B01/l401.exe)
 Initial guess from the checkpoint file:  "calcs/m062x_smd/chks/BrBz_1234_RA.chk"
 B after Tr=     0.000000    0.000000   -0.000000
         Rot=    1.000000   -0.000000    0.000000    0.000000 Ang=   0.00 deg.
 Guess basis will be translated and rotated to current coordinates.
 JPrj=2 DoOrth=T DoCkMO=T.
 Initial guess <Sx>= 0.0000 <Sy>= 0.0000 <Sz>= 0.5000 <S**2>= 0.7581 S= 0.5041
 Leave Link  401 at Mon Sep 28 09:18:49 2026, MaxMem=  1610612736 cpu:               3.0 elap:               0.4
 (Enter /share/software/user/restricted/gaussian/g16.B01/l502.exe)
 Integral symmetry usage will be decided dynamically.
 UHF open shell SCF:
 Using DIIS extrapolation, IDIIS=  1040.
 NGot=  1610612736 LenX=  1610361870 LenY=  1610238929
 Requested convergence on RMS density matrix=1.00D-08 within 128 cycles.
 Requested convergence on MAX density matrix=1.00D-06.
 Requested convergence on             energy=1.00D-06.
 No special actions if energy rises.
 Fock matrices will be formed incrementally for  20 cycles.

 Cycle   1  Pass 1  IDiag  1:
 FoFJK:  IHMeth= 1 ICntrl=       0 DoSepK=F KAlg= 0 I1Cent=           0 FoldK=F
 IRaf= 790000000 NMat=       1 IRICut=       1 DoRegI=T DoRafI=F ISym2E= 0 IDoP0=0 IntGTp=1.
 FoFCou: FMM=F IPFlag=           0 FMFlag=      100000 FMFlg1=           0
         NFxFlg=           0 DoJE=F BraDBF=F KetDBF=F FulRan=T
         wScrn=  0.000000 ICntrl=         0 IOpCl=  1 I1Cent=           0 NGrid=           0
         NMat0=    1 NMatS0=      1 NMatT0=    0 NMatD0=    1 NMtDS0=    0 NMtDT0=    0
 Symmetry not used in FoFCou.
 Inv3:  Mode=1 IEnd=    10524387.
 Iteration    1 A*A^-1 deviation from unit magnitude is 4.22D-15 for   1862.
 Iteration    1 A*A^-1 deviation from orthogonality  is 2.88D-15 for   1867   1170.
 Iteration    1 A^-1*A deviation from unit magnitude is 4.44D-15 for   1862.
 Iteration    1 A^-1*A deviation from orthogonality  is 1.50D-15 for   1844   1652.
 E= -10526.5717321796    
 DIIS: error= 3.40D-09 at cycle   1 NSaved=   1.
 NSaved= 1 IEnMin= 1 EnMin= -10526.5717321796     IErMin= 1 ErrMin= 3.40D-09
 ErrMax= 3.40D-09  0.00D+00 EMaxC= 1.00D-01 BMatC= 1.43D-14 BMatP= 1.43D-14
 IDIUse=1 WtCom= 1.00D+00 WtEn= 0.00D+00
 Coeff-Com:  0.100D+01
 Coeff:      0.100D+01
 Gap=     0.212 Goal=   None    Shift=    0.000
 Gap=     0.217 Goal=   None    Shift=    0.000
 RMSDP=3.72D-09 MaxDP=1.50D-07              OVMax= 8.66D-08

 Error on total polarization charges =  0.00777
 SCF Done:  E(UM062X) =  -10526.5717322     A.U. after    1 cycles
            NFock=  1  Conv=0.37D-08     -V/T= 2.0012
 <Sx>= 0.0000 <Sy>= 0.0000 <Sz>= 0.5000 <S**2>= 0.7581 S= 0.5041
 <L.S>=  0.00000000000    
 KE= 1.051344168997D+04 PE=-2.892084254324D+04 EE= 6.007717528301D+03
 SMD-CDS (non-electrostatic) energy       (kcal/mol) =       0.19
 (included in total energy above)
 Annihilation of the first spin contaminant:
 S**2 before annihilation     0.7581,   after     0.7500
 Leave Link  502 at Mon Sep 28 09:19:02 2026, MaxMem=  1610612736 cpu:             102.5 elap:              13.0
 (Enter /share/software/user/restricted/gaussian/g16.B01/l801.exe)
 DoSCS=F DFT=T ScalE2(SS,OS)=  1.000000  1.000000
 Range of M.O.s used for correlation:     1   331
 NBasis=   332 NAE=    90 NBE=    89 NFC=     0 NFV=     0
 NROrb=    331 NOA=    90 NOB=    89 NVA=   241 NVB=   242

 **** Warning!!: The largest alpha MO coefficient is  0.14164853D+03


 **** Warning!!: The largest beta MO coefficient is  0.13863446D+03

 Leave Link  801 at Mon Sep 28 09:19:02 2026, MaxMem=  1610612736 cpu:               0.3 elap:               0.1
 (Enter /share/software/user/restricted/gaussian/g16.B01/l1101.exe)
 Using compressed storage, NAtomX=    12.
 Will process     13 centers per pass.
 Leave Link 1101 at Mon Sep 28 09:19:03 2026, MaxMem=  1610612736 cpu:               2.1 elap:               0.3
 (Enter /share/software/user/restricted/gaussian/g16.B01/l1102.exe)
 Symmetrizing basis deriv contribution to polar:
 IMax=3 JMax=2 DiffMx= 0.00D+00
 Leave Link 1102 at Mon Sep 28 09:19:03 2026, MaxMem=  1610612736 cpu:               0.5 elap:               0.1
 (Enter /share/software/user/restricted/gaussian/g16.B01/l1110.exe)
 Forming Gx(P) for the SCF density, NAtomX=    12.
 Integral derivatives from FoFJK, PRISM(SPDF).
 Do as many integral derivatives as possible in FoFJK.
 G2DrvN: MDV=    1610611664.
 G2DrvN: will do    13 centers at a time, making    1 passes.
 Calling FoFCou, ICntrl=  3107 FMM=F I1Cent=   0 AccDes= 0.00D+00.
 FoFJK:  IHMeth= 1 ICntrl=    3107 DoSepK=F KAlg= 0 I1Cent=           0 FoldK=F
 IRaf=         0 NMat=       1 IRICut=       1 DoRegI=T DoRafI=F ISym2E= 0 IDoP0=0 IntGTp=1.
 FoFCou: FMM=F IPFlag=           0 FMFlag=      100000 FMFlg1=           0
         NFxFlg=           0 DoJE=F BraDBF=F KetDBF=F FulRan=T
         wScrn=  0.000000 ICntrl=      3107 IOpCl=  1 I1Cent=           0 NGrid=           0
         NMat0=    1 NMatS0=      1 NMatT0=    0 NMatD0=    1 NMtDS0=    0 NMtDT0=    0
 Symmetry not used in FoFCou.
 NEqPCM:  Using equilibrium solvation (IEInf=0, Eps=  78.3553, EpsInf=   1.7778)
 G2PCM: DoFxE=T DoFxN=T DoGrad=T DoDP/DQ/DG/TGxP=FFFF NFrqRd=   0 IEInf=0 SqF1=F DoCFld=F IF1Alg=4.
 GePol: Maximum number of non-zero 1st derivatives   =     472
 End of G2Drv F.D. properties file   721 does not exist.
 End of G2Drv F.D. properties file   722 does not exist.
 End of G2Drv F.D. properties file   788 does not exist.
 Leave Link 1110 at Mon Sep 28 09:21:56 2026, MaxMem=  1610612736 cpu:            1383.5 elap:             173.0
 (Enter /share/software/user/restricted/gaussian/g16.B01/l1002.exe)
 Minotr:  UHF open shell wavefunction.
          IDoAtm=111111111111
 NEqPCM:  Using equilibrium solvation (IEInf=0, Eps=  78.3553, EpsInf=   1.7778)
          Direct CPHF calculation.
          Differentiating once with respect to electric field.
                with respect to dipole field.
          Differentiating once with respect to nuclear coordinates.
          Requested convergence is 1.0D-08 RMS, and 1.0D-07 maximum.
          Secondary convergence is 1.0D-12 RMS, and 1.0D-12 maximum.
          NewPWx=T KeepS1=F KeepF1=F KeepIn=T MapXYZ=F SortEE=F KeepMc=T.
         3647 words used for storage of precomputed grid.
 Two-electron integrals replicated using symmetry.
          MDV=    1610612736 using IRadAn=       1.
          Solving linear equations simultaneously, MaxMat=     384.
 FoF2E skips out because all densities are zero.
 CalDSu exits because no D1Ps are significant.
 FoFJK:  IHMeth= 1 ICntrl=       0 DoSepK=F KAlg= 0 I1Cent=           0 FoldK=F
 IRaf= 790000000 NMat=      36 IRICut=       1 DoRegI=T DoRafI=F ISym2E= 2 IDoP0=3 IntGTp=3.
          There are    39 degrees of freedom in the 1st order CPHF.  IDoFFX=6 NUNeed=     3.
     36 vectors produced by pass  0 Test12= 1.11D-13 2.56D-09 XBig12= 3.43D+02 4.92D+00.
 AX will form    36 AO Fock derivatives at one time.
     36 vectors produced by pass  1 Test12= 1.11D-13 2.56D-09 XBig12= 3.22D+01 8.36D-01.
     36 vectors produced by pass  2 Test12= 1.11D-13 2.56D-09 XBig12= 2.04D+00 2.92D-01.
     36 vectors produced by pass  3 Test12= 1.11D-13 2.56D-09 XBig12= 1.16D-01 5.13D-02.
     36 vectors produced by pass  4 Test12= 1.11D-13 2.56D-09 XBig12= 4.34D-03 8.88D-03.
     36 vectors produced by pass  5 Test12= 1.11D-13 2.56D-09 XBig12= 7.92D-05 1.15D-03.
     36 vectors produced by pass  6 Test12= 1.11D-13 2.56D-09 XBig12= 1.01D-06 1.18D-04.
     33 vectors produced by pass  7 Test12= 1.11D-13 2.56D-09 XBig12= 8.62D-09 1.31D-05.
     13 vectors produced by pass  8 Test12= 1.11D-13 2.56D-09 XBig12= 7.12D-11 8.71D-07.
      3 vectors produced by pass  9 Test12= 1.11D-13 2.56D-09 XBig12= 5.74D-13 8.30D-08.
      2 vectors produced by pass 10 Test12= 1.11D-13 2.56D-09 XBig12= 5.55D-15 5.51D-09.
 InvSVY:  IOpt=1 It=  1 EMax= 1.07D-14
 Solved reduced A of dimension   303 with    39 vectors.
 FullF1:  Do perturbations      1 to       3.
 Isotropic polarizability for W=    0.000000      231.81 Bohr**3.
 End of Minotr F.D. properties file   721 does not exist.
 End of Minotr F.D. properties file   722 does not exist.
 End of Minotr F.D. properties file   788 does not exist.
 Leave Link 1002 at Mon Sep 28 09:32:28 2026, MaxMem=  1610612736 cpu:            5057.1 elap:             632.3
 (Enter /share/software/user/restricted/gaussian/g16.B01/l601.exe)
 Copying SCF densities to generalized density rwf, IOpCl= 1 IROHF=0.

 **********************************************************************

            Population analysis using the SCF Density.

 **********************************************************************

 Orbital symmetries:
 Alpha Orbitals:
       Occupied  (A) (A) (A) (A) (A) (A) (A) (A) (A) (A) (A) (A)
                 (A) (A) (A) (A) (A) (A) (A) (A) (A) (A) (A) (A)
                 (A) (A) (A) (A) (A) (A) (A) (A) (A) (A) (A) (A)
                 (A) (A) (A) (A) (A) (A) (A) (A) (A) (A) (A) (A)
                 (A) (A) (A) (A) (A) (A) (A) (A) (A) (A) (A) (A)
                 (A) (A) (A) (A) (A) (A) (A) (A) (A) (A) (A) (A)
                 (A) (A) (A) (A) (A) (A) (A) (A) (A) (A) (A) (A)
                 (A) (A) (A) (A) (A) (A)
       Virtual   (A) (A) (A) (A) (A) (A) (A) (A) (A) (A) (A) (A)
                 (A) (A) (A) (A) (A) (A) (A) (A) (A) (A) (A) (A)
                 (A) (A) (A) (A) (A) (A) (A) (A) (A) (A) (A) (A)
                 (A) (A) (A) (A) (A) (A) (A) (A) (A) (A) (A) (A)
                 (A) (A) (A) (A) (A) (A) (A) (A) (A) (A) (A) (A)
                 (A) (A) (A) (A) (A) (A) (A) (A) (A) (A) (A) (A)
                 (A) (A) (A) (A) (A) (A) (A) (A) (A) (A) (A) (A)
                 (A) (A) (A) (A) (A) (A) (A) (A) (A) (A) (A) (A)
                 (A) (A) (A) (A) (A) (A) (A) (A) (A) (A) (A) (A)
                 (A) (A) (A) (A) (A) (A) (A) (A) (A) (A) (A) (A)
                 (A) (A) (A) (A) (A) (A) (A) (A) (A) (A) (A) (A)
                 (A) (A) (A) (A) (A) (A) (A) (A) (A) (A) (A) (A)
                 (A) (A) (A) (A) (A) (A) (A) (A) (A) (A) (A) (A)
                 (A) (A) (A) (A) (A) (A) (A) (A) (A) (A) (A) (A)
                 (A) (A) (A) (A) (A) (A) (A) (A) (A) (A) (A) (A)
                 (A) (A) (A) (A) (A) (A) (A) (A) (A) (A) (A) (A)
                 (A) (A) (A) (A) (A) (A) (A) (A) (A) (A) (A) (A)
                 (A) (A) (A) (A) (A) (A) (A) (A) (A) (A) (A) (A)
                 (A) (A) (A) (A) (A) (A) (A) (A) (A) (A) (A) (A)
                 (A) (A) (A) (A) (A) (A) (A) (A) (A) (A) (A) (A)
                 (A)
 Beta  Orbitals:
       Occupied  (A) (A) (A) (A) (A) (A) (A) (A) (A) (A) (A) (A)
                 (A) (A) (A) (A) (A) (A) (A) (A) (A) (A) (A) (A)
                 (A) (A) (A) (A) (A) (A) (A) (A) (A) (A) (A) (A)
                 (A) (A) (A) (A) (A) (A) (A) (A) (A) (A) (A) (A)
                 (A) (A) (A) (A) (A) (A) (A) (A) (A) (A) (A) (A)
                 (A) (A) (A) (A) (A) (A) (A) (A) (A) (A) (A) (A)
                 (A) (A) (A) (A) (A) (A) (A) (A) (A) (A) (A) (A)
                 (A) (A) (A) (A) (A)
       Virtual   (A) (A) (A) (A) (A) (A) (A) (A) (A) (A) (A) (A)
                 (A) (A) (A) (A) (A) (A) (A) (A) (A) (A) (A) (A)
                 (A) (A) (A) (A) (A) (A) (A) (A) (A) (A) (A) (A)
                 (A) (A) (A) (A) (A) (A) (A) (A) (A) (A) (A) (A)
                 (A) (A) (A) (A) (A) (A) (A) (A) (A) (A) (A) (A)
                 (A) (A) (A) (A) (A) (A) (A) (A) (A) (A) (A) (A)
                 (A) (A) (A) (A) (A) (A) (A) (A) (A) (A) (A) (A)
                 (A) (A) (A) (A) (A) (A) (A) (A) (A) (A) (A) (A)
                 (A) (A) (A) (A) (A) (A) (A) (A) (A) (A) (A) (A)
                 (A) (A) (A) (A) (A) (A) (A) (A) (A) (A) (A) (A)
                 (A) (A) (A) (A) (A) (A) (A) (A) (A) (A) (A) (A)
                 (A) (A) (A) (A) (A) (A) (A) (A) (A) (A) (A) (A)
                 (A) (A) (A) (A) (A) (A) (A) (A) (A) (A) (A) (A)
                 (A) (A) (A) (A) (A) (A) (A) (A) (A) (A) (A) (A)
                 (A) (A) (A) (A) (A) (A) (A) (A) (A) (A) (A) (A)
                 (A) (A) (A) (A) (A) (A) (A) (A) (A) (A) (A) (A)
                 (A) (A) (A) (A) (A) (A) (A) (A) (A) (A) (A) (A)
                 (A) (A) (A) (A) (A) (A) (A) (A) (A) (A) (A) (A)
                 (A) (A) (A) (A) (A) (A) (A) (A) (A) (A) (A) (A)
                 (A) (A) (A) (A) (A) (A) (A) (A) (A) (A) (A) (A)
                 (A) (A)
 The electronic state is 2-A.
 Alpha  occ. eigenvalues -- -485.33551-485.32167-485.31942-485.23939 -63.32734
 Alpha  occ. eigenvalues --  -63.31346 -63.31123 -63.23061 -57.15487 -57.15228
 Alpha  occ. eigenvalues --  -57.15213 -57.14109 -57.13880 -57.13842 -57.13817
 Alpha  occ. eigenvalues --  -57.13619 -57.13603 -57.05832 -57.05582 -57.05567
 Alpha  occ. eigenvalues --  -10.61009 -10.60468 -10.59680 -10.55631 -10.55528
 Alpha  occ. eigenvalues --  -10.55526  -9.01453  -9.00065  -8.99838  -8.91740
 Alpha  occ. eigenvalues --   -6.84261  -6.83229  -6.83186  -6.82891  -6.82641
 Alpha  occ. eigenvalues --   -6.81852  -6.81769  -6.81625  -6.81571  -6.74359
 Alpha  occ. eigenvalues --   -6.73643  -6.73592  -2.87411  -2.87063  -2.87019
 Alpha  occ. eigenvalues --   -2.86110  -2.86109  -2.86028  -2.85779  -2.85695
 Alpha  occ. eigenvalues --   -2.85614  -2.85447  -2.85392  -2.84712  -2.84711
 Alpha  occ. eigenvalues --   -2.84509  -2.84509  -2.77379  -2.77216  -2.77172
 Alpha  occ. eigenvalues --   -2.76662  -2.76661  -0.99604  -0.92120  -0.89156
 Alpha  occ. eigenvalues --   -0.86282  -0.82170  -0.78817  -0.75678  -0.68570
 Alpha  occ. eigenvalues --   -0.65858  -0.56459  -0.55188  -0.49743  -0.47957
 Alpha  occ. eigenvalues --   -0.46893  -0.45896  -0.40960  -0.40098  -0.37173
 Alpha  occ. eigenvalues --   -0.36374  -0.35042  -0.34441  -0.33775  -0.32444
 Alpha  occ. eigenvalues --   -0.30406  -0.28361  -0.27510  -0.27038  -0.20718
 Alpha virt. eigenvalues --    0.00520   0.00627   0.01046   0.01462   0.02110
 Alpha virt. eigenvalues --    0.02767   0.03200   0.03873   0.04449   0.04820
 Alpha virt. eigenvalues --    0.05391   0.05549   0.06487   0.06802   0.07055
 Alpha virt. eigenvalues --    0.07854   0.08431   0.08463   0.09267   0.09520
 Alpha virt. eigenvalues --    0.09847   0.10978   0.11148   0.12412   0.12808
 Alpha virt. eigenvalues --    0.13844   0.14199   0.14336   0.15606   0.16109
 Alpha virt. eigenvalues --    0.16439   0.17494   0.18312   0.18760   0.19609
 Alpha virt. eigenvalues --    0.19633   0.21511   0.22322   0.23051   0.23233
 Alpha virt. eigenvalues --    0.23357   0.24314   0.25618   0.26486   0.26936
 Alpha virt. eigenvalues --    0.27192   0.28103   0.28946   0.30236   0.33463
 Alpha virt. eigenvalues --    0.34415   0.35687   0.36934   0.42905   0.43710
 Alpha virt. eigenvalues --    0.44140   0.45379   0.45648   0.46067   0.47381
 Alpha virt. eigenvalues --    0.47883   0.49370   0.51346   0.51608   0.53103
 Alpha virt. eigenvalues --    0.54528   0.56373   0.57072   0.58390   0.58982
 Alpha virt. eigenvalues --    0.59772   0.60177   0.61848   0.63746   0.64176
 Alpha virt. eigenvalues --    0.64414   0.64769   0.66592   0.67933   0.68418
 Alpha virt. eigenvalues --    0.69347   0.70039   0.70345   0.71259   0.73689
 Alpha virt. eigenvalues --    0.75268   0.75985   0.76565   0.76923   0.78349
 Alpha virt. eigenvalues --    0.79221   0.79764   0.81178   0.81997   0.82844
 Alpha virt. eigenvalues --    0.83160   0.84268   0.85593   0.86085   0.87779
 Alpha virt. eigenvalues --    0.90306   0.90888   0.92414   0.92451   0.94192
 Alpha virt. eigenvalues --    0.95098   0.98481   0.99594   1.01152   1.04355
 Alpha virt. eigenvalues --    1.04947   1.12263   1.12613   1.14614   1.16870
 Alpha virt. eigenvalues --    1.18157   1.21628   1.27530   1.29579   1.30687
 Alpha virt. eigenvalues --    1.32707   1.34006   1.34949   1.46282   1.54439
 Alpha virt. eigenvalues --    1.55973   1.58198   1.64982   1.80016   1.80457
 Alpha virt. eigenvalues --    1.82809   1.84658   1.85779   1.88506   1.94356
 Alpha virt. eigenvalues --    1.95773   1.99029   2.03691   2.04266   2.06679
 Alpha virt. eigenvalues --    2.06967   2.09133   2.11794   2.13747   2.15227
 Alpha virt. eigenvalues --    2.15819   2.17361   2.19997   2.21229   2.26116
 Alpha virt. eigenvalues --    2.27341   2.32022   2.34958   2.36283   2.37470
 Alpha virt. eigenvalues --    2.40223   2.43348   2.53936   2.60962   2.70238
 Alpha virt. eigenvalues --    2.72745   2.82419   2.83281   2.93312   2.95067
 Alpha virt. eigenvalues --    3.00154   3.08065   3.13910   3.17714   3.19730
 Alpha virt. eigenvalues --    3.24977   3.36366   3.36985   3.53705   3.61760
 Alpha virt. eigenvalues --    3.75827   3.95483   3.98684   4.28730   4.30352
 Alpha virt. eigenvalues --    4.30646   4.31994   4.34963   4.35518   4.35838
 Alpha virt. eigenvalues --    4.38024   4.38636   4.39299   4.39948   4.42276
 Alpha virt. eigenvalues --    4.46454   4.49699   4.54658   4.56501   4.58502
 Alpha virt. eigenvalues --    4.67817   4.71734   4.76089   4.83320   6.84201
 Alpha virt. eigenvalues --    6.88628   6.94369   6.97699   7.63698   7.66040
 Alpha virt. eigenvalues --    7.67274   7.72479   7.74778   7.76064   7.77261
 Alpha virt. eigenvalues --    7.78218   7.79754   7.82014   7.82501   7.87376
 Alpha virt. eigenvalues --   23.33469  23.91876  23.93382  24.08559  24.13898
 Alpha virt. eigenvalues --   24.22206  48.38090  48.42286  48.45982  48.48832
 Alpha virt. eigenvalues --  290.78190 290.80772 290.82131 290.88358 290.90472
 Alpha virt. eigenvalues --  290.92368 290.92942 290.95506 290.95943 290.98417
 Alpha virt. eigenvalues --  291.00576 291.055101020.932611020.975491021.03662
 Alpha virt. eigenvalues -- 1021.07321
  Beta  occ. eigenvalues -- -485.33543-485.32146-485.31924-485.23766 -63.32730
  Beta  occ. eigenvalues --  -63.31336 -63.31115 -63.22974 -57.15474 -57.15226
  Beta  occ. eigenvalues --  -57.15211 -57.14069 -57.13845 -57.13839 -57.13813
  Beta  occ. eigenvalues --  -57.13617 -57.13599 -57.05540 -57.05526 -57.05524
  Beta  occ. eigenvalues --  -10.60963 -10.60508 -10.59718 -10.55608 -10.55527
  Beta  occ. eigenvalues --  -10.54705  -9.01443  -9.00039  -8.99816  -8.91508
  Beta  occ. eigenvalues --   -6.84234  -6.83224  -6.83181  -6.82810  -6.82570
  Beta  occ. eigenvalues --   -6.81846  -6.81760  -6.81621  -6.81563  -6.73734
  Beta  occ. eigenvalues --   -6.73541  -6.73493  -2.87396  -2.87050  -2.87006
  Beta  occ. eigenvalues --   -2.86106  -2.86106  -2.85984  -2.85741  -2.85660
  Beta  occ. eigenvalues --   -2.85578  -2.85417  -2.85361  -2.84708  -2.84707
  Beta  occ. eigenvalues --   -2.84506  -2.84506  -2.77024  -2.76927  -2.76883
  Beta  occ. eigenvalues --   -2.76596  -2.76595  -0.99216  -0.91909  -0.88829
  Beta  occ. eigenvalues --   -0.86142  -0.81442  -0.78571  -0.73820  -0.67900
  Beta  occ. eigenvalues --   -0.65328  -0.56036  -0.54729  -0.49396  -0.47610
  Beta  occ. eigenvalues --   -0.46625  -0.44937  -0.40510  -0.39997  -0.36992
  Beta  occ. eigenvalues --   -0.36203  -0.34421  -0.33667  -0.32823  -0.30144
  Beta  occ. eigenvalues --   -0.28936  -0.28243  -0.26770  -0.26389
  Beta virt. eigenvalues --   -0.04681   0.00528   0.00830   0.01352   0.02094
  Beta virt. eigenvalues --    0.02615   0.02710   0.03314   0.03908   0.04367
  Beta virt. eigenvalues --    0.04556   0.05458   0.05843   0.06538   0.06924
  Beta virt. eigenvalues --    0.07068   0.07853   0.08199   0.08527   0.09362
  Beta virt. eigenvalues --    0.09564   0.09884   0.10987   0.11254   0.12169
  Beta virt. eigenvalues --    0.12894   0.13894   0.14258   0.14398   0.15697
  Beta virt. eigenvalues --    0.16152   0.16513   0.17597   0.18379   0.18933
  Beta virt. eigenvalues --    0.19684   0.19946   0.21611   0.22464   0.23242
  Beta virt. eigenvalues --    0.23274   0.23440   0.24391   0.25671   0.26568
  Beta virt. eigenvalues --    0.27069   0.27280   0.28189   0.29120   0.30441
  Beta virt. eigenvalues --    0.33542   0.34688   0.36083   0.37206   0.43008
  Beta virt. eigenvalues --    0.43965   0.44331   0.45495   0.45868   0.46484
  Beta virt. eigenvalues --    0.47506   0.47908   0.49488   0.51569   0.51789
  Beta virt. eigenvalues --    0.53215   0.54702   0.56498   0.57169   0.58546
  Beta virt. eigenvalues --    0.59165   0.59900   0.60939   0.61959   0.63887
  Beta virt. eigenvalues --    0.64561   0.64893   0.65382   0.66904   0.68426
  Beta virt. eigenvalues --    0.68871   0.69757   0.70371   0.70763   0.71386
  Beta virt. eigenvalues --    0.74230   0.75436   0.76192   0.76918   0.77107
  Beta virt. eigenvalues --    0.78635   0.79494   0.80179   0.81546   0.82238
  Beta virt. eigenvalues --    0.83183   0.83484   0.84561   0.86296   0.86451
  Beta virt. eigenvalues --    0.87958   0.90598   0.90989   0.92515   0.93080
  Beta virt. eigenvalues --    0.94813   0.95244   0.98609   1.00062   1.01514
  Beta virt. eigenvalues --    1.04517   1.05370   1.12510   1.13105   1.14898
  Beta virt. eigenvalues --    1.16975   1.18141   1.22132   1.27759   1.29849
  Beta virt. eigenvalues --    1.30774   1.32876   1.34656   1.35574   1.46498
  Beta virt. eigenvalues --    1.54783   1.56514   1.59335   1.65206   1.80441
  Beta virt. eigenvalues --    1.80632   1.83227   1.85093   1.85960   1.89289
  Beta virt. eigenvalues --    1.94454   1.96419   1.99401   2.03848   2.04445
  Beta virt. eigenvalues --    2.07125   2.07169   2.09954   2.12602   2.14558
  Beta virt. eigenvalues --    2.15847   2.16943   2.17787   2.21428   2.24255
  Beta virt. eigenvalues --    2.26623   2.27908   2.32402   2.35295   2.36701
  Beta virt. eigenvalues --    2.38054   2.40742   2.43767   2.54574   2.61136
  Beta virt. eigenvalues --    2.70459   2.73514   2.82430   2.83677   2.93307
  Beta virt. eigenvalues --    2.95845   3.00237   3.09708   3.14336   3.18957
  Beta virt. eigenvalues --    3.20221   3.25381   3.36474   3.37190   3.54298
  Beta virt. eigenvalues --    3.62347   3.76868   3.96112   3.98954   4.28774
  Beta virt. eigenvalues --    4.30432   4.30717   4.32062   4.35142   4.35714
  Beta virt. eigenvalues --    4.36024   4.38444   4.39416   4.40112   4.40783
  Beta virt. eigenvalues --    4.44397   4.47961   4.50883   4.55348   4.57749
  Beta virt. eigenvalues --    4.60004   4.68082   4.72047   4.76331   4.83871
  Beta virt. eigenvalues --    6.84050   6.88406   6.94321   6.97658   7.63697
  Beta virt. eigenvalues --    7.66038   7.67270   7.72388   7.74788   7.76197
  Beta virt. eigenvalues --    7.77294   7.78334   7.79804   7.82166   7.82673
  Beta virt. eigenvalues --    7.87432  23.33553  23.92051  23.93424  24.08565
  Beta virt. eigenvalues --   24.14163  24.22686  48.38086  48.42285  48.45973
  Beta virt. eigenvalues --   48.48824 290.78196 290.80778 290.82141 290.88437
  Beta virt. eigenvalues --  290.90491 290.92466 290.93040 290.95783 290.95969
  Beta virt. eigenvalues --  290.98651 291.00656 291.055721020.933451020.97659
  Beta virt. eigenvalues -- 1021.036791021.07338
          Condensed to atoms (all electrons):
               1          2          3          4          5          6
     1  C    6.851187   0.513956  -0.502251  -0.406632  -0.644030   0.190834
     2  C    0.513956   7.499283   0.457819  -0.972216   0.019167  -1.345093
     3  C   -0.502251   0.457819   7.405257   0.177138  -1.627247   0.016013
     4  C   -0.406632  -0.972216   0.177138   7.570706   0.210421  -0.520019
     5  C   -0.644030   0.019167  -1.627247   0.210421   7.497877   0.472321
     6  C    0.190834  -1.345093   0.016013  -0.520019   0.472321   7.059466
     7  Br  -0.128439   0.013304   0.041846   0.069123   0.057651   0.032993
     8  Br  -0.009589  -0.346348   0.043384   0.049245   0.013528   0.063561
     9  Br   0.028942  -0.062301  -0.053283  -0.003093   0.095308   0.059362
    10  Br   0.075668   0.096442   0.144671  -0.263020  -0.041842   0.070368
    11  H   -0.008604   0.002785   0.005623  -0.059182   0.358410  -0.016623
    12  H   -0.022259  -0.003795   0.004403   0.018683  -0.068808   0.333130
               7          8          9         10         11         12
     1  C   -0.128439  -0.009589   0.028942   0.075668  -0.008604  -0.022259
     2  C    0.013304  -0.346348  -0.062301   0.096442   0.002785  -0.003795
     3  C    0.041846   0.043384  -0.053283   0.144671   0.005623   0.004403
     4  C    0.069123   0.049245  -0.003093  -0.263020  -0.059182   0.018683
     5  C    0.057651   0.013528   0.095308  -0.041842   0.358410  -0.068808
     6  C    0.032993   0.063561   0.059362   0.070368  -0.016623   0.333130
     7  Br  35.221712  -0.054682  -0.004503  -0.001766   0.006267  -0.036626
     8  Br  -0.054682  35.907674  -0.057215   0.001181   0.001082   0.003396
     9  Br  -0.004503  -0.057215  35.222315  -0.058939  -0.000444  -0.000241
    10  Br  -0.001766   0.001181  -0.058939  35.203560  -0.040829   0.008842
    11  H    0.006267   0.001082  -0.000444  -0.040829   0.390725  -0.016046
    12  H   -0.036626   0.003396  -0.000241   0.008842  -0.016046   0.408437
          Atomic-Atomic Spin Densities.
               1          2          3          4          5          6
     1  C   -0.021302   0.043039   0.018908  -0.046138   0.019140  -0.019373
     2  C    0.043039   1.090648  -0.003812  -0.042266  -0.022049  -0.071311
     3  C    0.018908  -0.003812   0.198289  -0.167017  -0.152522  -0.026774
     4  C   -0.046138  -0.042266  -0.167017   0.253852   0.093160   0.017855
     5  C    0.019140  -0.022049  -0.152522   0.093160   0.126880   0.019900
     6  C   -0.019373  -0.071311  -0.026774   0.017855   0.019900   0.082599
     7  Br  -0.011319  -0.007262   0.002445  -0.007149  -0.004027  -0.003328
     8  Br   0.012964  -0.458518   0.056581  -0.006752  -0.032803   0.034944
     9  Br   0.000935  -0.006739   0.013420  -0.033376  -0.010140  -0.003088
    10  Br  -0.005786  -0.000287   0.032588  -0.043012  -0.020499   0.006385
    11  H    0.000109  -0.002583   0.008894   0.007736  -0.024507   0.004376
    12  H   -0.000194  -0.002467   0.008116   0.003596  -0.017377  -0.013670
               7          8          9         10         11         12
     1  C   -0.011319   0.012964   0.000935  -0.005786   0.000109  -0.000194
     2  C   -0.007262  -0.458518  -0.006739  -0.000287  -0.002583  -0.002467
     3  C    0.002445   0.056581   0.013420   0.032588   0.008894   0.008116
     4  C   -0.007149  -0.006752  -0.033376  -0.043012   0.007736   0.003596
     5  C   -0.004027  -0.032803  -0.010140  -0.020499  -0.024507  -0.017377
     6  C   -0.003328   0.034944  -0.003088   0.006385   0.004376  -0.013670
     7  Br   0.058022   0.009243   0.000692  -0.000066   0.000256   0.004458
     8  Br   0.009243   0.714386   0.012237   0.004642   0.000717   0.004984
     9  Br   0.000692   0.012237   0.066992   0.006772   0.000231   0.000108
    10  Br  -0.000066   0.004642   0.006772   0.032749   0.002263   0.001219
    11  H    0.000256   0.000717   0.000231   0.002263  -0.000557   0.003319
    12  H    0.004458   0.004984   0.000108   0.001219   0.003319   0.017403
 Mulliken charges and spin densities:
               1          2
     1  C    0.061217  -0.009018
     2  C    0.126995   0.516393
     3  C   -0.113372  -0.010884
     4  C    0.128846   0.030489
     5  C   -0.342755  -0.024843
     6  C   -0.416313   0.028515
     7  Br  -0.216878   0.041964
     8  Br  -0.615215   0.352625
     9  Br  -0.165909   0.048044
    10  Br  -0.194337   0.016969
    11  H    0.376836   0.000253
    12  H    0.370886   0.009494
 Sum of Mulliken charges =  -1.00000   1.00000
 Mulliken charges and spin densities with hydrogens summed into heavy atoms:
               1          2
     1  C    0.061217  -0.009018
     2  C    0.126995   0.516393
     3  C   -0.113372  -0.010884
     4  C    0.128846   0.030489
     5  C    0.034081  -0.024590
     6  C   -0.045428   0.038009
     7  Br  -0.216878   0.041964
     8  Br  -0.615215   0.352625
     9  Br  -0.165909   0.048044
    10  Br  -0.194337   0.016969
 APT charges:
               1
     1  C    0.519630
     2  C   -0.097081
     3  C    0.369789
     4  C    0.486686
     5  C   -0.247859
     6  C   -0.118407
     7  Br  -0.412602
     8  Br  -0.881058
     9  Br  -0.352202
    10  Br  -0.416650
    11  H    0.089389
    12  H    0.060365
 Sum of APT charges =  -1.00000
 APT charges with hydrogens summed into heavy atoms:
               1
     1  C    0.519630
     2  C   -0.097081
     3  C    0.369789
     4  C    0.486686
     5  C   -0.158470
     6  C   -0.058043
     7  Br  -0.412602
     8  Br  -0.881058
     9  Br  -0.352202
    10  Br  -0.416650
 Electronic spatial extent (au):  <R**2>=           5672.2541
 Charge=             -1.0000 electrons
 Dipole moment (field-independent basis, Debye):
    X=             -6.3980    Y=              7.4263    Z=             -0.3676  Tot=              9.8091
 Quadrupole moment (field-independent basis, Debye-Ang):
   XX=           -139.6078   YY=           -122.6920   ZZ=           -116.7219
   XY=              9.7727   XZ=             -1.8234   YZ=              2.6477
 Traceless Quadrupole moment (field-independent basis, Debye-Ang):
   XX=            -13.2673   YY=              3.6486   ZZ=              9.6187
   XY=              9.7727   XZ=             -1.8234   YZ=              2.6477
 Octapole moment (field-independent basis, Debye-Ang**2):
  XXX=            -44.1526  YYY=             16.8781  ZZZ=             -2.8942  XYY=            -39.2063
  XXY=              8.4338  XXZ=             -3.7802  XZZ=             -4.5279  YZZ=            -12.7452
  YYZ=             -1.1096  XYZ=              4.0027
 Hexadecapole moment (field-independent basis, Debye-Ang**3):
 XXXX=          -3667.7073 YYYY=          -1880.6357 ZZZZ=           -183.7258 XXXY=             96.9919
 XXXZ=            -16.3818 YYYX=             86.5869 YYYZ=             23.4832 ZZZX=             -2.9878
 ZZZY=             -0.5184 XXYY=           -998.1601 XXZZ=           -652.5052 YYZZ=           -370.0881
 XXYZ=             10.4675 YYXZ=             -7.5457 ZZXY=             15.3725
 N-N= 1.873111592790D+03 E-N=-2.892084254404D+04  KE= 1.051344168997D+04
  Exact polarizability: 298.444 -23.278 267.976   4.683  -3.304 128.995
 Approx polarizability: 263.943  -1.966 231.716   0.878   1.074 131.995
                          Isotropic Fermi Contact Couplings
        Atom                 a.u.       MegaHertz       Gauss      10(-4) cm-1
     1  C(13)             -0.02538     -28.53576     -10.18227      -9.51850
     2  C(13)              0.44523     500.51847     178.59744     166.95499
     3  C(13)             -0.02629     -29.55254     -10.54508      -9.85767
     4  C(13)              0.03843      43.20613      15.41702      14.41201
     5  C(13)             -0.00135      -1.51677      -0.54122      -0.50594
     6  C(13)              0.02408      27.07007       9.65928       9.02960
     7  Br(79)             0.04046      45.47141      16.22533      15.16763
     8  Br(79)             0.60548     680.40358     242.78492     226.95820
     9  Br(79)             0.04571      51.37128      18.33055      17.13562
    10  Br(79)             0.01863      20.93358       7.46962       6.98269
    11  H(1)              -0.00001      -0.04500      -0.01606      -0.01501
    12  H(1)               0.00268      11.98366       4.27607       3.99732
 --------------------------------------------------------
       Center         ----  Spin Dipole Couplings  ----
                      3XX-RR        3YY-RR        3ZZ-RR
 --------------------------------------------------------
     1   Atom        0.007673      0.049911     -0.057584
     2   Atom       -0.040179      0.287759     -0.247580
     3   Atom        0.070782     -0.012195     -0.058588
     4   Atom       -0.011406      0.010345      0.001061
     5   Atom        0.011659      0.014243     -0.025902
     6   Atom       -0.010902      0.014875     -0.003973
     7   Atom        0.458962     -0.205668     -0.253295
     8   Atom       -0.032545      1.618929     -1.586384
     9   Atom       -0.082900      0.362448     -0.279548
    10   Atom        0.172498     -0.091832     -0.080666
    11   Atom        0.000710      0.000938     -0.001647
    12   Atom       -0.002277      0.005278     -0.003001
 --------------------------------------------------------
                        XY            XZ            YZ
 --------------------------------------------------------
     1   Atom        0.048087      0.018135      0.025853
     2   Atom       -0.451577     -0.084917      0.117562
     3   Atom        0.031010     -0.023804     -0.009763
     4   Atom       -0.004585      0.001201     -0.001153
     5   Atom       -0.005148     -0.005357      0.006035
     6   Atom       -0.012838      0.001623     -0.000955
     7   Atom        0.115150     -0.075306     -0.009631
     8   Atom       -2.645952      0.837170     -1.139957
     9   Atom        0.334316      0.053507      0.107512
    10   Atom       -0.057350     -0.017959      0.001036
    11   Atom       -0.000521     -0.000270      0.000444
    12   Atom        0.000977      0.000082      0.000712
 --------------------------------------------------------


 ---------------------------------------------------------------------------------
              Anisotropic Spin Dipole Couplings in Principal Axis System
 ---------------------------------------------------------------------------------

       Atom             a.u.   MegaHertz   Gauss  10(-4) cm-1        Axes

              Baa    -0.0644    -8.648    -3.086    -2.885 -0.1368 -0.1634  0.9770
     1 C(13)  Bbb    -0.0237    -3.181    -1.135    -1.061  0.8331 -0.5527  0.0242
              Bcc     0.0881    11.829     4.221     3.946  0.5360  0.8172  0.2117
 
              Baa    -0.3567   -47.864   -17.079   -15.966  0.8208  0.5708  0.0238
     2 C(13)  Bbb    -0.2715   -36.438   -13.002   -12.154  0.0740 -0.1475  0.9863
              Bcc     0.6282    84.302    30.081    28.120 -0.5665  0.8077  0.1633
 
              Baa    -0.0632    -8.485    -3.028    -2.830  0.1526  0.0954  0.9837
     3 C(13)  Bbb    -0.0224    -3.010    -1.074    -1.004 -0.3249  0.9449 -0.0413
              Bcc     0.0857    11.495     4.102     3.834  0.9334  0.3133 -0.1752
 
              Baa    -0.0124    -1.664    -0.594    -0.555  0.9785  0.1937 -0.0707
     4 C(13)  Bbb     0.0009     0.127     0.045     0.042  0.0433  0.1424  0.9889
              Bcc     0.0115     1.537     0.548     0.513 -0.2016  0.9707 -0.1310
 
              Baa    -0.0273    -3.668    -1.309    -1.223  0.1183 -0.1283  0.9847
     5 C(13)  Bbb     0.0077     1.027     0.366     0.342  0.7823  0.6227 -0.0129
              Bcc     0.0197     2.641     0.942     0.881 -0.6115  0.7719  0.1740
 
              Baa    -0.0163    -2.189    -0.781    -0.730  0.9218  0.3767 -0.0921
     6 C(13)  Bbb    -0.0040    -0.532    -0.190    -0.177  0.0616  0.0923  0.9938
              Bcc     0.0203     2.720     0.971     0.907 -0.3828  0.9217 -0.0619
 
              Baa    -0.2613   -35.053   -12.508   -11.693  0.1139 -0.0641  0.9914
     7 Br(79) Bbb    -0.2248   -30.155   -10.760   -10.059 -0.1568  0.9843  0.0816
              Bcc     0.4861    65.208    23.268    21.751  0.9810  0.1647 -0.1021
 
              Baa    -1.9786  -265.410   -94.705   -88.531  0.8003  0.5988  0.0322
     8 Br(79) Bbb    -1.9491  -261.450   -93.292   -87.210 -0.1739  0.1804  0.9681
              Bcc     3.9278   526.860   187.997   175.742 -0.5739  0.7803 -0.2485
 
              Baa    -0.2971   -39.852   -14.220   -13.293  0.0218 -0.1716  0.9849
     9 Br(79) Bbb    -0.2616   -35.084   -12.519   -11.703  0.8841 -0.4566 -0.0991
              Bcc     0.5586    74.936    26.739    24.996  0.4667  0.8730  0.1418
 
              Baa    -0.1041   -13.957    -4.980    -4.656  0.2090  0.9708  0.1175
    10 Br(79) Bbb    -0.0815   -10.938    -3.903    -3.649  0.0410 -0.1287  0.9908
              Bcc     0.1856    24.895     8.883     8.304  0.9771 -0.2022 -0.0667
 
              Baa    -0.0017    -0.926    -0.330    -0.309  0.0771 -0.1488  0.9859
    11 H(1)   Bbb     0.0003     0.156     0.056     0.052  0.7879  0.6150  0.0312
              Bcc     0.0014     0.770     0.275     0.257 -0.6110  0.7743  0.1647
 
              Baa    -0.0031    -1.633    -0.583    -0.545  0.0019 -0.0853  0.9964
    12 H(1)   Bbb    -0.0024    -1.281    -0.457    -0.427  0.9921 -0.1251 -0.0126
              Bcc     0.0055     2.915     1.040     0.972  0.1257  0.9885  0.0844
 

 ---------------------------------------------------------------------------------

 No NMR shielding tensors so no spin-rotation constants.
 Leave Link  601 at Mon Sep 28 09:32:29 2026, MaxMem=  1610612736 cpu:               2.9 elap:               0.4
 (Enter /share/software/user/restricted/gaussian/g16.B01/l701.exe)
 ... and contract with generalized density number  0.
 Compute integral second derivatives.
 D2PCM: PCM CHGder 2nd derivatives, FixD1E=F FixD2E=F DoIter=F DoCFld=F I1PDM=0
 GePol: Maximum number of non-zero 2nd derivatives   =     472
 Leave Link  701 at Mon Sep 28 09:32:39 2026, MaxMem=  1610612736 cpu:              77.4 elap:               9.7
 (Enter /share/software/user/restricted/gaussian/g16.B01/l702.exe)
 L702 exits ... SP integral derivatives will be done elsewhere.
 Leave Link  702 at Mon Sep 28 09:32:39 2026, MaxMem=  1610612736 cpu:               0.3 elap:               0.0
 (Enter /share/software/user/restricted/gaussian/g16.B01/l703.exe)
 Integral derivatives from FoFJK, PRISM(SPDF).
 Compute integral second derivatives, UseDBF=F ICtDFT=           0.
 Calling FoFJK, ICntrl=    100127 FMM=F ISym2X=0 I1Cent= 0 IOpClX= 1 NMat=1 NMatS=1 NMatT=0.
 FoFJK:  IHMeth= 1 ICntrl=  100127 DoSepK=F KAlg= 0 I1Cent=           0 FoldK=F
 IRaf=         0 NMat=       1 IRICut=       1 DoRegI=T DoRafI=F ISym2E= 0 IDoP0=0 IntGTp=1.
 FoFCou: FMM=F IPFlag=           0 FMFlag=      100000 FMFlg1=         800
         NFxFlg=           0 DoJE=F BraDBF=F KetDBF=F FulRan=T
         wScrn=  0.000000 ICntrl=    100127 IOpCl=  1 I1Cent=           0 NGrid=           0
         NMat0=    1 NMatS0=      1 NMatT0=    0 NMatD0=    1 NMtDS0=    0 NMtDT0=    0
 Symmetry not used in FoFCou.
 Leave Link  703 at Mon Sep 28 09:35:51 2026, MaxMem=  1610612736 cpu:            1538.5 elap:             192.3
 (Enter /share/software/user/restricted/gaussian/g16.B01/l716.exe)
 Dipole        =-2.51716631D+00 2.92172120D+00-1.44635089D-01
 Polarizability= 2.98443659D+02-2.32782004D+01 2.67976466D+02
                 4.68270917D+00-3.30353568D+00 1.28994973D+02
 Full mass-weighted force constant matrix:
 Low frequencies ---  -17.3869   -3.8407   -0.0128   -0.0118   -0.0070    7.0392
 Low frequencies ---   16.9599   63.9104   70.1731
 Diagonal vibrational polarizability:
       98.9104059      93.5656520      70.5523602
 Harmonic frequencies (cm**-1), IR intensities (KM/Mole), Raman scattering
 activities (A**4/AMU), depolarization ratios for plane and unpolarized
 incident light, reduced masses (AMU), force constants (mDyne/A),
 and normal coordinates:
                      1                      2                      3
                      A                      A                      A
 Frequencies --     11.4775                63.8281                70.1514
 Red. masses --     42.6674                 8.6001                62.2376
 Frc consts  --      0.0033                 0.0206                 0.1805
 IR Inten    --      0.7242                 0.4606                 0.7378
  Atom  AN      X      Y      Z        X      Y      Z        X      Y      Z
     1   6    -0.03   0.02   0.06     0.00  -0.02   0.18    -0.08  -0.21   0.01
     2   6    -0.03   0.01   0.20     0.00  -0.01   0.09    -0.16  -0.17  -0.02
     3   6    -0.03   0.01   0.14     0.00  -0.01   0.11    -0.17  -0.09  -0.02
     4   6    -0.04   0.04  -0.10     0.01  -0.02   0.18    -0.10  -0.04   0.02
     5   6    -0.05   0.06  -0.27     0.02  -0.04   0.39    -0.01  -0.08   0.05
     6   6    -0.04   0.04  -0.17     0.02  -0.04   0.41    -0.00  -0.16   0.04
     7  35    -0.02  -0.00   0.24    -0.02   0.02  -0.12    -0.06  -0.39   0.03
     8  35     0.13  -0.06  -0.42     0.02  -0.02   0.00     0.54   0.41   0.05
     9  35    -0.03  -0.03   0.44    -0.00   0.00   0.04    -0.29  -0.04  -0.11
    10  35    -0.05   0.06  -0.23    -0.01   0.02  -0.14    -0.12   0.13   0.03
    11   1    -0.06   0.08  -0.46     0.02  -0.05   0.49     0.05  -0.04   0.08
    12   1    -0.05   0.05  -0.27     0.03  -0.06   0.55     0.06  -0.19   0.06
                      4                      5                      6
                      A                      A                      A
 Frequencies --     91.7822               132.2264               143.9167
 Red. masses --     51.9204                52.5258                27.3400
 Frc consts  --      0.2577                 0.5411                 0.3336
 IR Inten    --     18.4620                 0.6450                 2.5875
  Atom  AN      X      Y      Z        X      Y      Z        X      Y      Z
     1   6     0.08  -0.05  -0.01    -0.14   0.10   0.10    -0.04   0.22   0.14
     2   6     0.04  -0.00  -0.16    -0.14   0.12   0.21    -0.03   0.22   0.29
     3   6     0.07  -0.04  -0.06    -0.12   0.04   0.13    -0.01   0.25   0.20
     4   6     0.09  -0.06   0.04    -0.17   0.04   0.04    -0.07   0.21   0.08
     5   6     0.10  -0.07   0.17    -0.15   0.05  -0.05    -0.10   0.24  -0.05
     6   6     0.11  -0.06   0.18    -0.16   0.11  -0.04    -0.07   0.24  -0.05
     7  35     0.15  -0.23   0.04    -0.17  -0.21  -0.03    -0.02  -0.25  -0.05
     8  35    -0.43   0.53  -0.13    -0.02  -0.03  -0.01     0.03  -0.03  -0.00
     9  35     0.12  -0.12   0.11     0.56  -0.20  -0.07     0.10   0.33  -0.01
    10  35     0.09  -0.13  -0.06    -0.23   0.37   0.06    -0.06  -0.28  -0.03
    11   1     0.10  -0.08   0.29    -0.17   0.06  -0.14    -0.11   0.26  -0.19
    12   1     0.12  -0.07   0.32    -0.19   0.13  -0.15    -0.08   0.26  -0.21
                      7                      8                      9
                      A                      A                      A
 Frequencies --    170.1697               214.2280               280.5306
 Red. masses --      8.5526                63.4646                 7.2408
 Frc consts  --      0.1459                 1.7161                 0.3357
 IR Inten    --      6.3819                 0.1749                 0.2246
  Atom  AN      X      Y      Z        X      Y      Z        X      Y      Z
     1   6     0.03  -0.06   0.24     0.22  -0.02  -0.06    -0.01  -0.01  -0.34
     2   6     0.03  -0.07   0.53    -0.02   0.07  -0.07     0.00  -0.03  -0.12
     3   6     0.03  -0.08   0.37    -0.08   0.05  -0.05     0.01  -0.04   0.21
     4   6     0.03  -0.05   0.12    -0.26  -0.04   0.00     0.02  -0.07   0.44
     5   6     0.01  -0.02  -0.16    -0.03  -0.12   0.05     0.02  -0.05   0.25
     6   6     0.01  -0.01  -0.15     0.04  -0.13   0.02    -0.01  -0.01  -0.31
     7  35     0.04   0.04  -0.04     0.62   0.09  -0.03    -0.01   0.00   0.03
     8  35    -0.03   0.04  -0.02     0.02  -0.03   0.01    -0.00  -0.00   0.00
     9  35    -0.05  -0.05  -0.07    -0.00   0.00   0.01     0.01   0.03  -0.01
    10  35     0.02   0.01  -0.00    -0.62  -0.04   0.02    -0.01   0.01  -0.04
    11   1    -0.00   0.01  -0.43     0.10  -0.02   0.12     0.04  -0.05   0.34
    12   1    -0.01   0.02  -0.48    -0.08  -0.07   0.09    -0.02   0.01  -0.58
                     10                     11                     12
                      A                      A                      A
 Frequencies --    312.8502               405.1417               463.4286
 Red. masses --     12.0097                 6.0701                12.7086
 Frc consts  --      0.6926                 0.5870                 1.6081
 IR Inten    --     15.1942                12.3891                62.4922
  Atom  AN      X      Y      Z        X      Y      Z        X      Y      Z
     1   6     0.08  -0.40   0.05     0.07  -0.15  -0.03     0.26   0.24   0.04
     2   6     0.10  -0.38  -0.01    -0.13  -0.06   0.01     0.43   0.14  -0.07
     3   6     0.06  -0.11  -0.00    -0.14   0.16   0.02     0.44  -0.06   0.02
     4   6     0.02  -0.14  -0.08     0.02   0.31   0.03     0.31  -0.11   0.03
     5   6     0.11  -0.21  -0.11     0.25   0.25   0.02     0.26  -0.04  -0.07
     6   6     0.12  -0.40   0.00     0.28  -0.02  -0.02     0.25   0.21   0.03
     7  35    -0.08   0.04   0.00    -0.04   0.03   0.01    -0.11  -0.03   0.00
     8  35    -0.02   0.03  -0.01     0.00  -0.00   0.00    -0.01   0.00  -0.00
     9  35     0.09   0.18   0.02     0.01  -0.06  -0.01    -0.05  -0.03  -0.00
    10  35    -0.06   0.01   0.01    -0.03  -0.04  -0.00    -0.14  -0.00   0.00
    11   1     0.22  -0.12  -0.18     0.42   0.38   0.05     0.14  -0.11  -0.16
    12   1     0.20  -0.44   0.02     0.50  -0.12  -0.03     0.14   0.26   0.02
                     13                     14                     15
                      A                      A                      A
 Frequencies --    476.1798               541.4811               639.3918
 Red. masses --      5.0304                 5.7274                 9.3557
 Frc consts  --      0.6720                 0.9894                 2.2535
 IR Inten    --      3.7377                 6.3614                65.0308
  Atom  AN      X      Y      Z        X      Y      Z        X      Y      Z
     1   6     0.01   0.01  -0.08     0.02  -0.05   0.42    -0.16  -0.10   0.01
     2   6     0.04  -0.03   0.34    -0.01   0.00  -0.11     0.38  -0.37  -0.06
     3   6     0.03   0.02  -0.27    -0.03   0.04  -0.35     0.28   0.18   0.03
     4   6     0.02   0.00  -0.21     0.01  -0.02   0.28     0.09   0.20  -0.02
     5   6     0.04  -0.05   0.28    -0.00   0.01   0.03    -0.28   0.36   0.07
     6   6     0.01   0.02  -0.18    -0.01   0.01  -0.16    -0.23  -0.06  -0.01
     7  35    -0.01  -0.00   0.00     0.00   0.00  -0.01     0.02  -0.01  -0.00
     8  35    -0.00   0.00  -0.00     0.00  -0.00   0.00    -0.00   0.00  -0.00
     9  35    -0.00   0.00   0.01     0.00  -0.00   0.01    -0.01  -0.03  -0.00
    10  35    -0.01   0.00   0.00     0.00   0.00  -0.01    -0.01   0.01   0.00
    11   1     0.06  -0.11   0.73    -0.01   0.04  -0.23    -0.26   0.37   0.12
    12   1    -0.01   0.03  -0.29    -0.04   0.06  -0.71     0.02  -0.17  -0.04
                     16                     17                     18
                      A                      A                      A
 Frequencies --    673.9756               730.1266               823.4684
 Red. masses --      7.0434                 9.4184                 1.3247
 Frc consts  --      1.8850                 2.9582                 0.5292
 IR Inten    --      0.9855               118.6331                64.6318
  Atom  AN      X      Y      Z        X      Y      Z        X      Y      Z
     1   6    -0.02   0.02  -0.31     0.45   0.05  -0.02     0.00  -0.01   0.06
     2   6     0.03  -0.04   0.30     0.11   0.23   0.01     0.00   0.00  -0.00
     3   6     0.01   0.05  -0.35     0.11   0.40   0.05     0.00   0.00   0.00
     4   6     0.02  -0.04   0.36    -0.34   0.07   0.02     0.00  -0.01   0.06
     5   6    -0.02   0.04  -0.23    -0.11  -0.13  -0.00    -0.01   0.01  -0.11
     6   6     0.00  -0.03   0.22    -0.08  -0.37  -0.03    -0.01   0.01  -0.10
     7  35     0.00  -0.00   0.00    -0.03  -0.01   0.00    -0.00   0.00  -0.00
     8  35    -0.00   0.00  -0.00    -0.00  -0.00   0.00     0.00  -0.00  -0.00
     9  35    -0.00  -0.00   0.00    -0.02  -0.03  -0.00    -0.00  -0.00  -0.00
    10  35    -0.00   0.00  -0.00     0.03   0.00  -0.00     0.00   0.00  -0.00
    11   1    -0.04   0.07  -0.48     0.24   0.12  -0.01     0.04  -0.08   0.73
    12   1     0.03  -0.06   0.46    -0.35  -0.25  -0.02     0.05  -0.07   0.65
                     19                     20                     21
                      A                      A                      A
 Frequencies --    952.9859               967.2570              1095.1084
 Red. masses --      8.7269                 1.3200                 8.7034
 Frc consts  --      4.6696                 0.7276                 6.1497
 IR Inten    --     47.1071                 0.0663                 3.5467
  Atom  AN      X      Y      Z        X      Y      Z        X      Y      Z
     1   6     0.25  -0.02  -0.01    -0.00  -0.00   0.02     0.48   0.03  -0.03
     2   6    -0.17   0.28   0.04     0.00  -0.00   0.01     0.14  -0.27  -0.01
     3   6    -0.02  -0.31  -0.03     0.00   0.01  -0.01    -0.25  -0.30  -0.03
     4   6     0.42   0.02  -0.02    -0.00  -0.00  -0.01    -0.27  -0.05   0.01
     5   6    -0.19   0.29   0.05     0.01  -0.01   0.11    -0.17   0.20   0.03
     6   6    -0.13  -0.32  -0.03    -0.01   0.01  -0.12     0.09   0.25   0.01
     7  35    -0.01  -0.00   0.00     0.00   0.00  -0.00    -0.01  -0.00   0.00
     8  35    -0.00   0.00   0.00    -0.00   0.00   0.00    -0.00   0.00  -0.00
     9  35     0.00   0.01   0.00    -0.00  -0.00  -0.00     0.01   0.01   0.00
    10  35    -0.02   0.00   0.00     0.00  -0.00   0.00     0.01   0.00  -0.00
    11   1    -0.20   0.29   0.02    -0.03   0.07  -0.66    -0.33   0.12   0.02
    12   1     0.07  -0.41   0.00     0.05  -0.07   0.72    -0.14   0.39   0.08
                     22                     23                     24
                      A                      A                      A
 Frequencies --   1158.5154              1171.2923              1288.8720
 Red. masses --      1.4292                 1.9554                10.7835
 Frc consts  --      1.1302                 1.5806                10.5543
 IR Inten    --      8.7148               149.1903                24.6988
  Atom  AN      X      Y      Z        X      Y      Z        X      Y      Z
     1   6    -0.02  -0.02  -0.00    -0.10   0.07   0.01    -0.04   0.44   0.04
     2   6    -0.02   0.06   0.00     0.08   0.06   0.00    -0.20  -0.25  -0.01
     3   6     0.07   0.01  -0.00     0.03  -0.16  -0.02     0.22  -0.25  -0.04
     4   6    -0.08  -0.06  -0.00    -0.15  -0.03   0.00    -0.03   0.52   0.06
     5   6    -0.09   0.03   0.01     0.03   0.06   0.01    -0.20  -0.26  -0.02
     6   6     0.10   0.01  -0.00    -0.01  -0.06  -0.01     0.25  -0.19  -0.04
     7  35    -0.00   0.00   0.00     0.00  -0.00  -0.00     0.00  -0.00  -0.00
     8  35     0.00  -0.00   0.00    -0.00   0.00  -0.00    -0.00   0.00  -0.00
     9  35    -0.00   0.00   0.00     0.00   0.00   0.00     0.00   0.00   0.00
    10  35     0.00   0.00   0.00     0.00   0.00  -0.00     0.00  -0.00  -0.00
    11   1    -0.40  -0.18   0.00     0.73   0.57   0.02    -0.16  -0.25  -0.03
    12   1     0.82  -0.30  -0.09     0.18  -0.15  -0.03    -0.14  -0.03   0.04
                     25                     26                     27
                      A                      A                      A
 Frequencies --   1352.1961              1431.8260              1578.6438
 Red. masses --      3.6926                 2.2854                 6.6841
 Frc consts  --      3.9780                 2.7606                 9.8143
 IR Inten    --     80.3904               273.2894                17.9019
  Atom  AN      X      Y      Z        X      Y      Z        X      Y      Z
     1   6     0.02  -0.17  -0.02     0.09   0.11   0.01    -0.15   0.26   0.03
     2   6    -0.25   0.00   0.00    -0.10  -0.14  -0.01     0.07  -0.07  -0.01
     3   6     0.29   0.02  -0.01    -0.04   0.11   0.01    -0.19   0.17   0.03
     4   6    -0.05  -0.11  -0.01     0.13  -0.09  -0.02     0.08  -0.31  -0.04
     5   6    -0.13   0.06   0.01    -0.10  -0.09  -0.00    -0.13   0.16   0.03
     6   6     0.13   0.10   0.00    -0.07   0.08   0.01     0.38  -0.24  -0.05
     7  35    -0.00   0.00   0.00     0.00  -0.00   0.00     0.00  -0.00  -0.00
     8  35     0.00  -0.00   0.00     0.00   0.00  -0.00     0.00  -0.00  -0.00
     9  35    -0.00   0.00   0.00     0.00  -0.00  -0.00     0.00  -0.00  -0.00
    10  35     0.00   0.00   0.00    -0.00   0.00   0.00     0.00   0.00   0.00
    11   1     0.31   0.40   0.03     0.61   0.40   0.01    -0.20   0.15   0.03
    12   1    -0.55   0.43   0.08     0.56  -0.19  -0.06    -0.62   0.19   0.07
                     28                     29                     30
                      A                      A                      A
 Frequencies --   1609.1256              3224.8411              3244.9790
 Red. masses --      7.3966                 1.0907                 1.0950
 Frc consts  --     11.2839                 6.6832                 6.7935
 IR Inten    --     63.2214                 3.4305                 0.4308
  Atom  AN      X      Y      Z        X      Y      Z        X      Y      Z
     1   6     0.08   0.27   0.02    -0.00   0.00   0.00    -0.00   0.00   0.00
     2   6    -0.27  -0.22  -0.01     0.00   0.00  -0.00     0.00   0.00  -0.00
     3   6     0.20   0.02  -0.01     0.00   0.00  -0.00    -0.00   0.00   0.00
     4   6    -0.15  -0.19  -0.01    -0.00  -0.00  -0.00     0.00   0.00   0.00
     5   6     0.38   0.27   0.01    -0.01   0.02   0.00     0.05  -0.07  -0.01
     6   6    -0.23  -0.10   0.00    -0.03  -0.08  -0.01    -0.01  -0.03  -0.00
     7  35     0.00  -0.00  -0.00     0.00   0.00  -0.00     0.00  -0.00  -0.00
     8  35    -0.00   0.00  -0.00     0.00  -0.00   0.00     0.00  -0.00   0.00
     9  35     0.00   0.00   0.00     0.00  -0.00  -0.00    -0.00  -0.00  -0.00
    10  35    -0.00   0.00   0.00     0.00  -0.00  -0.00    -0.00  -0.00   0.00
    11   1    -0.48  -0.35  -0.01     0.18  -0.26  -0.04    -0.55   0.76   0.12
    12   1     0.02  -0.25  -0.03     0.39   0.86   0.06     0.13   0.29   0.02

 -------------------
 - Thermochemistry -
 -------------------
 Temperature   298.150 Kelvin.  Pressure   1.00000 Atm.
 Atom     1 has atomic number  6 and mass  12.00000
 Atom     2 has atomic number  6 and mass  12.00000
 Atom     3 has atomic number  6 and mass  12.00000
 Atom     4 has atomic number  6 and mass  12.00000
 Atom     5 has atomic number  6 and mass  12.00000
 Atom     6 has atomic number  6 and mass  12.00000
 Atom     7 has atomic number 35 and mass  78.91834
 Atom     8 has atomic number 35 and mass  78.91834
 Atom     9 has atomic number 35 and mass  78.91834
 Atom    10 has atomic number 35 and mass  78.91834
 Atom    11 has atomic number  1 and mass   1.00783
 Atom    12 has atomic number  1 and mass   1.00783
 Molecular mass:   389.68899 amu.
 Principal axes and moments of inertia in atomic units:
                           1         2         3
     Eigenvalues --  3712.397348285.49304**********
           X            0.99999  -0.00375  -0.00040
           Y            0.00375   0.99999   0.00299
           Z            0.00039  -0.00299   1.00000
 This molecule is an asymmetric top.
 Rotational symmetry number  1.
 Warning -- assumption of classical behavior for rotation
           may cause significant error
 Rotational temperatures (Kelvin)      0.02333     0.01045     0.00730
 Rotational constants (GHZ):           0.48614     0.21782     0.15209
 Zero-point vibrational energy     151447.2 (Joules/Mol)
                                   36.19675 (Kcal/Mol)
 Warning -- explicit consideration of  14 degrees of freedom as
           vibrations may cause significant error
 Vibrational temperatures:     16.51    91.83   100.93   132.05   190.24
          (Kelvin)            207.06   244.84   308.23   403.62   450.12
                              582.91   666.77   685.12   779.07   919.94
                              969.70  1050.49  1184.79  1371.13  1391.67
                             1575.62  1666.85  1685.23  1854.40  1945.51
                             2060.08  2271.32  2315.17  4639.83  4668.80
 
 Zero-point correction=                           0.057683 (Hartree/Particle)
 Thermal correction to Energy=                    0.068724
 Thermal correction to Enthalpy=                  0.069669
 Thermal correction to Gibbs Free Energy=         0.014144
 Sum of electronic and zero-point Energies=         -10526.514049
 Sum of electronic and thermal Energies=            -10526.503008
 Sum of electronic and thermal Enthalpies=          -10526.502064
 Sum of electronic and thermal Free Energies=       -10526.557589
 
                     E (Thermal)             CV                S
                      KCal/Mol        Cal/Mol-Kelvin    Cal/Mol-Kelvin
 Total                   43.125             35.266            116.862
 Electronic               0.000              0.000              1.377
 Translational            0.889              2.981             43.772
 Rotational               0.889              2.981             34.256
 Vibrational             41.348             29.305             37.457
 Vibration     1          0.593              1.987              7.737
 Vibration     2          0.597              1.972              4.335
 Vibration     3          0.598              1.968              4.149
 Vibration     4          0.602              1.955              3.622
 Vibration     5          0.612              1.921              2.913
 Vibration     6          0.616              1.909              2.751
 Vibration     7          0.625              1.879              2.434
 Vibration     8          0.644              1.819              2.007
 Vibration     9          0.680              1.710              1.530
 Vibration    10          0.701              1.649              1.347
 Vibration    11          0.770              1.459              0.944
 Vibration    12          0.821              1.331              0.756
 Vibration    13          0.833              1.303              0.720
 Vibration    14          0.897              1.158              0.562
                       Q            Log10(Q)             Ln(Q)
 Total Bot       0.312154D-06         -6.505630        -14.979768
 Total V=0       0.106359D+21         20.026775         46.113354
 Vib (Bot)       0.754780D-22        -22.122180        -50.938202
 Vib (Bot)    1  0.180526D+02          1.256539          2.893287
 Vib (Bot)    2  0.323381D+01          0.509714          1.173660
 Vib (Bot)    3  0.293990D+01          0.468333          1.078376
 Vib (Bot)    4  0.223944D+01          0.350139          0.806224
 Vib (Bot)    5  0.154092D+01          0.187780          0.432380
 Vib (Bot)    6  0.141136D+01          0.149637          0.344552
 Vib (Bot)    7  0.118420D+01          0.073424          0.169066
 Vib (Bot)    8  0.925540D+00         -0.033605         -0.077378
 Vib (Bot)    9  0.685158D+00         -0.164210         -0.378106
 Vib (Bot)   10  0.603416D+00         -0.219383         -0.505148
 Vib (Bot)   11  0.438273D+00         -0.358255         -0.824913
 Vib (Bot)   12  0.365978D+00         -0.436545         -1.005182
 Vib (Bot)   13  0.352374D+00         -0.452996         -1.043063
 Vib (Bot)   14  0.292185D+00         -0.534342         -1.230368
 Vib (V=0)       0.257173D+05          4.410226         10.154920
 Vib (V=0)    1  0.185595D+02          1.268566          2.920981
 Vib (V=0)    2  0.377223D+01          0.576598          1.327667
 Vib (V=0)    3  0.348212D+01          0.541843          1.247641
 Vib (V=0)    4  0.279458D+01          0.446316          1.027680
 Vib (V=0)    5  0.212001D+01          0.326338          0.751422
 Vib (V=0)    6  0.199731D+01          0.300445          0.691800
 Vib (V=0)    7  0.178543D+01          0.251742          0.579658
 Vib (V=0)    8  0.155196D+01          0.190881          0.439520
 Vib (V=0)    9  0.134820D+01          0.129754          0.298769
 Vib (V=0)   10  0.128365D+01          0.108447          0.249709
 Vib (V=0)   11  0.116489D+01          0.066286          0.152630
 Vib (V=0)   12  0.111963D+01          0.049074          0.112997
 Vib (V=0)   13  0.111169D+01          0.045985          0.105883
 Vib (V=0)   14  0.107911D+01          0.033067          0.076140
 Electronic      0.200000D+01          0.301030          0.693147
 Translational   0.302365D+09          8.480531         19.527144
 Rotational      0.683893D+07          6.834988         15.738142
 
                                                        BrBz_1234_RA m062x_smd
                                                             IR Spectrum
 
     33                                                               11    1   1 1   11  1                                          
     22                                                               65    4   3 2   11  0   99    8   7 66   5 44  4  3 2 2111     
     42                                                               07    3   5 8   75  9   65    2   3 73   4 76  0  1 8 1743976 1
     55                                                               99    2   2 9   19  5   73    3   0 49   1 63  5  3 1 4042204 1
 
     XX                                                               XX    X   X X   XX  X   XX    X   X XX   X XX  X  X X XXXXXXX X
                                                                      X     X   X X   X        X    X   X  X      X                  
                                                                      X     X   X     X        X    X   X  X      X                  
                                                                      X     X   X     X             X   X  X      X                  
                                                                      X     X   X     X             X   X  X      X                  
                                                                            X   X     X                 X                            
                                                                            X         X                 X                            
                                                                            X         X                 X                            
                                                                            X         X                 X                            
                                                                            X         X                                              
                                                                            X         X                                              
                                                                            X                                                        
                                                                            X                                                        
                                                                            X                                                        
                                                                            X                                                        
                                                                            X                                                        
                                                                            X                                                        
                                                                            X                                                        
                                                                            X                                                        
                                                                            X                                                        
 
 ***** Axes restored to original set *****
 -------------------------------------------------------------------
 Center     Atomic                   Forces (Hartrees/Bohr)
 Number     Number              X              Y              Z
 -------------------------------------------------------------------
      1        6          -0.000003543   -0.000000481    0.000006545
      2        6           0.000003321   -0.000005821    0.000001664
      3        6           0.000007219   -0.000003265   -0.000005072
      4        6           0.000002449    0.000001295   -0.000007175
      5        6          -0.000005485    0.000006584   -0.000002574
      6        6          -0.000008223    0.000006145    0.000003158
      7       35          -0.000007562    0.000001641    0.000014683
      8       35           0.000012086   -0.000015666    0.000012340
      9       35           0.000017535   -0.000012819   -0.000008495
     10       35           0.000005737    0.000000735   -0.000015523
     11        1          -0.000009162    0.000010570   -0.000005500
     12        1          -0.000014371    0.000011081    0.000005952
 -------------------------------------------------------------------
 Cartesian Forces:  Max     0.000017535 RMS     0.000008620
 Force constants in Cartesian coordinates: 
                1             2             3             4             5 
      1  0.108210D+00
      2  0.123396D-01  0.428524D+00
      3  0.264625D-01  0.323734D-02  0.619012D+00
      4 -0.488305D-01 -0.194369D-02 -0.338951D-02  0.720236D-01
      5  0.462682D-02 -0.123642D+00  0.988062D-01 -0.109948D-02  0.543573D+00
      6 -0.685271D-02  0.120183D+00 -0.273496D+00  0.440052D-02 -0.141694D+00
      7 -0.953539D-03  0.233812D-02  0.352865D-02 -0.470045D-01 -0.669208D-02
      8  0.213967D-02 -0.294156D-01  0.709766D-01 -0.105260D-03 -0.319582D+00
      9  0.377061D-02  0.308061D-01  0.277226D-01 -0.431853D-02  0.117604D-01
     10 -0.219314D-02  0.333311D-03 -0.520337D-02  0.944404D-02 -0.598283D-02
     11  0.385977D-03 -0.225338D-02  0.186868D-02 -0.127361D-02 -0.282288D-01
     12 -0.551097D-02 -0.510046D-02 -0.846416D-01 -0.812385D-03 -0.848021D-01
     13  0.619216D-02 -0.276643D-02 -0.152054D-02 -0.970326D-03  0.237186D-03
     14 -0.769675D-02 -0.291312D-01 -0.910866D-01  0.756370D-03 -0.569976D-01
     15  0.104002D-02 -0.224862D-01  0.365675D-01  0.141861D-03  0.355577D-01
     16 -0.590932D-01 -0.977692D-02 -0.150424D-01  0.105350D-01  0.481905D-02
     17 -0.485708D-02 -0.143612D+00 -0.504263D-01 -0.160080D-03  0.617017D-01
     18 -0.158577D-01 -0.126542D+00 -0.281210D+00 -0.416484D-02  0.350016D-01
     19 -0.174826D-01 -0.393846D-02 -0.982002D-03 -0.365103D-03 -0.617741D-03
     20 -0.476898D-02 -0.985941D-01 -0.196506D-01  0.288047D-02 -0.378597D-01
     21 -0.611392D-03 -0.134992D-02 -0.269370D-01  0.996302D-03  0.218214D-01
     22  0.861361D-04  0.370203D-02 -0.179066D-02 -0.299312D-02  0.364209D-02
     23 -0.125139D-02 -0.719344D-02  0.180293D-02  0.340122D-02 -0.709734D-02
     24 -0.892208D-03 -0.106700D-01 -0.181490D-02  0.520869D-02 -0.639490D-02
     25  0.530293D-02 -0.862995D-03 -0.349004D-03  0.135895D-03  0.178035D-02
     26  0.115829D-03 -0.801524D-03  0.960160D-03 -0.254729D-03 -0.295416D-01
     27 -0.908715D-03 -0.299294D-02 -0.322779D-04  0.345307D-02  0.306774D-01
     28 -0.440853D-03  0.298120D-04 -0.134957D-03  0.355742D-02 -0.416344D-03
     29  0.989467D-05  0.154749D-02 -0.151776D-02 -0.188514D-02 -0.209110D-02
     30  0.866925D-04  0.666990D-03  0.844921D-04 -0.599362D-03 -0.428181D-03
     31  0.649395D-02 -0.452405D-03 -0.319447D-03 -0.702744D-03  0.538838D-04
     32 -0.455473D-03 -0.376013D-02  0.456809D-03 -0.705356D-05 -0.647845D-03
     33 -0.291104D-03  0.770574D-03  0.161250D-02 -0.338352D-05  0.775919D-03
     34  0.270874D-02  0.998065D-03 -0.125919D-02  0.517035D-02 -0.350919D-03
     35 -0.588084D-03  0.833212D-02 -0.154275D-01 -0.309023D-03  0.412938D-03
     36 -0.434935D-03  0.134776D-01 -0.168670D-01 -0.912427D-03 -0.108176D-02
                6             7             8             9            10 
      6  0.410581D+00
      7  0.519003D-03  0.104249D+00
      8 -0.105672D-01  0.143170D-01  0.545435D+00
      9 -0.666857D-01  0.254511D-01  0.626856D-01  0.472909D+00
     10  0.245118D-02 -0.528626D-01 -0.723629D-02 -0.155878D-01  0.104741D+00
     11 -0.134252D-01 -0.983715D-02 -0.139134D+00 -0.128327D+00  0.941101D-02
     12  0.395426D-01 -0.127645D-01 -0.577851D-01 -0.247311D+00  0.336750D-01
     13 -0.169286D-03  0.434826D-02 -0.354817D-03 -0.277621D-02 -0.566331D-01
     14  0.357176D-01  0.394543D-02  0.645564D-01  0.308824D-01  0.770007D-03
     15 -0.218807D-01 -0.558691D-02 -0.369749D-01 -0.576700D-01 -0.117030D-01
     16 -0.453147D-02 -0.271944D-03 -0.441417D-02 -0.206377D-02  0.427665D-02
     17 -0.291780D-01 -0.453128D-02 -0.574368D-01 -0.372240D-01  0.420808D-02
     18 -0.574161D-01 -0.213389D-02 -0.322299D-01 -0.202436D-01  0.279469D-02
     19  0.739246D-03  0.485560D-02 -0.700648D-04 -0.843597D-03 -0.399189D-03
     20  0.199107D-01 -0.875240D-03 -0.158064D-02 -0.228900D-02 -0.218773D-03
     21 -0.147238D-02 -0.327888D-03  0.107369D-02 -0.165274D-02  0.112076D-03
     22  0.501540D-02  0.118316D-03 -0.355180D-02  0.277688D-02  0.381981D-03
     23 -0.530664D-02 -0.256402D-03  0.142787D-02 -0.704175D-02  0.304666D-03
     24 -0.112398D-01 -0.158719D-02  0.684039D-02 -0.103255D-01  0.618739D-04
     25 -0.646378D-03 -0.182357D-01  0.109135D-02 -0.561670D-02  0.169575D-02
     26  0.281248D-01  0.225444D-02 -0.341055D-01  0.351490D-01  0.816004D-03
     27 -0.130173D-01 -0.603744D-02  0.132638D-01 -0.948277D-01 -0.356842D-02
     28 -0.469046D-03  0.100112D-02 -0.178984D-02  0.764764D-04 -0.176249D-01
     29 -0.220600D-02 -0.601496D-03 -0.282313D-01  0.209672D-02 -0.313780D-02
     30 -0.169271D-02 -0.645877D-03 -0.181823D-01 -0.117953D-03 -0.955101D-03
     31  0.306494D-03  0.494660D-02  0.624526D-04 -0.593413D-03  0.165422D-02
     32  0.742914D-03 -0.320699D-04 -0.792829D-03  0.224248D-02  0.131964D-02
     33  0.109973D-03 -0.451949D-03  0.255297D-02 -0.233611D-02 -0.181443D-02
     34 -0.762948D-03 -0.190618D-03 -0.882088D-04 -0.275019D-03  0.751943D-02
     35 -0.230181D-02 -0.292560D-04 -0.114113D-02 -0.740538D-03 -0.587033D-03
     36 -0.333239D-02  0.369935D-04 -0.165373D-02  0.538131D-03 -0.262736D-03
               11            12            13            14            15 
     11  0.469623D+00
     12 -0.117102D-01  0.616301D+00
     13  0.504683D-02 -0.136647D-01  0.129079D+00
     14 -0.149964D+00  0.507539D-01  0.253841D-01  0.696571D+00
     15  0.124400D+00 -0.281697D+00  0.417718D-01  0.453785D-01  0.723752D+00
     16 -0.891155D-05  0.486488D-02 -0.596250D-01 -0.102447D-01 -0.550052D-02
     17 -0.290854D-01  0.901098D-01 -0.144122D-01 -0.348478D+00 -0.354959D-01
     18  0.236545D-01  0.357909D-01 -0.249131D-02  0.432750D-01 -0.126838D+00
     19 -0.336790D-05  0.289382D-03  0.392957D-02  0.160528D-03 -0.525506D-03
     20 -0.210007D-03  0.153457D-02 -0.338870D-03  0.221765D-02 -0.536098D-02
     21 -0.377717D-04  0.662939D-03 -0.357236D-03  0.287925D-03 -0.230072D-02
     22 -0.732788D-03 -0.797374D-03 -0.160680D-03 -0.802610D-04  0.885180D-05
     23  0.183052D-02  0.251444D-02 -0.412827D-04 -0.295682D-03 -0.884325D-03
     24  0.283101D-02  0.328262D-02 -0.529868D-04 -0.103173D-02 -0.107640D-02
     25  0.888015D-03 -0.307705D-02  0.362024D-02 -0.421569D-03 -0.254055D-03
     26  0.352940D-03  0.141170D-02 -0.125223D-03  0.635197D-03 -0.833241D-03
     27  0.166219D-01 -0.348213D-01 -0.621589D-03 -0.561271D-02 -0.122853D-02
     28 -0.298680D-02 -0.138166D-02  0.268575D-02 -0.152537D-03  0.364164D-03
     29 -0.127708D+00 -0.231439D-02 -0.124695D-02 -0.374381D-01  0.244393D-03
     30 -0.114655D-02 -0.307751D-01  0.663857D-03  0.215305D-01  0.237677D-02
     31 -0.377407D-03 -0.695963D-03 -0.363879D-01 -0.122763D-01 -0.207706D-01
     32  0.845818D-02  0.159103D-01 -0.123362D-01 -0.131089D+00 -0.130536D+00
     33 -0.139990D-01 -0.178818D-01 -0.207352D-01 -0.127598D+00 -0.274755D+00
     34 -0.511797D-03 -0.124592D-03  0.392215D-02 -0.144364D-03  0.101387D-02
     35 -0.368113D-02 -0.522444D-03  0.953839D-03 -0.105864D-01  0.269913D-01
     36 -0.729752D-03  0.154791D-02 -0.465725D-04 -0.249662D-02  0.475056D-02
               16            17            18            19            20 
     16  0.130172D+00
     17  0.212593D-01  0.688217D+00
     18  0.317568D-01 -0.483786D-01  0.723656D+00
     19  0.350346D-02 -0.339116D-02 -0.399841D-03  0.752313D-02
     20 -0.300303D-02 -0.386245D-01  0.156894D-02  0.822024D-02  0.174197D+00
     21 -0.914472D-03 -0.204101D-01  0.243339D-02  0.692855D-03 -0.193165D-02
     22  0.464581D-03 -0.484662D-03  0.340565D-03  0.836998D-03 -0.210175D-02
     23 -0.107876D-03  0.146743D-02 -0.799258D-05  0.734256D-04  0.357952D-02
     24  0.360043D-03  0.275876D-02  0.563203D-03  0.895681D-03  0.534685D-02
     25 -0.836790D-03  0.214498D-03 -0.106600D-03  0.113346D-04  0.911791D-04
     26  0.246523D-03 -0.678158D-03  0.113485D-02 -0.532861D-04  0.124945D-03
     27 -0.271621D-03  0.146688D-02 -0.153692D-02  0.711214D-04 -0.756741D-04
     28  0.479689D-02  0.110387D-03 -0.280934D-03 -0.730293D-03 -0.315523D-04
     29  0.554018D-03  0.295823D-02  0.389450D-02 -0.164545D-03 -0.211015D-02
     30 -0.461751D-03 -0.126549D-03 -0.238114D-02  0.265529D-04 -0.285540D-03
     31  0.358888D-02 -0.313368D-03 -0.814156D-03  0.104710D-03  0.150618D-03
     32 -0.228393D-02 -0.106733D-01 -0.267455D-01 -0.892119D-04 -0.133166D-02
     33  0.214845D-03  0.264142D-02  0.531589D-02  0.942413D-05  0.369911D-03
     34 -0.375107D-01  0.235751D-02 -0.864269D-02 -0.178763D-02 -0.431309D-05
     35  0.296059D-02 -0.125756D+00  0.125374D+00 -0.126354D-03  0.191674D-03
     36 -0.841051D-02  0.124263D+00 -0.278134D+00  0.266829D-04  0.862518D-03
               21            22            23            24            25 
     21  0.317511D-01
     22  0.561688D-03  0.163532D-02
     23  0.207708D-02 -0.377034D-02  0.133926D-01
     24 -0.324823D-02 -0.475643D-02  0.669179D-02  0.190416D-01
     25 -0.207883D-04 -0.397601D-03  0.173639D-02  0.909798D-03  0.934702D-02
     26  0.284441D-03  0.237767D-02 -0.557718D-02 -0.329987D-02 -0.462935D-02
     27  0.753355D-04 -0.185100D-02  0.126821D-02  0.595989D-02  0.100511D-01
     28  0.406321D-04  0.522320D-04 -0.108649D-04  0.150621D-04 -0.201330D-04
     29  0.139124D-03  0.941754D-03 -0.157789D-02 -0.285052D-02  0.123113D-04
     30  0.213462D-03  0.222240D-03 -0.574534D-03 -0.460230D-03 -0.812226D-03
     31 -0.193746D-04 -0.553871D-04 -0.235996D-03 -0.420565D-03  0.319996D-03
     32 -0.568730D-03  0.532445D-04 -0.165714D-04 -0.195570D-03  0.691572D-04
     33  0.728216D-04  0.553875D-04 -0.833887D-04 -0.484380D-04 -0.742907D-04
     34 -0.152402D-03  0.312186D-04  0.158456D-03  0.258238D-03 -0.942929D-03
     35 -0.138549D-02  0.481339D-05  0.601941D-04 -0.262088D-04  0.306668D-04
     36  0.402006D-03  0.214453D-03 -0.455814D-03 -0.633774D-03 -0.382768D-05
               26            27            28            29            30 
     26  0.705553D-01
     27 -0.554666D-01  0.146617D+00
     28 -0.648765D-03 -0.600706D-03  0.865936D-02
     29 -0.120686D-02 -0.201219D-03  0.573918D-02  0.196957D+00
     30 -0.769256D-02 -0.612307D-02  0.221480D-02  0.369730D-02  0.384965D-01
     31 -0.102034D-03  0.199226D-03 -0.212889D-02 -0.150002D-03  0.232403D-03
     32  0.985816D-04  0.100565D-02  0.139689D-03 -0.113005D-04  0.190115D-02
     33 -0.204559D-04 -0.802056D-03  0.157248D-03 -0.594974D-03  0.271639D-03
     34  0.292172D-05  0.849493D-04  0.192239D-03 -0.712348D-04  0.277726D-04
     35  0.143859D-03  0.453302D-04  0.176289D-04 -0.108741D-02  0.640216D-03
     36  0.247771D-03 -0.263011D-03 -0.107332D-05 -0.387161D-03  0.107362D-03
               31            32            33            34            35 
     31  0.264891D-01
     32  0.133689D-01  0.138603D+00
     33  0.226408D-01  0.135507D+00  0.287989D+00
     34 -0.432248D-02  0.253309D-03  0.292627D-03  0.252102D-01
     35  0.271637D-03  0.116300D-02 -0.321285D-03 -0.259942D-02  0.131948D+00
     36  0.254553D-03  0.280162D-03  0.451883D-03  0.953940D-02 -0.132326D+00
               36 
     36  0.291432D+00
 FormGI is forming the generalized inverse of G from B-inverse, IUseBI=4.
 Leave Link  716 at Mon Sep 28 09:35:51 2026, MaxMem=  1610612736 cpu:               0.3 elap:               0.0
 (Enter /share/software/user/restricted/gaussian/g16.B01/l103.exe)

 GradGradGradGradGradGradGradGradGradGradGradGradGradGradGradGradGradGrad
 Berny optimization.
 Red2BG is reusing G-inverse.
 Internal  Forces:  Max     0.000001584 RMS     0.000000364
 Search for a local minimum.
 Step number   1 out of a maximum of    2
 All quantities printed in internal units (Hartrees-Bohrs-Radians)
 Second derivative matrix not updated -- analytic derivatives used.
 ITU=  0
     Eigenvalues ---   -0.00005   0.01102   0.01764   0.02016   0.02195
     Eigenvalues ---    0.02283   0.02477   0.02709   0.02879   0.03161
     Eigenvalues ---    0.08134   0.11210   0.11912   0.12173   0.12894
     Eigenvalues ---    0.15691   0.16825   0.19620   0.20174   0.21256
     Eigenvalues ---    0.24589   0.25427   0.34333   0.36726   0.37092
     Eigenvalues ---    0.43054   0.44919   0.48636   0.48927   0.51673
 Eigenvalue     1 is  -5.19D-05 should be greater than     0.000000 Eigenvector:
                          D4        D2        D12       D11       D3
   1                   -0.52766  -0.48561   0.48124   0.45986  -0.09197
                          A6        R5        D7        D8        D10
   1                    0.07991   0.06713   0.06692   0.06128   0.05055
 Angle between quadratic step and forces=  83.93 degrees.
 Linear search not attempted -- first point.
 Iteration  1 RMS(Cart)=  0.00006406 RMS(Int)=  0.00000000
 Iteration  2 RMS(Cart)=  0.00000000 RMS(Int)=  0.00000000
 ITry= 1 IFail=0 DXMaxC= 3.24D-04 DCOld= 1.00D+10 DXMaxT= 3.00D-01 DXLimC= 3.00D+00 Rises=F
 Variable       Old X    -DE/DX   Delta X   Delta X   Delta X     New X
                                 (Linear)    (Quad)   (Total)
    R1        2.59465  -0.00000   0.00000  -0.00000  -0.00000   2.59465
    R2        2.63214  -0.00000   0.00000  -0.00000  -0.00000   2.63214
    R3        3.63910   0.00000   0.00000  -0.00000  -0.00000   3.63909
    R4        2.60157  -0.00000   0.00000  -0.00000  -0.00000   2.60156
    R5        4.79802   0.00000   0.00000   0.00002   0.00002   4.79804
    R6        2.64148  -0.00000   0.00000  -0.00000  -0.00000   2.64148
    R7        3.62682   0.00000   0.00000   0.00000   0.00000   3.62682
    R8        2.63132  -0.00000   0.00000  -0.00000  -0.00000   2.63132
    R9        3.60196   0.00000   0.00000  -0.00000  -0.00000   3.60196
   R10        2.62446  -0.00000   0.00000  -0.00000  -0.00000   2.62446
   R11        2.04599   0.00000   0.00000   0.00000   0.00000   2.04599
   R12        2.04844  -0.00000   0.00000  -0.00000  -0.00000   2.04844
    A1        2.12678   0.00000   0.00000   0.00000   0.00000   2.12678
    A2        2.11553  -0.00000   0.00000  -0.00000  -0.00000   2.11553
    A3        2.04071  -0.00000   0.00000   0.00000   0.00000   2.04071
    A4        2.08435  -0.00000   0.00000  -0.00000  -0.00000   2.08434
    A5        2.06976   0.00000   0.00000  -0.00001  -0.00001   2.06975
    A6        2.08327   0.00000   0.00000  -0.00002  -0.00002   2.08325
    A7        2.09589   0.00000   0.00000   0.00000   0.00000   2.09589
    A8        2.09037  -0.00000   0.00000  -0.00000  -0.00000   2.09037
    A9        2.09671   0.00000   0.00000   0.00000   0.00000   2.09671
   A10        2.09478   0.00000   0.00000   0.00000   0.00000   2.09478
   A11        2.14405  -0.00000   0.00000  -0.00000  -0.00000   2.14405
   A12        2.04435   0.00000   0.00000   0.00000   0.00000   2.04435
   A13        2.09298  -0.00000   0.00000  -0.00000  -0.00000   2.09298
   A14        2.09676   0.00000   0.00000   0.00000   0.00000   2.09677
   A15        2.09343   0.00000   0.00000   0.00000   0.00000   2.09343
   A16        2.07145  -0.00000   0.00000  -0.00000  -0.00000   2.07145
   A17        2.11992  -0.00000   0.00000  -0.00000  -0.00000   2.11992
   A18        2.09181   0.00000   0.00000   0.00000   0.00000   2.09181
    D1        0.00851   0.00000   0.00000   0.00003   0.00003   0.00854
    D2       -2.81070  -0.00000   0.00000   0.00013   0.00013  -2.81057
    D3       -3.11265   0.00000   0.00000   0.00005   0.00005  -3.11261
    D4        0.35132   0.00000   0.00000   0.00015   0.00015   0.35147
    D5        0.00552  -0.00000   0.00000  -0.00002  -0.00002   0.00551
    D6       -3.13632  -0.00000   0.00000  -0.00001  -0.00001  -3.13633
    D7        3.12752  -0.00000   0.00000  -0.00003  -0.00003   3.12749
    D8       -0.01432  -0.00000   0.00000  -0.00003  -0.00003  -0.01435
    D9       -0.01249  -0.00000   0.00000  -0.00002  -0.00002  -0.01251
   D10        3.10684  -0.00000   0.00000  -0.00002  -0.00002   3.10682
   D11        2.80421   0.00000   0.00000  -0.00012  -0.00012   2.80409
   D12       -0.35964   0.00000   0.00000  -0.00013  -0.00013  -0.35977
   D13        0.00256   0.00000   0.00000  -0.00001  -0.00001   0.00256
   D14       -3.13969   0.00000   0.00000  -0.00000  -0.00000  -3.13970
   D15       -3.11669   0.00000   0.00000  -0.00000  -0.00000  -3.11669
   D16        0.02424   0.00000   0.00000  -0.00000  -0.00000   0.02424
   D17        0.01159   0.00000   0.00000   0.00002   0.00002   0.01161
   D18       -3.13492   0.00000   0.00000   0.00001   0.00001  -3.13490
   D19       -3.12937   0.00000   0.00000   0.00002   0.00002  -3.12935
   D20        0.00731   0.00000   0.00000   0.00001   0.00001   0.00732
   D21       -0.01546  -0.00000   0.00000  -0.00001  -0.00001  -0.01546
   D22        3.12638  -0.00000   0.00000  -0.00001  -0.00001   3.12637
   D23        3.13104  -0.00000   0.00000  -0.00000  -0.00000   3.13104
   D24       -0.01031  -0.00000   0.00000  -0.00000  -0.00000  -0.01031
         Item               Value     Threshold  Converged?
 Maximum Force            0.000002     0.000015     YES
 RMS     Force            0.000000     0.000010     YES
 Maximum Displacement     0.000324     0.000060     NO 
 RMS     Displacement     0.000064     0.000040     NO 
 Predicted change in Energy=-4.404157D-11
                           ----------------------------
                           ! Non-Optimized Parameters !
                           ! (Angstroms and Degrees)  !
 --------------------------                            --------------------------
 ! Name  Definition              Value          Derivative Info.                !
 --------------------------------------------------------------------------------
 ! R1    R(1,2)                  1.373          -DE/DX =    0.0                 !
 ! R2    R(1,6)                  1.3929         -DE/DX =    0.0                 !
 ! R3    R(1,7)                  1.9257         -DE/DX =    0.0                 !
 ! R4    R(2,3)                  1.3767         -DE/DX =    0.0                 !
 ! R5    R(2,8)                  2.539          -DE/DX =    0.0                 !
 ! R6    R(3,4)                  1.3978         -DE/DX =    0.0                 !
 ! R7    R(3,9)                  1.9192         -DE/DX =    0.0                 !
 ! R8    R(4,5)                  1.3924         -DE/DX =    0.0                 !
 ! R9    R(4,10)                 1.9061         -DE/DX =    0.0                 !
 ! R10   R(5,6)                  1.3888         -DE/DX =    0.0                 !
 ! R11   R(5,11)                 1.0827         -DE/DX =    0.0                 !
 ! R12   R(6,12)                 1.084          -DE/DX =    0.0                 !
 ! A1    A(2,1,6)              121.8556         -DE/DX =    0.0                 !
 ! A2    A(2,1,7)              121.2108         -DE/DX =    0.0                 !
 ! A3    A(6,1,7)              116.9239         -DE/DX =    0.0                 !
 ! A4    A(1,2,3)              119.4241         -DE/DX =    0.0                 !
 ! A5    A(1,2,8)              118.588          -DE/DX =    0.0                 !
 ! A6    A(3,2,8)              119.3612         -DE/DX =    0.0                 !
 ! A7    A(2,3,4)              120.0857         -DE/DX =    0.0                 !
 ! A8    A(2,3,9)              119.7692         -DE/DX =    0.0                 !
 ! A9    A(4,3,9)              120.1328         -DE/DX =    0.0                 !
 ! A10   A(3,4,5)              120.0219         -DE/DX =    0.0                 !
 ! A11   A(3,4,10)             122.8452         -DE/DX =    0.0                 !
 ! A12   A(5,4,10)             117.1329         -DE/DX =    0.0                 !
 ! A13   A(4,5,6)              119.9191         -DE/DX =    0.0                 !
 ! A14   A(4,5,11)             120.1358         -DE/DX =    0.0                 !
 ! A15   A(6,5,11)             119.9445         -DE/DX =    0.0                 !
 ! A16   A(1,6,5)              118.6856         -DE/DX =    0.0                 !
 ! A17   A(1,6,12)             121.4625         -DE/DX =    0.0                 !
 ! A18   A(5,6,12)             119.8519         -DE/DX =    0.0                 !
 ! D1    D(6,1,2,3)              0.4894         -DE/DX =    0.0                 !
 ! D2    D(6,1,2,8)           -161.0336         -DE/DX =    0.0                 !
 ! D3    D(7,1,2,3)           -178.3392         -DE/DX =    0.0                 !
 ! D4    D(7,1,2,8)             20.1378         -DE/DX =    0.0                 !
 ! D5    D(2,1,6,5)              0.3157         -DE/DX =    0.0                 !
 ! D6    D(2,1,6,12)          -179.6985         -DE/DX =    0.0                 !
 ! D7    D(7,1,6,5)            179.192          -DE/DX =    0.0                 !
 ! D8    D(7,1,6,12)            -0.8221         -DE/DX =    0.0                 !
 ! D9    D(1,2,3,4)             -0.7167         -DE/DX =    0.0                 !
 ! D10   D(1,2,3,9)            178.0076         -DE/DX =    0.0                 !
 ! D11   D(8,2,3,4)            160.6626         -DE/DX =    0.0                 !
 ! D12   D(8,2,3,9)            -20.613          -DE/DX =    0.0                 !
 ! D13   D(2,3,4,5)              0.1466         -DE/DX =    0.0                 !
 ! D14   D(2,3,4,10)          -179.8915         -DE/DX =    0.0                 !
 ! D15   D(9,3,4,5)           -178.5731         -DE/DX =    0.0                 !
 ! D16   D(9,3,4,10)             1.3887         -DE/DX =    0.0                 !
 ! D17   D(3,4,5,6)              0.6652         -DE/DX =    0.0                 !
 ! D18   D(3,4,5,11)          -179.6167         -DE/DX =    0.0                 !
 ! D19   D(10,4,5,6)          -179.2988         -DE/DX =    0.0                 !
 ! D20   D(10,4,5,11)            0.4193         -DE/DX =    0.0                 !
 ! D21   D(4,5,6,1)             -0.886          -DE/DX =    0.0                 !
 ! D22   D(4,5,6,12)           179.1279         -DE/DX =    0.0                 !
 ! D23   D(11,5,6,1)           179.3954         -DE/DX =    0.0                 !
 ! D24   D(11,5,6,12)           -0.5907         -DE/DX =    0.0                 !
 --------------------------------------------------------------------------------
 GradGradGradGradGradGradGradGradGradGradGradGradGradGradGradGradGradGrad

 Leave Link  103 at Mon Sep 28 09:35:51 2026, MaxMem=  1610612736 cpu:               0.3 elap:               0.0
 (Enter /share/software/user/restricted/gaussian/g16.B01/l9999.exe)

 ----------------------------------------------------------------------

 Electric dipole moment (input orientation):
 (Debye = 10**-18 statcoulomb cm , SI units = C m)
                  (au)            (Debye)         (10**-30 SI)
   Tot        0.385921D+01      0.980913D+01      0.327197D+02
   x          0.315824D+00      0.802743D+00      0.267766D+01
   y         -0.223770D+01     -0.568767D+01     -0.189720D+02
   z         -0.312833D+01     -0.795142D+01     -0.265231D+02

 Dipole polarizability, Alpha (input orientation).
 (esu units = cm**3 , SI units = C**2 m**2 J**-1)
 Alpha(0;0):
               (au)            (10**-24 esu)      (10**-40 SI)
   iso        0.231805D+03      0.343500D+02      0.382195D+02
   aniso      0.161872D+03      0.239870D+02      0.266891D+02
   xx         0.129800D+03      0.192344D+02      0.214012D+02
   yx        -0.697183D+01     -0.103312D+01     -0.114950D+01
   yy         0.293858D+03      0.435453D+02      0.484506D+02
   zx        -0.108817D+02     -0.161250D+01     -0.179415D+01
   zy         0.253254D+02      0.375284D+01      0.417560D+01
   zz         0.271757D+03      0.402702D+02      0.448066D+02

 ----------------------------------------------------------------------

 Dipole orientation:
     6          0.05560662         -3.25715271          0.37447585
     6          0.29331073         -0.92158661         -0.73043376
     6          0.15432823          1.21293316          0.75032700
     6         -0.25390748          0.99606974          3.35104041
     6         -0.51493223         -1.38092970          4.44902314
     6         -0.34313139         -3.53611109          2.96124155
    35          0.32352477         -6.30871204         -1.59001408
    35         -0.36536882         -0.54524090         -5.46810645
    35          0.59207765          4.48226090         -0.75755579
    35         -0.47739022          3.84930203          5.53810420
     1         -0.84290306         -1.55251630          6.46124848
     1         -0.51997249         -5.38631917          3.82237531

 Electric dipole moment (dipole orientation):
 (Debye = 10**-18 statcoulomb cm , SI units = C m)
                  (au)            (Debye)         (10**-30 SI)
   Tot        0.385921D+01      0.980913D+01      0.327197D+02
   x          0.000000D+00      0.000000D+00      0.000000D+00
   y          0.000000D+00      0.000000D+00      0.000000D+00
   z          0.385921D+01      0.980913D+01      0.327197D+02

 Dipole polarizability, Alpha (dipole orientation).
 (esu units = cm**3 , SI units = C**2 m**2 J**-1)
 Alpha(0;0):
               (au)            (10**-24 esu)      (10**-40 SI)
   iso        0.231805D+03      0.343500D+02      0.382195D+02
   aniso      0.161872D+03      0.239870D+02      0.266891D+02
   xx         0.128834D+03      0.190912D+02      0.212419D+02
   yx         0.133016D+01      0.197110D+00      0.219314D+00
   yy         0.262432D+03      0.388884D+02      0.432692D+02
   zx        -0.921838D+00     -0.136602D+00     -0.151991D+00
   zy         0.185536D+02      0.274936D+01      0.305907D+01
   zz         0.304149D+03      0.450702D+02      0.501474D+02

 ----------------------------------------------------------------------
 1\1\GINC-SH02-01N06\Freq\UM062X\6-311++G(d)\C6H2Br4(1-,2)\JLAPIER\28-S
 ep-2026\0\\#P Geom=AllCheck Guess=TCheck SCRF=Check GenChk UM062X/6-31
 1++G(d) Freq\\BrBz_1234_RA m062x_smd\\-1,2\C,0.0907053256,1.2894272865
 ,-1.1576353207\C,0.1357880392,0.6253166711,0.0432526654\C,0.0970371052
 ,-0.7507584175,0.0569947351\C,-0.0025590474,-1.4609603254,-1.142823517
 1\C,-0.0596622265,-0.7771934465,-2.3544632797\C,-0.0036263119,0.610394
 4346,-2.3701121949\Br,0.1892032008,3.2108824037,-1.2396739598\Br,-0.42
 18694724,1.9076929367,2.1624686113\Br,0.2171868091,-1.6908210155,1.725
 9154687\Br,-0.0652404526,-3.3646304303,-1.2151891955\H,-0.1430540689,-
 1.3252239022,-3.2844761558\H,-0.0339089002,1.1409996848,-3.3148698569\
 \Version=ES64L-G16RevB.01\State=2-A\HF=-10526.5717322\S2=0.758137\S2-1
 =0.\S2A=0.750046\RMSD=3.716e-09\RMSF=8.620e-06\ZeroPoint=0.0576832\The
 rmal=0.0687245\Dipole=0.3158236,-2.2377024,-3.1283292\DipoleDeriv=-0.0
 576178,0.065795,-0.0555212,0.264372,1.399513,-0.9436481,0.0010926,-0.4
 796982,0.2169933,-0.0750944,-0.0798207,-0.0806315,-0.1364209,-0.713469
 8,1.0878898,-0.2518475,1.0095133,0.49732,-0.0386567,-0.1191974,0.04657
 84,-0.1486152,0.7302857,-0.6889555,0.2377134,-1.0014274,0.4177387,-0.0
 291433,0.0854533,-0.0147558,0.053617,1.3923993,0.3276558,-0.0458547,0.
 2290621,0.0968023,-0.1790854,-0.0153474,-0.0040901,0.0039063,-0.394299
 9,0.0178425,0.0128415,-0.0347656,-0.1701921,-0.1301665,0.0032963,0.009
 9508,-0.0591542,-0.1119774,0.120003,0.0317136,0.0831345,-0.113078,-0.1
 020394,-0.0542573,0.0261091,-0.1106659,-0.9875053,0.4143716,0.0118601,
 0.106632,-0.1482608,-0.6280402,0.1045429,0.1327148,0.0635712,-0.828232
 ,-0.3828439,0.1069647,-0.4612507,-1.1869004,-0.0816309,0.070669,-0.038
 6975,0.0693419,-0.4685073,0.2548567,-0.1076697,0.7156945,-0.506467,-0.
 0638925,-0.0431114,-0.0061851,0.0050876,-1.0864918,-0.2113924,0.009684
 9,-0.1579228,-0.0995654,0.2003402,-0.0137832,-0.0135963,-0.0091073,0.0
 324126,-0.0829844,-0.0115211,-0.0365705,0.0354149,0.1850267,-0.0042392
 ,-0.0018756,0.0040675,0.0358729,0.087205,0.0050221,0.0275989,-0.039805
 6\Polar=129.8004668,-6.9718345,293.8579253,-10.8817067,25.3254193,271.
 756706\Quadrupole=6.9076026,-8.4125078,1.5049052,1.700072,2.4272647,-8
 .2002873\PG=C01 [X(C6H2Br4)]\NImag=0\\0.10820997,0.01233956,0.42852353
 ,0.02646245,0.00323734,0.61901215,-0.04883052,-0.00194369,-0.00338951,
 0.07202361,0.00462682,-0.12364192,0.09880623,-0.00109948,0.54357330,-0
 .00685271,0.12018252,-0.27349631,0.00440052,-0.14169362,0.41058084,-0.
 00095354,0.00233812,0.00352865,-0.04700445,-0.00669208,0.00051900,0.10
 424895,0.00213967,-0.02941560,0.07097663,-0.00010526,-0.31958203,-0.01
 056723,0.01431698,0.54543538,0.00377061,0.03080612,0.02772259,-0.00431
 853,0.01176037,-0.06668566,0.02545105,0.06268561,0.47290926,-0.0021931
 4,0.00033331,-0.00520337,0.00944404,-0.00598283,0.00245118,-0.05286258
 ,-0.00723629,-0.01558778,0.10474083,0.00038598,-0.00225338,0.00186868,
 -0.00127361,-0.02822875,-0.01342523,-0.00983715,-0.13913378,-0.1283274
 4,0.00941101,0.46962306,-0.00551097,-0.00510046,-0.08464161,-0.0008123
 8,-0.08480208,0.03954259,-0.01276455,-0.05778509,-0.24731068,0.0336750
 1,-0.01171019,0.61630097,0.00619216,-0.00276643,-0.00152054,-0.0009703
 3,0.00023719,-0.00016929,0.00434826,-0.00035482,-0.00277621,-0.0566331
 4,0.00504683,-0.01366473,0.12907891,-0.00769675,-0.02913120,-0.0910866
 3,0.00075637,-0.05699760,0.03571764,0.00394543,0.06455638,0.03088242,0
 .00077001,-0.14996397,0.05075387,0.02538412,0.69657111,0.00104002,-0.0
 2248618,0.03656746,0.00014186,0.03555768,-0.02188074,-0.00558691,-0.03
 697491,-0.05767004,-0.01170300,0.12439993,-0.28169740,0.04177180,0.045
 37851,0.72375202,-0.05909325,-0.00977692,-0.01504241,0.01053496,0.0048
 1905,-0.00453147,-0.00027194,-0.00441417,-0.00206377,0.00427665,-0.000
 00891,0.00486488,-0.05962495,-0.01024468,-0.00550052,0.13017220,-0.004
 85708,-0.14361184,-0.05042633,-0.00016008,0.06170175,-0.02917801,-0.00
 453128,-0.05743684,-0.03722399,0.00420808,-0.02908537,0.09010982,-0.01
 441219,-0.34847823,-0.03549594,0.02125934,0.68821678,-0.01585774,-0.12
 654160,-0.28121005,-0.00416484,0.03500159,-0.05741611,-0.00213389,-0.0
 3222988,-0.02024356,0.00279469,0.02365447,0.03579089,-0.00249131,0.043
 27498,-0.12683789,0.03175676,-0.04837861,0.72365636,-0.01748259,-0.003
 93846,-0.00098200,-0.00036510,-0.00061774,0.00073925,0.00485560,-0.000
 07006,-0.00084360,-0.00039919,-0.00000337,0.00028938,0.00392957,0.0001
 6053,-0.00052551,0.00350346,-0.00339116,-0.00039984,0.00752313,-0.0047
 6898,-0.09859411,-0.01965059,0.00288047,-0.03785975,0.01991065,-0.0008
 7524,-0.00158064,-0.00228900,-0.00021877,-0.00021001,0.00153457,-0.000
 33887,0.00221765,-0.00536098,-0.00300303,-0.03862454,0.00156894,0.0082
 2024,0.17419706,-0.00061139,-0.00134992,-0.02693703,0.00099630,0.02182
 139,-0.00147238,-0.00032789,0.00107369,-0.00165274,0.00011208,-0.00003
 777,0.00066294,-0.00035724,0.00028793,-0.00230072,-0.00091447,-0.02041
 009,0.00243339,0.00069286,-0.00193165,0.03175115,0.00008614,0.00370203
 ,-0.00179066,-0.00299312,0.00364209,0.00501540,0.00011832,-0.00355180,
 0.00277688,0.00038198,-0.00073279,-0.00079737,-0.00016068,-0.00008026,
 0.00000885,0.00046458,-0.00048466,0.00034056,0.00083700,-0.00210175,0.
 00056169,0.00163532,-0.00125139,-0.00719344,0.00180293,0.00340122,-0.0
 0709734,-0.00530664,-0.00025640,0.00142787,-0.00704175,0.00030467,0.00
 183052,0.00251444,-0.00004128,-0.00029568,-0.00088433,-0.00010788,0.00
 146743,-0.00000799,0.00007343,0.00357952,0.00207708,-0.00377034,0.0133
 9256,-0.00089221,-0.01067000,-0.00181490,0.00520869,-0.00639490,-0.011
 23982,-0.00158719,0.00684039,-0.01032549,0.00006187,0.00283101,0.00328
 262,-0.00005299,-0.00103173,-0.00107640,0.00036004,0.00275876,0.000563
 20,0.00089568,0.00534685,-0.00324823,-0.00475643,0.00669179,0.01904157
 ,0.00530293,-0.00086299,-0.00034900,0.00013589,0.00178035,-0.00064638,
 -0.01823571,0.00109135,-0.00561670,0.00169575,0.00088801,-0.00307705,0
 .00362024,-0.00042157,-0.00025406,-0.00083679,0.00021450,-0.00010660,0
 .00001133,0.00009118,-0.00002079,-0.00039760,0.00173639,0.00090980,0.0
 0934702,0.00011583,-0.00080152,0.00096016,-0.00025473,-0.02954165,0.02
 812481,0.00225444,-0.03410549,0.03514900,0.00081600,0.00035294,0.00141
 170,-0.00012522,0.00063520,-0.00083324,0.00024652,-0.00067816,0.001134
 85,-0.00005329,0.00012495,0.00028444,0.00237767,-0.00557718,-0.0032998
 7,-0.00462935,0.07055534,-0.00090872,-0.00299294,-0.00003228,0.0034530
 7,0.03067737,-0.01301728,-0.00603744,0.01326384,-0.09482774,-0.0035684
 2,0.01662186,-0.03482132,-0.00062159,-0.00561271,-0.00122853,-0.000271
 62,0.00146688,-0.00153692,0.00007112,-0.00007567,0.00007534,-0.0018510
 0,0.00126821,0.00595989,0.01005112,-0.05546660,0.14661698,-0.00044085,
 0.00002981,-0.00013496,0.00355742,-0.00041634,-0.00046905,0.00100112,-
 0.00178984,0.00007648,-0.01762485,-0.00298680,-0.00138166,0.00268575,-
 0.00015254,0.00036416,0.00479689,0.00011039,-0.00028093,-0.00073029,-0
 .00003155,0.00004063,0.00005223,-0.00001086,0.00001506,-0.00002013,-0.
 00064877,-0.00060071,0.00865936,0.00000989,0.00154749,-0.00151776,-0.0
 0188514,-0.00209110,-0.00220600,-0.00060150,-0.02823129,0.00209672,-0.
 00313780,-0.12770832,-0.00231439,-0.00124695,-0.03743810,0.00024439,0.
 00055402,0.00295823,0.00389450,-0.00016455,-0.00211015,0.00013912,0.00
 094175,-0.00157789,-0.00285052,0.00001231,-0.00120686,-0.00020122,0.00
 573918,0.19695670,0.00008669,0.00066699,0.00008449,-0.00059936,-0.0004
 2818,-0.00169271,-0.00064588,-0.01818227,-0.00011795,-0.00095510,-0.00
 114655,-0.03077508,0.00066386,0.02153052,0.00237677,-0.00046175,-0.000
 12655,-0.00238114,0.00002655,-0.00028554,0.00021346,0.00022224,-0.0005
 7453,-0.00046023,-0.00081223,-0.00769256,-0.00612307,0.00221480,0.0036
 9730,0.03849646,0.00649395,-0.00045240,-0.00031945,-0.00070274,0.00005
 388,0.00030649,0.00494660,0.00006245,-0.00059341,0.00165422,-0.0003774
 1,-0.00069596,-0.03638793,-0.01227629,-0.02077058,0.00358888,-0.000313
 37,-0.00081416,0.00010471,0.00015062,-0.00001937,-0.00005539,-0.000236
 00,-0.00042057,0.00032000,-0.00010203,0.00019923,-0.00212889,-0.000150
 00,0.00023240,0.02648907,-0.00045547,-0.00376013,0.00045681,-0.0000070
 5,-0.00064785,0.00074291,-0.00003207,-0.00079283,0.00224248,0.00131964
 ,0.00845818,0.01591027,-0.01233621,-0.13108916,-0.13053618,-0.00228393
 ,-0.01067330,-0.02674548,-0.00008921,-0.00133166,-0.00056873,0.0000532
 4,-0.00001657,-0.00019557,0.00006916,0.00009858,0.00100565,0.00013969,
 -0.00001130,0.00190115,0.01336891,0.13860304,-0.00029110,0.00077057,0.
 00161250,-0.00000338,0.00077592,0.00010997,-0.00045195,0.00255297,-0.0
 0233611,-0.00181443,-0.01399903,-0.01788184,-0.02073519,-0.12759818,-0
 .27475509,0.00021485,0.00264142,0.00531589,0.00000942,0.00036991,0.000
 07282,0.00005539,-0.00008339,-0.00004844,-0.00007429,-0.00002046,-0.00
 080206,0.00015725,-0.00059497,0.00027164,0.02264082,0.13550652,0.28798
 882,0.00270874,0.00099807,-0.00125919,0.00517035,-0.00035092,-0.000762
 95,-0.00019062,-0.00008821,-0.00027502,0.00751943,-0.00051180,-0.00012
 459,0.00392215,-0.00014436,0.00101387,-0.03751069,0.00235751,-0.008642
 69,-0.00178763,-0.00000431,-0.00015240,0.00003122,0.00015846,0.0002582
 4,-0.00094293,0.00000292,0.00008495,0.00019224,-0.00007123,0.00002777,
 -0.00432248,0.00025331,0.00029263,0.02521023,-0.00058808,0.00833212,-0
 .01542745,-0.00030902,0.00041294,-0.00230181,-0.00002926,-0.00114113,-
 0.00074054,-0.00058703,-0.00368113,-0.00052244,0.00095384,-0.01058640,
 0.02699125,0.00296059,-0.12575590,0.12537423,-0.00012635,0.00019167,-0
 .00138549,0.00000481,0.00006019,-0.00002621,0.00003067,0.00014386,0.00
 004533,0.00001763,-0.00108741,0.00064022,0.00027164,0.00116300,-0.0003
 2129,-0.00259942,0.13194819,-0.00043494,0.01347756,-0.01686701,-0.0009
 1243,-0.00108176,-0.00333239,0.00003699,-0.00165373,0.00053813,-0.0002
 6274,-0.00072975,0.00154791,-0.00004657,-0.00249662,0.00475056,-0.0084
 1051,0.12426263,-0.27813406,0.00002668,0.00086252,0.00040201,0.0002144
 5,-0.00045581,-0.00063377,-0.00000383,0.00024777,-0.00026301,-0.000001
 07,-0.00038716,0.00010736,0.00025455,0.00028016,0.00045188,0.00953940,
 -0.13232580,0.29143240\\0.00000354,0.00000048,-0.00000654,-0.00000332,
 0.00000582,-0.00000166,-0.00000722,0.00000326,0.00000507,-0.00000245,-
 0.00000129,0.00000718,0.00000548,-0.00000658,0.00000257,0.00000822,-0.
 00000615,-0.00000316,0.00000756,-0.00000164,-0.00001468,-0.00001209,0.
 00001567,-0.00001234,-0.00001754,0.00001282,0.00000850,-0.00000574,-0.
 00000074,0.00001552,0.00000916,-0.00001057,0.00000550,0.00001437,-0.00
 001108,-0.00000595\\\@


 IF YOU GET CONFUSED, LOGIC OUT YOUR DILEMMA

           --  PICKER X-RAY CORP.    DIGITAL PRINTER MANUAL CA. 1964
 Job cpu time:       0 days  2 hours 16 minutes 18.9 seconds.
 Elapsed time:       0 days  0 hours 17 minutes  2.8 seconds.
 File lengths (MBytes):  RWF=    451 Int=      0 D2E=      0 Chk=     67 Scr=      1
 Normal termination of Gaussian 16 at Mon Sep 28 09:35:52 2026.
