 Entering Gaussian System, Link 0=g16
 Initial command:
 /share/software/user/restricted/gaussian/g16.B01/l1.exe "/lscratch/jlapier/g16_45671688_76/Gau-42277.inp" -scrdir="/lscratch/jlapier/g16_45671688_76/"
 Entering Link 1 = /share/software/user/restricted/gaussian/g16.B01/l1.exe PID=     42280.
  
 Copyright (c) 1988-2017, Gaussian, Inc.  All Rights Reserved.
  
 This is part of the Gaussian(R) 16 program.  It is based on
 the Gaussian(R) 09 system (copyright 2009, Gaussian, Inc.),
 the Gaussian(R) 03 system (copyright 2003, Gaussian, Inc.),
 the Gaussian(R) 98 system (copyright 1998, Gaussian, Inc.),
 the Gaussian(R) 94 system (copyright 1995, Gaussian, Inc.),
 the Gaussian 92(TM) system (copyright 1992, Gaussian, Inc.),
 the Gaussian 90(TM) system (copyright 1990, Gaussian, Inc.),
 the Gaussian 88(TM) system (copyright 1988, Gaussian, Inc.),
 the Gaussian 86(TM) system (copyright 1986, Carnegie Mellon
 University), and the Gaussian 82(TM) system (copyright 1983,
 Carnegie Mellon University). Gaussian is a federally registered
 trademark of Gaussian, Inc.
  
 This software contains proprietary and confidential information,
 including trade secrets, belonging to Gaussian, Inc.
  
 This software is provided under written license and may be
 used, copied, transmitted, or stored only in accord with that
 written license.
  
 The following legend is applicable only to US Government
 contracts under FAR:
  
                    RESTRICTED RIGHTS LEGEND
  
 Use, reproduction and disclosure by the US Government is
 subject to restrictions as set forth in subparagraphs (a)
 and (c) of the Commercial Computer Software - Restricted
 Rights clause in FAR 52.227-19.
  
 Gaussian, Inc.
 340 Quinnipiac St., Bldg. 40, Wallingford CT 06492
  
  
 ---------------------------------------------------------------
 Warning -- This program may not be used in any manner that
 competes with the business of Gaussian, Inc. or will provide
 assistance to any competitor of Gaussian, Inc.  The licensee
 of this program is prohibited from giving any competitor of
 Gaussian, Inc. access to this program.  By using this program,
 the user acknowledges that Gaussian, Inc. is engaged in the
 business of creating and licensing software in the field of
 computational chemistry and represents and warrants to the
 licensee that it is not a competitor of Gaussian, Inc. and that
 it will not use this program in any manner prohibited above.
 ---------------------------------------------------------------
  

 Cite this work as:
 Gaussian 16, Revision B.01,
 M. J. Frisch, G. W. Trucks, H. B. Schlegel, G. E. Scuseria, 
 M. A. Robb, J. R. Cheeseman, G. Scalmani, V. Barone, 
 G. A. Petersson, H. Nakatsuji, X. Li, M. Caricato, A. V. Marenich, 
 J. Bloino, B. G. Janesko, R. Gomperts, B. Mennucci, H. P. Hratchian, 
 J. V. Ortiz, A. F. Izmaylov, J. L. Sonnenberg, D. Williams-Young, 
 F. Ding, F. Lipparini, F. Egidi, J. Goings, B. Peng, A. Petrone, 
 T. Henderson, D. Ranasinghe, V. G. Zakrzewski, J. Gao, N. Rega, 
 G. Zheng, W. Liang, M. Hada, M. Ehara, K. Toyota, R. Fukuda, 
 J. Hasegawa, M. Ishida, T. Nakajima, Y. Honda, O. Kitao, H. Nakai, 
 T. Vreven, K. Throssell, J. A. Montgomery, Jr., J. E. Peralta, 
 F. Ogliaro, M. J. Bearpark, J. J. Heyd, E. N. Brothers, K. N. Kudin, 
 V. N. Staroverov, T. A. Keith, R. Kobayashi, J. Normand, 
 K. Raghavachari, A. P. Rendell, J. C. Burant, S. S. Iyengar, 
 J. Tomasi, M. Cossi, J. M. Millam, M. Klene, C. Adamo, R. Cammi, 
 J. W. Ochterski, R. L. Martin, K. Morokuma, O. Farkas, 
 J. B. Foresman, and D. J. Fox, Gaussian, Inc., Wallingford CT, 2016.
 
 ******************************************
 Gaussian 16:  ES64L-G16RevB.01 20-Dec-2017
                28-Sep-2026 
 ******************************************
 %nprocshared=8
 Will use up to    8 processors via shared memory.
 %mem=12GB
 %oldchk=calcs/am1/chks/BrPh_3_rad.chk
 %chk=calcs/m062x_smd/chks/BrPh_3_rad.chk
 Copying data from "calcs/am1/chks/BrPh_3_rad.chk" to current chk file "calcs/m062x_smd/chks/BrPh_3_rad.chk"
 IOpt=  2 FromEx=T IUOpen= 4 IOptOp= 5 NList=   0 IFRang= 0 IUIn= 4 IUOut= 2.
 ----------------------------------------------------------------------
 #p Opt Freq M062X/6-311++G(d) SCRF=(SMD,Solvent=Water) Int=UltraFine G
 eom=Check
 ----------------------------------------------------------------------
 1/18=20,19=15,26=6,29=2,38=1/1,3;
 2/9=110,12=2,40=1/2;
 3/5=4,6=6,7=1011,11=2,14=-4,25=1,30=1,70=32201,71=1,72=1,74=-55,75=-5/1,2,3;
 4//1;
 5/5=2,38=5,53=1/2;
 6/7=2,8=2,9=2,10=2,28=1/1;
 7//1,2,3,16;
 1/18=20,19=15,26=6/3(2);
 2/9=110/2;
 99//99;
 2/9=110/2;
 3/5=4,6=6,7=1011,11=2,14=-2,25=1,30=1,70=32205,71=1,72=1,74=-55,75=-5/1,2,3;
 4/5=5,16=3,69=1/1;
 5/5=2,38=5,53=1/2;
 7//1,2,3,16;
 1/18=20,19=15,26=6/3(-5);
 2/9=110/2;
 6/7=2,8=2,9=2,10=2,19=2,28=1/1;
 99/9=1/99;
 Leave Link    1 at Mon Sep 28 02:00:35 2026, MaxMem=  1610612736 cpu:               0.7 elap:               0.1
 (Enter /share/software/user/restricted/gaussian/g16.B01/l101.exe)
 --------------------
 BrPh_3_rad m062x_smd
 --------------------
 Structure from the checkpoint file:  "calcs/m062x_smd/chks/BrPh_3_rad.chk"
 Charge =  0 Multiplicity = 2
 Redundant internal coordinates found in file.  (old form).
 C,0,0.0047440333,1.2966009135,0.
 C,0,1.2439239795,0.7119798433,0.
 C,0,1.2316610928,-0.7003227824,0.
 C,0,0.0036693319,-1.3868184439,0.
 C,0,-1.2173095557,-0.6981013359,0.
 C,0,-1.2342777407,0.7100625786,0.
 H,0,2.1729751788,1.2959568534,0.
 Br,0,2.8399775991,-1.6481843161,0.
 H,0,-0.0057822717,-2.4881538896,0.
 H,0,-2.1624019679,-1.2587907954,0.
 H,0,-2.1670388493,1.2857713744,0.
 Recover connectivity data from disk.
 ITRead=  0  0  0  0  0  0  0  0  0  0  0
 MicOpt= -1 -1 -1 -1 -1 -1 -1 -1 -1 -1 -1
 NAtoms=     11 NQM=       11 NQMF=       0 NMMI=      0 NMMIF=      0
                NMic=       0 NMicF=      0.
                    Isotopes and Nuclear Properties:
 (Nuclear quadrupole moments (NQMom) in fm**2, nuclear magnetic moments (NMagM)
  in nuclear magnetons)

  Atom         1           2           3           4           5           6           7           8           9          10
 IAtWgt=          12          12          12          12          12          12           1          79           1           1
 AtmWgt=  12.0000000  12.0000000  12.0000000  12.0000000  12.0000000  12.0000000   1.0078250  78.9183361   1.0078250   1.0078250
 NucSpn=           0           0           0           0           0           0           1           3           1           1
 AtZEff=   3.9000000   3.9000000   3.9000000   3.9000000   3.9000000   3.9000000   1.00000001435.0000000   1.0000000   1.0000000
 NQMom=    0.0000000   0.0000000   0.0000000   0.0000000   0.0000000   0.0000000   0.0000000  31.3000000   0.0000000   0.0000000
 NMagM=    0.0000000   0.0000000   0.0000000   0.0000000   0.0000000   0.0000000   2.7928460   2.1063990   2.7928460   2.7928460
 AtZNuc=   6.0000000   6.0000000   6.0000000   6.0000000   6.0000000   6.0000000   1.0000000  35.0000000   1.0000000   1.0000000

  Atom        11
 IAtWgt=           1
 AtmWgt=   1.0078250
 NucSpn=           1
 AtZEff=   1.0000000
 NQMom=    0.0000000
 NMagM=    2.7928460
 AtZNuc=   1.0000000
 Leave Link  101 at Mon Sep 28 02:00:36 2026, MaxMem=  1610612736 cpu:               1.8 elap:               0.2
 (Enter /share/software/user/restricted/gaussian/g16.B01/l103.exe)

 GradGradGradGradGradGradGradGradGradGradGradGradGradGradGradGradGradGrad
 Berny optimization.
 Initialization pass.
                           ----------------------------
                           !    Initial Parameters    !
                           ! (Angstroms and Degrees)  !
 --------------------------                            --------------------------
 ! Name  Definition              Value          Derivative Info.                !
 --------------------------------------------------------------------------------
 ! R1    R(1,2)                  1.3702         estimate D2E/DX2                !
 ! R2    R(1,6)                  1.3708         estimate D2E/DX2                !
 ! R3    R(2,3)                  1.4124         estimate D2E/DX2                !
 ! R4    R(2,7)                  1.0973         estimate D2E/DX2                !
 ! R5    R(3,4)                  1.4069         estimate D2E/DX2                !
 ! R6    R(3,8)                  1.8668         estimate D2E/DX2                !
 ! R7    R(4,5)                  1.4018         estimate D2E/DX2                !
 ! R8    R(4,9)                  1.1014         estimate D2E/DX2                !
 ! R9    R(5,6)                  1.4083         estimate D2E/DX2                !
 ! R10   R(5,10)                 1.0989         estimate D2E/DX2                !
 ! R11   R(6,11)                 1.0961         estimate D2E/DX2                !
 ! A1    A(2,1,6)              129.4106         estimate D2E/DX2                !
 ! A2    A(1,2,3)              114.7595         estimate D2E/DX2                !
 ! A3    A(1,2,7)              122.5906         estimate D2E/DX2                !
 ! A4    A(3,2,7)              122.6499         estimate D2E/DX2                !
 ! A5    A(2,3,4)              119.7044         estimate D2E/DX2                !
 ! A6    A(2,3,8)              120.0155         estimate D2E/DX2                !
 ! A7    A(4,3,8)              120.2801         estimate D2E/DX2                !
 ! A8    A(3,4,5)              121.3671         estimate D2E/DX2                !
 ! A9    A(3,4,9)              119.6986         estimate D2E/DX2                !
 ! A10   A(5,4,9)              118.9343         estimate D2E/DX2                !
 ! A11   A(4,5,6)              120.1164         estimate D2E/DX2                !
 ! A12   A(4,5,10)             119.8948         estimate D2E/DX2                !
 ! A13   A(6,5,10)             119.9888         estimate D2E/DX2                !
 ! A14   A(1,6,5)              114.642          estimate D2E/DX2                !
 ! A15   A(1,6,11)             122.9844         estimate D2E/DX2                !
 ! A16   A(5,6,11)             122.3736         estimate D2E/DX2                !
 ! D1    D(6,1,2,3)              0.0            estimate D2E/DX2                !
 ! D2    D(6,1,2,7)            180.0            estimate D2E/DX2                !
 ! D3    D(2,1,6,5)              0.0            estimate D2E/DX2                !
 ! D4    D(2,1,6,11)           180.0            estimate D2E/DX2                !
 ! D5    D(1,2,3,4)              0.0            estimate D2E/DX2                !
 ! D6    D(1,2,3,8)            180.0            estimate D2E/DX2                !
 ! D7    D(7,2,3,4)            180.0            estimate D2E/DX2                !
 ! D8    D(7,2,3,8)              0.0            estimate D2E/DX2                !
 ! D9    D(2,3,4,5)              0.0            estimate D2E/DX2                !
 ! D10   D(2,3,4,9)            180.0            estimate D2E/DX2                !
 ! D11   D(8,3,4,5)            180.0            estimate D2E/DX2                !
 ! D12   D(8,3,4,9)              0.0            estimate D2E/DX2                !
 ! D13   D(3,4,5,6)              0.0            estimate D2E/DX2                !
 ! D14   D(3,4,5,10)           180.0            estimate D2E/DX2                !
 ! D15   D(9,4,5,6)            180.0            estimate D2E/DX2                !
 ! D16   D(9,4,5,10)             0.0            estimate D2E/DX2                !
 ! D17   D(4,5,6,1)              0.0            estimate D2E/DX2                !
 ! D18   D(4,5,6,11)           180.0            estimate D2E/DX2                !
 ! D19   D(10,5,6,1)           180.0            estimate D2E/DX2                !
 ! D20   D(10,5,6,11)            0.0            estimate D2E/DX2                !
 --------------------------------------------------------------------------------
 Trust Radius=3.00D-01 FncErr=5.00D-06 GrdErr=5.00D-06 EigMax=2.50D+02 EigMin=1.00D-04
 Number of steps in this run=     57 maximum allowed number of steps=    100.
 GradGradGradGradGradGradGradGradGradGradGradGradGradGradGradGradGradGrad

 Leave Link  103 at Mon Sep 28 02:00:36 2026, MaxMem=  1610612736 cpu:               0.2 elap:               0.1
 (Enter /share/software/user/restricted/gaussian/g16.B01/l202.exe)
                          Input orientation:                          
 ---------------------------------------------------------------------
 Center     Atomic      Atomic             Coordinates (Angstroms)
 Number     Number       Type             X           Y           Z
 ---------------------------------------------------------------------
      1          6           0        0.004744    1.296601   -0.000000
      2          6           0        1.243924    0.711980   -0.000000
      3          6           0        1.231661   -0.700323   -0.000000
      4          6           0        0.003669   -1.386818   -0.000000
      5          6           0       -1.217310   -0.698101   -0.000000
      6          6           0       -1.234278    0.710063   -0.000000
      7          1           0        2.172975    1.295957   -0.000000
      8         35           0        2.839978   -1.648184    0.000000
      9          1           0       -0.005782   -2.488154   -0.000000
     10          1           0       -2.162402   -1.258791   -0.000000
     11          1           0       -2.167039    1.285771   -0.000000
 ---------------------------------------------------------------------
                    Distance matrix (angstroms):
                    1          2          3          4          5
     1  C    0.000000
     2  C    1.370164   0.000000
     3  C    2.343721   1.412356   0.000000
     4  C    2.683420   2.437865   1.406855   0.000000
     5  C    2.339285   2.836547   2.448972   1.401828   0.000000
     6  C    1.370840   2.478202   2.840782   2.435041   1.408266
     7  H    2.168231   1.097345   2.207081   3.450097   3.933230
     8  Br   4.087825   2.849169   1.866849   2.848325   4.167042
     9  H    3.784769   3.435494   2.174306   1.101376   2.161501
    10  H    3.350604   3.935352   3.439702   2.169852   1.098896
    11  H    2.171810   3.458888   3.936462   3.443067   2.199486
                    6          7          8          9         10
     6  C    0.000000
     7  H    3.457260   0.000000
     8  Br   4.707535   3.018751   0.000000
     9  H    3.426046   4.366518   2.967136   0.000000
    10  H    2.176648   5.032120   5.017512   2.482407   0.000000
    11  H    1.096122   4.340026   5.803302   4.348970   2.544566
                   11
    11  H    0.000000
 Stoichiometry    C6H4Br(2)
 Framework group  CS[SG(C6H4Br)]
 Deg. of freedom    19
 Full point group                 CS      NOp   2
 RotChk:  IX=0 Diff= 4.44D-16
 Largest Abelian subgroup         CS      NOp   2
 Largest concise Abelian subgroup C1      NOp   1
                         Standard orientation:                         
 ---------------------------------------------------------------------
 Center     Atomic      Atomic             Coordinates (Angstroms)
 Number     Number       Type             X           Y           Z
 ---------------------------------------------------------------------
      1          6           0       -0.219185    2.445660   -0.000000
      2          6           0       -0.858425    1.233752   -0.000000
      3          6           0        0.000000    0.112210   -0.000000
      4          6           0        1.394084    0.301341   -0.000000
      5          6           0        1.956226    1.585521   -0.000000
      6          6           0        1.123653    2.721318   -0.000000
      7          1           0       -1.951952    1.142301    0.000000
      8         35           0       -0.716042   -1.611857    0.000000
      9          1           0        2.063408   -0.573321   -0.000000
     10          1           0        3.048582    1.705225   -0.000000
     11          1           0        1.523315    3.741982   -0.000000
 ---------------------------------------------------------------------
 Rotational constants (GHZ):           6.1147585           1.0066366           0.8643446
 Leave Link  202 at Mon Sep 28 02:00:36 2026, MaxMem=  1610612736 cpu:               0.1 elap:               0.0
 (Enter /share/software/user/restricted/gaussian/g16.B01/l301.exe)
 Standard basis: 6-311++G(d) (5D, 7F)
 Ernie: Thresh=  0.10000D-02 Tol=  0.10000D-05 Strict=F.
 There are   155 symmetry adapted cartesian basis functions of A'  symmetry.
 There are    50 symmetry adapted cartesian basis functions of A"  symmetry.
 There are   146 symmetry adapted basis functions of A'  symmetry.
 There are    50 symmetry adapted basis functions of A"  symmetry.
   196 basis functions,   334 primitive gaussians,   205 cartesian basis functions
    38 alpha electrons       37 beta electrons
       nuclear repulsion energy       418.8818047965 Hartrees.
 IExCor= 4336 DFT=T Ex+Corr=M062X ExCW=0 ScaHFX=  0.540000
 ScaDFX=  1.000000  1.000000  1.000000  1.000000 ScalE2=  1.000000  1.000000
 IRadAn=      5 IRanWt=     -1 IRanGd=            0 ICorTp=0 IEmpDi=  4
 NAtoms=   11 NActive=   11 NUniq=   11 SFac= 1.00D+00 NAtFMM=   60 NAOKFM=F Big=F
 Integral buffers will be    131072 words long.
 Raffenetti 2 integral format.
 Two-electron integral symmetry is turned on.
 ------------------------------------------------------------------------------
 Polarizable Continuum Model (PCM)
 =================================
 Model                : PCM.
 Atomic radii         : SMD-Coulomb.
 Polarization charges : Total charges.
 Charge compensation  : None.
 Solution method      : On-the-fly selection.
 Cavity type          : VdW (van der Waals Surface) (Alpha=1.000).
 Cavity algorithm     : GePol (No added spheres)
                        Default sphere list used, NSphG=   11.
                        Lebedev-Laikov grids with approx.  5.0 points / Ang**2.
                        Smoothing algorithm: York/Karplus (Gamma=1.0000).
                        Polarization charges: spherical gaussians, with
                                              point-specific exponents (IZeta= 3).
                        Self-potential: point-specific (ISelfS= 7).
                        Self-field    : sphere-specific E.n sum rule (ISelfD= 2).
 1st derivatives      : Analytical E(r).r(x)/FMM algorithm (CHGder, D1EAlg=3).
                        Cavity 1st derivative terms included.
 Solvent              : Water, Eps=  78.355300 Eps(inf)=   1.777849
 ------------------------------------------------------------------------------
 Spheres list:
 ISph  on   Nord     Re0    Alpha      Xe            Ye            Ze
    1   C      1    1.8500  1.000     -0.219185      2.445660     -0.000000
    2   C      2    1.8500  1.000     -0.858425      1.233752     -0.000000
    3   C      3    1.8500  1.000      0.000000      0.112210      0.000000
    4   C      4    1.8500  1.000      1.394084      0.301341     -0.000000
    5   C      5    1.8500  1.000      1.956226      1.585521     -0.000000
    6   C      6    1.8500  1.000      1.123653      2.721318     -0.000000
    7   H      7    1.2000  1.000     -1.951952      1.142301      0.000000
    8  Br      8    3.0600  1.000     -0.716042     -1.611857      0.000000
    9   H      9    1.2000  1.000      2.063408     -0.573321     -0.000000
   10   H     10    1.2000  1.000      3.048582      1.705225     -0.000000
   11   H     11    1.2000  1.000      1.523315      3.741982     -0.000000
 ------------------------------------------------------------------------------
 GePol: Number of generator spheres                  =      11
 GePol: Total number of spheres                      =      11
 GePol: Number of exposed spheres                    =      11 (100.00%)
 GePol: Number of points                             =    1221
 GePol: Average weight of points                     =       0.14
 GePol: Minimum weight of points                     =   0.24D-06
 GePol: Maximum weight of points                     =    0.22025
 GePol: Number of points with low weight             =      40
 GePol: Fraction of low-weight points (<1% of avg)   =       3.28%
 GePol: Cavity surface area                          =    176.400 Ang**2
 GePol: Cavity volume                                =    182.995 Ang**3
 ------------------------------------------------------------------------------
 Atomic radii for non-electrostatic terms: SMD-CDS.
 ------------------------------------------------------------------------------
 PCM non-electrostatic energy =         0.0035284078 Hartrees.
 Nuclear repulsion after PCM non-electrostatic terms =      418.8853332042 Hartrees.
 Leave Link  301 at Mon Sep 28 02:00:37 2026, MaxMem=  1610612736 cpu:               0.4 elap:               0.1
 (Enter /share/software/user/restricted/gaussian/g16.B01/l302.exe)
 NPDir=0 NMtPBC=     1 NCelOv=     1 NCel=       1 NClECP=     1 NCelD=      1
         NCelK=      1 NCelE2=     1 NClLst=     1 CellRange=     0.0.
 One-electron integrals computed using PRISM.
 One-electron integral symmetry used in STVInt
 NBasis=   196 RedAO= T EigKep=  1.82D-06  NBF=   146    50
 NBsUse=   196 1.00D-06 EigRej= -1.00D+00 NBFU=   146    50
 Precomputing XC quadrature grid using
 IXCGrd= 4 IRadAn=           5 IRanWt=          -1 IRanGd=           0 AccXCQ= 0.00D+00.
 Generated NRdTot=       0 NPtTot=           0 NUsed=           0 NTot=          32
 NSgBfM=   205   205   205   205   205 MxSgAt=    11 MxSgA2=    11.
 Leave Link  302 at Mon Sep 28 02:00:37 2026, MaxMem=  1610612736 cpu:               1.3 elap:               0.2
 (Enter /share/software/user/restricted/gaussian/g16.B01/l303.exe)
 DipDrv:  MaxL=1.
 Leave Link  303 at Mon Sep 28 02:00:37 2026, MaxMem=  1610612736 cpu:               0.4 elap:               0.1
 (Enter /share/software/user/restricted/gaussian/g16.B01/l401.exe)
 ExpMin= 3.50D-02 ExpMax= 4.40D+05 ExpMxC= 1.51D+04 IAcc=3 IRadAn=         5 AccDes= 0.00D+00
 Harris functional with IExCor= 1009 and IRadAn=       5 diagonalized for initial guess.
 HarFok:  IExCor= 1009 AccDes= 0.00D+00 IRadAn=         5 IDoV= 1 UseB2=F ITyADJ=14
 ICtDFT=  3500011 ScaDFX=  1.000000  1.000000  1.000000  1.000000
 FoFCou: FMM=F IPFlag=           0 FMFlag=      100000 FMFlg1=           0
         NFxFlg=           0 DoJE=T BraDBF=F KetDBF=T FulRan=T
         wScrn=  0.000000 ICntrl=       500 IOpCl=  0 I1Cent=   200000004 NGrid=           0
         NMat0=    1 NMatS0=      1 NMatT0=    0 NMatD0=    1 NMtDS0=    0 NMtDT0=    0
 Petite list used in FoFCou.
 Harris En= -2804.50026678323    
 JPrj=0 DoOrth=F DoCkMO=F.
 Initial guess orbital symmetries:
 Alpha Orbitals:
       Occupied  (A') (A') (A') (A') (A") (A') (A') (A') (A') (A')
                 (A') (A') (A') (A') (A") (A') (A') (A") (A') (A")
                 (A') (A') (A') (A') (A') (A') (A') (A') (A') (A')
                 (A') (A") (A') (A") (A') (A") (A") (A')
       Virtual   (A") (A") (A') (A') (A') (A") (A') (A') (A') (A')
                 (A") (A') (A") (A') (A") (A') (A') (A') (A') (A")
                 (A') (A') (A") (A') (A') (A") (A') (A') (A') (A')
                 (A") (A') (A') (A') (A') (A') (A') (A') (A') (A')
                 (A') (A') (A') (A') (A') (A") (A') (A') (A') (A")
                 (A') (A") (A') (A') (A') (A") (A') (A') (A") (A")
                 (A") (A') (A') (A") (A') (A') (A') (A") (A') (A')
                 (A') (A') (A') (A') (A') (A') (A') (A') (A") (A')
                 (A') (A") (A') (A') (A") (A") (A") (A") (A') (A')
                 (A') (A') (A') (A') (A') (A") (A') (A") (A') (A')
                 (A") (A") (A') (A") (A') (A") (A') (A') (A') (A')
                 (A') (A') (A") (A') (A') (A') (A') (A") (A') (A")
                 (A") (A') (A") (A") (A') (A") (A') (A') (A') (A')
                 (A') (A') (A') (A') (A') (A') (A') (A") (A') (A")
                 (A') (A') (A') (A') (A") (A') (A') (A') (A') (A')
                 (A') (A') (A') (A') (A") (A') (A') (A')
 Beta  Orbitals:
       Occupied  (A') (A') (A') (A') (A") (A') (A') (A') (A') (A')
                 (A') (A') (A') (A') (A") (A') (A') (A") (A') (A")
                 (A') (A') (A') (A') (A') (A') (A') (A') (A') (A')
                 (A') (A") (A') (A") (A') (A") (A")
       Virtual   (A') (A") (A") (A') (A') (A') (A") (A') (A') (A')
                 (A') (A") (A') (A") (A') (A") (A') (A') (A') (A')
                 (A") (A') (A') (A") (A') (A') (A") (A') (A') (A')
                 (A') (A") (A') (A') (A') (A') (A') (A') (A') (A')
                 (A') (A') (A') (A') (A') (A') (A") (A') (A') (A')
                 (A") (A') (A") (A') (A') (A') (A") (A') (A') (A")
                 (A") (A") (A') (A') (A") (A') (A') (A') (A") (A')
                 (A') (A') (A') (A') (A') (A') (A') (A') (A') (A")
                 (A') (A') (A") (A') (A') (A") (A") (A") (A") (A')
                 (A') (A') (A') (A') (A') (A') (A") (A') (A") (A')
                 (A') (A") (A") (A') (A") (A') (A") (A') (A') (A')
                 (A') (A') (A') (A") (A') (A') (A') (A') (A") (A')
                 (A") (A") (A') (A") (A") (A') (A") (A') (A') (A')
                 (A') (A') (A') (A') (A') (A') (A') (A') (A") (A')
                 (A") (A') (A') (A') (A') (A") (A') (A') (A') (A')
                 (A') (A') (A') (A') (A') (A") (A') (A') (A')
 The electronic state of the initial guess is 2-A'.
 Initial guess <Sx>= 0.0000 <Sy>= 0.0000 <Sz>= 0.5000 <S**2>= 0.7500 S= 0.5000
 Leave Link  401 at Mon Sep 28 02:00:38 2026, MaxMem=  1610612736 cpu:               2.6 elap:               0.4
 (Enter /share/software/user/restricted/gaussian/g16.B01/l502.exe)
 Keep R1 and R2 ints in memory in symmetry-blocked form, NReq=296222914.
 FoFCou: FMM=F IPFlag=           0 FMFlag=           0 FMFlg1=           0
         NFxFlg=           0 DoJE=F BraDBF=F KetDBF=F FulRan=T
         wScrn=  0.000000 ICntrl=       600 IOpCl=  0 I1Cent=           0 NGrid=           0
         NMat0=    1 NMatS0=  19306 NMatT0=    0 NMatD0=    1 NMtDS0=    0 NMtDT0=    0
 Petite list used in FoFCou.
 UHF open shell SCF:
 Using DIIS extrapolation, IDIIS=  1040.
 NGot=  1610612736 LenX=  1413030086 LenY=  1412987620
 Requested convergence on RMS density matrix=1.00D-08 within 128 cycles.
 Requested convergence on MAX density matrix=1.00D-06.
 Requested convergence on             energy=1.00D-06.
 No special actions if energy rises.

 Cycle   1  Pass 1  IDiag  1:
 Inv3:  Mode=1 IEnd=     4472523.
 Iteration    1 A*A^-1 deviation from unit magnitude is 5.00D-15 for   1194.
 Iteration    1 A*A^-1 deviation from orthogonality  is 1.40D-15 for    646    249.
 Iteration    1 A^-1*A deviation from unit magnitude is 4.77D-15 for   1194.
 Iteration    1 A^-1*A deviation from orthogonality  is 2.09D-15 for   1112    161.
 E= -2804.89503083008    
 DIIS: error= 1.26D-01 at cycle   1 NSaved=   1.
 NSaved= 1 IEnMin= 1 EnMin= -2804.89503083008     IErMin= 1 ErrMin= 1.26D-01
 ErrMax= 1.26D-01  0.00D+00 EMaxC= 1.00D-01 BMatC= 7.17D+00 BMatP= 7.17D+00
 IDIUse=3 WtCom= 0.00D+00 WtEn= 1.00D+00
 Coeff-Com:  0.100D+01
 Coeff-En:   0.100D+01
 Coeff:      0.100D+01
 Gap=     0.298 Goal=   None    Shift=    0.000
 Gap=     0.287 Goal=   None    Shift=    0.000
 GapD=    0.287 DampG=1.000 DampE=0.250 DampFc=0.2500 IDamp=-1.
 Damping current iteration by 2.50D-01
 RMSDP=1.69D-02 MaxDP=8.96D-01              OVMax= 1.41D-01

 Cycle   2  Pass 1  IDiag  1:
 E= -2804.95758814017     Delta-E=       -0.062557310087 Rises=F Damp=T
 DIIS: error= 8.90D-02 at cycle   2 NSaved=   2.
 NSaved= 2 IEnMin= 2 EnMin= -2804.95758814017     IErMin= 2 ErrMin= 8.90D-02
 ErrMax= 8.90D-02  0.00D+00 EMaxC= 1.00D-01 BMatC= 3.36D+00 BMatP= 7.17D+00
 IDIUse=3 WtCom= 1.10D-01 WtEn= 8.90D-01
 Coeff-Com: -0.196D+01 0.296D+01
 Coeff-En:   0.000D+00 0.100D+01
 Coeff:     -0.216D+00 0.122D+01
 Gap=     0.274 Goal=   None    Shift=    0.000
 Gap=     0.234 Goal=   None    Shift=    0.000
 RMSDP=9.41D-03 MaxDP=5.21D-01 DE=-6.26D-02 OVMax= 3.96D-02

 Cycle   3  Pass 1  IDiag  1:
 E= -2805.05958901826     Delta-E=       -0.102000878089 Rises=F Damp=F
 DIIS: error= 2.05D-02 at cycle   3 NSaved=   3.
 NSaved= 3 IEnMin= 3 EnMin= -2805.05958901826     IErMin= 3 ErrMin= 2.05D-02
 ErrMax= 2.05D-02  0.00D+00 EMaxC= 1.00D-01 BMatC= 2.33D-01 BMatP= 3.36D+00
 IDIUse=3 WtCom= 7.95D-01 WtEn= 2.05D-01
 Coeff-Com:  0.203D+01-0.267D+01 0.165D+01
 Coeff-En:   0.000D+00 0.000D+00 0.100D+01
 Coeff:      0.161D+01-0.212D+01 0.151D+01
 Gap=     0.307 Goal=   None    Shift=    0.000
 Gap=     0.245 Goal=   None    Shift=    0.000
 RMSDP=3.22D-03 MaxDP=2.09D-01 DE=-1.02D-01 OVMax= 3.37D-02

 Cycle   4  Pass 1  IDiag  1:
 E= -2805.07944949510     Delta-E=       -0.019860476839 Rises=F Damp=F
 DIIS: error= 3.97D-03 at cycle   4 NSaved=   4.
 NSaved= 4 IEnMin= 4 EnMin= -2805.07944949510     IErMin= 4 ErrMin= 3.97D-03
 ErrMax= 3.97D-03  0.00D+00 EMaxC= 1.00D-01 BMatC= 7.71D-03 BMatP= 2.33D-01
 IDIUse=3 WtCom= 9.60D-01 WtEn= 3.97D-02
 Coeff-Com:  0.337D+00-0.443D+00 0.395D+00 0.711D+00
 Coeff-En:   0.000D+00 0.000D+00 0.000D+00 0.100D+01
 Coeff:      0.324D+00-0.426D+00 0.380D+00 0.722D+00
 Gap=     0.299 Goal=   None    Shift=    0.000
 Gap=     0.246 Goal=   None    Shift=    0.000
 RMSDP=8.38D-04 MaxDP=5.04D-02 DE=-1.99D-02 OVMax= 1.25D-02

 Cycle   5  Pass 1  IDiag  1:
 E= -2805.08013733345     Delta-E=       -0.000687838351 Rises=F Damp=F
 DIIS: error= 1.08D-03 at cycle   5 NSaved=   5.
 NSaved= 5 IEnMin= 5 EnMin= -2805.08013733345     IErMin= 5 ErrMin= 1.08D-03
 ErrMax= 1.08D-03  0.00D+00 EMaxC= 1.00D-01 BMatC= 4.59D-04 BMatP= 7.71D-03
 IDIUse=3 WtCom= 9.89D-01 WtEn= 1.08D-02
 Coeff-Com: -0.525D-01 0.702D-01 0.166D-01 0.354D+00 0.611D+00
 Coeff-En:   0.000D+00 0.000D+00 0.000D+00 0.000D+00 0.100D+01
 Coeff:     -0.519D-01 0.694D-01 0.164D-01 0.351D+00 0.615D+00
 Gap=     0.300 Goal=   None    Shift=    0.000
 Gap=     0.244 Goal=   None    Shift=    0.000
 RMSDP=4.04D-04 MaxDP=2.16D-02 DE=-6.88D-04 OVMax= 5.02D-03

 Cycle   6  Pass 1  IDiag  1:
 E= -2805.08028107844     Delta-E=       -0.000143744992 Rises=F Damp=F
 DIIS: error= 4.73D-04 at cycle   6 NSaved=   6.
 NSaved= 6 IEnMin= 6 EnMin= -2805.08028107844     IErMin= 6 ErrMin= 4.73D-04
 ErrMax= 4.73D-04  0.00D+00 EMaxC= 1.00D-01 BMatC= 3.84D-05 BMatP= 4.59D-04
 IDIUse=3 WtCom= 9.95D-01 WtEn= 4.73D-03
 Coeff-Com: -0.595D-01 0.784D-01-0.602D-01-0.706D-01 0.980D-01 0.101D+01
 Coeff-En:   0.000D+00 0.000D+00 0.000D+00 0.000D+00 0.000D+00 0.100D+01
 Coeff:     -0.592D-01 0.780D-01-0.599D-01-0.702D-01 0.976D-01 0.101D+01
 Gap=     0.300 Goal=   None    Shift=    0.000
 Gap=     0.244 Goal=   None    Shift=    0.000
 RMSDP=2.76D-04 MaxDP=1.97D-02 DE=-1.44D-04 OVMax= 3.49D-03

 Cycle   7  Pass 1  IDiag  1:
 E= -2805.08031543757     Delta-E=       -0.000034359133 Rises=F Damp=F
 DIIS: error= 3.00D-04 at cycle   7 NSaved=   7.
 NSaved= 7 IEnMin= 7 EnMin= -2805.08031543757     IErMin= 7 ErrMin= 3.00D-04
 ErrMax= 3.00D-04  0.00D+00 EMaxC= 1.00D-01 BMatC= 1.25D-05 BMatP= 3.84D-05
 IDIUse=3 WtCom= 9.97D-01 WtEn= 3.00D-03
 Coeff-Com: -0.892D-02 0.115D-01-0.234D-01-0.922D-01-0.834D-01 0.369D+00
 Coeff-Com:  0.828D+00
 Coeff-En:   0.000D+00 0.000D+00 0.000D+00 0.000D+00 0.000D+00 0.000D+00
 Coeff-En:   0.100D+01
 Coeff:     -0.889D-02 0.114D-01-0.233D-01-0.919D-01-0.831D-01 0.368D+00
 Coeff:      0.828D+00
 Gap=     0.300 Goal=   None    Shift=    0.000
 Gap=     0.245 Goal=   None    Shift=    0.000
 RMSDP=9.69D-05 MaxDP=4.81D-03 DE=-3.44D-05 OVMax= 2.21D-03

 Cycle   8  Pass 1  IDiag  1:
 E= -2805.08032612806     Delta-E=       -0.000010690482 Rises=F Damp=F
 DIIS: error= 1.69D-04 at cycle   8 NSaved=   8.
 NSaved= 8 IEnMin= 8 EnMin= -2805.08032612806     IErMin= 8 ErrMin= 1.69D-04
 ErrMax= 1.69D-04  0.00D+00 EMaxC= 1.00D-01 BMatC= 3.45D-06 BMatP= 1.25D-05
 IDIUse=3 WtCom= 9.98D-01 WtEn= 1.69D-03
 Coeff-Com:  0.124D-01-0.164D-01 0.779D-02-0.116D-01-0.597D-01-0.181D+00
 Coeff-Com:  0.310D+00 0.939D+00
 Coeff-En:   0.000D+00 0.000D+00 0.000D+00 0.000D+00 0.000D+00 0.000D+00
 Coeff-En:   0.000D+00 0.100D+01
 Coeff:      0.124D-01-0.164D-01 0.778D-02-0.116D-01-0.596D-01-0.181D+00
 Coeff:      0.310D+00 0.939D+00
 Gap=     0.300 Goal=   None    Shift=    0.000
 Gap=     0.245 Goal=   None    Shift=    0.000
 RMSDP=5.96D-05 MaxDP=3.09D-03 DE=-1.07D-05 OVMax= 1.65D-03

 Cycle   9  Pass 1  IDiag  1:
 E= -2805.08033017820     Delta-E=       -0.000004050140 Rises=F Damp=F
 DIIS: error= 6.67D-05 at cycle   9 NSaved=   9.
 NSaved= 9 IEnMin= 9 EnMin= -2805.08033017820     IErMin= 9 ErrMin= 6.67D-05
 ErrMax= 6.67D-05  0.00D+00 EMaxC= 1.00D-01 BMatC= 6.42D-07 BMatP= 3.45D-06
 IDIUse=1 WtCom= 1.00D+00 WtEn= 0.00D+00
 Coeff-Com:  0.403D-03-0.451D-03 0.273D-02 0.112D-01 0.476D-02-0.819D-01
 Coeff-Com: -0.981D-01 0.151D+00 0.101D+01
 Coeff:      0.403D-03-0.451D-03 0.273D-02 0.112D-01 0.476D-02-0.819D-01
 Coeff:     -0.981D-01 0.151D+00 0.101D+01
 Gap=     0.300 Goal=   None    Shift=    0.000
 Gap=     0.245 Goal=   None    Shift=    0.000
 RMSDP=1.46D-05 MaxDP=7.60D-04 DE=-4.05D-06 OVMax= 7.56D-04

 Cycle  10  Pass 1  IDiag  1:
 E= -2805.08033118708     Delta-E=       -0.000001008883 Rises=F Damp=F
 DIIS: error= 3.33D-05 at cycle  10 NSaved=  10.
 NSaved=10 IEnMin=10 EnMin= -2805.08033118708     IErMin=10 ErrMin= 3.33D-05
 ErrMax= 3.33D-05  0.00D+00 EMaxC= 1.00D-01 BMatC= 1.82D-07 BMatP= 6.42D-07
 IDIUse=1 WtCom= 1.00D+00 WtEn= 0.00D+00
 Coeff-Com: -0.295D-02 0.389D-02-0.180D-02 0.340D-02 0.195D-01 0.618D-01
 Coeff-Com: -0.103D+00-0.327D+00 0.985D-02 0.134D+01
 Coeff:     -0.295D-02 0.389D-02-0.180D-02 0.340D-02 0.195D-01 0.618D-01
 Coeff:     -0.103D+00-0.327D+00 0.985D-02 0.134D+01
 Gap=     0.300 Goal=   None    Shift=    0.000
 Gap=     0.245 Goal=   None    Shift=    0.000
 RMSDP=1.71D-05 MaxDP=8.52D-04 DE=-1.01D-06 OVMax= 6.20D-04

 Cycle  11  Pass 1  IDiag  1:
 E= -2805.08033156698     Delta-E=       -0.000000379900 Rises=F Damp=F
 DIIS: error= 1.05D-05 at cycle  11 NSaved=  11.
 NSaved=11 IEnMin=11 EnMin= -2805.08033156698     IErMin=11 ErrMin= 1.05D-05
 ErrMax= 1.05D-05  0.00D+00 EMaxC= 1.00D-01 BMatC= 4.01D-08 BMatP= 1.82D-07
 IDIUse=1 WtCom= 1.00D+00 WtEn= 0.00D+00
 Coeff-Com: -0.449D-03 0.568D-03-0.793D-03-0.121D-02 0.475D-02 0.345D-01
 Coeff-Com: -0.103D-01-0.138D+00-0.229D+00 0.478D+00 0.861D+00
 Coeff:     -0.449D-03 0.568D-03-0.793D-03-0.121D-02 0.475D-02 0.345D-01
 Coeff:     -0.103D-01-0.138D+00-0.229D+00 0.478D+00 0.861D+00
 Gap=     0.300 Goal=   None    Shift=    0.000
 Gap=     0.245 Goal=   None    Shift=    0.000
 RMSDP=6.89D-06 MaxDP=4.15D-04 DE=-3.80D-07 OVMax= 2.06D-04

 Cycle  12  Pass 1  IDiag  1:
 E= -2805.08033160526     Delta-E=       -0.000000038281 Rises=F Damp=F
 DIIS: error= 3.83D-06 at cycle  12 NSaved=  12.
 NSaved=12 IEnMin=12 EnMin= -2805.08033160526     IErMin=12 ErrMin= 3.83D-06
 ErrMax= 3.83D-06  0.00D+00 EMaxC= 1.00D-01 BMatC= 3.62D-09 BMatP= 4.01D-08
 IDIUse=1 WtCom= 1.00D+00 WtEn= 0.00D+00
 Coeff-Com:  0.308D-03-0.413D-03 0.689D-04-0.638D-03-0.106D-02 0.118D-02
 Coeff-Com:  0.930D-02 0.468D-02-0.573D-01-0.448D-01 0.231D+00 0.857D+00
 Coeff:      0.308D-03-0.413D-03 0.689D-04-0.638D-03-0.106D-02 0.118D-02
 Coeff:      0.930D-02 0.468D-02-0.573D-01-0.448D-01 0.231D+00 0.857D+00
 Gap=     0.300 Goal=   None    Shift=    0.000
 Gap=     0.245 Goal=   None    Shift=    0.000
 RMSDP=2.52D-06 MaxDP=1.57D-04 DE=-3.83D-08 OVMax= 4.26D-05

 Cycle  13  Pass 1  IDiag  1:
 E= -2805.08033160748     Delta-E=       -0.000000002224 Rises=F Damp=F
 DIIS: error= 1.26D-06 at cycle  13 NSaved=  13.
 NSaved=13 IEnMin=13 EnMin= -2805.08033160748     IErMin=13 ErrMin= 1.26D-06
 ErrMax= 1.26D-06  0.00D+00 EMaxC= 1.00D-01 BMatC= 5.11D-10 BMatP= 3.62D-09
 IDIUse=1 WtCom= 1.00D+00 WtEn= 0.00D+00
 Coeff-Com:  0.245D-04-0.301D-04 0.386D-04-0.443D-04-0.831D-03-0.358D-02
 Coeff-Com:  0.271D-02 0.187D-01 0.226D-01-0.777D-01-0.707D-01 0.213D+00
 Coeff-Com:  0.896D+00
 Coeff:      0.245D-04-0.301D-04 0.386D-04-0.443D-04-0.831D-03-0.358D-02
 Coeff:      0.271D-02 0.187D-01 0.226D-01-0.777D-01-0.707D-01 0.213D+00
 Coeff:      0.896D+00
 Gap=     0.300 Goal=   None    Shift=    0.000
 Gap=     0.245 Goal=   None    Shift=    0.000
 RMSDP=8.43D-07 MaxDP=3.95D-05 DE=-2.22D-09 OVMax= 9.09D-06

 Cycle  14  Pass 1  IDiag  1:
 E= -2805.08033160775     Delta-E=       -0.000000000264 Rises=F Damp=F
 DIIS: error= 4.68D-07 at cycle  14 NSaved=  14.
 NSaved=14 IEnMin=14 EnMin= -2805.08033160775     IErMin=14 ErrMin= 4.68D-07
 ErrMax= 4.68D-07  0.00D+00 EMaxC= 1.00D-01 BMatC= 4.99D-11 BMatP= 5.11D-10
 IDIUse=1 WtCom= 1.00D+00 WtEn= 0.00D+00
 Coeff-Com: -0.384D-04 0.522D-04-0.482D-05 0.612D-04-0.125D-03-0.970D-03
 Coeff-Com: -0.190D-03 0.434D-02 0.105D-01-0.141D-01-0.407D-01-0.362D-01
 Coeff-Com:  0.233D+00 0.844D+00
 Coeff:     -0.384D-04 0.522D-04-0.482D-05 0.612D-04-0.125D-03-0.970D-03
 Coeff:     -0.190D-03 0.434D-02 0.105D-01-0.141D-01-0.407D-01-0.362D-01
 Coeff:      0.233D+00 0.844D+00
 Gap=     0.300 Goal=   None    Shift=    0.000
 Gap=     0.245 Goal=   None    Shift=    0.000
 RMSDP=1.57D-07 MaxDP=6.63D-06 DE=-2.64D-10 OVMax= 3.05D-06

 Cycle  15  Pass 1  IDiag  1:
 E= -2805.08033160777     Delta-E=       -0.000000000022 Rises=F Damp=F
 DIIS: error= 1.19D-07 at cycle  15 NSaved=  15.
 NSaved=15 IEnMin=15 EnMin= -2805.08033160777     IErMin=15 ErrMin= 1.19D-07
 ErrMax= 1.19D-07  0.00D+00 EMaxC= 1.00D-01 BMatC= 4.29D-12 BMatP= 4.99D-11
 IDIUse=1 WtCom= 1.00D+00 WtEn= 0.00D+00
 Coeff-Com:  0.944D-05-0.128D-04 0.712D-05 0.214D-04 0.955D-04 0.339D-03
 Coeff-Com: -0.306D-03-0.211D-02-0.286D-02 0.973D-02 0.782D-02-0.268D-01
 Coeff-Com: -0.101D+00-0.366D-01 0.115D+01
 Coeff:      0.944D-05-0.128D-04 0.712D-05 0.214D-04 0.955D-04 0.339D-03
 Coeff:     -0.306D-03-0.211D-02-0.286D-02 0.973D-02 0.782D-02-0.268D-01
 Coeff:     -0.101D+00-0.366D-01 0.115D+01
 Gap=     0.300 Goal=   None    Shift=    0.000
 Gap=     0.245 Goal=   None    Shift=    0.000
 RMSDP=1.09D-07 MaxDP=6.26D-06 DE=-2.18D-11 OVMax= 1.34D-06

 Cycle  16  Pass 1  IDiag  1:
 E= -2805.08033160778     Delta-E=       -0.000000000011 Rises=F Damp=F
 DIIS: error= 6.78D-08 at cycle  16 NSaved=  16.
 NSaved=16 IEnMin=16 EnMin= -2805.08033160778     IErMin=16 ErrMin= 6.78D-08
 ErrMax= 6.78D-08  0.00D+00 EMaxC= 1.00D-01 BMatC= 1.08D-12 BMatP= 4.29D-12
 IDIUse=1 WtCom= 1.00D+00 WtEn= 0.00D+00
 Coeff-Com:  0.413D-05-0.571D-05 0.523D-06 0.548D-06 0.501D-04 0.231D-03
 Coeff-Com: -0.102D-03-0.122D-02-0.204D-02 0.502D-02 0.659D-02-0.803D-02
 Coeff-Com: -0.609D-01-0.846D-01 0.477D+00 0.668D+00
 Coeff:      0.413D-05-0.571D-05 0.523D-06 0.548D-06 0.501D-04 0.231D-03
 Coeff:     -0.102D-03-0.122D-02-0.204D-02 0.502D-02 0.659D-02-0.803D-02
 Coeff:     -0.609D-01-0.846D-01 0.477D+00 0.668D+00
 Gap=     0.300 Goal=   None    Shift=    0.000
 Gap=     0.245 Goal=   None    Shift=    0.000
 RMSDP=2.45D-08 MaxDP=1.46D-06 DE=-1.14D-11 OVMax= 3.42D-07

 Cycle  17  Pass 1  IDiag  1:
 E= -2805.08033160778     Delta-E=        0.000000000005 Rises=F Damp=F
 DIIS: error= 1.66D-08 at cycle  17 NSaved=  17.
 NSaved=17 IEnMin=16 EnMin= -2805.08033160778     IErMin=17 ErrMin= 1.66D-08
 ErrMax= 1.66D-08  0.00D+00 EMaxC= 1.00D-01 BMatC= 7.26D-14 BMatP= 1.08D-12
 IDIUse=1 WtCom= 1.00D+00 WtEn= 0.00D+00
 Coeff-Com: -0.714D-06 0.977D-06-0.765D-06-0.406D-05-0.121D-04-0.431D-04
 Coeff-Com:  0.455D-04 0.277D-03 0.316D-03-0.140D-02-0.495D-03 0.447D-02
 Coeff-Com:  0.113D-01 0.400D-03-0.168D+00 0.390D-01 0.111D+01
 Coeff:     -0.714D-06 0.977D-06-0.765D-06-0.406D-05-0.121D-04-0.431D-04
 Coeff:      0.455D-04 0.277D-03 0.316D-03-0.140D-02-0.495D-03 0.447D-02
 Coeff:      0.113D-01 0.400D-03-0.168D+00 0.390D-01 0.111D+01
 Gap=     0.300 Goal=   None    Shift=    0.000
 Gap=     0.245 Goal=   None    Shift=    0.000
 RMSDP=1.24D-08 MaxDP=5.32D-07 DE= 4.55D-12 OVMax= 1.58D-07

 Cycle  18  Pass 1  IDiag  1:
 E= -2805.08033160777     Delta-E=        0.000000000001 Rises=F Damp=F
 DIIS: error= 3.26D-09 at cycle  18 NSaved=  18.
 NSaved=18 IEnMin=16 EnMin= -2805.08033160778     IErMin=18 ErrMin= 3.26D-09
 ErrMax= 3.26D-09  0.00D+00 EMaxC= 1.00D-01 BMatC= 4.46D-15 BMatP= 7.26D-14
 IDIUse=1 WtCom= 1.00D+00 WtEn= 0.00D+00
 Coeff-Com: -0.569D-07 0.902D-07 0.971D-07-0.482D-07-0.361D-05-0.176D-04
 Coeff-Com:  0.964D-05 0.864D-04 0.142D-03-0.377D-03-0.448D-03 0.775D-03
 Coeff-Com:  0.470D-02 0.394D-02-0.407D-01-0.340D-01 0.114D+00 0.952D+00
 Coeff:     -0.569D-07 0.902D-07 0.971D-07-0.482D-07-0.361D-05-0.176D-04
 Coeff:      0.964D-05 0.864D-04 0.142D-03-0.377D-03-0.448D-03 0.775D-03
 Coeff:      0.470D-02 0.394D-02-0.407D-01-0.340D-01 0.114D+00 0.952D+00
 Gap=     0.300 Goal=   None    Shift=    0.000
 Gap=     0.245 Goal=   None    Shift=    0.000
 RMSDP=2.81D-09 MaxDP=1.49D-07 DE= 1.36D-12 OVMax= 3.34D-08

 Error on total polarization charges =  0.02387
 SCF Done:  E(UM062X) =  -2805.08033161     A.U. after   18 cycles
            NFock= 18  Conv=0.28D-08     -V/T= 2.0015
 <Sx>= 0.0000 <Sy>= 0.0000 <Sz>= 0.5000 <S**2>= 0.7618 S= 0.5059
 <L.S>=  0.00000000000    
 KE= 2.800985012729D+03 PE=-7.526658641266D+03 EE= 1.501707963725D+03
 SMD-CDS (non-electrostatic) energy       (kcal/mol) =       2.21
 (included in total energy above)
 Annihilation of the first spin contaminant:
 S**2 before annihilation     0.7618,   after     0.7501
 Leave Link  502 at Mon Sep 28 02:01:03 2026, MaxMem=  1610612736 cpu:             183.5 elap:              24.4
 (Enter /share/software/user/restricted/gaussian/g16.B01/l601.exe)
 Copying SCF densities to generalized density rwf, IOpCl= 1 IROHF=0.

 **********************************************************************

            Population analysis using the SCF Density.

 **********************************************************************

 Orbital symmetries:
 Alpha Orbitals:
       Occupied  (A') (A') (A') (A") (A') (A') (A') (A') (A') (A')
                 (A') (A') (A') (A") (A') (A') (A") (A') (A') (A")
                 (A') (A') (A') (A') (A') (A') (A') (A') (A') (A')
                 (A") (A') (A') (A") (A') (A") (A') (A")
       Virtual   (A") (A') (A") (A') (A') (A') (A') (A") (A') (A')
                 (A') (A") (A') (A") (A') (A") (A') (A') (A") (A')
                 (A') (A") (A') (A") (A') (A') (A') (A') (A') (A")
                 (A') (A') (A') (A') (A') (A') (A') (A') (A') (A')
                 (A') (A') (A') (A') (A") (A') (A') (A') (A') (A")
                 (A') (A') (A") (A') (A") (A') (A") (A") (A') (A')
                 (A') (A") (A") (A') (A') (A') (A") (A') (A') (A')
                 (A') (A') (A') (A') (A') (A') (A') (A') (A') (A')
                 (A") (A') (A") (A') (A") (A") (A') (A") (A") (A')
                 (A') (A') (A') (A') (A') (A") (A') (A") (A') (A')
                 (A") (A") (A') (A") (A') (A") (A') (A') (A') (A')
                 (A') (A') (A") (A') (A') (A') (A') (A") (A') (A")
                 (A") (A') (A") (A") (A') (A") (A') (A') (A') (A')
                 (A') (A') (A') (A') (A') (A') (A') (A") (A') (A")
                 (A') (A') (A') (A') (A") (A') (A') (A') (A') (A')
                 (A') (A') (A') (A') (A") (A') (A') (A')
 Beta  Orbitals:
       Occupied  (A') (A') (A') (A") (A') (A') (A') (A') (A') (A')
                 (A') (A') (A') (A") (A') (A') (A") (A') (A') (A")
                 (A') (A') (A') (A') (A') (A') (A') (A') (A') (A')
                 (A") (A') (A') (A") (A') (A") (A")
       Virtual   (A') (A") (A') (A') (A") (A') (A') (A') (A") (A')
                 (A') (A') (A") (A") (A') (A') (A") (A') (A') (A')
                 (A") (A') (A") (A') (A") (A') (A') (A') (A') (A')
                 (A') (A") (A') (A') (A') (A') (A') (A') (A') (A')
                 (A') (A') (A') (A') (A') (A") (A') (A') (A') (A')
                 (A") (A') (A') (A") (A') (A") (A') (A") (A') (A")
                 (A') (A') (A") (A") (A') (A') (A') (A") (A') (A')
                 (A') (A') (A') (A') (A') (A') (A') (A') (A') (A')
                 (A') (A") (A') (A") (A') (A") (A") (A') (A") (A")
                 (A') (A') (A') (A') (A') (A') (A") (A") (A') (A')
                 (A') (A") (A") (A') (A") (A') (A") (A') (A') (A')
                 (A') (A') (A') (A") (A') (A') (A') (A') (A") (A')
                 (A") (A") (A') (A") (A") (A') (A") (A') (A') (A')
                 (A') (A') (A') (A') (A') (A') (A') (A') (A") (A')
                 (A") (A') (A') (A') (A') (A") (A') (A') (A') (A')
                 (A') (A') (A') (A') (A') (A") (A') (A') (A')
 The electronic state is 2-A'.
 Alpha  occ. eigenvalues -- -485.34388 -63.33589 -57.16336 -57.16081 -57.16072
 Alpha  occ. eigenvalues --  -10.61766 -10.57866 -10.56906 -10.56565 -10.56281
 Alpha  occ. eigenvalues --  -10.56136  -9.02329  -6.85135  -6.84101  -6.84077
 Alpha  occ. eigenvalues --   -2.88291  -2.87930  -2.87903  -2.86994  -2.86993
 Alpha  occ. eigenvalues --   -0.99240  -0.91634  -0.85831  -0.82544  -0.70039
 Alpha  occ. eigenvalues --   -0.67658  -0.59837  -0.54492  -0.52236  -0.50121
 Alpha  occ. eigenvalues --   -0.47304  -0.46494  -0.43038  -0.39122  -0.36066
 Alpha  occ. eigenvalues --   -0.32879  -0.30603  -0.30338
 Alpha virt. eigenvalues --   -0.00326   0.00363   0.00644   0.01633   0.01919
 Alpha virt. eigenvalues --    0.02534   0.04195   0.04674   0.05169   0.06538
 Alpha virt. eigenvalues --    0.07346   0.07940   0.09215   0.09370   0.10971
 Alpha virt. eigenvalues --    0.11890   0.13513   0.13583   0.13945   0.14170
 Alpha virt. eigenvalues --    0.14568   0.14979   0.15290   0.15950   0.15992
 Alpha virt. eigenvalues --    0.16124   0.17656   0.19007   0.19635   0.20943
 Alpha virt. eigenvalues --    0.21328   0.22095   0.24273   0.24931   0.25572
 Alpha virt. eigenvalues --    0.26229   0.26899   0.29723   0.30081   0.30828
 Alpha virt. eigenvalues --    0.34880   0.36330   0.37673   0.38285   0.44172
 Alpha virt. eigenvalues --    0.45811   0.48898   0.50702   0.51270   0.55322
 Alpha virt. eigenvalues --    0.57301   0.57799   0.57972   0.58462   0.59164
 Alpha virt. eigenvalues --    0.61587   0.62849   0.63660   0.63725   0.64061
 Alpha virt. eigenvalues --    0.64979   0.68484   0.69837   0.70398   0.74407
 Alpha virt. eigenvalues --    0.76306   0.76722   0.78426   0.78759   0.80320
 Alpha virt. eigenvalues --    0.84103   0.87490   0.87731   0.90751   0.91386
 Alpha virt. eigenvalues --    0.92501   0.94201   0.95781   0.98328   1.02068
 Alpha virt. eigenvalues --    1.04310   1.07865   1.10371   1.11639   1.22684
 Alpha virt. eigenvalues --    1.24319   1.26989   1.28583   1.33045   1.35625
 Alpha virt. eigenvalues --    1.51966   1.55803   1.56450   1.58633   1.76421
 Alpha virt. eigenvalues --    1.79220   1.80715   1.81087   1.83144   1.85632
 Alpha virt. eigenvalues --    1.91087   1.97274   1.98661   2.00125   2.01999
 Alpha virt. eigenvalues --    2.05680   2.06465   2.14781   2.22569   2.24214
 Alpha virt. eigenvalues --    2.30204   2.33880   2.34539   2.35528   2.48196
 Alpha virt. eigenvalues --    2.48654   2.58674   2.68782   2.71249   2.79797
 Alpha virt. eigenvalues --    2.81594   2.82568   2.92087   2.93589   3.00847
 Alpha virt. eigenvalues --    3.10208   3.15128   3.15638   3.29502   3.32412
 Alpha virt. eigenvalues --    3.35634   3.41059   3.54275   3.64256   3.70963
 Alpha virt. eigenvalues --    3.99421   4.00917   4.27837   4.32020   4.36812
 Alpha virt. eigenvalues --    4.51337   4.69555   4.73526   6.90624   7.63399
 Alpha virt. eigenvalues --    7.74709   7.82143  23.33793  23.87191  23.91294
 Alpha virt. eigenvalues --   24.06355  24.09986  24.23056  48.42216 290.77995
 Alpha virt. eigenvalues --  290.90146 291.006651020.99490
  Beta  occ. eigenvalues -- -485.34381 -63.33585 -57.16324 -57.16078 -57.16069
  Beta  occ. eigenvalues --  -10.61666 -10.56969 -10.56883 -10.56481 -10.56308
  Beta  occ. eigenvalues --  -10.56149  -9.02320  -6.85110  -6.84095  -6.84072
  Beta  occ. eigenvalues --   -2.88278  -2.87917  -2.87890  -2.86990  -2.86990
  Beta  occ. eigenvalues --   -0.98526  -0.91066  -0.84799  -0.82030  -0.69407
  Beta  occ. eigenvalues --   -0.65991  -0.59046  -0.53732  -0.51456  -0.49674
  Beta  occ. eigenvalues --   -0.46765  -0.44977  -0.42526  -0.38639  -0.35804
  Beta  occ. eigenvalues --   -0.32019  -0.30181
  Beta virt. eigenvalues --   -0.05693  -0.00373   0.00514   0.01706   0.01724
  Beta virt. eigenvalues --    0.02161   0.02889   0.04437   0.04810   0.05522
  Beta virt. eigenvalues --    0.07311   0.07450   0.07878   0.09215   0.09509
  Beta virt. eigenvalues --    0.11112   0.11961   0.13069   0.13745   0.13886
  Beta virt. eigenvalues --    0.14019   0.14187   0.14832   0.15199   0.16071
  Beta virt. eigenvalues --    0.16103   0.16227   0.17819   0.19346   0.19736
  Beta virt. eigenvalues --    0.21121   0.21732   0.21976   0.24588   0.25086
  Beta virt. eigenvalues --    0.25389   0.25981   0.27255   0.29976   0.30299
  Beta virt. eigenvalues --    0.31342   0.35487   0.36623   0.37799   0.38705
  Beta virt. eigenvalues --    0.44186   0.45794   0.49329   0.50766   0.51526
  Beta virt. eigenvalues --    0.55554   0.56163   0.57683   0.58127   0.58599
  Beta virt. eigenvalues --    0.59267   0.59350   0.62759   0.63670   0.63828
  Beta virt. eigenvalues --    0.64005   0.64938   0.68492   0.69801   0.71935
  Beta virt. eigenvalues --    0.74362   0.75669   0.76749   0.78374   0.78714
  Beta virt. eigenvalues --    0.80874   0.83615   0.87171   0.88042   0.90833
  Beta virt. eigenvalues --    0.91467   0.92195   0.94066   0.95257   0.98613
  Beta virt. eigenvalues --    1.02002   1.04796   1.08255   1.11397   1.11620
  Beta virt. eigenvalues --    1.23106   1.24420   1.26287   1.29922   1.34042
  Beta virt. eigenvalues --    1.37328   1.52602   1.56242   1.57276   1.59458
  Beta virt. eigenvalues --    1.77145   1.79881   1.81130   1.81765   1.83655
  Beta virt. eigenvalues --    1.86570   1.91149   1.97960   1.99700   2.00601
  Beta virt. eigenvalues --    2.02176   2.05799   2.06553   2.15006   2.22870
  Beta virt. eigenvalues --    2.24335   2.30752   2.34728   2.34927   2.36107
  Beta virt. eigenvalues --    2.48627   2.49069   2.59040   2.68925   2.72016
  Beta virt. eigenvalues --    2.80171   2.81643   2.83370   2.92290   2.93409
  Beta virt. eigenvalues --    3.03542   3.10276   3.15556   3.15992   3.29579
  Beta virt. eigenvalues --    3.32490   3.36057   3.41361   3.54556   3.64392
  Beta virt. eigenvalues --    3.71508   3.99785   4.01219   4.27881   4.32064
  Beta virt. eigenvalues --    4.36930   4.51440   4.69654   4.73705   6.90606
  Beta virt. eigenvalues --    7.63398   7.74713   7.82151  23.33910  23.87370
  Beta virt. eigenvalues --   23.91331  24.06340  24.10061  24.23728  48.42214
  Beta virt. eigenvalues --  290.78001 290.90151 291.006891020.99498
          Condensed to atoms (all electrons):
               1          2          3          4          5          6
     1  C    6.893711  -1.280498   1.416085  -2.056253   1.708055  -1.167596
     2  C   -1.280498   8.424080  -1.958417   1.636677  -2.025652   1.548265
     3  C    1.416085  -1.958417   8.681798  -2.604473   1.970133  -1.729661
     4  C   -2.056253   1.636677  -2.604473   9.494091  -2.421913   2.150166
     5  C    1.708055  -2.025652   1.970133  -2.421913   8.446507  -2.014550
     6  C   -1.167596   1.548265  -1.729661   2.150166  -2.014550   7.695691
     7  H    0.058685   0.240689  -0.004692  -0.002269   0.014357  -0.022982
     8  Br   0.119610  -0.083409   0.065495  -0.092936   0.141065  -0.010723
     9  H   -0.001400   0.017459  -0.052993   0.302570   0.001349   0.019939
    10  H    0.027076  -0.034029   0.053158  -0.079105   0.362642  -0.042708
    11  H    0.008371  -0.023123   0.012160   0.003679   0.004110   0.304101
               7          8          9         10         11
     1  C    0.058685   0.119610  -0.001400   0.027076   0.008371
     2  C    0.240689  -0.083409   0.017459  -0.034029  -0.023123
     3  C   -0.004692   0.065495  -0.052993   0.053158   0.012160
     4  C   -0.002269  -0.092936   0.302570  -0.079105   0.003679
     5  C    0.014357   0.141065   0.001349   0.362642   0.004110
     6  C   -0.022982  -0.010723   0.019939  -0.042708   0.304101
     7  H    0.352964  -0.022801   0.000063   0.000421  -0.000171
     8  Br  -0.022801  35.120118  -0.029530   0.003892  -0.000311
     9  H    0.000063  -0.029530   0.351055  -0.003260   0.000751
    10  H    0.000421   0.003892  -0.003260   0.338451   0.003741
    11  H   -0.000171  -0.000311   0.000751   0.003741   0.342920
          Atomic-Atomic Spin Densities.
               1          2          3          4          5          6
     1  C    1.074760  -0.049238  -0.051551   0.001807   0.010971  -0.203328
     2  C   -0.049238   0.067130  -0.041417  -0.022141  -0.061882   0.145244
     3  C   -0.051551  -0.041417   0.115264   0.052807   0.010535  -0.029923
     4  C    0.001807  -0.022141   0.052807  -0.077025  -0.010219   0.046357
     5  C    0.010971  -0.061882   0.010535  -0.010219   0.116244  -0.044991
     6  C   -0.203328   0.145244  -0.029923   0.046357  -0.044991   0.143866
     7  H   -0.000570   0.024972  -0.022909  -0.004660  -0.000996  -0.003791
     8  Br   0.004035   0.008804  -0.023304   0.000460  -0.000977  -0.005516
     9  H    0.002691  -0.004532   0.006613  -0.005274   0.004262  -0.002603
    10  H    0.002664   0.001138  -0.000779   0.006937  -0.008018  -0.005400
    11  H   -0.011401   0.000594  -0.001860   0.002296  -0.007961   0.019461
               7          8          9         10         11
     1  C   -0.000570   0.004035   0.002691   0.002664  -0.011401
     2  C    0.024972   0.008804  -0.004532   0.001138   0.000594
     3  C   -0.022909  -0.023304   0.006613  -0.000779  -0.001860
     4  C   -0.004660   0.000460  -0.005274   0.006937   0.002296
     5  C   -0.000996  -0.000977   0.004262  -0.008018  -0.007961
     6  C   -0.003791  -0.005516  -0.002603  -0.005400   0.019461
     7  H    0.031203   0.004323  -0.000241   0.000092   0.000075
     8  Br   0.004323   0.028216   0.000179   0.000011  -0.000054
     9  H   -0.000241   0.000179   0.000687  -0.000150  -0.000046
    10  H    0.000092   0.000011  -0.000150   0.010573   0.001145
    11  H    0.000075  -0.000054  -0.000046   0.001145   0.023598
 Mulliken charges and spin densities:
               1          2
     1  C    0.274155   0.780841
     2  C   -0.462041   0.068670
     3  C    0.151407   0.013475
     4  C   -0.330235  -0.008656
     5  C   -0.186104   0.006969
     6  C   -0.729941   0.059377
     7  H    0.385736   0.027498
     8  Br  -0.210469   0.016177
     9  H    0.393997   0.001587
    10  H    0.369721   0.008213
    11  H    0.343774   0.025849
 Sum of Mulliken charges =  -0.00000   1.00000
 Mulliken charges and spin densities with hydrogens summed into heavy atoms:
               1          2
     1  C    0.274155   0.780841
     2  C   -0.076305   0.096168
     3  C    0.151407   0.013475
     4  C    0.063762  -0.007069
     5  C    0.183617   0.015182
     6  C   -0.386168   0.085226
     8  Br  -0.210469   0.016177
 Electronic spatial extent (au):  <R**2>=           1182.6015
 Charge=             -0.0000 electrons
 Dipole moment (field-independent basis, Debye):
    X=              1.6922    Y=              1.2048    Z=             -0.0000  Tot=              2.0772
 Quadrupole moment (field-independent basis, Debye-Ang):
   XX=            -45.5134   YY=            -50.5052   ZZ=            -57.6548
   XY=              2.9950   XZ=             -0.0000   YZ=             -0.0000
 Traceless Quadrupole moment (field-independent basis, Debye-Ang):
   XX=              5.7111   YY=              0.7192   ZZ=             -6.4303
   XY=              2.9950   XZ=             -0.0000   YZ=             -0.0000
 Octapole moment (field-independent basis, Debye-Ang**2):
  XXX=             -8.2912  YYY=            -46.4070  ZZZ=              0.0000  XYY=              5.7502
  XXY=             -8.5293  XXZ=              0.0000  XZZ=            -10.1302  YZZ=            -24.1401
  YYZ=             -0.0000  XYZ=             -0.0000
 Hexadecapole moment (field-independent basis, Debye-Ang**3):
 XXXX=           -376.2924 YYYY=           -904.6622 ZZZZ=            -70.2095 XXXY=           -135.5446
 XXXZ=              0.0000 YYYX=            -89.4315 YYYZ=              0.0000 ZZZX=              0.0000
 ZZZY=              0.0000 XXYY=           -206.3967 XXZZ=            -94.0803 YYZZ=           -192.1833
 XXYZ=              0.0000 YYXZ=             -0.0000 ZZXY=            -56.9933
 N-N= 4.188853332042D+02 E-N=-7.526658640533D+03  KE= 2.800985012729D+03
 Symmetry A'   KE= 2.417552742331D+03
 Symmetry A"   KE= 3.834322703978D+02
 Symmetry A'   SP= 9.999999999999D-01
 Symmetry A"   SP= 3.594270703380D-14
                          Isotropic Fermi Contact Couplings
        Atom                 a.u.       MegaHertz       Gauss      10(-4) cm-1
     1  C(13)              0.40717     457.73228     163.33026     152.68305
     2  C(13)              0.01333      14.99051       5.34899       5.00029
     3  C(13)              0.06747      75.85006      27.06519      25.30086
     4  C(13)             -0.00821      -9.22500      -3.29171      -3.07713
     5  C(13)              0.05243      58.93787      21.03050      19.65956
     6  C(13)              0.00912      10.25016       3.65751       3.41909
     7  H(1)               0.01283      57.33155      20.45732      19.12375
     8  Br(79)             0.01228      13.80043       4.92434       4.60333
     9  H(1)               0.00078       3.50707       1.25141       1.16983
    10  H(1)               0.00370      16.54573       5.90393       5.51906
    11  H(1)               0.01165      52.09059      18.58722      17.37555
 --------------------------------------------------------
       Center         ----  Spin Dipole Couplings  ----
                      3XX-RR        3YY-RR        3ZZ-RR
 --------------------------------------------------------
     1   Atom        0.010407      0.389085     -0.399492
     2   Atom        0.002678      0.092259     -0.094937
     3   Atom        0.005609     -0.001150     -0.004458
     4   Atom        0.023870      0.027647     -0.051518
     5   Atom        0.004522      0.007375     -0.011897
     6   Atom        0.106172     -0.007006     -0.099166
     7   Atom        0.004712      0.007198     -0.011910
     8   Atom       -0.112891      0.176053     -0.063162
     9   Atom        0.000949      0.001524     -0.002473
    10   Atom        0.010000     -0.004571     -0.005429
    11   Atom        0.015461     -0.003340     -0.012121
 --------------------------------------------------------
                        XY            XZ            YZ
 --------------------------------------------------------
     1   Atom       -0.742334      0.000000     -0.000000
     2   Atom        0.029419     -0.000000     -0.000000
     3   Atom       -0.037489      0.000000     -0.000000
     4   Atom       -0.006844      0.000000     -0.000000
     5   Atom       -0.047995     -0.000000     -0.000000
     6   Atom       -0.009014      0.000000      0.000000
     7   Atom        0.016397     -0.000000     -0.000000
     8   Atom        0.014750      0.000000     -0.000000
     9   Atom       -0.000159      0.000000     -0.000000
    10   Atom       -0.001091     -0.000000     -0.000000
    11   Atom        0.013630     -0.000000     -0.000000
 --------------------------------------------------------


 ---------------------------------------------------------------------------------
              Anisotropic Spin Dipole Couplings in Principal Axis System
 ---------------------------------------------------------------------------------

       Atom             a.u.   MegaHertz   Gauss  10(-4) cm-1        Axes

              Baa    -0.5664   -75.999   -27.118   -25.351  0.7897  0.6135  0.0000
     1 C(13)  Bbb    -0.3995   -53.608   -19.129   -17.882  0.0000  0.0000  1.0000
              Bcc     0.9658   129.607    46.247    43.232 -0.6135  0.7897 -0.0000
 
              Baa    -0.0949   -12.740    -4.546    -4.249  0.0000  0.0000  1.0000
     2 C(13)  Bbb    -0.0061    -0.821    -0.293    -0.274  0.9581 -0.2865 -0.0000
              Bcc     0.1011    13.561     4.839     4.523  0.2865  0.9581 -0.0000
 
              Baa    -0.0354    -4.752    -1.696    -1.585  0.6746  0.7382  0.0000
     3 C(13)  Bbb    -0.0045    -0.598    -0.213    -0.200  0.0000  0.0000  1.0000
              Bcc     0.0399     5.350     1.909     1.785  0.7382 -0.6746  0.0000
 
              Baa    -0.0515    -6.913    -2.467    -2.306  0.0000  0.0000  1.0000
     4 C(13)  Bbb     0.0187     2.504     0.893     0.835  0.7956  0.6058 -0.0000
              Bcc     0.0329     4.409     1.573     1.471 -0.6058  0.7956 -0.0000
 
              Baa    -0.0421    -5.645    -2.014    -1.883  0.7175  0.6965 -0.0000
     5 C(13)  Bbb    -0.0119    -1.596    -0.570    -0.533  0.0000  0.0000  1.0000
              Bcc     0.0540     7.242     2.584     2.416 -0.6965  0.7175  0.0000
 
              Baa    -0.0992   -13.307    -4.748    -4.439  0.0000  0.0000  1.0000
     6 C(13)  Bbb    -0.0077    -1.036    -0.370    -0.346  0.0789  0.9969 -0.0000
              Bcc     0.1069    14.343     5.118     4.784  0.9969 -0.0789 -0.0000
 
              Baa    -0.0119    -6.355    -2.268    -2.120  0.0000  0.0000  1.0000
     7 H(1)   Bbb    -0.0105    -5.596    -1.997    -1.867  0.7333 -0.6799 -0.0000
              Bcc     0.0224    11.951     4.264     3.986  0.6799  0.7333 -0.0000
 
              Baa    -0.1136   -15.244    -5.439    -5.085  0.9987 -0.0509  0.0000
     8 Br(79) Bbb    -0.0632    -8.472    -3.023    -2.826  0.0000  0.0000  1.0000
              Bcc     0.1768    23.716     8.462     7.911  0.0509  0.9987 -0.0000
 
              Baa    -0.0025    -1.319    -0.471    -0.440  0.0000  0.0000  1.0000
     9 H(1)   Bbb     0.0009     0.484     0.173     0.162  0.9684  0.2495  0.0000
              Bcc     0.0016     0.835     0.298     0.279 -0.2495  0.9684 -0.0000
 
              Baa    -0.0054    -2.897    -1.034    -0.966  0.0000  0.0000  1.0000
    10 H(1)   Bbb    -0.0047    -2.482    -0.886    -0.828  0.0742  0.9972 -0.0000
              Bcc     0.0101     5.379     1.919     1.794  0.9972 -0.0742 -0.0000
 
              Baa    -0.0121    -6.467    -2.308    -2.157  0.0000  0.0000  1.0000
    11 H(1)   Bbb    -0.0105    -5.601    -1.999    -1.868 -0.4649  0.8854 -0.0000
              Bcc     0.0226    12.068     4.306     4.025  0.8854  0.4649 -0.0000
 

 ---------------------------------------------------------------------------------

 No NMR shielding tensors so no spin-rotation constants.
 Leave Link  601 at Mon Sep 28 02:01:03 2026, MaxMem=  1610612736 cpu:               1.1 elap:               0.1
 (Enter /share/software/user/restricted/gaussian/g16.B01/l701.exe)
 ... and contract with generalized density number  0.
 Compute integral first derivatives.
 D1PCM: PCM CHGder 1st derivatives, ID1Alg=3 FixD1E=F DoIter=F DoCFld=F I1PDM=0.
 GePol: Maximum number of non-zero 1st derivatives   =     539
 Leave Link  701 at Mon Sep 28 02:01:03 2026, MaxMem=  1610612736 cpu:               2.8 elap:               0.4
 (Enter /share/software/user/restricted/gaussian/g16.B01/l702.exe)
 L702 exits ... SP integral derivatives will be done elsewhere.
 Leave Link  702 at Mon Sep 28 02:01:03 2026, MaxMem=  1610612736 cpu:               0.2 elap:               0.0
 (Enter /share/software/user/restricted/gaussian/g16.B01/l703.exe)
 Integral derivatives from FoFJK, PRISM(SPDF).
 Compute integral first derivatives, UseDBF=F ICtDFT=           0.
 Calling FoFJK, ICntrl=      2127 FMM=F ISym2X=1 I1Cent= 0 IOpClX= 1 NMat=1 NMatS=1 NMatT=0.
 FoFJK:  IHMeth= 1 ICntrl=    2127 DoSepK=F KAlg= 0 I1Cent=           0 FoldK=F
 IRaf=         0 NMat=       1 IRICut=       1 DoRegI=T DoRafI=F ISym2E= 1 IDoP0=0 IntGTp=1.
 FoFCou: FMM=F IPFlag=           0 FMFlag=      100000 FMFlg1=         800
         NFxFlg=           0 DoJE=F BraDBF=F KetDBF=F FulRan=T
         wScrn=  0.000000 ICntrl=      2127 IOpCl=  1 I1Cent=           0 NGrid=           0
         NMat0=    1 NMatS0=      1 NMatT0=    0 NMatD0=    1 NMtDS0=    0 NMtDT0=    0
 Petite list used in FoFCou.
 Leave Link  703 at Mon Sep 28 02:01:06 2026, MaxMem=  1610612736 cpu:              20.2 elap:               2.5
 (Enter /share/software/user/restricted/gaussian/g16.B01/l716.exe)
 Dipole        = 6.65750411D-01 4.74002652D-01-7.88527750D-32
 ***** Axes restored to original set *****
 -------------------------------------------------------------------
 Center     Atomic                   Forces (Hartrees/Bohr)
 Number     Number              X              Y              Z
 -------------------------------------------------------------------
      1        6          -0.000022293    0.010417365    0.000000000
      2        6           0.004597320   -0.009237815    0.000000000
      3        6          -0.024721922    0.015369390   -0.000000000
      4        6           0.002401234   -0.009152496   -0.000000000
      5        6          -0.001004473    0.001636616   -0.000000000
      6        6          -0.001392415   -0.007718392    0.000000000
      7        1          -0.007099124   -0.005700943   -0.000000000
      8       35           0.010462559   -0.006413826   -0.000000000
      9        1           0.000752075    0.011746500   -0.000000000
     10        1           0.008984272    0.004072854    0.000000000
     11        1           0.007042768   -0.005019252    0.000000000
 -------------------------------------------------------------------
 Cartesian Forces:  Max     0.024721922 RMS     0.007305592
 Leave Link  716 at Mon Sep 28 02:01:06 2026, MaxMem=  1610612736 cpu:               0.2 elap:               0.0
 (Enter /share/software/user/restricted/gaussian/g16.B01/l103.exe)

 GradGradGradGradGradGradGradGradGradGradGradGradGradGradGradGradGradGrad
 Berny optimization.
 FormGI is forming the generalized inverse of G from B-inverse, IUseBI=4.
 Internal  Forces:  Max     0.012315463 RMS     0.005037702
 Search for a local minimum.
 Step number   1 out of a maximum of   57
 All quantities printed in internal units (Hartrees-Bohrs-Radians)
 RMS Force = .50377D-02 SwitMx=.10000D-02 MixMth= 1
 Mixed Optimization -- RFO/linear search
 Second derivative matrix not updated -- first step.
 ITU=  0
     Eigenvalues ---    0.01959   0.01994   0.02014   0.02035   0.02046
     Eigenvalues ---    0.02105   0.02161   0.02400   0.16000   0.16000
     Eigenvalues ---    0.16000   0.16000   0.19971   0.22000   0.23269
     Eigenvalues ---    0.23488   0.25000   0.33530   0.33805   0.33977
     Eigenvalues ---    0.34115   0.40832   0.42360   0.43961   0.44816
     Eigenvalues ---    0.49158   0.50484
 RFO step:  Lambda=-3.81504162D-03 EMin= 1.95940478D-02
 Linear search not attempted -- first point.
 Iteration  1 RMS(Cart)=  0.01913490 RMS(Int)=  0.00016704
 Iteration  2 RMS(Cart)=  0.00025260 RMS(Int)=  0.00003092
 Iteration  3 RMS(Cart)=  0.00000003 RMS(Int)=  0.00003092
 ITry= 1 IFail=0 DXMaxC= 5.61D-02 DCOld= 1.00D+10 DXMaxT= 3.00D-01 DXLimC= 3.00D+00 Rises=F
 ClnCor:  largest displacement from symmetrization is 2.37D-12 for atom    11.
 Variable       Old X    -DE/DX   Delta X   Delta X   Delta X     New X
                                 (Linear)    (Quad)   (Total)
    R1        2.58923  -0.00115   0.00000  -0.00176  -0.00171   2.58753
    R2        2.59051  -0.00063   0.00000  -0.00065  -0.00062   2.58989
    R3        2.66897  -0.01034   0.00000  -0.02364  -0.02362   2.64535
    R4        2.07368  -0.00904   0.00000  -0.02632  -0.02632   2.04736
    R5        2.65857  -0.01232   0.00000  -0.02808  -0.02811   2.63046
    R6        3.52783   0.01227   0.00000   0.06029   0.06029   3.58812
    R7        2.64907  -0.00945   0.00000  -0.02119  -0.02124   2.62783
    R8        2.08130  -0.01175   0.00000  -0.03466  -0.03466   2.04664
    R9        2.66124  -0.00694   0.00000  -0.01540  -0.01542   2.64581
   R10        2.07661  -0.00981   0.00000  -0.02868  -0.02868   2.04793
   R11        2.07137  -0.00863   0.00000  -0.02502  -0.02502   2.04636
    A1        2.25864  -0.01125   0.00000  -0.04224  -0.04214   2.21651
    A2        2.00293   0.00292   0.00000   0.01322   0.01328   2.01622
    A3        2.13961  -0.00037   0.00000   0.00003   0.00000   2.13961
    A4        2.14064  -0.00255   0.00000  -0.01325  -0.01328   2.12736
    A5        2.08924   0.00571   0.00000   0.02058   0.02056   2.10980
    A6        2.09467  -0.00248   0.00000  -0.00880  -0.00879   2.08587
    A7        2.09928  -0.00323   0.00000  -0.01178  -0.01177   2.08751
    A8        2.11825  -0.00385   0.00000  -0.02014  -0.02023   2.09803
    A9        2.08913   0.00125   0.00000   0.00594   0.00598   2.09512
   A10        2.07580   0.00260   0.00000   0.01420   0.01425   2.09004
   A11        2.09643   0.00193   0.00000   0.00728   0.00721   2.10363
   A12        2.09256  -0.00209   0.00000  -0.01049  -0.01045   2.08211
   A13        2.09420   0.00016   0.00000   0.00321   0.00324   2.09744
   A14        2.00088   0.00454   0.00000   0.02131   0.02131   2.02219
   A15        2.14648  -0.00168   0.00000  -0.00704  -0.00704   2.13944
   A16        2.13582  -0.00286   0.00000  -0.01426  -0.01427   2.12156
    D1       -0.00000  -0.00000   0.00000  -0.00000   0.00000   0.00000
    D2        3.14159   0.00000   0.00000  -0.00000   0.00000   3.14159
    D3        0.00000   0.00000   0.00000   0.00000  -0.00000   0.00000
    D4        3.14159   0.00000   0.00000   0.00000   0.00000   3.14159
    D5        0.00000  -0.00000   0.00000   0.00000  -0.00000   0.00000
    D6        3.14159  -0.00000   0.00000  -0.00000   0.00000   3.14159
    D7        3.14159  -0.00000   0.00000   0.00000   0.00000   3.14159
    D8        0.00000  -0.00000   0.00000  -0.00000   0.00000   0.00000
    D9        0.00000  -0.00000   0.00000  -0.00000   0.00000   0.00000
   D10        3.14159  -0.00000   0.00000  -0.00000   0.00000   3.14159
   D11        3.14159   0.00000   0.00000   0.00000   0.00000   3.14159
   D12        0.00000   0.00000   0.00000   0.00000  -0.00000   0.00000
   D13        0.00000   0.00000   0.00000  -0.00000   0.00000   0.00000
   D14        3.14159  -0.00000   0.00000  -0.00000   0.00000   3.14159
   D15        3.14159   0.00000   0.00000   0.00000   0.00000   3.14159
   D16       -0.00000   0.00000   0.00000  -0.00000   0.00000   0.00000
   D17       -0.00000   0.00000   0.00000   0.00000   0.00000   0.00000
   D18        3.14159   0.00000   0.00000   0.00000   0.00000   3.14159
   D19        3.14159  -0.00000   0.00000   0.00000   0.00000   3.14159
   D20       -0.00000  -0.00000   0.00000   0.00000   0.00000   0.00000
         Item               Value     Threshold  Converged?
 Maximum Force            0.012315     0.000450     NO 
 RMS     Force            0.005038     0.000300     NO 
 Maximum Displacement     0.056121     0.001800     NO 
 RMS     Displacement     0.019188     0.001200     NO 
 Predicted change in Energy=-1.932674D-03
 Lowest energy point so far.  Saving SCF results.
 GradGradGradGradGradGradGradGradGradGradGradGradGradGradGradGradGradGrad

 Leave Link  103 at Mon Sep 28 02:01:06 2026, MaxMem=  1610612736 cpu:               0.1 elap:               0.0
 (Enter /share/software/user/restricted/gaussian/g16.B01/l202.exe)
                          Input orientation:                          
 ---------------------------------------------------------------------
 Center     Atomic      Atomic             Coordinates (Angstroms)
 Number     Number       Type             X           Y           Z
 ---------------------------------------------------------------------
      1          6           0        0.002075    1.318804   -0.000000
      2          6           0        1.228008    0.708916   -0.000000
      3          6           0        1.205305   -0.690757   -0.000000
      4          6           0       -0.000749   -1.385766   -0.000000
      5          6           0       -1.206989   -0.693868   -0.000000
      6          6           0       -1.223870    0.706135   -0.000000
      7          1           0        2.157070    1.266259   -0.000000
      8         35           0        2.842316   -1.652762    0.000000
      9          1           0       -0.002411   -2.468802   -0.000000
     10          1           0       -2.137226   -1.249841   -0.000000
     11          1           0       -2.153390    1.261681   -0.000000
 ---------------------------------------------------------------------
                    Distance matrix (angstroms):
                    1          2          3          4          5
     1  C    0.000000
     2  C    1.369260   0.000000
     3  C    2.342243   1.399857   0.000000
     4  C    2.704572   2.428484   1.391978   0.000000
     5  C    2.347911   2.810162   2.412297   1.390590   0.000000
     6  C    1.370512   2.451879   2.802178   2.423237   1.400105
     7  H    2.155636   1.083415   2.176182   3.418980   3.893455
     8  Br   4.110617   2.860684   1.898752   2.855574   4.161292
     9  H    3.787609   3.407612   2.149424   1.083037   2.145087
    10  H    3.342835   3.893780   3.388966   2.140796   1.083718
    11  H    2.156222   3.426280   3.884951   3.412161   2.172520
                    6          7          8          9         10
     6  C    0.000000
     7  H    3.427024   0.000000
     8  Br   4.700879   2.998374   0.000000
     9  H    3.401792   4.314399   2.959459   0.000000
    10  H    2.158717   4.977121   4.995817   2.458312   0.000000
    11  H    1.082885   4.310463   5.783689   4.306183   2.511573
                   11
    11  H    0.000000
 Stoichiometry    C6H4Br(2)
 Framework group  CS[SG(C6H4Br)]
 Deg. of freedom    19
 Full point group                 CS      NOp   2
 RotChk:  IX=0 Diff= 1.52D-01
 Largest Abelian subgroup         CS      NOp   2
 Largest concise Abelian subgroup C1      NOp   1
                         Standard orientation:                         
 ---------------------------------------------------------------------
 Center     Atomic      Atomic             Coordinates (Angstroms)
 Number     Number       Type             X           Y           Z
 ---------------------------------------------------------------------
      1          6           0       -0.494281    2.425520   -0.000000
      2          6           0       -0.972828    1.142607   -0.000000
      3          6           0        0.000000    0.136025    0.000000
      4          6           0        1.355531    0.452475    0.000000
      5          6           0        1.763669    1.781822    0.000000
      6          6           0        0.819520    2.815687    0.000000
      7          1           0       -2.032037    0.914867   -0.000000
      8         35           0       -0.538167   -1.684863   -0.000000
      9          1           0        2.096670   -0.337260    0.000000
     10          1           0        2.822799    2.011364    0.000000
     11          1           0        1.118743    3.856410    0.000000
 ---------------------------------------------------------------------
 Rotational constants (GHZ):           6.1377786           1.0049294           0.8635428
 Leave Link  202 at Mon Sep 28 02:01:06 2026, MaxMem=  1610612736 cpu:               0.1 elap:               0.0
 (Enter /share/software/user/restricted/gaussian/g16.B01/l301.exe)
 Standard basis: 6-311++G(d) (5D, 7F)
 Ernie: Thresh=  0.10000D-02 Tol=  0.10000D-05 Strict=F.
 There are   155 symmetry adapted cartesian basis functions of A'  symmetry.
 There are    50 symmetry adapted cartesian basis functions of A"  symmetry.
 There are   146 symmetry adapted basis functions of A'  symmetry.
 There are    50 symmetry adapted basis functions of A"  symmetry.
   196 basis functions,   334 primitive gaussians,   205 cartesian basis functions
    38 alpha electrons       37 beta electrons
       nuclear repulsion energy       418.8200486280 Hartrees.
 IExCor= 4336 DFT=T Ex+Corr=M062X ExCW=0 ScaHFX=  0.540000
 ScaDFX=  1.000000  1.000000  1.000000  1.000000 ScalE2=  1.000000  1.000000
 IRadAn=      5 IRanWt=     -1 IRanGd=            0 ICorTp=0 IEmpDi=  4
 NAtoms=   11 NActive=   11 NUniq=   11 SFac= 1.00D+00 NAtFMM=   60 NAOKFM=F Big=F
 Integral buffers will be    131072 words long.
 Raffenetti 2 integral format.
 Two-electron integral symmetry is turned on.
 ------------------------------------------------------------------------------
 Polarizable Continuum Model (PCM)
 =================================
 Model                : PCM.
 Atomic radii         : SMD-Coulomb.
 Polarization charges : Total charges.
 Charge compensation  : None.
 Solution method      : On-the-fly selection.
 Cavity type          : VdW (van der Waals Surface) (Alpha=1.000).
 Cavity algorithm     : GePol (No added spheres)
                        Default sphere list used, NSphG=   11.
                        Lebedev-Laikov grids with approx.  5.0 points / Ang**2.
                        Smoothing algorithm: York/Karplus (Gamma=1.0000).
                        Polarization charges: spherical gaussians, with
                                              point-specific exponents (IZeta= 3).
                        Self-potential: point-specific (ISelfS= 7).
                        Self-field    : sphere-specific E.n sum rule (ISelfD= 2).
 1st derivatives      : Analytical E(r).r(x)/FMM algorithm (CHGder, D1EAlg=3).
                        Cavity 1st derivative terms included.
 Solvent              : Water, Eps=  78.355300 Eps(inf)=   1.777849
 ------------------------------------------------------------------------------
 Spheres list:
 ISph  on   Nord     Re0    Alpha      Xe            Ye            Ze
    1   C      1    1.8500  1.000     -0.494281      2.425520      0.000000
    2   C      2    1.8500  1.000     -0.972828      1.142607     -0.000000
    3   C      3    1.8500  1.000      0.000000      0.136025     -0.000000
    4   C      4    1.8500  1.000      1.355531      0.452475      0.000000
    5   C      5    1.8500  1.000      1.763669      1.781822     -0.000000
    6   C      6    1.8500  1.000      0.819520      2.815687      0.000000
    7   H      7    1.2000  1.000     -2.032037      0.914867     -0.000000
    8  Br      8    3.0600  1.000     -0.538167     -1.684863      0.000000
    9   H      9    1.2000  1.000      2.096670     -0.337260      0.000000
   10   H     10    1.2000  1.000      2.822799      2.011364      0.000000
   11   H     11    1.2000  1.000      1.118743      3.856410      0.000000
 ------------------------------------------------------------------------------
 GePol: Number of generator spheres                  =      11
 GePol: Total number of spheres                      =      11
 GePol: Number of exposed spheres                    =      11 (100.00%)
 GePol: Number of points                             =    1245
 GePol: Average weight of points                     =       0.14
 GePol: Minimum weight of points                     =   0.58D-08
 GePol: Maximum weight of points                     =    0.22025
 GePol: Number of points with low weight             =      41
 GePol: Fraction of low-weight points (<1% of avg)   =       3.29%
 GePol: Cavity surface area                          =    174.781 Ang**2
 GePol: Cavity volume                                =    181.893 Ang**3
 ------------------------------------------------------------------------------
 Atomic radii for non-electrostatic terms: SMD-CDS.
 ------------------------------------------------------------------------------
 PCM non-electrostatic energy =         0.0034556831 Hartrees.
 Nuclear repulsion after PCM non-electrostatic terms =      418.8235043111 Hartrees.
 Leave Link  301 at Mon Sep 28 02:01:06 2026, MaxMem=  1610612736 cpu:               0.2 elap:               0.0
 (Enter /share/software/user/restricted/gaussian/g16.B01/l302.exe)
 NPDir=0 NMtPBC=     1 NCelOv=     1 NCel=       1 NClECP=     1 NCelD=      1
         NCelK=      1 NCelE2=     1 NClLst=     1 CellRange=     0.0.
 One-electron integrals computed using PRISM.
 One-electron integral symmetry used in STVInt
 NBasis=   196 RedAO= T EigKep=  1.77D-06  NBF=   146    50
 NBsUse=   196 1.00D-06 EigRej= -1.00D+00 NBFU=   146    50
 Precomputing XC quadrature grid using
 IXCGrd= 4 IRadAn=           5 IRanWt=          -1 IRanGd=           0 AccXCQ= 0.00D+00.
 Generated NRdTot=       0 NPtTot=           0 NUsed=           0 NTot=          32
 NSgBfM=   205   205   205   205   205 MxSgAt=    11 MxSgA2=    11.
 Leave Link  302 at Mon Sep 28 02:01:06 2026, MaxMem=  1610612736 cpu:               0.7 elap:               0.1
 (Enter /share/software/user/restricted/gaussian/g16.B01/l303.exe)
 DipDrv:  MaxL=1.
 Leave Link  303 at Mon Sep 28 02:01:06 2026, MaxMem=  1610612736 cpu:               0.3 elap:               0.1
 (Enter /share/software/user/restricted/gaussian/g16.B01/l401.exe)
 Initial guess from the checkpoint file:  "calcs/m062x_smd/chks/BrPh_3_rad.chk"
 B after Tr=     0.000000    0.000000    0.000000
         Rot=    0.998531    0.000000   -0.000000   -0.054181 Ang=  -6.21 deg.
 Guess basis will be translated and rotated to current coordinates.
 JPrj=2 DoOrth=T DoCkMO=T.
 Initial guess orbital symmetries:
 Alpha Orbitals:
       Occupied  (A') (A') (A') (A") (A') (A') (A') (A') (A') (A')
                 (A') (A') (A') (A") (A') (A') (A") (A') (A') (A")
                 (A') (A') (A') (A') (A') (A') (A') (A') (A') (A')
                 (A") (A') (A') (A") (A') (A") (A') (A")
       Virtual   (A") (A') (A") (A') (A') (A') (A') (A") (A') (A')
                 (A') (A") (A') (A") (A') (A") (A') (A') (A") (A')
                 (A') (A") (A') (A") (A') (A') (A') (A') (A') (A")
                 (A') (A') (A') (A') (A') (A') (A') (A') (A') (A')
                 (A') (A') (A') (A') (A") (A') (A') (A') (A') (A")
                 (A') (A') (A") (A') (A") (A') (A") (A") (A') (A')
                 (A') (A") (A") (A') (A') (A') (A") (A') (A') (A')
                 (A') (A') (A') (A') (A') (A') (A') (A') (A') (A')
                 (A") (A') (A") (A') (A") (A") (A') (A") (A") (A')
                 (A') (A') (A') (A') (A') (A") (A') (A") (A') (A')
                 (A") (A") (A') (A") (A') (A") (A') (A') (A') (A')
                 (A') (A') (A") (A') (A') (A') (A') (A") (A') (A")
                 (A") (A') (A") (A") (A') (A") (A') (A') (A') (A')
                 (A') (A') (A') (A') (A') (A') (A') (A") (A') (A")
                 (A') (A') (A') (A') (A") (A') (A') (A') (A') (A')
                 (A') (A') (A') (A') (A") (A') (A') (A')
 Beta  Orbitals:
       Occupied  (A') (A') (A') (A") (A') (A') (A') (A') (A') (A')
                 (A') (A') (A') (A") (A') (A') (A") (A') (A') (A")
                 (A') (A') (A') (A') (A') (A') (A') (A') (A') (A')
                 (A") (A') (A') (A") (A') (A") (A")
       Virtual   (A') (A") (A') (A') (A") (A') (A') (A') (A") (A')
                 (A') (A') (A") (A") (A') (A') (A") (A') (A') (A')
                 (A") (A') (A") (A') (A") (A') (A') (A') (A') (A')
                 (A') (A") (A') (A') (A') (A') (A') (A') (A') (A')
                 (A') (A') (A') (A') (A') (A") (A') (A') (A') (A')
                 (A") (A') (A') (A") (A') (A") (A') (A") (A') (A")
                 (A') (A') (A") (A") (A') (A') (A') (A") (A') (A')
                 (A') (A') (A') (A') (A') (A') (A') (A') (A') (A')
                 (A') (A") (A') (A") (A') (A") (A") (A') (A") (A")
                 (A') (A') (A') (A') (A') (A') (A") (A") (A') (A')
                 (A') (A") (A") (A') (A") (A') (A") (A') (A') (A')
                 (A') (A') (A') (A") (A') (A') (A') (A') (A") (A')
                 (A") (A") (A') (A") (A") (A') (A") (A') (A') (A')
                 (A') (A') (A') (A') (A') (A') (A') (A') (A") (A')
                 (A") (A') (A') (A') (A') (A") (A') (A') (A') (A')
                 (A') (A') (A') (A') (A') (A") (A') (A') (A')
 The electronic state of the initial guess is 2-A'.
 Initial guess <Sx>= 0.0000 <Sy>= 0.0000 <Sz>= 0.5000 <S**2>= 0.7619 S= 0.5060
 Generating alternative initial guess.
 ExpMin= 3.50D-02 ExpMax= 4.40D+05 ExpMxC= 1.51D+04 IAcc=3 IRadAn=         5 AccDes= 0.00D+00
 Harris functional with IExCor= 1009 and IRadAn=       5 diagonalized for initial guess.
 HarFok:  IExCor= 1009 AccDes= 0.00D+00 IRadAn=         5 IDoV= 1 UseB2=F ITyADJ=14
 ICtDFT=  3500011 ScaDFX=  1.000000  1.000000  1.000000  1.000000
 FoFCou: FMM=F IPFlag=           0 FMFlag=      100000 FMFlg1=           0
         NFxFlg=           0 DoJE=T BraDBF=F KetDBF=T FulRan=T
         wScrn=  0.000000 ICntrl=       500 IOpCl=  0 I1Cent=   200000004 NGrid=           0
         NMat0=    1 NMatS0=      1 NMatT0=    0 NMatD0=    1 NMtDS0=    0 NMtDT0=    0
 Petite list used in FoFCou.
 Harris En= -2804.50755087819    
 Leave Link  401 at Mon Sep 28 02:01:07 2026, MaxMem=  1610612736 cpu:               2.8 elap:               0.4
 (Enter /share/software/user/restricted/gaussian/g16.B01/l502.exe)
 Keep R1 and R2 ints in memory in symmetry-blocked form, NReq=296222914.
 FoFCou: FMM=F IPFlag=           0 FMFlag=           0 FMFlg1=           0
         NFxFlg=           0 DoJE=F BraDBF=F KetDBF=F FulRan=T
         wScrn=  0.000000 ICntrl=       600 IOpCl=  0 I1Cent=           0 NGrid=           0
         NMat0=    1 NMatS0=  19306 NMatT0=    0 NMatD0=    1 NMtDS0=    0 NMtDT0=    0
 Petite list used in FoFCou.
 UHF open shell SCF:
 Using DIIS extrapolation, IDIIS=  1040.
 NGot=  1610612736 LenX=  1413030086 LenY=  1412987620
 Requested convergence on RMS density matrix=1.00D-08 within 128 cycles.
 Requested convergence on MAX density matrix=1.00D-06.
 Requested convergence on             energy=1.00D-06.
 No special actions if energy rises.

 Cycle   1  Pass 1  IDiag  1:
 Inv3:  Mode=1 IEnd=     4650075.
 Iteration    1 A*A^-1 deviation from unit magnitude is 4.33D-15 for   1236.
 Iteration    1 A*A^-1 deviation from orthogonality  is 1.56D-15 for    629    613.
 Iteration    1 A^-1*A deviation from unit magnitude is 4.33D-15 for   1236.
 Iteration    1 A^-1*A deviation from orthogonality  is 1.09D-15 for    392     87.
 E= -2805.08118371622    
 DIIS: error= 2.47D-03 at cycle   1 NSaved=   1.
 NSaved= 1 IEnMin= 1 EnMin= -2805.08118371622     IErMin= 1 ErrMin= 2.47D-03
 ErrMax= 2.47D-03  0.00D+00 EMaxC= 1.00D-01 BMatC= 6.30D-03 BMatP= 6.30D-03
 IDIUse=3 WtCom= 9.75D-01 WtEn= 2.47D-02
 Coeff-Com:  0.100D+01
 Coeff-En:   0.100D+01
 Coeff:      0.100D+01
 Gap=     0.305 Goal=   None    Shift=    0.000
 Gap=     0.268 Goal=   None    Shift=    0.000
 GapD=    0.268 DampG=1.000 DampE=1.000 DampFc=1.0000 IDamp=-1.
 RMSDP=2.21D-03 MaxDP=1.02D-01              OVMax= 1.13D-02

 Cycle   2  Pass 1  IDiag  1:
 E= -2805.08228587706     Delta-E=       -0.001102160845 Rises=F Damp=F
 DIIS: error= 7.61D-04 at cycle   2 NSaved=   2.
 NSaved= 2 IEnMin= 2 EnMin= -2805.08228587706     IErMin= 2 ErrMin= 7.61D-04
 ErrMax= 7.61D-04  0.00D+00 EMaxC= 1.00D-01 BMatC= 3.90D-04 BMatP= 6.30D-03
 IDIUse=3 WtCom= 9.92D-01 WtEn= 7.61D-03
 Coeff-Com:  0.710D-01 0.929D+00
 Coeff-En:   0.000D+00 0.100D+01
 Coeff:      0.705D-01 0.930D+00
 Gap=     0.305 Goal=   None    Shift=    0.000
 Gap=     0.242 Goal=   None    Shift=    0.000
 RMSDP=3.54D-04 MaxDP=1.76D-02 DE=-1.10D-03 OVMax= 5.52D-03

 Cycle   3  Pass 1  IDiag  1:
 E= -2805.08233281807     Delta-E=       -0.000046941008 Rises=F Damp=F
 DIIS: error= 6.11D-04 at cycle   3 NSaved=   3.
 NSaved= 3 IEnMin= 3 EnMin= -2805.08233281807     IErMin= 3 ErrMin= 6.11D-04
 ErrMax= 6.11D-04  0.00D+00 EMaxC= 1.00D-01 BMatC= 2.64D-04 BMatP= 3.90D-04
 IDIUse=3 WtCom= 9.94D-01 WtEn= 6.11D-03
 Coeff-Com: -0.201D-01 0.449D+00 0.571D+00
 Coeff-En:   0.000D+00 0.329D+00 0.671D+00
 Coeff:     -0.199D-01 0.448D+00 0.571D+00
 Gap=     0.305 Goal=   None    Shift=    0.000
 Gap=     0.244 Goal=   None    Shift=    0.000
 RMSDP=2.05D-04 MaxDP=1.07D-02 DE=-4.69D-05 OVMax= 2.31D-03

 Cycle   4  Pass 1  IDiag  1:
 E= -2805.08239695526     Delta-E=       -0.000064137190 Rises=F Damp=F
 DIIS: error= 9.09D-05 at cycle   4 NSaved=   4.
 NSaved= 4 IEnMin= 4 EnMin= -2805.08239695526     IErMin= 4 ErrMin= 9.09D-05
 ErrMax= 9.09D-05  0.00D+00 EMaxC= 1.00D-01 BMatC= 4.77D-06 BMatP= 2.64D-04
 IDIUse=1 WtCom= 1.00D+00 WtEn= 0.00D+00
 Coeff-Com: -0.742D-02 0.515D-01 0.129D+00 0.827D+00
 Coeff:     -0.742D-02 0.515D-01 0.129D+00 0.827D+00
 Gap=     0.305 Goal=   None    Shift=    0.000
 Gap=     0.244 Goal=   None    Shift=    0.000
 RMSDP=6.73D-05 MaxDP=3.64D-03 DE=-6.41D-05 OVMax= 6.43D-04

 Cycle   5  Pass 1  IDiag  1:
 E= -2805.08239814141     Delta-E=       -0.000001186145 Rises=F Damp=F
 DIIS: error= 7.44D-05 at cycle   5 NSaved=   5.
 NSaved= 5 IEnMin= 5 EnMin= -2805.08239814141     IErMin= 5 ErrMin= 7.44D-05
 ErrMax= 7.44D-05  0.00D+00 EMaxC= 1.00D-01 BMatC= 1.69D-06 BMatP= 4.77D-06
 IDIUse=1 WtCom= 1.00D+00 WtEn= 0.00D+00
 Coeff-Com: -0.107D-02-0.303D-01-0.939D-02 0.399D+00 0.641D+00
 Coeff:     -0.107D-02-0.303D-01-0.939D-02 0.399D+00 0.641D+00
 Gap=     0.305 Goal=   None    Shift=    0.000
 Gap=     0.244 Goal=   None    Shift=    0.000
 RMSDP=2.03D-05 MaxDP=7.08D-04 DE=-1.19D-06 OVMax= 3.04D-04

 Cycle   6  Pass 1  IDiag  1:
 E= -2805.08239861600     Delta-E=       -0.000000474593 Rises=F Damp=F
 DIIS: error= 1.94D-05 at cycle   6 NSaved=   6.
 NSaved= 6 IEnMin= 6 EnMin= -2805.08239861600     IErMin= 6 ErrMin= 1.94D-05
 ErrMax= 1.94D-05  0.00D+00 EMaxC= 1.00D-01 BMatC= 1.33D-07 BMatP= 1.69D-06
 IDIUse=1 WtCom= 1.00D+00 WtEn= 0.00D+00
 Coeff-Com:  0.270D-03-0.181D-01-0.179D-01 0.773D-01 0.249D+00 0.710D+00
 Coeff:      0.270D-03-0.181D-01-0.179D-01 0.773D-01 0.249D+00 0.710D+00
 Gap=     0.305 Goal=   None    Shift=    0.000
 Gap=     0.244 Goal=   None    Shift=    0.000
 RMSDP=9.99D-06 MaxDP=6.03D-04 DE=-4.75D-07 OVMax= 1.08D-04

 Cycle   7  Pass 1  IDiag  1:
 E= -2805.08239865764     Delta-E=       -0.000000041637 Rises=F Damp=F
 DIIS: error= 8.25D-06 at cycle   7 NSaved=   7.
 NSaved= 7 IEnMin= 7 EnMin= -2805.08239865764     IErMin= 7 ErrMin= 8.25D-06
 ErrMax= 8.25D-06  0.00D+00 EMaxC= 1.00D-01 BMatC= 2.15D-08 BMatP= 1.33D-07
 IDIUse=1 WtCom= 1.00D+00 WtEn= 0.00D+00
 Coeff-Com:  0.321D-03-0.248D-02-0.669D-02-0.365D-01-0.774D-02 0.271D+00
 Coeff-Com:  0.782D+00
 Coeff:      0.321D-03-0.248D-02-0.669D-02-0.365D-01-0.774D-02 0.271D+00
 Coeff:      0.782D+00
 Gap=     0.305 Goal=   None    Shift=    0.000
 Gap=     0.244 Goal=   None    Shift=    0.000
 RMSDP=5.42D-06 MaxDP=2.82D-04 DE=-4.16D-08 OVMax= 3.49D-05

 Cycle   8  Pass 1  IDiag  1:
 E= -2805.08239866594     Delta-E=       -0.000000008305 Rises=F Damp=F
 DIIS: error= 3.24D-06 at cycle   8 NSaved=   8.
 NSaved= 8 IEnMin= 8 EnMin= -2805.08239866594     IErMin= 8 ErrMin= 3.24D-06
 ErrMax= 3.24D-06  0.00D+00 EMaxC= 1.00D-01 BMatC= 2.29D-09 BMatP= 2.15D-08
 IDIUse=1 WtCom= 1.00D+00 WtEn= 0.00D+00
 Coeff-Com:  0.408D-04 0.233D-02 0.992D-03-0.206D-01-0.400D-01-0.382D-01
 Coeff-Com:  0.163D+00 0.932D+00
 Coeff:      0.408D-04 0.233D-02 0.992D-03-0.206D-01-0.400D-01-0.382D-01
 Coeff:      0.163D+00 0.932D+00
 Gap=     0.305 Goal=   None    Shift=    0.000
 Gap=     0.244 Goal=   None    Shift=    0.000
 RMSDP=1.73D-06 MaxDP=1.11D-04 DE=-8.30D-09 OVMax= 2.87D-05

 Cycle   9  Pass 1  IDiag  1:
 E= -2805.08239866739     Delta-E=       -0.000000001451 Rises=F Damp=F
 DIIS: error= 1.69D-06 at cycle   9 NSaved=   9.
 NSaved= 9 IEnMin= 9 EnMin= -2805.08239866739     IErMin= 9 ErrMin= 1.69D-06
 ErrMax= 1.69D-06  0.00D+00 EMaxC= 1.00D-01 BMatC= 8.10D-10 BMatP= 2.29D-09
 IDIUse=1 WtCom= 1.00D+00 WtEn= 0.00D+00
 Coeff-Com: -0.252D-04 0.161D-02 0.154D-02-0.512D-02-0.201D-01-0.594D-01
 Coeff-Com: -0.406D-01 0.445D+00 0.677D+00
 Coeff:     -0.252D-04 0.161D-02 0.154D-02-0.512D-02-0.201D-01-0.594D-01
 Coeff:     -0.406D-01 0.445D+00 0.677D+00
 Gap=     0.305 Goal=   None    Shift=    0.000
 Gap=     0.244 Goal=   None    Shift=    0.000
 RMSDP=7.39D-07 MaxDP=4.19D-05 DE=-1.45D-09 OVMax= 1.08D-05

 Cycle  10  Pass 1  IDiag  1:
 E= -2805.08239866774     Delta-E=       -0.000000000342 Rises=F Damp=F
 DIIS: error= 5.41D-07 at cycle  10 NSaved=  10.
 NSaved=10 IEnMin=10 EnMin= -2805.08239866774     IErMin=10 ErrMin= 5.41D-07
 ErrMax= 5.41D-07  0.00D+00 EMaxC= 1.00D-01 BMatC= 5.89D-11 BMatP= 8.10D-10
 IDIUse=1 WtCom= 1.00D+00 WtEn= 0.00D+00
 Coeff-Com: -0.685D-05-0.369D-03-0.125D-03 0.332D-02 0.559D-02 0.392D-02
 Coeff-Com: -0.200D-01-0.139D+00-0.385D-01 0.119D+01
 Coeff:     -0.685D-05-0.369D-03-0.125D-03 0.332D-02 0.559D-02 0.392D-02
 Coeff:     -0.200D-01-0.139D+00-0.385D-01 0.119D+01
 Gap=     0.305 Goal=   None    Shift=    0.000
 Gap=     0.244 Goal=   None    Shift=    0.000
 RMSDP=3.84D-07 MaxDP=1.99D-05 DE=-3.42D-10 OVMax= 7.94D-06

 Cycle  11  Pass 1  IDiag  1:
 E= -2805.08239866783     Delta-E=       -0.000000000094 Rises=F Damp=F
 DIIS: error= 4.09D-07 at cycle  11 NSaved=  11.
 NSaved=11 IEnMin=11 EnMin= -2805.08239866783     IErMin=11 ErrMin= 4.09D-07
 ErrMax= 4.09D-07  0.00D+00 EMaxC= 1.00D-01 BMatC= 1.97D-11 BMatP= 5.89D-11
 IDIUse=1 WtCom= 1.00D+00 WtEn= 0.00D+00
 Coeff-Com:  0.177D-05-0.332D-03-0.239D-03 0.163D-02 0.456D-02 0.995D-02
 Coeff-Com: -0.193D-02-0.102D+00-0.934D-01 0.241D+00 0.940D+00
 Coeff:      0.177D-05-0.332D-03-0.239D-03 0.163D-02 0.456D-02 0.995D-02
 Coeff:     -0.193D-02-0.102D+00-0.934D-01 0.241D+00 0.940D+00
 Gap=     0.305 Goal=   None    Shift=    0.000
 Gap=     0.244 Goal=   None    Shift=    0.000
 RMSDP=1.45D-07 MaxDP=9.26D-06 DE=-9.41D-11 OVMax= 3.73D-06

 Cycle  12  Pass 1  IDiag  1:
 E= -2805.08239866786     Delta-E=       -0.000000000032 Rises=F Damp=F
 DIIS: error= 2.26D-07 at cycle  12 NSaved=  12.
 NSaved=12 IEnMin=12 EnMin= -2805.08239866786     IErMin=12 ErrMin= 2.26D-07
 ErrMax= 2.26D-07  0.00D+00 EMaxC= 1.00D-01 BMatC= 7.71D-12 BMatP= 1.97D-11
 IDIUse=1 WtCom= 1.00D+00 WtEn= 0.00D+00
 Coeff-Com:  0.368D-05 0.311D-04-0.385D-04-0.968D-03-0.764D-03 0.291D-02
 Coeff-Com:  0.931D-02 0.173D-01-0.176D-01-0.428D+00 0.351D+00 0.107D+01
 Coeff:      0.368D-05 0.311D-04-0.385D-04-0.968D-03-0.764D-03 0.291D-02
 Coeff:      0.931D-02 0.173D-01-0.176D-01-0.428D+00 0.351D+00 0.107D+01
 Gap=     0.305 Goal=   None    Shift=    0.000
 Gap=     0.244 Goal=   None    Shift=    0.000
 RMSDP=8.80D-08 MaxDP=3.50D-06 DE=-3.18D-11 OVMax= 3.50D-06

 Cycle  13  Pass 1  IDiag  1:
 E= -2805.08239866788     Delta-E=       -0.000000000015 Rises=F Damp=F
 DIIS: error= 8.24D-08 at cycle  13 NSaved=  13.
 NSaved=13 IEnMin=13 EnMin= -2805.08239866788     IErMin=13 ErrMin= 8.24D-08
 ErrMax= 8.24D-08  0.00D+00 EMaxC= 1.00D-01 BMatC= 8.50D-13 BMatP= 7.71D-12
 IDIUse=1 WtCom= 1.00D+00 WtEn= 0.00D+00
 Coeff-Com: -0.382D-06 0.795D-04 0.522D-04-0.406D-03-0.105D-02-0.249D-02
 Coeff-Com:  0.860D-03 0.247D-01 0.201D-01-0.771D-01-0.172D+00 0.132D-01
 Coeff-Com:  0.119D+01
 Coeff:     -0.382D-06 0.795D-04 0.522D-04-0.406D-03-0.105D-02-0.249D-02
 Coeff:      0.860D-03 0.247D-01 0.201D-01-0.771D-01-0.172D+00 0.132D-01
 Coeff:      0.119D+01
 Gap=     0.305 Goal=   None    Shift=    0.000
 Gap=     0.244 Goal=   None    Shift=    0.000
 RMSDP=4.40D-08 MaxDP=2.38D-06 DE=-1.55D-11 OVMax= 1.34D-06

 Cycle  14  Pass 1  IDiag  1:
 E= -2805.08239866787     Delta-E=        0.000000000008 Rises=F Damp=F
 DIIS: error= 2.28D-08 at cycle  14 NSaved=  14.
 NSaved=14 IEnMin=13 EnMin= -2805.08239866788     IErMin=14 ErrMin= 2.28D-08
 ErrMax= 2.28D-08  0.00D+00 EMaxC= 1.00D-01 BMatC= 1.27D-13 BMatP= 8.50D-13
 IDIUse=1 WtCom= 1.00D+00 WtEn= 0.00D+00
 Coeff-Com: -0.526D-06 0.145D-04 0.150D-04 0.429D-04-0.123D-03-0.932D-03
 Coeff-Com: -0.116D-02 0.363D-02 0.640D-02 0.350D-01-0.772D-01-0.121D+00
 Coeff-Com:  0.238D+00 0.917D+00
 Coeff:     -0.526D-06 0.145D-04 0.150D-04 0.429D-04-0.123D-03-0.932D-03
 Coeff:     -0.116D-02 0.363D-02 0.640D-02 0.350D-01-0.772D-01-0.121D+00
 Coeff:      0.238D+00 0.917D+00
 Gap=     0.305 Goal=   None    Shift=    0.000
 Gap=     0.244 Goal=   None    Shift=    0.000
 RMSDP=1.05D-08 MaxDP=4.74D-07 DE= 8.19D-12 OVMax= 2.85D-07

 Cycle  15  Pass 1  IDiag  1:
 E= -2805.08239866788     Delta-E=       -0.000000000010 Rises=F Damp=F
 DIIS: error= 1.12D-08 at cycle  15 NSaved=  15.
 NSaved=15 IEnMin=15 EnMin= -2805.08239866788     IErMin=15 ErrMin= 1.12D-08
 ErrMax= 1.12D-08  0.00D+00 EMaxC= 1.00D-01 BMatC= 2.87D-14 BMatP= 1.27D-13
 IDIUse=1 WtCom= 1.00D+00 WtEn= 0.00D+00
 Coeff-Com: -0.120D-06-0.969D-05-0.572D-05 0.885D-04 0.150D-03 0.174D-03
 Coeff-Com: -0.468D-03-0.340D-02-0.232D-02 0.279D-01 0.603D-02-0.467D-01
 Coeff-Com: -0.142D+00 0.300D+00 0.861D+00
 Coeff:     -0.120D-06-0.969D-05-0.572D-05 0.885D-04 0.150D-03 0.174D-03
 Coeff:     -0.468D-03-0.340D-02-0.232D-02 0.279D-01 0.603D-02-0.467D-01
 Coeff:     -0.142D+00 0.300D+00 0.861D+00
 Gap=     0.305 Goal=   None    Shift=    0.000
 Gap=     0.244 Goal=   None    Shift=    0.000
 RMSDP=4.32D-09 MaxDP=2.91D-07 DE=-1.00D-11 OVMax= 1.23D-07

 Error on total polarization charges =  0.02348
 SCF Done:  E(UM062X) =  -2805.08239867     A.U. after   15 cycles
            NFock= 15  Conv=0.43D-08     -V/T= 2.0014
 <Sx>= 0.0000 <Sy>= 0.0000 <Sz>= 0.5000 <S**2>= 0.7617 S= 0.5058
 <L.S>=  0.00000000000    
 KE= 2.801142612963D+03 PE=-7.526691180396D+03 EE= 1.501642664455D+03
 SMD-CDS (non-electrostatic) energy       (kcal/mol) =       2.17
 (included in total energy above)
 Annihilation of the first spin contaminant:
 S**2 before annihilation     0.7617,   after     0.7501
 Leave Link  502 at Mon Sep 28 02:01:27 2026, MaxMem=  1610612736 cpu:             153.0 elap:              20.3
 (Enter /share/software/user/restricted/gaussian/g16.B01/l701.exe)
 ... and contract with generalized density number  0.
 Compute integral first derivatives.
 D1PCM: PCM CHGder 1st derivatives, ID1Alg=3 FixD1E=F DoIter=F DoCFld=F I1PDM=0.
 GePol: Maximum number of non-zero 1st derivatives   =     546
 Leave Link  701 at Mon Sep 28 02:01:27 2026, MaxMem=  1610612736 cpu:               2.9 elap:               0.4
 (Enter /share/software/user/restricted/gaussian/g16.B01/l702.exe)
 L702 exits ... SP integral derivatives will be done elsewhere.
 Leave Link  702 at Mon Sep 28 02:01:27 2026, MaxMem=  1610612736 cpu:               0.1 elap:               0.0
 (Enter /share/software/user/restricted/gaussian/g16.B01/l703.exe)
 Integral derivatives from FoFJK, PRISM(SPDF).
 Compute integral first derivatives, UseDBF=F ICtDFT=           0.
 Calling FoFJK, ICntrl=      2127 FMM=F ISym2X=1 I1Cent= 0 IOpClX= 1 NMat=1 NMatS=1 NMatT=0.
 FoFJK:  IHMeth= 1 ICntrl=    2127 DoSepK=F KAlg= 0 I1Cent=           0 FoldK=F
 IRaf=         0 NMat=       1 IRICut=       1 DoRegI=T DoRafI=F ISym2E= 1 IDoP0=0 IntGTp=1.
 FoFCou: FMM=F IPFlag=           0 FMFlag=      100000 FMFlg1=         800
         NFxFlg=           0 DoJE=F BraDBF=F KetDBF=F FulRan=T
         wScrn=  0.000000 ICntrl=      2127 IOpCl=  1 I1Cent=           0 NGrid=           0
         NMat0=    1 NMatS0=      1 NMatT0=    0 NMatD0=    1 NMtDS0=    0 NMtDT0=    0
 Petite list used in FoFCou.
 Leave Link  703 at Mon Sep 28 02:01:30 2026, MaxMem=  1610612736 cpu:              20.5 elap:               2.6
 (Enter /share/software/user/restricted/gaussian/g16.B01/l716.exe)
 Dipole        = 6.39902925D-01 6.00160804D-01 5.02355507D-32
 ***** Axes restored to original set *****
 -------------------------------------------------------------------
 Center     Atomic                   Forces (Hartrees/Bohr)
 Number     Number              X              Y              Z
 -------------------------------------------------------------------
      1        6          -0.000922942    0.003662370   -0.000000000
      2        6           0.003646435   -0.004083686   -0.000000000
      3        6          -0.004938586    0.005416155    0.000000000
      4        6           0.002693748   -0.003977233   -0.000000000
      5        6          -0.001163056    0.002940991   -0.000000000
      6        6           0.000105003   -0.003253916   -0.000000000
      7        1           0.000531287    0.000084145    0.000000000
      8       35           0.001343990   -0.000608297   -0.000000000
      9        1          -0.000080062   -0.000224795   -0.000000000
     10        1          -0.000531718    0.000024806   -0.000000000
     11        1          -0.000684100    0.000019461   -0.000000000
 -------------------------------------------------------------------
 Cartesian Forces:  Max     0.005416155 RMS     0.002095538
 Leave Link  716 at Mon Sep 28 02:01:30 2026, MaxMem=  1610612736 cpu:               0.2 elap:               0.0
 (Enter /share/software/user/restricted/gaussian/g16.B01/l103.exe)

 GradGradGradGradGradGradGradGradGradGradGradGradGradGradGradGradGradGrad
 Berny optimization.
 Using GEDIIS/GDIIS optimizer.
 FormGI is forming the generalized inverse of G from B-inverse, IUseBI=4.
 Internal  Forces:  Max     0.003024665 RMS     0.001053958
 Search for a local minimum.
 Step number   2 out of a maximum of   57
 All quantities printed in internal units (Hartrees-Bohrs-Radians)
 RMS Force = .10540D-02 SwitMx=.10000D-02 MixMth= 1
 Mixed Optimization -- RFO/linear search
 Update second derivatives using D2CorX and points    1    2
 DE= -2.07D-03 DEPred=-1.93D-03 R= 1.07D+00
 TightC=F SS=  1.41D+00  RLast= 1.15D-01 DXNew= 5.0454D-01 3.4612D-01
 Trust test= 1.07D+00 RLast= 1.15D-01 DXMaxT set to 3.46D-01
 ITU=  1  0
 Use linear search instead of GDIIS.
     Eigenvalues ---    0.01959   0.01993   0.02013   0.02035   0.02045
     Eigenvalues ---    0.02108   0.02163   0.02394   0.15896   0.16000
     Eigenvalues ---    0.16000   0.16047   0.18167   0.21475   0.22059
     Eigenvalues ---    0.23736   0.25016   0.33607   0.33878   0.34052
     Eigenvalues ---    0.35638   0.40184   0.42392   0.43533   0.44909
     Eigenvalues ---    0.50387   0.51955
 RFO step:  Lambda=-1.74005648D-04 EMin= 1.95936459D-02
 Quartic linear search produced a step of  0.10257.
 Iteration  1 RMS(Cart)=  0.00489548 RMS(Int)=  0.00001988
 Iteration  2 RMS(Cart)=  0.00003002 RMS(Int)=  0.00000486
 Iteration  3 RMS(Cart)=  0.00000000 RMS(Int)=  0.00000486
 ITry= 1 IFail=0 DXMaxC= 1.37D-02 DCOld= 1.00D+10 DXMaxT= 3.46D-01 DXLimC= 3.00D+00 Rises=F
 ClnCor:  largest displacement from symmetrization is 2.69D-09 for atom     9.
 Variable       Old X    -DE/DX   Delta X   Delta X   Delta X     New X
                                 (Linear)    (Quad)   (Total)
    R1        2.58753   0.00260  -0.00018   0.00579   0.00562   2.59315
    R2        2.58989   0.00208  -0.00006   0.00463   0.00456   2.59446
    R3        2.64535  -0.00247  -0.00242  -0.00493  -0.00735   2.63800
    R4        2.04736   0.00050  -0.00270   0.00310   0.00041   2.04776
    R5        2.63046  -0.00021  -0.00288   0.00096  -0.00192   2.62854
    R6        3.58812   0.00147   0.00618   0.00472   0.01090   3.59902
    R7        2.62783   0.00184  -0.00218   0.00562   0.00343   2.63127
    R8        2.04664   0.00023  -0.00355   0.00270  -0.00086   2.04579
    R9        2.64581  -0.00108  -0.00158  -0.00178  -0.00337   2.64245
   R10        2.04793   0.00044  -0.00294   0.00307   0.00013   2.04806
   R11        2.04636   0.00060  -0.00257   0.00334   0.00078   2.04713
    A1        2.21651  -0.00198  -0.00432  -0.00583  -0.01015   2.20636
    A2        2.01622  -0.00053   0.00136  -0.00330  -0.00193   2.01429
    A3        2.13961   0.00047   0.00000   0.00268   0.00267   2.14228
    A4        2.12736   0.00006  -0.00136   0.00063  -0.00074   2.12662
    A5        2.10980   0.00302   0.00211   0.01199   0.01411   2.12391
    A6        2.08587  -0.00180  -0.00090  -0.00735  -0.00825   2.07762
    A7        2.08751  -0.00122  -0.00121  -0.00464  -0.00585   2.08166
    A8        2.09803  -0.00202  -0.00207  -0.00921  -0.01129   2.08674
    A9        2.09512   0.00109   0.00061   0.00537   0.00599   2.10111
   A10        2.09004   0.00093   0.00146   0.00383   0.00530   2.09534
   A11        2.10363   0.00020   0.00074   0.00064   0.00137   2.10500
   A12        2.08211   0.00020  -0.00107   0.00211   0.00104   2.08315
   A13        2.09744  -0.00040   0.00033  -0.00275  -0.00241   2.09503
   A14        2.02219   0.00130   0.00219   0.00571   0.00788   2.03007
   A15        2.13944  -0.00031  -0.00072  -0.00067  -0.00139   2.13805
   A16        2.12156  -0.00100  -0.00146  -0.00503  -0.00649   2.11507
    D1       -0.00000   0.00000   0.00000   0.00000   0.00000   0.00000
    D2        3.14159   0.00000   0.00000   0.00000   0.00000   3.14159
    D3        0.00000   0.00000   0.00000   0.00000   0.00000   0.00000
    D4        3.14159   0.00000   0.00000   0.00000   0.00000   3.14159
    D5        0.00000  -0.00000   0.00000  -0.00000   0.00000   0.00000
    D6        3.14159  -0.00000   0.00000  -0.00000   0.00000   3.14159
    D7        3.14159  -0.00000   0.00000  -0.00000   0.00000   3.14159
    D8       -0.00000  -0.00000   0.00000  -0.00000   0.00000   0.00000
    D9       -0.00000   0.00000   0.00000   0.00000   0.00000   0.00000
   D10        3.14159  -0.00000   0.00000  -0.00000   0.00000   3.14159
   D11        3.14159   0.00000   0.00000   0.00000   0.00000   3.14159
   D12       -0.00000   0.00000   0.00000   0.00000   0.00000   0.00000
   D13        0.00000   0.00000   0.00000  -0.00000   0.00000   0.00000
   D14        3.14159  -0.00000   0.00000  -0.00000   0.00000   3.14159
   D15        3.14159   0.00000   0.00000   0.00000   0.00000   3.14159
   D16       -0.00000  -0.00000   0.00000  -0.00000   0.00000   0.00000
   D17       -0.00000  -0.00000   0.00000  -0.00000   0.00000   0.00000
   D18        3.14159  -0.00000   0.00000  -0.00000   0.00000   3.14159
   D19        3.14159   0.00000   0.00000   0.00000   0.00000   3.14159
   D20        0.00000   0.00000   0.00000   0.00000  -0.00000   0.00000
         Item               Value     Threshold  Converged?
 Maximum Force            0.003025     0.000450     NO 
 RMS     Force            0.001054     0.000300     NO 
 Maximum Displacement     0.013707     0.001800     NO 
 RMS     Displacement     0.004896     0.001200     NO 
 Predicted change in Energy=-1.037116D-04
 Lowest energy point so far.  Saving SCF results.
 GradGradGradGradGradGradGradGradGradGradGradGradGradGradGradGradGradGrad

 Leave Link  103 at Mon Sep 28 02:01:30 2026, MaxMem=  1610612736 cpu:               0.5 elap:               0.1
 (Enter /share/software/user/restricted/gaussian/g16.B01/l202.exe)
                          Input orientation:                          
 ---------------------------------------------------------------------
 Center     Atomic      Atomic             Coordinates (Angstroms)
 Number     Number       Type             X           Y           Z
 ---------------------------------------------------------------------
      1          6           0        0.002993    1.325715   -0.000000
      2          6           0        1.229082    0.709489   -0.000000
      3          6           0        1.198052   -0.686136   -0.000000
      4          6           0       -0.001460   -1.390370   -0.000000
      5          6           0       -1.207058   -0.693717   -0.000000
      6          6           0       -1.221370    0.704534   -0.000000
      7          1           0        2.162072    1.260654   -0.000000
      8         35           0        2.842198   -1.647378    0.000000
      9          1           0       -0.000842   -2.472954   -0.000000
     10          1           0       -2.139698   -1.245780   -0.000000
     11          1           0       -2.153828    1.255943   -0.000000
 ---------------------------------------------------------------------
                    Distance matrix (angstroms):
                    1          2          3          4          5
     1  C    0.000000
     2  C    1.372234   0.000000
     3  C    2.340023   1.395970   0.000000
     4  C    2.716089   2.433853   1.390962   0.000000
     5  C    2.354215   2.811364   2.405122   1.392406   0.000000
     6  C    1.372928   2.450456   2.790620   2.424212   1.398324
     7  H    2.160059   1.083630   2.172401   3.421812   3.894946
     8  Br   4.111006   2.856041   1.904522   2.855249   4.160042
     9  H    3.798671   3.411840   2.151759   1.082584   2.149568
    10  H    3.347195   3.895094   3.384343   2.143121   1.083786
    11  H    2.157950   3.426761   3.873857   3.411109   2.167382
                    6          7          8          9         10
     6  C    0.000000
     7  H    3.428840   0.000000
     8  Br   4.695112   2.986507   0.000000
     9  H    3.403838   4.314861   2.960482   0.000000
    10  H    2.155702   4.978699   4.998057   2.465899   0.000000
    11  H    1.083296   4.315903   5.778369   4.305812   2.501763
                   11
    11  H    0.000000
 Stoichiometry    C6H4Br(2)
 Framework group  CS[SG(C6H4Br)]
 Deg. of freedom    19
 Full point group                 CS      NOp   2
 RotChk:  IX=0 Diff= 3.85D-02
 Largest Abelian subgroup         CS      NOp   2
 Largest concise Abelian subgroup C1      NOp   1
                         Standard orientation:                         
 ---------------------------------------------------------------------
 Center     Atomic      Atomic             Coordinates (Angstroms)
 Number     Number       Type             X           Y           Z
 ---------------------------------------------------------------------
      1          6           0       -0.563872    2.413203   -0.000000
      2          6           0       -1.002959    1.113115   -0.000000
      3          6           0        0.000000    0.142134   -0.000000
      4          6           0        1.348240    0.484222   -0.000000
      5          6           0        1.716224    1.827123   -0.000000
      6          6           0        0.743673    2.831839   -0.000000
      7          1           0       -2.054025    0.849458   -0.000000
      8         35           0       -0.493988   -1.697208    0.000000
      9          1           0        2.108671   -0.286317    0.000000
     10          1           0        2.767672    2.089894   -0.000000
     11          1           0        1.019439    3.879447   -0.000000
 ---------------------------------------------------------------------
 Rotational constants (GHZ):           6.1142479           1.0064573           0.8642023
 Leave Link  202 at Mon Sep 28 02:01:30 2026, MaxMem=  1610612736 cpu:               0.2 elap:               0.0
 (Enter /share/software/user/restricted/gaussian/g16.B01/l301.exe)
 Standard basis: 6-311++G(d) (5D, 7F)
 Ernie: Thresh=  0.10000D-02 Tol=  0.10000D-05 Strict=F.
 There are   155 symmetry adapted cartesian basis functions of A'  symmetry.
 There are    50 symmetry adapted cartesian basis functions of A"  symmetry.
 There are   146 symmetry adapted basis functions of A'  symmetry.
 There are    50 symmetry adapted basis functions of A"  symmetry.
   196 basis functions,   334 primitive gaussians,   205 cartesian basis functions
    38 alpha electrons       37 beta electrons
       nuclear repulsion energy       418.7436715509 Hartrees.
 IExCor= 4336 DFT=T Ex+Corr=M062X ExCW=0 ScaHFX=  0.540000
 ScaDFX=  1.000000  1.000000  1.000000  1.000000 ScalE2=  1.000000  1.000000
 IRadAn=      5 IRanWt=     -1 IRanGd=            0 ICorTp=0 IEmpDi=  4
 NAtoms=   11 NActive=   11 NUniq=   11 SFac= 1.00D+00 NAtFMM=   60 NAOKFM=F Big=F
 Integral buffers will be    131072 words long.
 Raffenetti 2 integral format.
 Two-electron integral symmetry is turned on.
 ------------------------------------------------------------------------------
 Polarizable Continuum Model (PCM)
 =================================
 Model                : PCM.
 Atomic radii         : SMD-Coulomb.
 Polarization charges : Total charges.
 Charge compensation  : None.
 Solution method      : On-the-fly selection.
 Cavity type          : VdW (van der Waals Surface) (Alpha=1.000).
 Cavity algorithm     : GePol (No added spheres)
                        Default sphere list used, NSphG=   11.
                        Lebedev-Laikov grids with approx.  5.0 points / Ang**2.
                        Smoothing algorithm: York/Karplus (Gamma=1.0000).
                        Polarization charges: spherical gaussians, with
                                              point-specific exponents (IZeta= 3).
                        Self-potential: point-specific (ISelfS= 7).
                        Self-field    : sphere-specific E.n sum rule (ISelfD= 2).
 1st derivatives      : Analytical E(r).r(x)/FMM algorithm (CHGder, D1EAlg=3).
                        Cavity 1st derivative terms included.
 Solvent              : Water, Eps=  78.355300 Eps(inf)=   1.777849
 ------------------------------------------------------------------------------
 Spheres list:
 ISph  on   Nord     Re0    Alpha      Xe            Ye            Ze
    1   C      1    1.8500  1.000     -0.563872      2.413203     -0.000000
    2   C      2    1.8500  1.000     -1.002959      1.113115     -0.000000
    3   C      3    1.8500  1.000      0.000000      0.142134      0.000000
    4   C      4    1.8500  1.000      1.348240      0.484222     -0.000000
    5   C      5    1.8500  1.000      1.716224      1.827123     -0.000000
    6   C      6    1.8500  1.000      0.743673      2.831839     -0.000000
    7   H      7    1.2000  1.000     -2.054025      0.849458     -0.000000
    8  Br      8    3.0600  1.000     -0.493988     -1.697208      0.000000
    9   H      9    1.2000  1.000      2.108671     -0.286317      0.000000
   10   H     10    1.2000  1.000      2.767672      2.089894     -0.000000
   11   H     11    1.2000  1.000      1.019439      3.879447     -0.000000
 ------------------------------------------------------------------------------
 GePol: Number of generator spheres                  =      11
 GePol: Total number of spheres                      =      11
 GePol: Number of exposed spheres                    =      11 (100.00%)
 GePol: Number of points                             =    1256
 GePol: Average weight of points                     =       0.14
 GePol: Minimum weight of points                     =   0.19D-11
 GePol: Maximum weight of points                     =    0.22025
 GePol: Number of points with low weight             =      50
 GePol: Fraction of low-weight points (<1% of avg)   =       3.98%
 GePol: Cavity surface area                          =    174.565 Ang**2
 GePol: Cavity volume                                =    181.798 Ang**3
 ------------------------------------------------------------------------------
 Atomic radii for non-electrostatic terms: SMD-CDS.
 ------------------------------------------------------------------------------
 PCM non-electrostatic energy =         0.0034623028 Hartrees.
 Nuclear repulsion after PCM non-electrostatic terms =      418.7471338537 Hartrees.
 Leave Link  301 at Mon Sep 28 02:01:30 2026, MaxMem=  1610612736 cpu:               0.3 elap:               0.0
 (Enter /share/software/user/restricted/gaussian/g16.B01/l302.exe)
 NPDir=0 NMtPBC=     1 NCelOv=     1 NCel=       1 NClECP=     1 NCelD=      1
         NCelK=      1 NCelE2=     1 NClLst=     1 CellRange=     0.0.
 One-electron integrals computed using PRISM.
 One-electron integral symmetry used in STVInt
 NBasis=   196 RedAO= T EigKep=  1.79D-06  NBF=   146    50
 NBsUse=   196 1.00D-06 EigRej= -1.00D+00 NBFU=   146    50
 Precomputing XC quadrature grid using
 IXCGrd= 4 IRadAn=           5 IRanWt=          -1 IRanGd=           0 AccXCQ= 0.00D+00.
 Generated NRdTot=       0 NPtTot=           0 NUsed=           0 NTot=          32
 NSgBfM=   205   205   205   205   205 MxSgAt=    11 MxSgA2=    11.
 Leave Link  302 at Mon Sep 28 02:01:30 2026, MaxMem=  1610612736 cpu:               0.7 elap:               0.1
 (Enter /share/software/user/restricted/gaussian/g16.B01/l303.exe)
 DipDrv:  MaxL=1.
 Leave Link  303 at Mon Sep 28 02:01:31 2026, MaxMem=  1610612736 cpu:               0.3 elap:               0.1
 (Enter /share/software/user/restricted/gaussian/g16.B01/l401.exe)
 Initial guess from the checkpoint file:  "calcs/m062x_smd/chks/BrPh_3_rad.chk"
 B after Tr=    -0.000000    0.000000   -0.000000
         Rot=    0.999913    0.000000   -0.000000   -0.013208 Ang=  -1.51 deg.
 Guess basis will be translated and rotated to current coordinates.
 JPrj=2 DoOrth=T DoCkMO=T.
 Initial guess orbital symmetries:
 Alpha Orbitals:
       Occupied  (A') (A') (A') (A") (A') (A') (A') (A') (A') (A')
                 (A') (A') (A') (A") (A') (A') (A") (A') (A') (A")
                 (A') (A') (A') (A') (A') (A') (A') (A') (A') (A')
                 (A") (A') (A') (A") (A') (A") (A') (A")
       Virtual   (A") (A') (A") (A') (A') (A') (A') (A") (A') (A')
                 (A') (A") (A') (A") (A') (A") (A') (A') (A") (A')
                 (A') (A") (A') (A") (A') (A') (A') (A') (A') (A")
                 (A') (A') (A') (A') (A') (A') (A') (A') (A') (A')
                 (A') (A') (A') (A') (A") (A') (A') (A') (A') (A")
                 (A") (A') (A') (A') (A") (A') (A") (A") (A') (A')
                 (A') (A") (A") (A') (A') (A') (A") (A') (A') (A')
                 (A') (A') (A') (A') (A') (A') (A') (A') (A') (A')
                 (A") (A') (A") (A') (A") (A") (A') (A") (A") (A')
                 (A') (A') (A') (A') (A') (A") (A') (A") (A') (A')
                 (A") (A") (A') (A") (A') (A") (A') (A') (A') (A')
                 (A') (A') (A") (A') (A') (A') (A') (A") (A') (A")
                 (A") (A') (A") (A") (A') (A") (A') (A') (A') (A')
                 (A') (A') (A') (A') (A') (A') (A') (A") (A') (A")
                 (A') (A') (A') (A') (A") (A') (A') (A') (A') (A')
                 (A') (A') (A') (A') (A") (A') (A') (A')
 Beta  Orbitals:
       Occupied  (A') (A') (A') (A") (A') (A') (A') (A') (A') (A')
                 (A') (A') (A') (A") (A') (A') (A") (A') (A') (A")
                 (A') (A') (A') (A') (A') (A') (A') (A') (A') (A')
                 (A") (A') (A') (A") (A') (A") (A")
       Virtual   (A') (A") (A') (A') (A") (A') (A') (A') (A") (A')
                 (A') (A') (A") (A") (A') (A') (A") (A') (A') (A')
                 (A") (A') (A") (A') (A') (A") (A') (A') (A') (A')
                 (A') (A") (A') (A') (A') (A') (A') (A') (A') (A')
                 (A') (A') (A') (A') (A') (A") (A') (A') (A') (A')
                 (A") (A') (A") (A') (A') (A") (A') (A") (A") (A')
                 (A') (A') (A") (A") (A') (A') (A') (A") (A') (A')
                 (A') (A') (A') (A') (A') (A') (A') (A') (A') (A')
                 (A') (A") (A') (A") (A') (A") (A") (A') (A") (A")
                 (A') (A') (A') (A') (A') (A') (A") (A") (A') (A')
                 (A') (A") (A") (A') (A") (A') (A') (A") (A') (A')
                 (A') (A') (A') (A") (A') (A') (A') (A') (A") (A')
                 (A") (A") (A') (A") (A") (A') (A") (A') (A') (A')
                 (A') (A') (A') (A') (A') (A') (A') (A') (A") (A')
                 (A") (A') (A') (A') (A') (A") (A') (A') (A') (A')
                 (A') (A') (A') (A') (A') (A") (A') (A') (A')
 The electronic state of the initial guess is 2-A'.
 Initial guess <Sx>= 0.0000 <Sy>= 0.0000 <Sz>= 0.5000 <S**2>= 0.7618 S= 0.5059
 Leave Link  401 at Mon Sep 28 02:01:31 2026, MaxMem=  1610612736 cpu:               0.8 elap:               0.1
 (Enter /share/software/user/restricted/gaussian/g16.B01/l502.exe)
 Keep R1 and R2 ints in memory in symmetry-blocked form, NReq=296222914.
 FoFCou: FMM=F IPFlag=           0 FMFlag=           0 FMFlg1=           0
         NFxFlg=           0 DoJE=F BraDBF=F KetDBF=F FulRan=T
         wScrn=  0.000000 ICntrl=       600 IOpCl=  0 I1Cent=           0 NGrid=           0
         NMat0=    1 NMatS0=  19306 NMatT0=    0 NMatD0=    1 NMtDS0=    0 NMtDT0=    0
 Petite list used in FoFCou.
 UHF open shell SCF:
 Using DIIS extrapolation, IDIIS=  1040.
 NGot=  1610612736 LenX=  1413030086 LenY=  1412987620
 Requested convergence on RMS density matrix=1.00D-08 within 128 cycles.
 Requested convergence on MAX density matrix=1.00D-06.
 Requested convergence on             energy=1.00D-06.
 No special actions if energy rises.

 Cycle   1  Pass 1  IDiag  1:
 Inv3:  Mode=1 IEnd=     4732608.
 Iteration    1 A*A^-1 deviation from unit magnitude is 5.00D-15 for   1250.
 Iteration    1 A*A^-1 deviation from orthogonality  is 1.40D-15 for    322    175.
 Iteration    1 A^-1*A deviation from unit magnitude is 4.77D-15 for   1250.
 Iteration    1 A^-1*A deviation from orthogonality  is 1.57D-15 for   1107    582.
 E= -2805.08238967375    
 DIIS: error= 1.33D-03 at cycle   1 NSaved=   1.
 NSaved= 1 IEnMin= 1 EnMin= -2805.08238967375     IErMin= 1 ErrMin= 1.33D-03
 ErrMax= 1.33D-03  0.00D+00 EMaxC= 1.00D-01 BMatC= 9.81D-04 BMatP= 9.81D-04
 IDIUse=3 WtCom= 9.87D-01 WtEn= 1.33D-02
 Coeff-Com:  0.100D+01
 Coeff-En:   0.100D+01
 Coeff:      0.100D+01
 Gap=     0.306 Goal=   None    Shift=    0.000
 Gap=     0.259 Goal=   None    Shift=    0.000
 GapD=    0.259 DampG=1.000 DampE=1.000 DampFc=1.0000 IDamp=-1.
 RMSDP=8.33D-04 MaxDP=5.05D-02              OVMax= 4.84D-03

 Cycle   2  Pass 1  IDiag  1:
 E= -2805.08251598068     Delta-E=       -0.000126306925 Rises=F Damp=F
 DIIS: error= 1.80D-04 at cycle   2 NSaved=   2.
 NSaved= 2 IEnMin= 2 EnMin= -2805.08251598068     IErMin= 2 ErrMin= 1.80D-04
 ErrMax= 1.80D-04  0.00D+00 EMaxC= 1.00D-01 BMatC= 1.78D-05 BMatP= 9.81D-04
 IDIUse=3 WtCom= 9.98D-01 WtEn= 1.80D-03
 Coeff-Com: -0.103D-02 0.100D+01
 Coeff-En:   0.000D+00 0.100D+01
 Coeff:     -0.103D-02 0.100D+01
 Gap=     0.306 Goal=   None    Shift=    0.000
 Gap=     0.243 Goal=   None    Shift=    0.000
 RMSDP=9.05D-05 MaxDP=5.03D-03 DE=-1.26D-04 OVMax= 1.16D-03

 Cycle   3  Pass 1  IDiag  1:
 E= -2805.08251953237     Delta-E=       -0.000003551687 Rises=F Damp=F
 DIIS: error= 1.50D-04 at cycle   3 NSaved=   3.
 NSaved= 3 IEnMin= 3 EnMin= -2805.08251953237     IErMin= 3 ErrMin= 1.50D-04
 ErrMax= 1.50D-04  0.00D+00 EMaxC= 1.00D-01 BMatC= 1.22D-05 BMatP= 1.78D-05
 IDIUse=3 WtCom= 9.99D-01 WtEn= 1.50D-03
 Coeff-Com: -0.154D-01 0.454D+00 0.561D+00
 Coeff-En:   0.000D+00 0.127D+00 0.873D+00
 Coeff:     -0.154D-01 0.453D+00 0.562D+00
 Gap=     0.306 Goal=   None    Shift=    0.000
 Gap=     0.243 Goal=   None    Shift=    0.000
 RMSDP=3.66D-05 MaxDP=2.02D-03 DE=-3.55D-06 OVMax= 4.35D-04

 Cycle   4  Pass 1  IDiag  1:
 E= -2805.08252227013     Delta-E=       -0.000002737765 Rises=F Damp=F
 DIIS: error= 2.46D-05 at cycle   4 NSaved=   4.
 NSaved= 4 IEnMin= 4 EnMin= -2805.08252227013     IErMin= 4 ErrMin= 2.46D-05
 ErrMax= 2.46D-05  0.00D+00 EMaxC= 1.00D-01 BMatC= 2.65D-07 BMatP= 1.22D-05
 IDIUse=1 WtCom= 1.00D+00 WtEn= 0.00D+00
 Coeff-Com: -0.219D-02-0.266D-01 0.810D-01 0.948D+00
 Coeff:     -0.219D-02-0.266D-01 0.810D-01 0.948D+00
 Gap=     0.306 Goal=   None    Shift=    0.000
 Gap=     0.243 Goal=   None    Shift=    0.000
 RMSDP=1.37D-05 MaxDP=6.56D-04 DE=-2.74D-06 OVMax= 1.08D-04

 Cycle   5  Pass 1  IDiag  1:
 E= -2805.08252235819     Delta-E=       -0.000000088059 Rises=F Damp=F
 DIIS: error= 6.43D-06 at cycle   5 NSaved=   5.
 NSaved= 5 IEnMin= 5 EnMin= -2805.08252235819     IErMin= 5 ErrMin= 6.43D-06
 ErrMax= 6.43D-06  0.00D+00 EMaxC= 1.00D-01 BMatC= 3.00D-08 BMatP= 2.65D-07
 IDIUse=1 WtCom= 1.00D+00 WtEn= 0.00D+00
 Coeff-Com:  0.192D-03-0.361D-01-0.375D-02 0.259D+00 0.780D+00
 Coeff:      0.192D-03-0.361D-01-0.375D-02 0.259D+00 0.780D+00
 Gap=     0.306 Goal=   None    Shift=    0.000
 Gap=     0.243 Goal=   None    Shift=    0.000
 RMSDP=4.89D-06 MaxDP=2.82D-04 DE=-8.81D-08 OVMax= 4.40D-05

 Cycle   6  Pass 1  IDiag  1:
 E= -2805.08252237009     Delta-E=       -0.000000011902 Rises=F Damp=F
 DIIS: error= 3.53D-06 at cycle   6 NSaved=   6.
 NSaved= 6 IEnMin= 6 EnMin= -2805.08252237009     IErMin= 6 ErrMin= 3.53D-06
 ErrMax= 3.53D-06  0.00D+00 EMaxC= 1.00D-01 BMatC= 6.65D-09 BMatP= 3.00D-08
 IDIUse=1 WtCom= 1.00D+00 WtEn= 0.00D+00
 Coeff-Com:  0.290D-03-0.128D-01-0.846D-02 0.208D-01 0.311D+00 0.689D+00
 Coeff:      0.290D-03-0.128D-01-0.846D-02 0.208D-01 0.311D+00 0.689D+00
 Gap=     0.306 Goal=   None    Shift=    0.000
 Gap=     0.243 Goal=   None    Shift=    0.000
 RMSDP=2.18D-06 MaxDP=1.21D-04 DE=-1.19D-08 OVMax= 1.79D-05

 Cycle   7  Pass 1  IDiag  1:
 E= -2805.08252237264     Delta-E=       -0.000000002551 Rises=F Damp=F
 DIIS: error= 2.10D-06 at cycle   7 NSaved=   7.
 NSaved= 7 IEnMin= 7 EnMin= -2805.08252237264     IErMin= 7 ErrMin= 2.10D-06
 ErrMax= 2.10D-06  0.00D+00 EMaxC= 1.00D-01 BMatC= 1.00D-09 BMatP= 6.65D-09
 IDIUse=1 WtCom= 1.00D+00 WtEn= 0.00D+00
 Coeff-Com:  0.308D-04 0.620D-02-0.209D-02-0.660D-01-0.102D+00 0.141D+00
 Coeff-Com:  0.102D+01
 Coeff:      0.308D-04 0.620D-02-0.209D-02-0.660D-01-0.102D+00 0.141D+00
 Coeff:      0.102D+01
 Gap=     0.306 Goal=   None    Shift=    0.000
 Gap=     0.243 Goal=   None    Shift=    0.000
 RMSDP=1.25D-06 MaxDP=8.36D-05 DE=-2.55D-09 OVMax= 1.60D-05

 Cycle   8  Pass 1  IDiag  1:
 E= -2805.08252237340     Delta-E=       -0.000000000758 Rises=F Damp=F
 DIIS: error= 1.38D-06 at cycle   8 NSaved=   8.
 NSaved= 8 IEnMin= 8 EnMin= -2805.08252237340     IErMin= 8 ErrMin= 1.38D-06
 ErrMax= 1.38D-06  0.00D+00 EMaxC= 1.00D-01 BMatC= 2.83D-10 BMatP= 1.00D-09
 IDIUse=1 WtCom= 1.00D+00 WtEn= 0.00D+00
 Coeff-Com: -0.273D-04 0.467D-02 0.351D-03-0.319D-01-0.899D-01-0.407D-01
 Coeff-Com:  0.463D+00 0.695D+00
 Coeff:     -0.273D-04 0.467D-02 0.351D-03-0.319D-01-0.899D-01-0.407D-01
 Coeff:      0.463D+00 0.695D+00
 Gap=     0.306 Goal=   None    Shift=    0.000
 Gap=     0.243 Goal=   None    Shift=    0.000
 RMSDP=3.18D-07 MaxDP=1.38D-05 DE=-7.58D-10 OVMax= 7.06D-06

 Cycle   9  Pass 1  IDiag  1:
 E= -2805.08252237353     Delta-E=       -0.000000000131 Rises=F Damp=F
 DIIS: error= 6.82D-07 at cycle   9 NSaved=   9.
 NSaved= 9 IEnMin= 9 EnMin= -2805.08252237353     IErMin= 9 ErrMin= 6.82D-07
 ErrMax= 6.82D-07  0.00D+00 EMaxC= 1.00D-01 BMatC= 4.47D-11 BMatP= 2.83D-10
 IDIUse=1 WtCom= 1.00D+00 WtEn= 0.00D+00
 Coeff-Com: -0.172D-04 0.451D-03 0.633D-03 0.193D-02-0.133D-01-0.448D-01
 Coeff-Com: -0.417D-01 0.263D+00 0.834D+00
 Coeff:     -0.172D-04 0.451D-03 0.633D-03 0.193D-02-0.133D-01-0.448D-01
 Coeff:     -0.417D-01 0.263D+00 0.834D+00
 Gap=     0.306 Goal=   None    Shift=    0.000
 Gap=     0.243 Goal=   None    Shift=    0.000
 RMSDP=1.14D-07 MaxDP=4.67D-06 DE=-1.31D-10 OVMax= 4.00D-06

 Cycle  10  Pass 1  IDiag  1:
 E= -2805.08252237357     Delta-E=       -0.000000000038 Rises=F Damp=F
 DIIS: error= 2.79D-07 at cycle  10 NSaved=  10.
 NSaved=10 IEnMin=10 EnMin= -2805.08252237357     IErMin=10 ErrMin= 2.79D-07
 ErrMax= 2.79D-07  0.00D+00 EMaxC= 1.00D-01 BMatC= 6.99D-12 BMatP= 4.47D-11
 IDIUse=1 WtCom= 1.00D+00 WtEn= 0.00D+00
 Coeff-Com:  0.315D-05-0.802D-03 0.318D-05 0.596D-02 0.155D-01-0.839D-04
 Coeff-Com: -0.882D-01-0.831D-01 0.132D+00 0.102D+01
 Coeff:      0.315D-05-0.802D-03 0.318D-05 0.596D-02 0.155D-01-0.839D-04
 Coeff:     -0.882D-01-0.831D-01 0.132D+00 0.102D+01
 Gap=     0.306 Goal=   None    Shift=    0.000
 Gap=     0.243 Goal=   None    Shift=    0.000
 RMSDP=7.46D-08 MaxDP=4.82D-06 DE=-3.77D-11 OVMax= 2.37D-06

 Cycle  11  Pass 1  IDiag  1:
 E= -2805.08252237357     Delta-E=        0.000000000000 Rises=F Damp=F
 DIIS: error= 1.45D-07 at cycle  11 NSaved=  11.
 NSaved=11 IEnMin=10 EnMin= -2805.08252237357     IErMin=11 ErrMin= 1.45D-07
 ErrMax= 1.45D-07  0.00D+00 EMaxC= 1.00D-01 BMatC= 2.25D-12 BMatP= 6.99D-12
 IDIUse=1 WtCom= 1.00D+00 WtEn= 0.00D+00
 Coeff-Com:  0.475D-05-0.287D-03-0.162D-03 0.856D-03 0.664D-02 0.117D-01
 Coeff-Com: -0.562D-02-0.860D-01-0.196D+00 0.259D+00 0.101D+01
 Coeff:      0.475D-05-0.287D-03-0.162D-03 0.856D-03 0.664D-02 0.117D-01
 Coeff:     -0.562D-02-0.860D-01-0.196D+00 0.259D+00 0.101D+01
 Gap=     0.306 Goal=   None    Shift=    0.000
 Gap=     0.243 Goal=   None    Shift=    0.000
 RMSDP=4.64D-08 MaxDP=2.44D-06 DE= 4.55D-13 OVMax= 1.38D-06

 Cycle  12  Pass 1  IDiag  1:
 E= -2805.08252237358     Delta-E=       -0.000000000015 Rises=F Damp=F
 DIIS: error= 6.09D-08 at cycle  12 NSaved=  12.
 NSaved=12 IEnMin=12 EnMin= -2805.08252237358     IErMin=12 ErrMin= 6.09D-08
 ErrMax= 6.09D-08  0.00D+00 EMaxC= 1.00D-01 BMatC= 5.98D-13 BMatP= 2.25D-12
 IDIUse=1 WtCom= 1.00D+00 WtEn= 0.00D+00
 Coeff-Com:  0.343D-06 0.202D-03-0.474D-04-0.180D-02-0.400D-02 0.318D-02
 Coeff-Com:  0.294D-01 0.642D-02-0.999D-01-0.277D+00 0.252D+00 0.109D+01
 Coeff:      0.343D-06 0.202D-03-0.474D-04-0.180D-02-0.400D-02 0.318D-02
 Coeff:      0.294D-01 0.642D-02-0.999D-01-0.277D+00 0.252D+00 0.109D+01
 Gap=     0.306 Goal=   None    Shift=    0.000
 Gap=     0.243 Goal=   None    Shift=    0.000
 RMSDP=2.57D-08 MaxDP=1.06D-06 DE=-1.55D-11 OVMax= 9.37D-07

 Cycle  13  Pass 1  IDiag  1:
 E= -2805.08252237358     Delta-E=        0.000000000005 Rises=F Damp=F
 DIIS: error= 2.63D-08 at cycle  13 NSaved=  13.
 NSaved=13 IEnMin=12 EnMin= -2805.08252237358     IErMin=13 ErrMin= 2.63D-08
 ErrMax= 2.63D-08  0.00D+00 EMaxC= 1.00D-01 BMatC= 1.46D-13 BMatP= 5.98D-13
 IDIUse=1 WtCom= 1.00D+00 WtEn= 0.00D+00
 Coeff-Com: -0.774D-06 0.141D-03 0.123D-04-0.976D-03-0.277D-02-0.326D-03
 Coeff-Com:  0.124D-01 0.188D-01-0.147D-02-0.178D+00-0.923D-01 0.467D+00
 Coeff-Com:  0.777D+00
 Coeff:     -0.774D-06 0.141D-03 0.123D-04-0.976D-03-0.277D-02-0.326D-03
 Coeff:      0.124D-01 0.188D-01-0.147D-02-0.178D+00-0.923D-01 0.467D+00
 Coeff:      0.777D+00
 Gap=     0.306 Goal=   None    Shift=    0.000
 Gap=     0.243 Goal=   None    Shift=    0.000
 RMSDP=1.01D-08 MaxDP=5.90D-07 DE= 5.00D-12 OVMax= 3.31D-07

 Cycle  14  Pass 1  IDiag  1:
 E= -2805.08252237357     Delta-E=        0.000000000007 Rises=F Damp=F
 DIIS: error= 7.50D-09 at cycle  14 NSaved=  14.
 NSaved=14 IEnMin=12 EnMin= -2805.08252237358     IErMin=14 ErrMin= 7.50D-09
 ErrMax= 7.50D-09  0.00D+00 EMaxC= 1.00D-01 BMatC= 1.13D-14 BMatP= 1.46D-13
 IDIUse=1 WtCom= 1.00D+00 WtEn= 0.00D+00
 Coeff-Com: -0.168D-06-0.136D-04 0.125D-04 0.160D-03 0.278D-03-0.487D-03
 Coeff-Com: -0.315D-02 0.131D-02 0.155D-01 0.195D-01-0.425D-01-0.127D+00
 Coeff-Com:  0.600D-01 0.108D+01
 Coeff:     -0.168D-06-0.136D-04 0.125D-04 0.160D-03 0.278D-03-0.487D-03
 Coeff:     -0.315D-02 0.131D-02 0.155D-01 0.195D-01-0.425D-01-0.127D+00
 Coeff:      0.600D-01 0.108D+01
 Gap=     0.306 Goal=   None    Shift=    0.000
 Gap=     0.243 Goal=   None    Shift=    0.000
 RMSDP=5.87D-09 MaxDP=2.69D-07 DE= 7.28D-12 OVMax= 1.14D-07

 Error on total polarization charges =  0.02346
 SCF Done:  E(UM062X) =  -2805.08252237     A.U. after   14 cycles
            NFock= 14  Conv=0.59D-08     -V/T= 2.0014
 <Sx>= 0.0000 <Sy>= 0.0000 <Sz>= 0.5000 <S**2>= 0.7619 S= 0.5059
 <L.S>=  0.00000000000    
 KE= 2.801134525922D+03 PE=-7.526548432026D+03 EE= 1.501584249877D+03
 SMD-CDS (non-electrostatic) energy       (kcal/mol) =       2.17
 (included in total energy above)
 Annihilation of the first spin contaminant:
 S**2 before annihilation     0.7619,   after     0.7501
 Leave Link  502 at Mon Sep 28 02:01:50 2026, MaxMem=  1610612736 cpu:             142.5 elap:              19.0
 (Enter /share/software/user/restricted/gaussian/g16.B01/l701.exe)
 ... and contract with generalized density number  0.
 Compute integral first derivatives.
 D1PCM: PCM CHGder 1st derivatives, ID1Alg=3 FixD1E=F DoIter=F DoCFld=F I1PDM=0.
 GePol: Maximum number of non-zero 1st derivatives   =     549
 Leave Link  701 at Mon Sep 28 02:01:50 2026, MaxMem=  1610612736 cpu:               2.8 elap:               0.4
 (Enter /share/software/user/restricted/gaussian/g16.B01/l702.exe)
 L702 exits ... SP integral derivatives will be done elsewhere.
 Leave Link  702 at Mon Sep 28 02:01:50 2026, MaxMem=  1610612736 cpu:               0.2 elap:               0.0
 (Enter /share/software/user/restricted/gaussian/g16.B01/l703.exe)
 Integral derivatives from FoFJK, PRISM(SPDF).
 Compute integral first derivatives, UseDBF=F ICtDFT=           0.
 Calling FoFJK, ICntrl=      2127 FMM=F ISym2X=1 I1Cent= 0 IOpClX= 1 NMat=1 NMatS=1 NMatT=0.
 FoFJK:  IHMeth= 1 ICntrl=    2127 DoSepK=F KAlg= 0 I1Cent=           0 FoldK=F
 IRaf=         0 NMat=       1 IRICut=       1 DoRegI=T DoRafI=F ISym2E= 1 IDoP0=0 IntGTp=1.
 FoFCou: FMM=F IPFlag=           0 FMFlag=      100000 FMFlg1=         800
         NFxFlg=           0 DoJE=F BraDBF=F KetDBF=F FulRan=T
         wScrn=  0.000000 ICntrl=      2127 IOpCl=  1 I1Cent=           0 NGrid=           0
         NMat0=    1 NMatS0=      1 NMatT0=    0 NMatD0=    1 NMtDS0=    0 NMtDT0=    0
 Petite list used in FoFCou.
 Leave Link  703 at Mon Sep 28 02:01:53 2026, MaxMem=  1610612736 cpu:              20.4 elap:               2.6
 (Enter /share/software/user/restricted/gaussian/g16.B01/l716.exe)
 Dipole        = 6.31236501D-01 6.33717373D-01-7.02322784D-32
 ***** Axes restored to original set *****
 -------------------------------------------------------------------
 Center     Atomic                   Forces (Hartrees/Bohr)
 Number     Number              X              Y              Z
 -------------------------------------------------------------------
      1        6          -0.000709775    0.000274528    0.000000000
      2        6           0.001033222   -0.000307120   -0.000000000
      3        6          -0.000981318    0.000704436   -0.000000000
      4        6           0.000718572   -0.000657509   -0.000000000
      5        6          -0.000125742    0.000593336    0.000000000
      6        6           0.000432020   -0.000434971    0.000000000
      7        1           0.000121631    0.000139128   -0.000000000
      8       35           0.000349178   -0.000200630   -0.000000000
      9        1          -0.000051662   -0.000285010   -0.000000000
     10        1          -0.000439308   -0.000030717   -0.000000000
     11        1          -0.000346818    0.000204529   -0.000000000
 -------------------------------------------------------------------
 Cartesian Forces:  Max     0.001033222 RMS     0.000409319
 Leave Link  716 at Mon Sep 28 02:01:53 2026, MaxMem=  1610612736 cpu:               0.2 elap:               0.0
 (Enter /share/software/user/restricted/gaussian/g16.B01/l103.exe)

 GradGradGradGradGradGradGradGradGradGradGradGradGradGradGradGradGradGrad
 Berny optimization.
 Using GEDIIS/GDIIS optimizer.
 FormGI is forming the generalized inverse of G from B-inverse, IUseBI=4.
 Internal  Forces:  Max     0.000678645 RMS     0.000225799
 Search for a local minimum.
 Step number   3 out of a maximum of   57
 All quantities printed in internal units (Hartrees-Bohrs-Radians)
 RMS Force = .22580D-03 SwitMx=.10000D-02 MixMth= 2
 Mixed Optimization -- En-DIIS/RFO-DIIS
 Update second derivatives using D2CorX and points    1    2    3
 DE= -1.24D-04 DEPred=-1.04D-04 R= 1.19D+00
 TightC=F SS=  1.41D+00  RLast= 3.12D-02 DXNew= 5.8211D-01 9.3704D-02
 Trust test= 1.19D+00 RLast= 3.12D-02 DXMaxT set to 3.46D-01
 ITU=  1  1  0
 Use linear search instead of GDIIS.
     Eigenvalues ---    0.01959   0.01993   0.02013   0.02035   0.02044
     Eigenvalues ---    0.02109   0.02164   0.02393   0.14990   0.16000
     Eigenvalues ---    0.16002   0.16065   0.16642   0.21560   0.22033
     Eigenvalues ---    0.23654   0.25024   0.33608   0.33907   0.34049
     Eigenvalues ---    0.35827   0.40620   0.42858   0.43402   0.45000
     Eigenvalues ---    0.50467   0.50724
 RFO step:  Lambda=-4.06317381D-06 EMin= 1.95941605D-02
 Quartic linear search produced a step of  0.15525.
 Iteration  1 RMS(Cart)=  0.00096227 RMS(Int)=  0.00000099
 Iteration  2 RMS(Cart)=  0.00000092 RMS(Int)=  0.00000070
 ITry= 1 IFail=0 DXMaxC= 3.12D-03 DCOld= 1.00D+10 DXMaxT= 3.46D-01 DXLimC= 3.00D+00 Rises=F
 ClnCor:  largest displacement from symmetrization is 5.19D-11 for atom     9.
 Variable       Old X    -DE/DX   Delta X   Delta X   Delta X     New X
                                 (Linear)    (Quad)   (Total)
    R1        2.59315   0.00066   0.00087   0.00064   0.00152   2.59466
    R2        2.59446   0.00001   0.00071  -0.00068   0.00003   2.59448
    R3        2.63800   0.00000  -0.00114   0.00090  -0.00024   2.63776
    R4        2.04776   0.00018   0.00006   0.00026   0.00032   2.04809
    R5        2.62854   0.00013  -0.00030   0.00037   0.00008   2.62861
    R6        3.59902   0.00040   0.00169   0.00118   0.00288   3.60190
    R7        2.63127   0.00068   0.00053   0.00098   0.00151   2.63278
    R8        2.04579   0.00029  -0.00013   0.00075   0.00061   2.04640
    R9        2.64245  -0.00012  -0.00052   0.00000  -0.00052   2.64193
   R10        2.04806   0.00039   0.00002   0.00102   0.00104   2.04910
   R11        2.04713   0.00040   0.00012   0.00097   0.00110   2.04823
    A1        2.20636  -0.00002  -0.00158   0.00105  -0.00053   2.20583
    A2        2.01429  -0.00032  -0.00030  -0.00110  -0.00140   2.01289
    A3        2.14228   0.00010   0.00041  -0.00010   0.00032   2.14260
    A4        2.12662   0.00022  -0.00012   0.00120   0.00108   2.12770
    A5        2.12391   0.00049   0.00219   0.00042   0.00262   2.12652
    A6        2.07762  -0.00025  -0.00128  -0.00006  -0.00134   2.07628
    A7        2.08166  -0.00023  -0.00091  -0.00037  -0.00128   2.08038
    A8        2.08674  -0.00036  -0.00175  -0.00021  -0.00196   2.08478
    A9        2.10111   0.00023   0.00093   0.00037   0.00130   2.10240
   A10        2.09534   0.00013   0.00082  -0.00016   0.00066   2.09600
   A11        2.10500   0.00001   0.00021  -0.00011   0.00010   2.10510
   A12        2.08315   0.00019   0.00016   0.00113   0.00129   2.08444
   A13        2.09503  -0.00021  -0.00037  -0.00101  -0.00139   2.09364
   A14        2.03007   0.00020   0.00122  -0.00006   0.00117   2.03124
   A15        2.13805  -0.00010  -0.00022  -0.00033  -0.00055   2.13750
   A16        2.11507  -0.00011  -0.00101   0.00039  -0.00062   2.11445
    D1       -0.00000  -0.00000   0.00000  -0.00000   0.00000   0.00000
    D2        3.14159  -0.00000   0.00000  -0.00000   0.00000   3.14159
    D3        0.00000   0.00000   0.00000  -0.00000   0.00000   0.00000
    D4        3.14159   0.00000   0.00000   0.00000   0.00000   3.14159
    D5        0.00000   0.00000   0.00000   0.00000  -0.00000   0.00000
    D6        3.14159   0.00000   0.00000   0.00000   0.00000   3.14159
    D7        3.14159   0.00000   0.00000   0.00000   0.00000   3.14159
    D8       -0.00000   0.00000   0.00000   0.00000   0.00000   0.00000
    D9       -0.00000   0.00000   0.00000  -0.00000   0.00000   0.00000
   D10        3.14159  -0.00000   0.00000  -0.00000   0.00000   3.14159
   D11        3.14159  -0.00000   0.00000  -0.00000   0.00000   3.14159
   D12        0.00000  -0.00000   0.00000  -0.00000  -0.00000   0.00000
   D13        0.00000  -0.00000   0.00000  -0.00000   0.00000   0.00000
   D14        3.14159  -0.00000   0.00000  -0.00000   0.00000   3.14159
   D15        3.14159  -0.00000   0.00000  -0.00000   0.00000   3.14159
   D16        0.00000  -0.00000   0.00000  -0.00000  -0.00000   0.00000
   D17       -0.00000   0.00000   0.00000   0.00000   0.00000   0.00000
   D18        3.14159  -0.00000   0.00000   0.00000   0.00000   3.14159
   D19        3.14159   0.00000   0.00000   0.00000   0.00000   3.14159
   D20        0.00000  -0.00000   0.00000  -0.00000   0.00000   0.00000
         Item               Value     Threshold  Converged?
 Maximum Force            0.000679     0.000450     NO 
 RMS     Force            0.000226     0.000300     YES
 Maximum Displacement     0.003122     0.001800     NO 
 RMS     Displacement     0.000962     0.001200     YES
 Predicted change in Energy=-4.829298D-06
 Lowest energy point so far.  Saving SCF results.
 GradGradGradGradGradGradGradGradGradGradGradGradGradGradGradGradGradGrad

 Leave Link  103 at Mon Sep 28 02:01:53 2026, MaxMem=  1610612736 cpu:               0.1 elap:               0.0
 (Enter /share/software/user/restricted/gaussian/g16.B01/l202.exe)
                          Input orientation:                          
 ---------------------------------------------------------------------
 Center     Atomic      Atomic             Coordinates (Angstroms)
 Number     Number       Type             X           Y           Z
 ---------------------------------------------------------------------
      1          6           0        0.002853    1.326244   -0.000000
      2          6           0        1.229817    0.709972   -0.000000
      3          6           0        1.197200   -0.685491   -0.000000
      4          6           0       -0.001305   -1.391517   -0.000000
      5          6           0       -1.207261   -0.693883   -0.000000
      6          6           0       -1.221035    0.704098   -0.000000
      7          1           0        2.162986    1.261169   -0.000000
      8         35           0        2.842851   -1.647175    0.000000
      9          1           0       -0.000492   -2.474425   -0.000000
     10          1           0       -2.141350   -1.244574   -0.000000
     11          1           0       -2.154122    1.255583   -0.000000
 ---------------------------------------------------------------------
                    Distance matrix (angstroms):
                    1          2          3          4          5
     1  C    0.000000
     2  C    1.373037   0.000000
     3  C    2.339560   1.395844   0.000000
     4  C    2.717764   2.435552   1.391002   0.000000
     5  C    2.354843   2.812500   2.404476   1.393207   0.000000
     6  C    1.372941   2.450859   2.789053   2.424736   1.398049
     7  H    2.161114   1.083801   2.173069   3.423580   3.896254
     8  Br   4.111789   2.856225   1.906044   2.855623   4.160790
     9  H    3.800671   3.413802   2.152847   1.082909   2.150959
    10  H    3.347642   3.896795   3.385039   2.145084   1.084335
    11  H    2.158132   3.427642   3.872871   3.412003   2.167248
                    6          7          8          9         10
     6  C    0.000000
     7  H    3.429567   0.000000
     8  Br   4.695067   2.986751   0.000000
     9  H    3.404811   4.316863   2.961240   0.000000
    10  H    2.155064   4.980568   5.000435   2.468969   0.000000
    11  H    1.083876   4.317112   5.778906   4.307097   2.500190
                   11
    11  H    0.000000
 Stoichiometry    C6H4Br(2)
 Framework group  CS[SG(C6H4Br)]
 Deg. of freedom    19
 Full point group                 CS      NOp   2
 RotChk:  IX=0 Diff= 4.20D-03
 Largest Abelian subgroup         CS      NOp   2
 Largest concise Abelian subgroup C1      NOp   1
                         Standard orientation:                         
 ---------------------------------------------------------------------
 Center     Atomic      Atomic             Coordinates (Angstroms)
 Number     Number       Type             X           Y           Z
 ---------------------------------------------------------------------
      1          6           0       -0.571035    2.412142    0.000000
      2          6           0       -1.006849    1.110106    0.000000
      3          6           0        0.000000    0.143340    0.000000
      4          6           0        1.347767    0.487449    0.000000
      5          6           0        1.711325    1.832384    0.000000
      6          6           0        0.735605    2.833638    0.000000
      7          1           0       -2.057277    0.843226    0.000000
      8         35           0       -0.489282   -1.698835   -0.000000
      9          1           0        2.110573   -0.281197   -0.000000
     10          1           0        2.762048    2.100270    0.000000
     11          1           0        1.008652    3.882558    0.000000
 ---------------------------------------------------------------------
 Rotational constants (GHZ):           6.1087918           1.0062506           0.8639408
 Leave Link  202 at Mon Sep 28 02:01:53 2026, MaxMem=  1610612736 cpu:               0.1 elap:               0.0
 (Enter /share/software/user/restricted/gaussian/g16.B01/l301.exe)
 Standard basis: 6-311++G(d) (5D, 7F)
 Ernie: Thresh=  0.10000D-02 Tol=  0.10000D-05 Strict=F.
 There are   155 symmetry adapted cartesian basis functions of A'  symmetry.
 There are    50 symmetry adapted cartesian basis functions of A"  symmetry.
 There are   146 symmetry adapted basis functions of A'  symmetry.
 There are    50 symmetry adapted basis functions of A"  symmetry.
   196 basis functions,   334 primitive gaussians,   205 cartesian basis functions
    38 alpha electrons       37 beta electrons
       nuclear repulsion energy       418.6412136644 Hartrees.
 IExCor= 4336 DFT=T Ex+Corr=M062X ExCW=0 ScaHFX=  0.540000
 ScaDFX=  1.000000  1.000000  1.000000  1.000000 ScalE2=  1.000000  1.000000
 IRadAn=      5 IRanWt=     -1 IRanGd=            0 ICorTp=0 IEmpDi=  4
 NAtoms=   11 NActive=   11 NUniq=   11 SFac= 1.00D+00 NAtFMM=   60 NAOKFM=F Big=F
 Integral buffers will be    131072 words long.
 Raffenetti 2 integral format.
 Two-electron integral symmetry is turned on.
 ------------------------------------------------------------------------------
 Polarizable Continuum Model (PCM)
 =================================
 Model                : PCM.
 Atomic radii         : SMD-Coulomb.
 Polarization charges : Total charges.
 Charge compensation  : None.
 Solution method      : On-the-fly selection.
 Cavity type          : VdW (van der Waals Surface) (Alpha=1.000).
 Cavity algorithm     : GePol (No added spheres)
                        Default sphere list used, NSphG=   11.
                        Lebedev-Laikov grids with approx.  5.0 points / Ang**2.
                        Smoothing algorithm: York/Karplus (Gamma=1.0000).
                        Polarization charges: spherical gaussians, with
                                              point-specific exponents (IZeta= 3).
                        Self-potential: point-specific (ISelfS= 7).
                        Self-field    : sphere-specific E.n sum rule (ISelfD= 2).
 1st derivatives      : Analytical E(r).r(x)/FMM algorithm (CHGder, D1EAlg=3).
                        Cavity 1st derivative terms included.
 Solvent              : Water, Eps=  78.355300 Eps(inf)=   1.777849
 ------------------------------------------------------------------------------
 Spheres list:
 ISph  on   Nord     Re0    Alpha      Xe            Ye            Ze
    1   C      1    1.8500  1.000     -0.571035      2.412142      0.000000
    2   C      2    1.8500  1.000     -1.006849      1.110106      0.000000
    3   C      3    1.8500  1.000      0.000000      0.143340      0.000000
    4   C      4    1.8500  1.000      1.347767      0.487449      0.000000
    5   C      5    1.8500  1.000      1.711325      1.832384      0.000000
    6   C      6    1.8500  1.000      0.735605      2.833638      0.000000
    7   H      7    1.2000  1.000     -2.057277      0.843226      0.000000
    8  Br      8    3.0600  1.000     -0.489282     -1.698835     -0.000000
    9   H      9    1.2000  1.000      2.110573     -0.281197     -0.000000
   10   H     10    1.2000  1.000      2.762048      2.100270      0.000000
   11   H     11    1.2000  1.000      1.008652      3.882558      0.000000
 ------------------------------------------------------------------------------
 GePol: Number of generator spheres                  =      11
 GePol: Total number of spheres                      =      11
 GePol: Number of exposed spheres                    =      11 (100.00%)
 GePol: Number of points                             =    1258
 GePol: Average weight of points                     =       0.14
 GePol: Minimum weight of points                     =   0.44D-09
 GePol: Maximum weight of points                     =    0.22025
 GePol: Number of points with low weight             =      54
 GePol: Fraction of low-weight points (<1% of avg)   =       4.29%
 GePol: Cavity surface area                          =    174.584 Ang**2
 GePol: Cavity volume                                =    181.822 Ang**3
 ------------------------------------------------------------------------------
 Atomic radii for non-electrostatic terms: SMD-CDS.
 ------------------------------------------------------------------------------
 PCM non-electrostatic energy =         0.0034652839 Hartrees.
 Nuclear repulsion after PCM non-electrostatic terms =      418.6446789482 Hartrees.
 Leave Link  301 at Mon Sep 28 02:01:53 2026, MaxMem=  1610612736 cpu:               0.3 elap:               0.0
 (Enter /share/software/user/restricted/gaussian/g16.B01/l302.exe)
 NPDir=0 NMtPBC=     1 NCelOv=     1 NCel=       1 NClECP=     1 NCelD=      1
         NCelK=      1 NCelE2=     1 NClLst=     1 CellRange=     0.0.
 One-electron integrals computed using PRISM.
 One-electron integral symmetry used in STVInt
 NBasis=   196 RedAO= T EigKep=  1.80D-06  NBF=   146    50
 NBsUse=   196 1.00D-06 EigRej= -1.00D+00 NBFU=   146    50
 Precomputing XC quadrature grid using
 IXCGrd= 4 IRadAn=           5 IRanWt=          -1 IRanGd=           0 AccXCQ= 0.00D+00.
 Generated NRdTot=       0 NPtTot=           0 NUsed=           0 NTot=          32
 NSgBfM=   205   205   205   205   205 MxSgAt=    11 MxSgA2=    11.
 Leave Link  302 at Mon Sep 28 02:01:53 2026, MaxMem=  1610612736 cpu:               1.1 elap:               0.2
 (Enter /share/software/user/restricted/gaussian/g16.B01/l303.exe)
 DipDrv:  MaxL=1.
 Leave Link  303 at Mon Sep 28 02:01:53 2026, MaxMem=  1610612736 cpu:               0.4 elap:               0.1
 (Enter /share/software/user/restricted/gaussian/g16.B01/l401.exe)
 Initial guess from the checkpoint file:  "calcs/m062x_smd/chks/BrPh_3_rad.chk"
 B after Tr=    -0.000000    0.000000    0.000000
         Rot=    0.999999    0.000000    0.000000   -0.001425 Ang=  -0.16 deg.
 Guess basis will be translated and rotated to current coordinates.
 JPrj=2 DoOrth=T DoCkMO=T.
 Initial guess orbital symmetries:
 Alpha Orbitals:
       Occupied  (A') (A') (A') (A") (A') (A') (A') (A') (A') (A')
                 (A') (A') (A') (A") (A') (A') (A") (A') (A') (A")
                 (A') (A') (A') (A') (A') (A') (A') (A') (A') (A')
                 (A") (A') (A') (A") (A') (A") (A') (A")
       Virtual   (A") (A') (A") (A') (A') (A') (A') (A") (A') (A')
                 (A') (A") (A') (A") (A') (A") (A') (A') (A") (A')
                 (A') (A") (A') (A") (A') (A') (A') (A') (A') (A")
                 (A') (A') (A') (A') (A') (A') (A') (A') (A') (A')
                 (A') (A') (A') (A') (A") (A') (A') (A') (A') (A")
                 (A") (A') (A') (A') (A") (A') (A") (A") (A') (A')
                 (A') (A") (A") (A') (A') (A') (A") (A') (A') (A')
                 (A') (A') (A') (A') (A') (A') (A') (A') (A') (A')
                 (A") (A') (A") (A') (A") (A") (A') (A") (A") (A')
                 (A') (A') (A') (A') (A') (A") (A') (A") (A') (A')
                 (A") (A") (A') (A") (A') (A') (A") (A') (A') (A')
                 (A') (A') (A") (A') (A') (A') (A') (A") (A') (A")
                 (A") (A') (A") (A") (A') (A") (A') (A') (A') (A')
                 (A') (A') (A') (A') (A') (A') (A') (A") (A') (A")
                 (A') (A') (A') (A') (A") (A') (A') (A') (A') (A')
                 (A') (A') (A') (A') (A") (A') (A') (A')
 Beta  Orbitals:
       Occupied  (A') (A') (A') (A") (A') (A') (A') (A') (A') (A')
                 (A') (A') (A') (A") (A') (A') (A") (A') (A') (A")
                 (A') (A') (A') (A') (A') (A') (A') (A') (A') (A')
                 (A") (A') (A') (A") (A') (A") (A")
       Virtual   (A') (A") (A') (A') (A") (A') (A') (A') (A") (A')
                 (A') (A') (A") (A") (A') (A') (A") (A') (A') (A')
                 (A") (A') (A") (A') (A") (A') (A') (A') (A') (A')
                 (A') (A") (A') (A') (A') (A') (A') (A') (A') (A')
                 (A') (A') (A') (A') (A') (A") (A') (A') (A') (A')
                 (A') (A") (A") (A') (A') (A") (A') (A") (A") (A')
                 (A') (A') (A") (A") (A') (A') (A') (A") (A') (A')
                 (A') (A') (A') (A') (A') (A') (A') (A') (A') (A')
                 (A') (A") (A') (A") (A') (A") (A") (A') (A") (A")
                 (A') (A') (A') (A') (A') (A') (A") (A") (A') (A')
                 (A') (A") (A") (A') (A") (A') (A') (A") (A') (A')
                 (A') (A') (A') (A") (A') (A') (A') (A') (A") (A')
                 (A") (A") (A') (A") (A") (A') (A") (A') (A') (A')
                 (A') (A') (A') (A') (A') (A') (A') (A') (A") (A')
                 (A") (A') (A') (A') (A') (A") (A') (A') (A') (A')
                 (A') (A') (A') (A') (A') (A") (A') (A') (A')
 The electronic state of the initial guess is 2-A'.
 Initial guess <Sx>= 0.0000 <Sy>= 0.0000 <Sz>= 0.5000 <S**2>= 0.7619 S= 0.5059
 Leave Link  401 at Mon Sep 28 02:01:54 2026, MaxMem=  1610612736 cpu:               2.8 elap:               0.4
 (Enter /share/software/user/restricted/gaussian/g16.B01/l502.exe)
 Keep R1 and R2 ints in memory in symmetry-blocked form, NReq=296222914.
 FoFCou: FMM=F IPFlag=           0 FMFlag=           0 FMFlg1=           0
         NFxFlg=           0 DoJE=F BraDBF=F KetDBF=F FulRan=T
         wScrn=  0.000000 ICntrl=       600 IOpCl=  0 I1Cent=           0 NGrid=           0
         NMat0=    1 NMatS0=  19306 NMatT0=    0 NMatD0=    1 NMtDS0=    0 NMtDT0=    0
 Petite list used in FoFCou.
 UHF open shell SCF:
 Using DIIS extrapolation, IDIIS=  1040.
 NGot=  1610612736 LenX=  1413030086 LenY=  1412987620
 Requested convergence on RMS density matrix=1.00D-08 within 128 cycles.
 Requested convergence on MAX density matrix=1.00D-06.
 Requested convergence on             energy=1.00D-06.
 No special actions if energy rises.

 Cycle   1  Pass 1  IDiag  1:
 Inv3:  Mode=1 IEnd=     4747692.
 Iteration    1 A*A^-1 deviation from unit magnitude is 3.22D-15 for   1246.
 Iteration    1 A*A^-1 deviation from orthogonality  is 1.85D-15 for    642    281.
 Iteration    1 A^-1*A deviation from unit magnitude is 3.00D-15 for   1246.
 Iteration    1 A^-1*A deviation from orthogonality  is 1.72D-15 for   1109    584.
 E= -2805.08252325519    
 DIIS: error= 1.80D-04 at cycle   1 NSaved=   1.
 NSaved= 1 IEnMin= 1 EnMin= -2805.08252325519     IErMin= 1 ErrMin= 1.80D-04
 ErrMax= 1.80D-04  0.00D+00 EMaxC= 1.00D-01 BMatC= 3.11D-05 BMatP= 3.11D-05
 IDIUse=3 WtCom= 9.98D-01 WtEn= 1.80D-03
 Coeff-Com:  0.100D+01
 Coeff-En:   0.100D+01
 Coeff:      0.100D+01
 Gap=     0.306 Goal=   None    Shift=    0.000
 Gap=     0.244 Goal=   None    Shift=    0.000
 RMSDP=1.55D-04 MaxDP=8.48D-03              OVMax= 8.22D-04

 Cycle   2  Pass 1  IDiag  1:
 E= -2805.08252729609     Delta-E=       -0.000004040902 Rises=F Damp=F
 DIIS: error= 4.01D-05 at cycle   2 NSaved=   2.
 NSaved= 2 IEnMin= 2 EnMin= -2805.08252729609     IErMin= 2 ErrMin= 4.01D-05
 ErrMax= 4.01D-05  0.00D+00 EMaxC= 1.00D-01 BMatC= 1.08D-06 BMatP= 3.11D-05
 IDIUse=1 WtCom= 1.00D+00 WtEn= 0.00D+00
 Coeff-Com:  0.308D-01 0.969D+00
 Coeff:      0.308D-01 0.969D+00
 Gap=     0.306 Goal=   None    Shift=    0.000
 Gap=     0.243 Goal=   None    Shift=    0.000
 RMSDP=1.42D-05 MaxDP=9.13D-04 DE=-4.04D-06 OVMax= 2.55D-04

 Cycle   3  Pass 1  IDiag  1:
 E= -2805.08252738553     Delta-E=       -0.000000089440 Rises=F Damp=F
 DIIS: error= 3.90D-05 at cycle   3 NSaved=   3.
 NSaved= 3 IEnMin= 3 EnMin= -2805.08252738553     IErMin= 3 ErrMin= 3.90D-05
 ErrMax= 3.90D-05  0.00D+00 EMaxC= 1.00D-01 BMatC= 1.01D-06 BMatP= 1.08D-06
 IDIUse=1 WtCom= 1.00D+00 WtEn= 0.00D+00
 Coeff-Com: -0.133D-01 0.496D+00 0.518D+00
 Coeff:     -0.133D-01 0.496D+00 0.518D+00
 Gap=     0.306 Goal=   None    Shift=    0.000
 Gap=     0.243 Goal=   None    Shift=    0.000
 RMSDP=1.50D-05 MaxDP=9.65D-04 DE=-8.94D-08 OVMax= 1.29D-04

 Cycle   4  Pass 1  IDiag  1:
 E= -2805.08252762465     Delta-E=       -0.000000239123 Rises=F Damp=F
 DIIS: error= 1.05D-05 at cycle   4 NSaved=   4.
 NSaved= 4 IEnMin= 4 EnMin= -2805.08252762465     IErMin= 4 ErrMin= 1.05D-05
 ErrMax= 1.05D-05  0.00D+00 EMaxC= 1.00D-01 BMatC= 2.76D-08 BMatP= 1.01D-06
 IDIUse=1 WtCom= 1.00D+00 WtEn= 0.00D+00
 Coeff-Com: -0.630D-02 0.103D+00 0.169D+00 0.734D+00
 Coeff:     -0.630D-02 0.103D+00 0.169D+00 0.734D+00
 Gap=     0.306 Goal=   None    Shift=    0.000
 Gap=     0.243 Goal=   None    Shift=    0.000
 RMSDP=1.67D-06 MaxDP=8.60D-05 DE=-2.39D-07 OVMax= 4.16D-05

 Cycle   5  Pass 1  IDiag  1:
 E= -2805.08252763174     Delta-E=       -0.000000007091 Rises=F Damp=F
 DIIS: error= 3.59D-06 at cycle   5 NSaved=   5.
 NSaved= 5 IEnMin= 5 EnMin= -2805.08252763174     IErMin= 5 ErrMin= 3.59D-06
 ErrMax= 3.59D-06  0.00D+00 EMaxC= 1.00D-01 BMatC= 6.71D-09 BMatP= 2.76D-08
 IDIUse=1 WtCom= 1.00D+00 WtEn= 0.00D+00
 Coeff-Com: -0.934D-03-0.300D-01 0.237D-03 0.332D+00 0.699D+00
 Coeff:     -0.934D-03-0.300D-01 0.237D-03 0.332D+00 0.699D+00
 Gap=     0.306 Goal=   None    Shift=    0.000
 Gap=     0.243 Goal=   None    Shift=    0.000
 RMSDP=1.05D-06 MaxDP=5.97D-05 DE=-7.09D-09 OVMax= 2.07D-05

 Cycle   6  Pass 1  IDiag  1:
 E= -2805.08252763396     Delta-E=       -0.000000002218 Rises=F Damp=F
 DIIS: error= 1.24D-06 at cycle   6 NSaved=   6.
 NSaved= 6 IEnMin= 6 EnMin= -2805.08252763396     IErMin= 6 ErrMin= 1.24D-06
 ErrMax= 1.24D-06  0.00D+00 EMaxC= 1.00D-01 BMatC= 6.00D-10 BMatP= 6.71D-09
 IDIUse=1 WtCom= 1.00D+00 WtEn= 0.00D+00
 Coeff-Com:  0.473D-03-0.244D-01-0.196D-01 0.139D-01 0.218D+00 0.811D+00
 Coeff:      0.473D-03-0.244D-01-0.196D-01 0.139D-01 0.218D+00 0.811D+00
 Gap=     0.306 Goal=   None    Shift=    0.000
 Gap=     0.243 Goal=   None    Shift=    0.000
 RMSDP=4.34D-07 MaxDP=3.03D-05 DE=-2.22D-09 OVMax= 1.12D-05

 Cycle   7  Pass 1  IDiag  1:
 E= -2805.08252763425     Delta-E=       -0.000000000290 Rises=F Damp=F
 DIIS: error= 6.55D-07 at cycle   7 NSaved=   7.
 NSaved= 7 IEnMin= 7 EnMin= -2805.08252763425     IErMin= 7 ErrMin= 6.55D-07
 ErrMax= 6.55D-07  0.00D+00 EMaxC= 1.00D-01 BMatC= 8.08D-11 BMatP= 6.00D-10
 IDIUse=1 WtCom= 1.00D+00 WtEn= 0.00D+00
 Coeff-Com:  0.205D-03 0.424D-03-0.382D-02-0.430D-01-0.571D-01 0.132D+00
 Coeff-Com:  0.972D+00
 Coeff:      0.205D-03 0.424D-03-0.382D-02-0.430D-01-0.571D-01 0.132D+00
 Coeff:      0.972D+00
 Gap=     0.306 Goal=   None    Shift=    0.000
 Gap=     0.243 Goal=   None    Shift=    0.000
 RMSDP=2.27D-07 MaxDP=1.29D-05 DE=-2.90D-10 OVMax= 6.11D-06

 Cycle   8  Pass 1  IDiag  1:
 E= -2805.08252763431     Delta-E=       -0.000000000055 Rises=F Damp=F
 DIIS: error= 2.91D-07 at cycle   8 NSaved=   8.
 NSaved= 8 IEnMin= 8 EnMin= -2805.08252763431     IErMin= 8 ErrMin= 2.91D-07
 ErrMax= 2.91D-07  0.00D+00 EMaxC= 1.00D-01 BMatC= 2.47D-11 BMatP= 8.08D-11
 IDIUse=1 WtCom= 1.00D+00 WtEn= 0.00D+00
 Coeff-Com: -0.676D-05 0.575D-02 0.237D-02-0.241D-01-0.747D-01-0.121D+00
 Coeff-Com:  0.403D+00 0.808D+00
 Coeff:     -0.676D-05 0.575D-02 0.237D-02-0.241D-01-0.747D-01-0.121D+00
 Coeff:      0.403D+00 0.808D+00
 Gap=     0.306 Goal=   None    Shift=    0.000
 Gap=     0.243 Goal=   None    Shift=    0.000
 RMSDP=9.17D-08 MaxDP=4.38D-06 DE=-5.50D-11 OVMax= 2.90D-06

 Cycle   9  Pass 1  IDiag  1:
 E= -2805.08252763432     Delta-E=       -0.000000000018 Rises=F Damp=F
 DIIS: error= 9.66D-08 at cycle   9 NSaved=   9.
 NSaved= 9 IEnMin= 9 EnMin= -2805.08252763432     IErMin= 9 ErrMin= 9.66D-08
 ErrMax= 9.66D-08  0.00D+00 EMaxC= 1.00D-01 BMatC= 2.28D-12 BMatP= 2.47D-11
 IDIUse=1 WtCom= 1.00D+00 WtEn= 0.00D+00
 Coeff-Com: -0.278D-04 0.186D-02 0.136D-02-0.236D-02-0.176D-01-0.551D-01
 Coeff-Com:  0.195D-01 0.265D+00 0.787D+00
 Coeff:     -0.278D-04 0.186D-02 0.136D-02-0.236D-02-0.176D-01-0.551D-01
 Coeff:      0.195D-01 0.265D+00 0.787D+00
 Gap=     0.306 Goal=   None    Shift=    0.000
 Gap=     0.243 Goal=   None    Shift=    0.000
 RMSDP=2.93D-08 MaxDP=1.55D-06 DE=-1.82D-11 OVMax= 5.71D-07

 Cycle  10  Pass 1  IDiag  1:
 E= -2805.08252763433     Delta-E=       -0.000000000006 Rises=F Damp=F
 DIIS: error= 4.12D-08 at cycle  10 NSaved=  10.
 NSaved=10 IEnMin=10 EnMin= -2805.08252763433     IErMin=10 ErrMin= 4.12D-08
 ErrMax= 4.12D-08  0.00D+00 EMaxC= 1.00D-01 BMatC= 3.11D-13 BMatP= 2.28D-12
 IDIUse=1 WtCom= 1.00D+00 WtEn= 0.00D+00
 Coeff-Com: -0.303D-05-0.527D-03-0.144D-03 0.294D-02 0.780D-02 0.994D-02
 Coeff-Com: -0.585D-01-0.620D-01 0.133D+00 0.967D+00
 Coeff:     -0.303D-05-0.527D-03-0.144D-03 0.294D-02 0.780D-02 0.994D-02
 Coeff:     -0.585D-01-0.620D-01 0.133D+00 0.967D+00
 Gap=     0.306 Goal=   None    Shift=    0.000
 Gap=     0.243 Goal=   None    Shift=    0.000
 RMSDP=1.59D-08 MaxDP=9.01D-07 DE=-5.91D-12 OVMax= 3.50D-07

 Cycle  11  Pass 1  IDiag  1:
 E= -2805.08252763433     Delta-E=        0.000000000004 Rises=F Damp=F
 DIIS: error= 2.89D-08 at cycle  11 NSaved=  11.
 NSaved=11 IEnMin=10 EnMin= -2805.08252763433     IErMin=11 ErrMin= 2.89D-08
 ErrMax= 2.89D-08  0.00D+00 EMaxC= 1.00D-01 BMatC= 9.58D-14 BMatP= 3.11D-13
 IDIUse=1 WtCom= 1.00D+00 WtEn= 0.00D+00
 Coeff-Com:  0.460D-05-0.498D-03-0.310D-03 0.123D-02 0.543D-02 0.132D-01
 Coeff-Com: -0.190D-01-0.641D-01-0.123D+00 0.266D+00 0.922D+00
 Coeff:      0.460D-05-0.498D-03-0.310D-03 0.123D-02 0.543D-02 0.132D-01
 Coeff:     -0.190D-01-0.641D-01-0.123D+00 0.266D+00 0.922D+00
 Gap=     0.306 Goal=   None    Shift=    0.000
 Gap=     0.243 Goal=   None    Shift=    0.000
 RMSDP=7.38D-09 MaxDP=4.44D-07 DE= 4.09D-12 OVMax= 2.57D-07

 Error on total polarization charges =  0.02347
 SCF Done:  E(UM062X) =  -2805.08252763     A.U. after   11 cycles
            NFock= 11  Conv=0.74D-08     -V/T= 2.0014
 <Sx>= 0.0000 <Sy>= 0.0000 <Sz>= 0.5000 <S**2>= 0.7619 S= 0.5059
 <L.S>=  0.00000000000    
 KE= 2.801127175633D+03 PE=-7.526341477304D+03 EE= 1.501487095088D+03
 SMD-CDS (non-electrostatic) energy       (kcal/mol) =       2.17
 (included in total energy above)
 Annihilation of the first spin contaminant:
 S**2 before annihilation     0.7619,   after     0.7501
 Leave Link  502 at Mon Sep 28 02:02:09 2026, MaxMem=  1610612736 cpu:             116.4 elap:              15.5
 (Enter /share/software/user/restricted/gaussian/g16.B01/l701.exe)
 ... and contract with generalized density number  0.
 Compute integral first derivatives.
 D1PCM: PCM CHGder 1st derivatives, ID1Alg=3 FixD1E=F DoIter=F DoCFld=F I1PDM=0.
 GePol: Maximum number of non-zero 1st derivatives   =     549
 Leave Link  701 at Mon Sep 28 02:02:10 2026, MaxMem=  1610612736 cpu:               2.7 elap:               0.4
 (Enter /share/software/user/restricted/gaussian/g16.B01/l702.exe)
 L702 exits ... SP integral derivatives will be done elsewhere.
 Leave Link  702 at Mon Sep 28 02:02:10 2026, MaxMem=  1610612736 cpu:               0.1 elap:               0.0
 (Enter /share/software/user/restricted/gaussian/g16.B01/l703.exe)
 Integral derivatives from FoFJK, PRISM(SPDF).
 Compute integral first derivatives, UseDBF=F ICtDFT=           0.
 Calling FoFJK, ICntrl=      2127 FMM=F ISym2X=1 I1Cent= 0 IOpClX= 1 NMat=1 NMatS=1 NMatT=0.
 FoFJK:  IHMeth= 1 ICntrl=    2127 DoSepK=F KAlg= 0 I1Cent=           0 FoldK=F
 IRaf=         0 NMat=       1 IRICut=       1 DoRegI=T DoRafI=F ISym2E= 1 IDoP0=0 IntGTp=1.
 FoFCou: FMM=F IPFlag=           0 FMFlag=      100000 FMFlg1=         800
         NFxFlg=           0 DoJE=F BraDBF=F KetDBF=F FulRan=T
         wScrn=  0.000000 ICntrl=      2127 IOpCl=  1 I1Cent=           0 NGrid=           0
         NMat0=    1 NMatS0=      1 NMatT0=    0 NMatD0=    1 NMtDS0=    0 NMtDT0=    0
 Petite list used in FoFCou.
 Leave Link  703 at Mon Sep 28 02:02:12 2026, MaxMem=  1610612736 cpu:              20.2 elap:               2.5
 (Enter /share/software/user/restricted/gaussian/g16.B01/l716.exe)
 Dipole        = 6.30496026D-01 6.39942904D-01 1.76312787D-32
 ***** Axes restored to original set *****
 -------------------------------------------------------------------
 Center     Atomic                   Forces (Hartrees/Bohr)
 Number     Number              X              Y              Z
 -------------------------------------------------------------------
      1        6          -0.000098521   -0.000069103    0.000000000
      2        6           0.000200358   -0.000006297   -0.000000000
      3        6          -0.000244217    0.000122960   -0.000000000
      4        6           0.000119714   -0.000061833    0.000000000
      5        6          -0.000012518   -0.000050929    0.000000000
      6        6           0.000068658    0.000032255    0.000000000
      7        1           0.000000750    0.000018260   -0.000000000
      8       35           0.000012636   -0.000017305    0.000000000
      9        1          -0.000009934   -0.000009363    0.000000000
     10        1          -0.000025676    0.000026582    0.000000000
     11        1          -0.000011249    0.000014773   -0.000000000
 -------------------------------------------------------------------
 Cartesian Forces:  Max     0.000244217 RMS     0.000069364
 Leave Link  716 at Mon Sep 28 02:02:12 2026, MaxMem=  1610612736 cpu:               0.2 elap:               0.0
 (Enter /share/software/user/restricted/gaussian/g16.B01/l103.exe)

 GradGradGradGradGradGradGradGradGradGradGradGradGradGradGradGradGradGrad
 Berny optimization.
 Using GEDIIS/GDIIS optimizer.
 FormGI is forming the generalized inverse of G from B-inverse, IUseBI=4.
 Internal  Forces:  Max     0.000129062 RMS     0.000036479
 Search for a local minimum.
 Step number   4 out of a maximum of   57
 All quantities printed in internal units (Hartrees-Bohrs-Radians)
 RMS Force = .36479D-04 SwitMx=.10000D-02 MixMth= 2
 Mixed Optimization -- En-DIIS/RFO-DIIS
 Swapping is turned off.
 Update second derivatives using D2CorX and points    1    2    3    4
 DE= -5.26D-06 DEPred=-4.83D-06 R= 1.09D+00
 TightC=F SS=  1.41D+00  RLast= 6.43D-03 DXNew= 5.8211D-01 1.9282D-02
 Trust test= 1.09D+00 RLast= 6.43D-03 DXMaxT set to 3.46D-01
 ITU=  1  1  1  0
     Eigenvalues ---    0.01959   0.01993   0.02013   0.02035   0.02044
     Eigenvalues ---    0.02109   0.02164   0.02393   0.14344   0.15988
     Eigenvalues ---    0.16000   0.16008   0.16673   0.21508   0.22023
     Eigenvalues ---    0.22943   0.25039   0.33607   0.33909   0.34068
     Eigenvalues ---    0.35318   0.40523   0.42494   0.43626   0.44834
     Eigenvalues ---    0.50023   0.51971
 En-DIIS/RFO-DIIS/Sim-DIIS IScMMF=       -3 using points:     4    3
 RFO step:  Lambda=-3.45900914D-07.
 NNeg= 0 NGDIIS= 2 SimSw=  2.50D-01 Rises=F DC= -5.26D-06 SmlDif=  1.00D-05
 NRisDI= 0 DoIntr=F SqrtH=F CThrHd= 10.0 CDAdj=  3.0
 RMS Error=  0.2094103004D-03 NUsed= 2 OKEnD=F EnDIS=F
 InvSVX:  RCond= 1.03D-05 Info=           0 Equed=N FErr=  1.31D-15 BErr=  0.00D+00
 DidBck=F Rises=F RFO-DIIS coefs:    1.18667   -0.18667
 Iteration  1 RMS(Cart)=  0.00021855 RMS(Int)=  0.00000006
 Iteration  2 RMS(Cart)=  0.00000006 RMS(Int)=  0.00000004
 ITry= 1 IFail=0 DXMaxC= 6.02D-04 DCOld= 1.00D+10 DXMaxT= 3.46D-01 DXLimC= 3.00D+00 Rises=F
 ClnCor:  largest displacement from symmetrization is 2.23D-11 for atom     9.
 Variable       Old X    -DE/DX   Delta X   Delta X   Delta X     New X
                                 (Linear)    (Quad)   (Total)
    R1        2.59466   0.00003   0.00028  -0.00014   0.00014   2.59480
    R2        2.59448  -0.00004   0.00000  -0.00009  -0.00008   2.59440
    R3        2.63776  -0.00003  -0.00004  -0.00010  -0.00014   2.63762
    R4        2.04809   0.00001   0.00006  -0.00005   0.00001   2.04810
    R5        2.62861  -0.00004   0.00001  -0.00016  -0.00015   2.62846
    R6        3.60190   0.00002   0.00054  -0.00024   0.00030   3.60220
    R7        2.63278   0.00002   0.00028  -0.00021   0.00008   2.63286
    R8        2.04640   0.00001   0.00011  -0.00011   0.00001   2.04641
    R9        2.64193   0.00003  -0.00010   0.00012   0.00002   2.64195
   R10        2.04910   0.00001   0.00019  -0.00016   0.00003   2.04913
   R11        2.04823   0.00002   0.00020  -0.00014   0.00007   2.04830
    A1        2.20583   0.00004  -0.00010   0.00021   0.00012   2.20595
    A2        2.01289  -0.00011  -0.00026  -0.00033  -0.00060   2.01230
    A3        2.14260   0.00004   0.00006   0.00011   0.00017   2.14276
    A4        2.12770   0.00007   0.00020   0.00022   0.00043   2.12812
    A5        2.12652   0.00013   0.00049   0.00026   0.00075   2.12728
    A6        2.07628  -0.00005  -0.00025  -0.00007  -0.00032   2.07596
    A7        2.08038  -0.00008  -0.00024  -0.00019  -0.00043   2.07995
    A8        2.08478  -0.00005  -0.00037   0.00003  -0.00034   2.08445
    A9        2.10240   0.00003   0.00024  -0.00001   0.00024   2.10264
   A10        2.09600   0.00001   0.00012  -0.00002   0.00010   2.09610
   A11        2.10510  -0.00003   0.00002  -0.00017  -0.00015   2.10495
   A12        2.08444   0.00005   0.00024   0.00013   0.00037   2.08481
   A13        2.09364  -0.00002  -0.00026   0.00004  -0.00021   2.09343
   A14        2.03124   0.00002   0.00022  -0.00000   0.00022   2.03145
   A15        2.13750  -0.00002  -0.00010  -0.00004  -0.00014   2.13736
   A16        2.11445  -0.00001  -0.00012   0.00004  -0.00008   2.11437
    D1        0.00000  -0.00000   0.00000  -0.00000  -0.00000   0.00000
    D2        3.14159   0.00000   0.00000   0.00000   0.00000   3.14159
    D3       -0.00000  -0.00000   0.00000  -0.00000   0.00000   0.00000
    D4        3.14159  -0.00000   0.00000  -0.00000   0.00000   3.14159
    D5       -0.00000   0.00000   0.00000   0.00000   0.00000   0.00000
    D6        3.14159   0.00000   0.00000   0.00000   0.00000   3.14159
    D7        3.14159   0.00000   0.00000   0.00000   0.00000   3.14159
    D8        0.00000   0.00000   0.00000   0.00000  -0.00000   0.00000
    D9       -0.00000  -0.00000   0.00000  -0.00000   0.00000   0.00000
   D10        3.14159  -0.00000   0.00000  -0.00000   0.00000   3.14159
   D11        3.14159  -0.00000   0.00000  -0.00000   0.00000   3.14159
   D12       -0.00000  -0.00000   0.00000  -0.00000   0.00000   0.00000
   D13       -0.00000   0.00000   0.00000   0.00000   0.00000   0.00000
   D14        3.14159   0.00000   0.00000   0.00000   0.00000   3.14159
   D15        3.14159  -0.00000   0.00000  -0.00000   0.00000   3.14159
   D16        0.00000  -0.00000   0.00000   0.00000   0.00000   0.00000
   D17        0.00000   0.00000   0.00000   0.00000  -0.00000   0.00000
   D18        3.14159   0.00000   0.00000   0.00000   0.00000   3.14159
   D19        3.14159   0.00000   0.00000   0.00000   0.00000   3.14159
   D20       -0.00000  -0.00000   0.00000  -0.00000   0.00000   0.00000
         Item               Value     Threshold  Converged?
 Maximum Force            0.000129     0.000450     YES
 RMS     Force            0.000036     0.000300     YES
 Maximum Displacement     0.000602     0.001800     YES
 RMS     Displacement     0.000219     0.001200     YES
 Predicted change in Energy=-1.729513D-07
 Optimization completed.
    -- Stationary point found.
                           ----------------------------
                           !   Optimized Parameters   !
                           ! (Angstroms and Degrees)  !
 --------------------------                            --------------------------
 ! Name  Definition              Value          Derivative Info.                !
 --------------------------------------------------------------------------------
 ! R1    R(1,2)                  1.373          -DE/DX =    0.0                 !
 ! R2    R(1,6)                  1.3729         -DE/DX =    0.0                 !
 ! R3    R(2,3)                  1.3958         -DE/DX =    0.0                 !
 ! R4    R(2,7)                  1.0838         -DE/DX =    0.0                 !
 ! R5    R(3,4)                  1.391          -DE/DX =    0.0                 !
 ! R6    R(3,8)                  1.906          -DE/DX =    0.0                 !
 ! R7    R(4,5)                  1.3932         -DE/DX =    0.0                 !
 ! R8    R(4,9)                  1.0829         -DE/DX =    0.0                 !
 ! R9    R(5,6)                  1.398          -DE/DX =    0.0                 !
 ! R10   R(5,10)                 1.0843         -DE/DX =    0.0                 !
 ! R11   R(6,11)                 1.0839         -DE/DX =    0.0                 !
 ! A1    A(2,1,6)              126.385          -DE/DX =    0.0                 !
 ! A2    A(1,2,3)              115.3302         -DE/DX =   -0.0001              !
 ! A3    A(1,2,7)              122.7617         -DE/DX =    0.0                 !
 ! A4    A(3,2,7)              121.9081         -DE/DX =    0.0001              !
 ! A5    A(2,3,4)              121.8408         -DE/DX =    0.0001              !
 ! A6    A(2,3,8)              118.9622         -DE/DX =   -0.0001              !
 ! A7    A(4,3,8)              119.197          -DE/DX =   -0.0001              !
 ! A8    A(3,4,5)              119.4492         -DE/DX =    0.0                 !
 ! A9    A(3,4,9)              120.4589         -DE/DX =    0.0                 !
 ! A10   A(5,4,9)              120.092          -DE/DX =    0.0                 !
 ! A11   A(4,5,6)              120.6135         -DE/DX =    0.0                 !
 ! A12   A(4,5,10)             119.4296         -DE/DX =    0.0001              !
 ! A13   A(6,5,10)             119.9569         -DE/DX =    0.0                 !
 ! A14   A(1,6,5)              116.3813         -DE/DX =    0.0                 !
 ! A15   A(1,6,11)             122.4697         -DE/DX =    0.0                 !
 ! A16   A(5,6,11)             121.149          -DE/DX =    0.0                 !
 ! D1    D(6,1,2,3)              0.0            -DE/DX =    0.0                 !
 ! D2    D(6,1,2,7)            180.0            -DE/DX =    0.0                 !
 ! D3    D(2,1,6,5)              0.0            -DE/DX =    0.0                 !
 ! D4    D(2,1,6,11)           180.0            -DE/DX =    0.0                 !
 ! D5    D(1,2,3,4)              0.0            -DE/DX =    0.0                 !
 ! D6    D(1,2,3,8)            180.0            -DE/DX =    0.0                 !
 ! D7    D(7,2,3,4)            180.0            -DE/DX =    0.0                 !
 ! D8    D(7,2,3,8)              0.0            -DE/DX =    0.0                 !
 ! D9    D(2,3,4,5)              0.0            -DE/DX =    0.0                 !
 ! D10   D(2,3,4,9)            180.0            -DE/DX =    0.0                 !
 ! D11   D(8,3,4,5)            180.0            -DE/DX =    0.0                 !
 ! D12   D(8,3,4,9)              0.0            -DE/DX =    0.0                 !
 ! D13   D(3,4,5,6)              0.0            -DE/DX =    0.0                 !
 ! D14   D(3,4,5,10)           180.0            -DE/DX =    0.0                 !
 ! D15   D(9,4,5,6)            180.0            -DE/DX =    0.0                 !
 ! D16   D(9,4,5,10)             0.0            -DE/DX =    0.0                 !
 ! D17   D(4,5,6,1)              0.0            -DE/DX =    0.0                 !
 ! D18   D(4,5,6,11)           180.0            -DE/DX =    0.0                 !
 ! D19   D(10,5,6,1)           180.0            -DE/DX =    0.0                 !
 ! D20   D(10,5,6,11)            0.0            -DE/DX =    0.0                 !
 --------------------------------------------------------------------------------
 Lowest energy point so far.  Saving SCF results.
 Largest change from initial coordinates is atom   11       0.534 Angstoms.
 GradGradGradGradGradGradGradGradGradGradGradGradGradGradGradGradGradGrad

 Leave Link  103 at Mon Sep 28 02:02:13 2026, MaxMem=  1610612736 cpu:               0.5 elap:               0.1
 (Enter /share/software/user/restricted/gaussian/g16.B01/l202.exe)
                          Input orientation:                          
 ---------------------------------------------------------------------
 Center     Atomic      Atomic             Coordinates (Angstroms)
 Number     Number       Type             X           Y           Z
 ---------------------------------------------------------------------
      1          6           0        0.002853    1.326244   -0.000000
      2          6           0        1.229817    0.709972   -0.000000
      3          6           0        1.197200   -0.685491   -0.000000
      4          6           0       -0.001305   -1.391517   -0.000000
      5          6           0       -1.207261   -0.693883   -0.000000
      6          6           0       -1.221035    0.704098   -0.000000
      7          1           0        2.162986    1.261169   -0.000000
      8         35           0        2.842851   -1.647175    0.000000
      9          1           0       -0.000492   -2.474425   -0.000000
     10          1           0       -2.141350   -1.244574   -0.000000
     11          1           0       -2.154122    1.255583   -0.000000
 ---------------------------------------------------------------------
                    Distance matrix (angstroms):
                    1          2          3          4          5
     1  C    0.000000
     2  C    1.373037   0.000000
     3  C    2.339560   1.395844   0.000000
     4  C    2.717764   2.435552   1.391002   0.000000
     5  C    2.354843   2.812500   2.404476   1.393207   0.000000
     6  C    1.372941   2.450859   2.789053   2.424736   1.398049
     7  H    2.161114   1.083801   2.173069   3.423580   3.896254
     8  Br   4.111789   2.856225   1.906044   2.855623   4.160790
     9  H    3.800671   3.413802   2.152847   1.082909   2.150959
    10  H    3.347642   3.896795   3.385039   2.145084   1.084335
    11  H    2.158132   3.427642   3.872871   3.412003   2.167248
                    6          7          8          9         10
     6  C    0.000000
     7  H    3.429567   0.000000
     8  Br   4.695067   2.986751   0.000000
     9  H    3.404811   4.316863   2.961240   0.000000
    10  H    2.155064   4.980568   5.000435   2.468969   0.000000
    11  H    1.083876   4.317112   5.778906   4.307097   2.500190
                   11
    11  H    0.000000
 Stoichiometry    C6H4Br(2)
 Framework group  CS[SG(C6H4Br)]
 Deg. of freedom    19
 Full point group                 CS      NOp   2
 RotChk:  IX=0 Diff= 1.88D-15
 Largest Abelian subgroup         CS      NOp   2
 Largest concise Abelian subgroup C1      NOp   1
                         Standard orientation:                         
 ---------------------------------------------------------------------
 Center     Atomic      Atomic             Coordinates (Angstroms)
 Number     Number       Type             X           Y           Z
 ---------------------------------------------------------------------
      1          6           0       -0.571035    2.412142   -0.000000
      2          6           0       -1.006849    1.110106   -0.000000
      3          6           0        0.000000    0.143340   -0.000000
      4          6           0        1.347767    0.487449   -0.000000
      5          6           0        1.711325    1.832384   -0.000000
      6          6           0        0.735605    2.833638   -0.000000
      7          1           0       -2.057277    0.843226    0.000000
      8         35           0       -0.489282   -1.698835    0.000000
      9          1           0        2.110573   -0.281197   -0.000000
     10          1           0        2.762048    2.100270   -0.000000
     11          1           0        1.008652    3.882558   -0.000000
 ---------------------------------------------------------------------
 Rotational constants (GHZ):           6.1087918           1.0062506           0.8639408
 Leave Link  202 at Mon Sep 28 02:02:13 2026, MaxMem=  1610612736 cpu:               0.2 elap:               0.0
 (Enter /share/software/user/restricted/gaussian/g16.B01/l601.exe)
 Copying SCF densities to generalized density rwf, IOpCl= 1 IROHF=0.

 **********************************************************************

            Population analysis using the SCF Density.

 **********************************************************************

 Orbital symmetries:
 Alpha Orbitals:
       Occupied  (A') (A') (A') (A") (A') (A') (A') (A') (A') (A')
                 (A') (A') (A') (A") (A') (A') (A") (A') (A') (A")
                 (A') (A') (A') (A') (A') (A') (A') (A') (A') (A')
                 (A") (A') (A') (A") (A') (A") (A') (A")
       Virtual   (A") (A') (A") (A') (A') (A') (A') (A") (A') (A')
                 (A') (A") (A') (A") (A') (A") (A') (A') (A") (A')
                 (A') (A") (A') (A") (A') (A') (A') (A') (A') (A")
                 (A') (A') (A') (A') (A') (A') (A') (A') (A') (A')
                 (A') (A') (A') (A') (A") (A') (A') (A') (A') (A")
                 (A") (A') (A') (A') (A") (A') (A") (A") (A') (A')
                 (A') (A") (A") (A') (A') (A') (A") (A') (A') (A')
                 (A') (A') (A') (A') (A') (A') (A') (A') (A') (A')
                 (A") (A') (A") (A') (A") (A") (A') (A") (A") (A')
                 (A') (A') (A') (A') (A') (A") (A') (A") (A') (A')
                 (A") (A") (A') (A") (A') (A') (A") (A') (A') (A')
                 (A') (A') (A") (A') (A') (A') (A') (A") (A') (A")
                 (A") (A') (A") (A") (A') (A") (A') (A') (A') (A')
                 (A') (A') (A') (A') (A') (A') (A') (A") (A') (A")
                 (A') (A') (A') (A') (A") (A') (A') (A') (A') (A')
                 (A') (A') (A') (A') (A") (A') (A') (A')
 Beta  Orbitals:
       Occupied  (A') (A') (A') (A") (A') (A') (A') (A') (A') (A')
                 (A') (A') (A') (A") (A') (A') (A") (A') (A') (A")
                 (A') (A') (A') (A') (A') (A') (A') (A') (A') (A')
                 (A") (A') (A') (A") (A') (A") (A")
       Virtual   (A') (A") (A') (A') (A") (A') (A') (A') (A") (A')
                 (A') (A') (A") (A") (A') (A') (A") (A') (A') (A')
                 (A") (A') (A") (A') (A") (A') (A') (A') (A') (A')
                 (A') (A") (A') (A') (A') (A') (A') (A') (A') (A')
                 (A') (A') (A') (A') (A') (A") (A') (A') (A') (A')
                 (A') (A") (A") (A') (A') (A") (A') (A") (A") (A')
                 (A') (A') (A") (A") (A') (A') (A') (A") (A') (A')
                 (A') (A') (A') (A') (A') (A') (A') (A') (A') (A')
                 (A') (A") (A') (A") (A') (A") (A") (A') (A") (A")
                 (A') (A') (A') (A') (A') (A') (A") (A") (A') (A')
                 (A') (A") (A") (A') (A") (A') (A') (A") (A') (A')
                 (A') (A') (A') (A") (A') (A') (A') (A') (A") (A')
                 (A") (A") (A') (A") (A") (A') (A") (A') (A') (A')
                 (A') (A') (A') (A') (A') (A') (A') (A') (A") (A')
                 (A") (A') (A') (A') (A') (A") (A') (A') (A') (A')
                 (A') (A') (A') (A') (A') (A") (A') (A') (A')
 The electronic state is 2-A'.
 Alpha  occ. eigenvalues -- -485.34093 -63.33281 -57.16031 -57.15772 -57.15765
 Alpha  occ. eigenvalues --  -10.61591 -10.58141 -10.56678 -10.56188 -10.55954
 Alpha  occ. eigenvalues --  -10.55865  -9.01999  -6.84798  -6.83767  -6.83751
 Alpha  occ. eigenvalues --   -2.87948  -2.87593  -2.87574  -2.86665  -2.86665
 Alpha  occ. eigenvalues --   -0.99529  -0.91073  -0.86276  -0.82659  -0.70396
 Alpha  occ. eigenvalues --   -0.67989  -0.60300  -0.54666  -0.52409  -0.49756
 Alpha  occ. eigenvalues --   -0.47455  -0.47226  -0.42531  -0.38749  -0.35866
 Alpha  occ. eigenvalues --   -0.33074  -0.31345  -0.30583
 Alpha virt. eigenvalues --    0.00036   0.00342   0.00542   0.01548   0.01922
 Alpha virt. eigenvalues --    0.02359   0.04224   0.04712   0.05278   0.06247
 Alpha virt. eigenvalues --    0.07407   0.07933   0.09074   0.09372   0.10864
 Alpha virt. eigenvalues --    0.11881   0.13533   0.13620   0.13944   0.14245
 Alpha virt. eigenvalues --    0.14680   0.15068   0.15287   0.15950   0.16040
 Alpha virt. eigenvalues --    0.16165   0.17723   0.19006   0.19781   0.21223
 Alpha virt. eigenvalues --    0.21443   0.22161   0.24378   0.24911   0.25813
 Alpha virt. eigenvalues --    0.26248   0.27220   0.30038   0.30663   0.31420
 Alpha virt. eigenvalues --    0.35300   0.36975   0.37952   0.38320   0.44331
 Alpha virt. eigenvalues --    0.45505   0.48680   0.51016   0.51587   0.55271
 Alpha virt. eigenvalues --    0.57634   0.57687   0.57855   0.58793   0.59117
 Alpha virt. eigenvalues --    0.61398   0.62874   0.63758   0.63963   0.64383
 Alpha virt. eigenvalues --    0.65145   0.68766   0.69836   0.70409   0.75036
 Alpha virt. eigenvalues --    0.76672   0.77121   0.77845   0.78697   0.80733
 Alpha virt. eigenvalues --    0.84442   0.87673   0.87932   0.91094   0.91770
 Alpha virt. eigenvalues --    0.92928   0.94712   0.95422   0.98501   1.02187
 Alpha virt. eigenvalues --    1.04435   1.07897   1.10052   1.11786   1.22920
 Alpha virt. eigenvalues --    1.24260   1.26712   1.28327   1.32933   1.36511
 Alpha virt. eigenvalues --    1.53667   1.55571   1.56343   1.58716   1.76867
 Alpha virt. eigenvalues --    1.80094   1.81151   1.81154   1.84289   1.85443
 Alpha virt. eigenvalues --    1.93270   1.96698   1.99645   2.00308   2.02190
 Alpha virt. eigenvalues --    2.05554   2.05909   2.14614   2.23375   2.25299
 Alpha virt. eigenvalues --    2.29714   2.34068   2.35714   2.36001   2.48939
 Alpha virt. eigenvalues --    2.49712   2.58581   2.69032   2.72074   2.80162
 Alpha virt. eigenvalues --    2.81515   2.83561   2.92527   2.93471   3.02595
 Alpha virt. eigenvalues --    3.10949   3.15170   3.17649   3.32057   3.35081
 Alpha virt. eigenvalues --    3.36581   3.44490   3.56171   3.65461   3.73856
 Alpha virt. eigenvalues --    4.00056   4.02430   4.28101   4.32328   4.36412
 Alpha virt. eigenvalues --    4.50969   4.69659   4.76217   6.89685   7.63581
 Alpha virt. eigenvalues --    7.74647   7.81271  23.33703  23.89974  23.93545
 Alpha virt. eigenvalues --   24.09814  24.12873  24.22885  48.41636 290.78150
 Alpha virt. eigenvalues --  290.90086 290.997781020.98692
  Beta  occ. eigenvalues -- -485.34085 -63.33277 -57.16018 -57.15769 -57.15762
  Beta  occ. eigenvalues --  -10.61495 -10.57173 -10.56687 -10.56111 -10.55979
  Beta  occ. eigenvalues --  -10.55872  -9.01989  -6.84773  -6.83761  -6.83746
  Beta  occ. eigenvalues --   -2.87935  -2.87580  -2.87562  -2.86662  -2.86661
  Beta  occ. eigenvalues --   -0.98826  -0.90552  -0.85216  -0.82207  -0.69697
  Beta  occ. eigenvalues --   -0.66343  -0.59592  -0.53854  -0.51728  -0.49324
  Beta  occ. eigenvalues --   -0.46923  -0.45587  -0.42009  -0.38301  -0.35632
  Beta  occ. eigenvalues --   -0.32178  -0.30423
  Beta virt. eigenvalues --   -0.06143  -0.00018   0.00475   0.01617   0.01678
  Beta virt. eigenvalues --    0.02139   0.02812   0.04453   0.04847   0.05658
  Beta virt. eigenvalues --    0.06965   0.07489   0.07874   0.09218   0.09537
  Beta virt. eigenvalues --    0.10999   0.11952   0.13119   0.13831   0.13915
  Beta virt. eigenvalues --    0.14030   0.14237   0.14929   0.15195   0.16081
  Beta virt. eigenvalues --    0.16120   0.16324   0.17890   0.19365   0.19933
  Beta virt. eigenvalues --    0.21225   0.22017   0.22048   0.24635   0.25358
  Beta virt. eigenvalues --    0.25393   0.26004   0.27619   0.30319   0.30822
  Beta virt. eigenvalues --    0.31916   0.35873   0.37261   0.38060   0.38762
  Beta virt. eigenvalues --    0.44344   0.45505   0.49106   0.51043   0.51833
  Beta virt. eigenvalues --    0.55364   0.55488   0.57775   0.57892   0.58888
  Beta virt. eigenvalues --    0.59233   0.59400   0.62787   0.63904   0.64127
  Beta virt. eigenvalues --    0.64389   0.64929   0.68774   0.69753   0.72095
  Beta virt. eigenvalues --    0.74971   0.76083   0.77141   0.77803   0.78505
  Beta virt. eigenvalues --    0.81319   0.83972   0.87256   0.88196   0.91349
  Beta virt. eigenvalues --    0.91960   0.92392   0.94470   0.95152   0.98827
  Beta virt. eigenvalues --    1.02127   1.04930   1.08231   1.11073   1.11727
  Beta virt. eigenvalues --    1.23325   1.24423   1.25972   1.29733   1.33765
  Beta virt. eigenvalues --    1.37978   1.54254   1.56205   1.57246   1.59310
  Beta virt. eigenvalues --    1.77717   1.80466   1.81512   1.82046   1.84757
  Beta virt. eigenvalues --    1.86414   1.93317   1.97438   2.00688   2.00767
  Beta virt. eigenvalues --    2.02352   2.05659   2.06050   2.14838   2.23660
  Beta virt. eigenvalues --    2.25464   2.30207   2.34850   2.36059   2.36631
  Beta virt. eigenvalues --    2.49269   2.50133   2.58858   2.69197   2.72853
  Beta virt. eigenvalues --    2.80568   2.81528   2.84271   2.92669   2.93334
  Beta virt. eigenvalues --    3.04954   3.11012   3.15794   3.17926   3.32140
  Beta virt. eigenvalues --    3.35147   3.37006   3.44683   3.56387   3.65624
  Beta virt. eigenvalues --    3.74514   4.00261   4.02838   4.28142   4.32369
  Beta virt. eigenvalues --    4.36533   4.51075   4.69760   4.76407   6.89667
  Beta virt. eigenvalues --    7.63581   7.74651   7.81283  23.33824  23.90205
  Beta virt. eigenvalues --   23.93587  24.09799  24.13058  24.23399  48.41634
  Beta virt. eigenvalues --  290.78156 290.90091 290.998021020.98700
          Condensed to atoms (all electrons):
               1          2          3          4          5          6
     1  C    6.790785  -1.212205   1.373189  -2.021102   1.636563  -1.072114
     2  C   -1.212205   8.647413  -2.036024   1.507191  -2.037690   1.531120
     3  C    1.373189  -2.036024   8.807844  -2.744322   2.001553  -1.752022
     4  C   -2.021102   1.507191  -2.744322   9.842020  -2.428898   2.128877
     5  C    1.636563  -2.037690   2.001553  -2.428898   8.332449  -1.907774
     6  C   -1.072114   1.531120  -1.752022   2.128877  -1.907774   7.570328
     7  H    0.058967   0.244154  -0.001906   0.000360   0.016169  -0.028488
     8  Br   0.107081  -0.042857   0.012364  -0.065980   0.125674   0.002845
     9  H   -0.001078   0.022087  -0.042462   0.297937   0.001997   0.016755
    10  H    0.027495  -0.037337   0.055264  -0.085473   0.369551  -0.039728
    11  H    0.012504  -0.026751   0.016759  -0.002652   0.011287   0.300427
               7          8          9         10         11
     1  C    0.058967   0.107081  -0.001078   0.027495   0.012504
     2  C    0.244154  -0.042857   0.022087  -0.037337  -0.026751
     3  C   -0.001906   0.012364  -0.042462   0.055264   0.016759
     4  C    0.000360  -0.065980   0.297937  -0.085473  -0.002652
     5  C    0.016169   0.125674   0.001997   0.369551   0.011287
     6  C   -0.028488   0.002845   0.016755  -0.039728   0.300427
     7  H    0.356686  -0.023937  -0.000117   0.000399  -0.000068
     8  Br  -0.023937  35.138665  -0.030326   0.003849  -0.000395
     9  H   -0.000117  -0.030326   0.345647  -0.003795   0.000622
    10  H    0.000399   0.003849  -0.003795   0.338537   0.003519
    11  H   -0.000068  -0.000395   0.000622   0.003519   0.347507
          Atomic-Atomic Spin Densities.
               1          2          3          4          5          6
     1  C    1.074623  -0.069088  -0.050357   0.018249   0.009770  -0.190580
     2  C   -0.069088   0.093456  -0.053103  -0.015514  -0.056917   0.138750
     3  C   -0.050357  -0.053103   0.125674   0.029633   0.011861  -0.013250
     4  C    0.018249  -0.015514   0.029633  -0.064537  -0.011227   0.027073
     5  C    0.009770  -0.056917   0.011861  -0.011227   0.104218  -0.041591
     6  C   -0.190580   0.138750  -0.013250   0.027073  -0.041591   0.150136
     7  H    0.001318   0.021541  -0.022974  -0.002200  -0.000504  -0.006534
     8  Br   0.002843   0.006441  -0.019440   0.001809  -0.000779  -0.004782
     9  H    0.003514  -0.004170   0.004496  -0.003401   0.003751  -0.003464
    10  H    0.002968   0.000731  -0.000845   0.006441  -0.005523  -0.006810
    11  H   -0.008099   0.001111  -0.002267   0.002121  -0.007107   0.014939
               7          8          9         10         11
     1  C    0.001318   0.002843   0.003514   0.002968  -0.008099
     2  C    0.021541   0.006441  -0.004170   0.000731   0.001111
     3  C   -0.022974  -0.019440   0.004496  -0.000845  -0.002267
     4  C   -0.002200   0.001809  -0.003401   0.006441   0.002121
     5  C   -0.000504  -0.000779   0.003751  -0.005523  -0.007107
     6  C   -0.006534  -0.004782  -0.003464  -0.006810   0.014939
     7  H    0.030242   0.003829  -0.000163   0.000096   0.000047
     8  Br   0.003829   0.026042   0.000230  -0.000001  -0.000051
     9  H   -0.000163   0.000230   0.001478  -0.000218  -0.000030
    10  H    0.000096  -0.000001  -0.000218   0.009094   0.001086
    11  H    0.000047  -0.000051  -0.000030   0.001086   0.022255
 Mulliken charges and spin densities:
               1          2
     1  C    0.299915   0.795161
     2  C   -0.559099   0.063239
     3  C    0.309761   0.009429
     4  C   -0.427958  -0.011553
     5  C   -0.120882   0.005951
     6  C   -0.750228   0.063886
     7  H    0.377779   0.024697
     8  Br  -0.226984   0.016141
     9  H    0.392734   0.002023
    10  H    0.367720   0.007020
    11  H    0.337242   0.024006
 Sum of Mulliken charges =  -0.00000   1.00000
 Mulliken charges and spin densities with hydrogens summed into heavy atoms:
               1          2
     1  C    0.299915   0.795161
     2  C   -0.181320   0.087936
     3  C    0.309761   0.009429
     4  C   -0.035225  -0.009530
     5  C    0.246838   0.012972
     6  C   -0.412986   0.087892
     8  Br  -0.226984   0.016141
 Electronic spatial extent (au):  <R**2>=           1181.8833
 Charge=             -0.0000 electrons
 Dipole moment (field-independent basis, Debye):
    X=              1.6026    Y=              1.6266    Z=             -0.0000  Tot=              2.2834
 Quadrupole moment (field-independent basis, Debye-Ang):
   XX=            -46.3947   YY=            -49.9045   ZZ=            -57.5450
   XY=              3.3621   XZ=             -0.0000   YZ=             -0.0000
 Traceless Quadrupole moment (field-independent basis, Debye-Ang):
   XX=              4.8867   YY=              1.3769   ZZ=             -6.2636
   XY=              3.3621   XZ=             -0.0000   YZ=             -0.0000
 Octapole moment (field-independent basis, Debye-Ang**2):
  XXX=             -3.5588  YYY=            -43.2722  ZZZ=             -0.0000  XYY=              8.8362
  XXY=            -11.4175  XXZ=             -0.0000  XZZ=             -6.4887  YZZ=            -24.8809
  YYZ=             -0.0000  XYZ=             -0.0000
 Hexadecapole moment (field-independent basis, Debye-Ang**3):
 XXXX=           -311.1055 YYYY=           -950.4522 ZZZZ=            -70.0127 XXXY=            -93.9125
 XXXZ=             -0.0000 YYYX=            -51.1984 YYYZ=             -0.0000 ZZZX=             -0.0000
 ZZZY=             -0.0000 XXYY=           -219.0478 XXZZ=            -79.5664 YYZZ=           -205.5263
 XXYZ=             -0.0000 YYXZ=             -0.0000 ZZXY=            -40.9897
 N-N= 4.186446789482D+02 E-N=-7.526341477299D+03  KE= 2.801127175633D+03
 Symmetry A'   KE= 2.417682744930D+03
 Symmetry A"   KE= 3.834444307036D+02
 Symmetry A'   SP= 1.000000000000D+00
 Symmetry A"   SP= 1.488675566689D-14
                          Isotropic Fermi Contact Couplings
        Atom                 a.u.       MegaHertz       Gauss      10(-4) cm-1
     1  C(13)              0.44075     495.48833     176.80256     165.27712
     2  C(13)              0.01685      18.93765       6.75742       6.31692
     3  C(13)              0.06453      72.53914      25.88377      24.19645
     4  C(13)             -0.00815      -9.16583      -3.27060      -3.05739
     5  C(13)              0.04935      55.48260      19.79757      18.50700
     6  C(13)              0.01276      14.34870       5.11997       4.78621
     7  H(1)               0.01195      53.43059      19.06536      17.82253
     8  Br(79)             0.01107      12.44249       4.43979       4.15037
     9  H(1)               0.00085       3.78248       1.34968       1.26170
    10  H(1)               0.00327      14.62967       5.22023       4.87993
    11  H(1)               0.01114      49.80662      17.77224      16.61370
 --------------------------------------------------------
       Center         ----  Spin Dipole Couplings  ----
                      3XX-RR        3YY-RR        3ZZ-RR
 --------------------------------------------------------
     1   Atom        0.208807      0.182987     -0.391794
     2   Atom       -0.006578      0.102949     -0.096371
     3   Atom        0.017127     -0.012833     -0.004294
     4   Atom        0.026017      0.025679     -0.051696
     5   Atom        0.018023     -0.005849     -0.012173
     6   Atom        0.109335     -0.009241     -0.100094
     7   Atom       -0.000435      0.012648     -0.012212
     8   Atom       -0.111358      0.180232     -0.068874
     9   Atom        0.001019      0.001417     -0.002436
    10   Atom        0.010052     -0.004614     -0.005438
    11   Atom        0.012520     -0.000018     -0.012503
 --------------------------------------------------------
                        XY            XZ            YZ
 --------------------------------------------------------
     1   Atom       -0.755578      0.000000     -0.000000
     2   Atom        0.012098      0.000000     -0.000000
     3   Atom       -0.033357      0.000000     -0.000000
     4   Atom       -0.006864     -0.000000      0.000000
     5   Atom       -0.046004      0.000000     -0.000000
     6   Atom        0.002994      0.000000     -0.000000
     7   Atom        0.015563      0.000000      0.000000
     8   Atom       -0.014719     -0.000000      0.000000
     9   Atom       -0.000104     -0.000000      0.000000
    10   Atom        0.000833     -0.000000     -0.000000
    11   Atom        0.015890     -0.000000     -0.000000
 --------------------------------------------------------


 ---------------------------------------------------------------------------------
              Anisotropic Spin Dipole Couplings in Principal Axis System
 ---------------------------------------------------------------------------------

       Atom             a.u.   MegaHertz   Gauss  10(-4) cm-1        Axes

              Baa    -0.5598   -75.119   -26.804   -25.057  0.7010  0.7131 -0.0000
     1 C(13)  Bbb    -0.3918   -52.575   -18.760   -17.537  0.0000  0.0000  1.0000
              Bcc     0.9516   127.694    45.564    42.594  0.7131 -0.7010  0.0000
 
              Baa    -0.0964   -12.932    -4.614    -4.314  0.0000  0.0000  1.0000
     2 C(13)  Bbb    -0.0079    -1.060    -0.378    -0.354  0.9941 -0.1085  0.0000
              Bcc     0.1043    13.992     4.993     4.667  0.1085  0.9941 -0.0000
 
              Baa    -0.0344    -4.619    -1.648    -1.541  0.5433  0.8395  0.0000
     3 C(13)  Bbb    -0.0043    -0.576    -0.206    -0.192  0.0000  0.0000  1.0000
              Bcc     0.0387     5.195     1.854     1.733  0.8395 -0.5433  0.0000
 
              Baa    -0.0517    -6.937    -2.475    -2.314  0.0000  0.0000  1.0000
     4 C(13)  Bbb     0.0190     2.547     0.909     0.850  0.6983  0.7158 -0.0000
              Bcc     0.0327     4.390     1.566     1.464  0.7158 -0.6983  0.0000
 
              Baa    -0.0414    -5.561    -1.984    -1.855  0.6119  0.7909 -0.0000
     5 C(13)  Bbb    -0.0122    -1.634    -0.583    -0.545  0.0000  0.0000  1.0000
              Bcc     0.0536     7.194     2.567     2.400  0.7909 -0.6119  0.0000
 
              Baa    -0.1001   -13.432    -4.793    -4.480  0.0000  0.0000  1.0000
     6 C(13)  Bbb    -0.0093    -1.250    -0.446    -0.417 -0.0252  0.9997 -0.0000
              Bcc     0.1094    14.682     5.239     4.897  0.9997  0.0252  0.0000
 
              Baa    -0.0122    -6.516    -2.325    -2.174  0.0000  0.0000  1.0000
     7 H(1)   Bbb    -0.0108    -5.750    -2.052    -1.918  0.8329 -0.5534 -0.0000
              Bcc     0.0230    12.266     4.377     4.091  0.5534  0.8329 -0.0000
 
              Baa    -0.1121   -15.037    -5.365    -5.016  0.9987  0.0503  0.0000
     8 Br(79) Bbb    -0.0689    -9.239    -3.297    -3.082  0.0000  0.0000  1.0000
              Bcc     0.1810    24.275     8.662     8.097 -0.0503  0.9987 -0.0000
 
              Baa    -0.0024    -1.300    -0.464    -0.433  0.0000  0.0000  1.0000
     9 H(1)   Bbb     0.0010     0.530     0.189     0.177  0.9712  0.2383  0.0000
              Bcc     0.0014     0.770     0.275     0.257 -0.2383  0.9712 -0.0000
 
              Baa    -0.0054    -2.902    -1.035    -0.968  0.0000  0.0000  1.0000
    10 H(1)   Bbb    -0.0047    -2.487    -0.887    -0.830 -0.0565  0.9984 -0.0000
              Bcc     0.0101     5.389     1.923     1.797  0.9984  0.0565 -0.0000
 
              Baa    -0.0125    -6.671    -2.380    -2.225  0.0000  0.0000  1.0000
    11 H(1)   Bbb    -0.0108    -5.779    -2.062    -1.928 -0.5626  0.8267 -0.0000
              Bcc     0.0233    12.450     4.442     4.153  0.8267  0.5626 -0.0000
 

 ---------------------------------------------------------------------------------

 No NMR shielding tensors so no spin-rotation constants.
 Leave Link  601 at Mon Sep 28 02:02:13 2026, MaxMem=  1610612736 cpu:               1.2 elap:               0.2
 (Enter /share/software/user/restricted/gaussian/g16.B01/l9999.exe)
 1\1\GINC-SH04-01N15\FOpt\UM062X\6-311++G(d)\C6H4Br1(2)\JLAPIER\28-Sep-
 2026\0\\#p Opt Freq M062X/6-311++G(d) SCRF=(SMD,Solvent=Water) Int=Ult
 raFine Geom=Check\\BrPh_3_rad m062x_smd\\0,2\C,0.0028528807,1.32624361
 64,0.\C,1.2298165517,0.7099718575,0.\C,1.1971996812,-0.685491303,0.\C,
 -0.0013049087,-1.3915170543,0.\C,-1.2072613585,-0.6938826943,0.\C,-1.2
 210351776,0.704097963,0.\H,2.1629864789,1.2611689162,0.\Br,2.842851044
 9,-1.6471753098,0.\H,-0.0004922554,-2.4744254503,0.\H,-2.141349974,-1.
 2445739102,0.\H,-2.1541221331,1.2555833688,0.\\Version=ES64L-G16RevB.0
 1\State=2-A'\HF=-2805.0825276\S2=0.761923\S2-1=0.\S2A=0.750068\RMSD=7.
 376e-09\RMSF=6.936e-05\Dipole=-0.8983113,0.0094312,0.\Quadrupole=4.836
 0084,-0.1791389,-4.6568695,1.2893855,0.,0.\PG=CS [SG(C6H4Br1)]\\@


 NO HUMAN INVESTIGATION CAN BECOME REAL SCIENCE
 WITHOUT GOING THROUGH MATHEMATICAL PEOPLE.
 -- LEONARDO DA VINCI, IN "PENSIERI" CA. 1492
 Leave Link 9999 at Mon Sep 28 02:02:13 2026, MaxMem=  1610612736 cpu:               0.3 elap:               0.0
 Job cpu time:       0 days  0 hours 11 minutes 52.8 seconds.
 Elapsed time:       0 days  0 hours  1 minutes 34.5 seconds.
 File lengths (MBytes):  RWF=     82 Int=      0 D2E=      0 Chk=      7 Scr=      1
 Normal termination of Gaussian 16 at Mon Sep 28 02:02:13 2026.
 (Enter /share/software/user/restricted/gaussian/g16.B01/l1.exe)
 Link1:  Proceeding to internal job step number  2.
 ----------------------------------------------------------------------
 #P Geom=AllCheck Guess=TCheck SCRF=Check GenChk UM062X/6-311++G(d) Fre
 q
 ----------------------------------------------------------------------
 1/10=4,29=7,30=1,38=1,40=1/1,3;
 2/12=2,40=1/2;
 3/5=4,6=6,7=1011,11=2,14=-4,25=1,30=1,70=2,71=2,74=-55,75=-5,116=2,140=1/1,2,3;
 4/5=101/1;
 5/5=2,38=6,98=1/2;
 8/6=4,10=90,11=11/1;
 11/6=1,8=1,9=11,15=111,16=1/1,2,10;
 10/6=1/2;
 6/7=2,8=2,9=2,10=2,28=1/1;
 7/8=1,10=1,25=1/1,2,3,16;
 1/10=4,30=1/3;
 99//99;
 Leave Link    1 at Mon Sep 28 02:02:13 2026, MaxMem=  1610612736 cpu:               0.1 elap:               0.0
 (Enter /share/software/user/restricted/gaussian/g16.B01/l101.exe)
 Structure from the checkpoint file:  "calcs/m062x_smd/chks/BrPh_3_rad.chk"
 --------------------
 BrPh_3_rad m062x_smd
 --------------------
 Charge =  0 Multiplicity = 2
 Redundant internal coordinates found in file.  (old form).
 C,0,0.0028528807,1.3262436164,0.
 C,0,1.2298165517,0.7099718575,0.
 C,0,1.1971996812,-0.685491303,0.
 C,0,-0.0013049087,-1.3915170543,0.
 C,0,-1.2072613585,-0.6938826943,0.
 C,0,-1.2210351776,0.704097963,0.
 H,0,2.1629864789,1.2611689162,0.
 Br,0,2.8428510449,-1.6471753098,0.
 H,0,-0.0004922554,-2.4744254503,0.
 H,0,-2.141349974,-1.2445739102,0.
 H,0,-2.1541221331,1.2555833688,0.
 Recover connectivity data from disk.
 ITRead=  0  0  0  0  0  0  0  0  0  0  0
 MicOpt= -1 -1 -1 -1 -1 -1 -1 -1 -1 -1 -1
 NAtoms=     11 NQM=       11 NQMF=       0 NMMI=      0 NMMIF=      0
                NMic=       0 NMicF=      0.
                    Isotopes and Nuclear Properties:
 (Nuclear quadrupole moments (NQMom) in fm**2, nuclear magnetic moments (NMagM)
  in nuclear magnetons)

  Atom         1           2           3           4           5           6           7           8           9          10
 IAtWgt=          12          12          12          12          12          12           1          79           1           1
 AtmWgt=  12.0000000  12.0000000  12.0000000  12.0000000  12.0000000  12.0000000   1.0078250  78.9183361   1.0078250   1.0078250
 NucSpn=           0           0           0           0           0           0           1           3           1           1
 AtZEff=   3.6000000   3.6000000   3.6000000   3.6000000   3.6000000   3.6000000   1.0000000  24.5000000   1.0000000   1.0000000
 NQMom=    0.0000000   0.0000000   0.0000000   0.0000000   0.0000000   0.0000000   0.0000000  31.3000000   0.0000000   0.0000000
 NMagM=    0.0000000   0.0000000   0.0000000   0.0000000   0.0000000   0.0000000   2.7928460   2.1063990   2.7928460   2.7928460
 AtZNuc=   6.0000000   6.0000000   6.0000000   6.0000000   6.0000000   6.0000000   1.0000000  35.0000000   1.0000000   1.0000000

  Atom        11
 IAtWgt=           1
 AtmWgt=   1.0078250
 NucSpn=           1
 AtZEff=   1.0000000
 NQMom=    0.0000000
 NMagM=    2.7928460
 AtZNuc=   1.0000000
 Leave Link  101 at Mon Sep 28 02:02:13 2026, MaxMem=  1610612736 cpu:               1.8 elap:               0.2
 (Enter /share/software/user/restricted/gaussian/g16.B01/l103.exe)

 GradGradGradGradGradGradGradGradGradGradGradGradGradGradGradGradGradGrad
 Berny optimization.
 Initialization pass.
                           ----------------------------
                           !    Initial Parameters    !
                           ! (Angstroms and Degrees)  !
 --------------------------                            --------------------------
 ! Name  Definition              Value          Derivative Info.                !
 --------------------------------------------------------------------------------
 ! R1    R(1,2)                  1.373          calculate D2E/DX2 analytically  !
 ! R2    R(1,6)                  1.3729         calculate D2E/DX2 analytically  !
 ! R3    R(2,3)                  1.3958         calculate D2E/DX2 analytically  !
 ! R4    R(2,7)                  1.0838         calculate D2E/DX2 analytically  !
 ! R5    R(3,4)                  1.391          calculate D2E/DX2 analytically  !
 ! R6    R(3,8)                  1.906          calculate D2E/DX2 analytically  !
 ! R7    R(4,5)                  1.3932         calculate D2E/DX2 analytically  !
 ! R8    R(4,9)                  1.0829         calculate D2E/DX2 analytically  !
 ! R9    R(5,6)                  1.398          calculate D2E/DX2 analytically  !
 ! R10   R(5,10)                 1.0843         calculate D2E/DX2 analytically  !
 ! R11   R(6,11)                 1.0839         calculate D2E/DX2 analytically  !
 ! A1    A(2,1,6)              126.385          calculate D2E/DX2 analytically  !
 ! A2    A(1,2,3)              115.3302         calculate D2E/DX2 analytically  !
 ! A3    A(1,2,7)              122.7617         calculate D2E/DX2 analytically  !
 ! A4    A(3,2,7)              121.9081         calculate D2E/DX2 analytically  !
 ! A5    A(2,3,4)              121.8408         calculate D2E/DX2 analytically  !
 ! A6    A(2,3,8)              118.9622         calculate D2E/DX2 analytically  !
 ! A7    A(4,3,8)              119.197          calculate D2E/DX2 analytically  !
 ! A8    A(3,4,5)              119.4492         calculate D2E/DX2 analytically  !
 ! A9    A(3,4,9)              120.4589         calculate D2E/DX2 analytically  !
 ! A10   A(5,4,9)              120.092          calculate D2E/DX2 analytically  !
 ! A11   A(4,5,6)              120.6135         calculate D2E/DX2 analytically  !
 ! A12   A(4,5,10)             119.4296         calculate D2E/DX2 analytically  !
 ! A13   A(6,5,10)             119.9569         calculate D2E/DX2 analytically  !
 ! A14   A(1,6,5)              116.3813         calculate D2E/DX2 analytically  !
 ! A15   A(1,6,11)             122.4697         calculate D2E/DX2 analytically  !
 ! A16   A(5,6,11)             121.149          calculate D2E/DX2 analytically  !
 ! D1    D(6,1,2,3)              0.0            calculate D2E/DX2 analytically  !
 ! D2    D(6,1,2,7)            180.0            calculate D2E/DX2 analytically  !
 ! D3    D(2,1,6,5)              0.0            calculate D2E/DX2 analytically  !
 ! D4    D(2,1,6,11)           180.0            calculate D2E/DX2 analytically  !
 ! D5    D(1,2,3,4)              0.0            calculate D2E/DX2 analytically  !
 ! D6    D(1,2,3,8)            180.0            calculate D2E/DX2 analytically  !
 ! D7    D(7,2,3,4)            180.0            calculate D2E/DX2 analytically  !
 ! D8    D(7,2,3,8)              0.0            calculate D2E/DX2 analytically  !
 ! D9    D(2,3,4,5)              0.0            calculate D2E/DX2 analytically  !
 ! D10   D(2,3,4,9)            180.0            calculate D2E/DX2 analytically  !
 ! D11   D(8,3,4,5)            180.0            calculate D2E/DX2 analytically  !
 ! D12   D(8,3,4,9)              0.0            calculate D2E/DX2 analytically  !
 ! D13   D(3,4,5,6)              0.0            calculate D2E/DX2 analytically  !
 ! D14   D(3,4,5,10)           180.0            calculate D2E/DX2 analytically  !
 ! D15   D(9,4,5,6)            180.0            calculate D2E/DX2 analytically  !
 ! D16   D(9,4,5,10)             0.0            calculate D2E/DX2 analytically  !
 ! D17   D(4,5,6,1)              0.0            calculate D2E/DX2 analytically  !
 ! D18   D(4,5,6,11)           180.0            calculate D2E/DX2 analytically  !
 ! D19   D(10,5,6,1)           180.0            calculate D2E/DX2 analytically  !
 ! D20   D(10,5,6,11)            0.0            calculate D2E/DX2 analytically  !
 --------------------------------------------------------------------------------
 Trust Radius=3.00D-01 FncErr=1.00D-07 GrdErr=1.00D-07 EigMax=2.50D+02 EigMin=1.00D-04
 Number of steps in this run=      2 maximum allowed number of steps=      2.
 GradGradGradGradGradGradGradGradGradGradGradGradGradGradGradGradGradGrad

 Leave Link  103 at Mon Sep 28 02:02:13 2026, MaxMem=  1610612736 cpu:               0.1 elap:               0.0
 (Enter /share/software/user/restricted/gaussian/g16.B01/l202.exe)
                          Input orientation:                          
 ---------------------------------------------------------------------
 Center     Atomic      Atomic             Coordinates (Angstroms)
 Number     Number       Type             X           Y           Z
 ---------------------------------------------------------------------
      1          6           0        0.002853    1.326244   -0.000000
      2          6           0        1.229817    0.709972   -0.000000
      3          6           0        1.197200   -0.685491   -0.000000
      4          6           0       -0.001305   -1.391517   -0.000000
      5          6           0       -1.207261   -0.693883   -0.000000
      6          6           0       -1.221035    0.704098   -0.000000
      7          1           0        2.162986    1.261169   -0.000000
      8         35           0        2.842851   -1.647175    0.000000
      9          1           0       -0.000492   -2.474425   -0.000000
     10          1           0       -2.141350   -1.244574   -0.000000
     11          1           0       -2.154122    1.255583   -0.000000
 ---------------------------------------------------------------------
                    Distance matrix (angstroms):
                    1          2          3          4          5
     1  C    0.000000
     2  C    1.373037   0.000000
     3  C    2.339560   1.395844   0.000000
     4  C    2.717764   2.435552   1.391002   0.000000
     5  C    2.354843   2.812500   2.404476   1.393207   0.000000
     6  C    1.372941   2.450859   2.789053   2.424736   1.398049
     7  H    2.161114   1.083801   2.173069   3.423580   3.896254
     8  Br   4.111789   2.856225   1.906044   2.855623   4.160790
     9  H    3.800671   3.413802   2.152847   1.082909   2.150959
    10  H    3.347642   3.896795   3.385039   2.145084   1.084335
    11  H    2.158132   3.427642   3.872871   3.412003   2.167248
                    6          7          8          9         10
     6  C    0.000000
     7  H    3.429567   0.000000
     8  Br   4.695067   2.986751   0.000000
     9  H    3.404811   4.316863   2.961240   0.000000
    10  H    2.155064   4.980568   5.000435   2.468969   0.000000
    11  H    1.083876   4.317112   5.778906   4.307097   2.500190
                   11
    11  H    0.000000
 Stoichiometry    C6H4Br(2)
 Framework group  CS[SG(C6H4Br)]
 Deg. of freedom    19
 Full point group                 CS      NOp   2
 RotChk:  IX=0 Diff= 1.95D-32
 Largest Abelian subgroup         CS      NOp   2
 Largest concise Abelian subgroup C1      NOp   1
                         Standard orientation:                         
 ---------------------------------------------------------------------
 Center     Atomic      Atomic             Coordinates (Angstroms)
 Number     Number       Type             X           Y           Z
 ---------------------------------------------------------------------
      1          6           0       -0.571035    2.412142   -0.000000
      2          6           0       -1.006849    1.110106   -0.000000
      3          6           0        0.000000    0.143340   -0.000000
      4          6           0        1.347767    0.487449   -0.000000
      5          6           0        1.711325    1.832384   -0.000000
      6          6           0        0.735605    2.833638   -0.000000
      7          1           0       -2.057277    0.843226    0.000000
      8         35           0       -0.489282   -1.698835    0.000000
      9          1           0        2.110573   -0.281197   -0.000000
     10          1           0        2.762048    2.100270   -0.000000
     11          1           0        1.008652    3.882558   -0.000000
 ---------------------------------------------------------------------
 Rotational constants (GHZ):           6.1087918           1.0062506           0.8639408
 Leave Link  202 at Mon Sep 28 02:02:13 2026, MaxMem=  1610612736 cpu:               0.2 elap:               0.0
 (Enter /share/software/user/restricted/gaussian/g16.B01/l301.exe)
 Standard basis: 6-311++G(d) (5D, 7F)
 Ernie: Thresh=  0.10000D-02 Tol=  0.10000D-05 Strict=F.
 There are   155 symmetry adapted cartesian basis functions of A'  symmetry.
 There are    50 symmetry adapted cartesian basis functions of A"  symmetry.
 There are   146 symmetry adapted basis functions of A'  symmetry.
 There are    50 symmetry adapted basis functions of A"  symmetry.
   196 basis functions,   334 primitive gaussians,   205 cartesian basis functions
    38 alpha electrons       37 beta electrons
       nuclear repulsion energy       418.6412136644 Hartrees.
 IExCor= 4336 DFT=T Ex+Corr=M062X ExCW=0 ScaHFX=  0.540000
 ScaDFX=  1.000000  1.000000  1.000000  1.000000 ScalE2=  1.000000  1.000000
 IRadAn=      5 IRanWt=     -1 IRanGd=            0 ICorTp=0 IEmpDi=  4
 NAtoms=   11 NActive=   11 NUniq=   11 SFac= 1.00D+00 NAtFMM=   60 NAOKFM=F Big=F
 Integral buffers will be    131072 words long.
 Raffenetti 2 integral format.
 Two-electron integral symmetry is turned on.
 Force inversion solution in PCM.
 ------------------------------------------------------------------------------
 Polarizable Continuum Model (PCM)
 =================================
 Model                : PCM.
 Atomic radii         : SMD-Coulomb.
 Polarization charges : Total charges.
 Charge compensation  : None.
 Solution method      : Matrix inversion.
 Cavity type          : VdW (van der Waals Surface) (Alpha=1.000).
 Cavity algorithm     : GePol (No added spheres)
                        Default sphere list used, NSphG=   11.
                        Lebedev-Laikov grids with approx.  5.0 points / Ang**2.
                        Smoothing algorithm: York/Karplus (Gamma=1.0000).
                        Polarization charges: spherical gaussians, with
                                              point-specific exponents (IZeta= 3).
                        Self-potential: point-specific (ISelfS= 7).
                        Self-field    : sphere-specific E.n sum rule (ISelfD= 2).
 1st derivatives      : Analytical E(r).r(x)/FMM algorithm (CHGder, D1EAlg=3).
                        Cavity 1st derivative terms included.
 2nd derivatives      : Analytical E(r).r(xy)/FMM algorithm (CHGder, D2EAlg=3).
                        Cavity 2nd derivative terms included.
 Solvent              : Water, Eps=  78.355300 Eps(inf)=   1.777849
 ------------------------------------------------------------------------------
 Spheres list:
 ISph  on   Nord     Re0    Alpha      Xe            Ye            Ze
    1   C      1    1.8500  1.000     -0.571035      2.412142      0.000000
    2   C      2    1.8500  1.000     -1.006849      1.110106     -0.000000
    3   C      3    1.8500  1.000      0.000000      0.143340     -0.000000
    4   C      4    1.8500  1.000      1.347767      0.487449     -0.000000
    5   C      5    1.8500  1.000      1.711325      1.832384     -0.000000
    6   C      6    1.8500  1.000      0.735605      2.833638     -0.000000
    7   H      7    1.2000  1.000     -2.057277      0.843226      0.000000
    8  Br      8    3.0600  1.000     -0.489282     -1.698835      0.000000
    9   H      9    1.2000  1.000      2.110573     -0.281197      0.000000
   10   H     10    1.2000  1.000      2.762048      2.100270     -0.000000
   11   H     11    1.2000  1.000      1.008652      3.882558     -0.000000
 ------------------------------------------------------------------------------
 GePol: Number of generator spheres                  =      11
 GePol: Total number of spheres                      =      11
 GePol: Number of exposed spheres                    =      11 (100.00%)
 GePol: Number of points                             =    1258
 GePol: Average weight of points                     =       0.14
 GePol: Minimum weight of points                     =   0.44D-09
 GePol: Maximum weight of points                     =    0.22025
 GePol: Number of points with low weight             =      54
 GePol: Fraction of low-weight points (<1% of avg)   =       4.29%
 GePol: Cavity surface area                          =    174.584 Ang**2
 GePol: Cavity volume                                =    181.822 Ang**3
 ------------------------------------------------------------------------------
 Atomic radii for non-electrostatic terms: SMD-CDS.
 ------------------------------------------------------------------------------
 PCM non-electrostatic energy =         0.0034652839 Hartrees.
 Nuclear repulsion after PCM non-electrostatic terms =      418.6446789482 Hartrees.
 Leave Link  301 at Mon Sep 28 02:02:13 2026, MaxMem=  1610612736 cpu:               0.4 elap:               0.1
 (Enter /share/software/user/restricted/gaussian/g16.B01/l302.exe)
 NPDir=0 NMtPBC=     1 NCelOv=     1 NCel=       1 NClECP=     1 NCelD=      1
         NCelK=      1 NCelE2=     1 NClLst=     1 CellRange=     0.0.
 One-electron integrals computed using PRISM.
 One-electron integral symmetry used in STVInt
 NBasis=   196 RedAO= T EigKep=  1.80D-06  NBF=   146    50
 NBsUse=   196 1.00D-06 EigRej= -1.00D+00 NBFU=   146    50
 Precomputing XC quadrature grid using
 IXCGrd= 4 IRadAn=           5 IRanWt=          -1 IRanGd=           0 AccXCQ= 0.00D+00.
 Generated NRdTot=       0 NPtTot=           0 NUsed=           0 NTot=          32
 NSgBfM=   205   205   205   205   205 MxSgAt=    11 MxSgA2=    11.
 Leave Link  302 at Mon Sep 28 02:02:14 2026, MaxMem=  1610612736 cpu:               0.8 elap:               0.1
 (Enter /share/software/user/restricted/gaussian/g16.B01/l303.exe)
 DipDrv:  MaxL=1.
 Leave Link  303 at Mon Sep 28 02:02:14 2026, MaxMem=  1610612736 cpu:               0.4 elap:               0.1
 (Enter /share/software/user/restricted/gaussian/g16.B01/l401.exe)
 Initial guess from the checkpoint file:  "calcs/m062x_smd/chks/BrPh_3_rad.chk"
 B after Tr=     0.000000   -0.000000   -0.000000
         Rot=    1.000000   -0.000000   -0.000000   -0.000000 Ang=   0.00 deg.
 Guess basis will be translated and rotated to current coordinates.
 JPrj=2 DoOrth=T DoCkMO=T.
 Initial guess orbital symmetries:
 Alpha Orbitals:
       Occupied  (A') (A') (A') (A") (A') (A') (A') (A') (A') (A')
                 (A') (A') (A') (A") (A') (A') (A") (A') (A') (A")
                 (A') (A') (A') (A') (A') (A') (A') (A') (A') (A')
                 (A") (A') (A') (A") (A') (A") (A') (A")
       Virtual   (A") (A') (A") (A') (A') (A') (A') (A") (A') (A')
                 (A') (A") (A') (A") (A') (A") (A') (A') (A") (A')
                 (A') (A") (A') (A") (A') (A') (A') (A') (A') (A")
                 (A') (A') (A') (A') (A') (A') (A') (A') (A') (A')
                 (A') (A') (A') (A') (A") (A') (A') (A') (A') (A")
                 (A") (A') (A') (A') (A") (A') (A") (A") (A') (A')
                 (A') (A") (A") (A') (A') (A') (A") (A') (A') (A')
                 (A') (A') (A') (A') (A') (A') (A') (A') (A') (A')
                 (A") (A') (A") (A') (A") (A") (A') (A") (A") (A')
                 (A') (A') (A') (A') (A') (A") (A') (A") (A') (A')
                 (A") (A") (A') (A") (A') (A') (A") (A') (A') (A')
                 (A') (A') (A") (A') (A') (A') (A') (A") (A') (A")
                 (A") (A') (A") (A") (A') (A") (A') (A') (A') (A')
                 (A') (A') (A') (A') (A') (A') (A') (A") (A') (A")
                 (A') (A') (A') (A') (A") (A') (A') (A') (A') (A')
                 (A') (A') (A') (A') (A") (A') (A') (A')
 Beta  Orbitals:
       Occupied  (A') (A') (A') (A") (A') (A') (A') (A') (A') (A')
                 (A') (A') (A') (A") (A') (A') (A") (A') (A') (A")
                 (A') (A') (A') (A') (A') (A') (A') (A') (A') (A')
                 (A") (A') (A') (A") (A') (A") (A")
       Virtual   (A') (A") (A') (A') (A") (A') (A') (A') (A") (A')
                 (A') (A') (A") (A") (A') (A') (A") (A') (A') (A')
                 (A") (A') (A") (A') (A") (A') (A') (A') (A') (A')
                 (A') (A") (A') (A') (A') (A') (A') (A') (A') (A')
                 (A') (A') (A') (A') (A') (A") (A') (A') (A') (A')
                 (A') (A") (A") (A') (A') (A") (A') (A") (A") (A')
                 (A') (A') (A") (A") (A') (A') (A') (A") (A') (A')
                 (A') (A') (A') (A') (A') (A') (A') (A') (A') (A')
                 (A') (A") (A') (A") (A') (A") (A") (A') (A") (A")
                 (A') (A') (A') (A') (A') (A') (A") (A") (A') (A')
                 (A') (A") (A") (A') (A") (A') (A') (A") (A') (A')
                 (A') (A') (A') (A") (A') (A') (A') (A') (A") (A')
                 (A") (A") (A') (A") (A") (A') (A") (A') (A') (A')
                 (A') (A') (A') (A') (A') (A') (A') (A') (A") (A')
                 (A") (A') (A') (A') (A') (A") (A') (A') (A') (A')
                 (A') (A') (A') (A') (A') (A") (A') (A') (A')
 The electronic state of the initial guess is 2-A'.
 Initial guess <Sx>= 0.0000 <Sy>= 0.0000 <Sz>= 0.5000 <S**2>= 0.7619 S= 0.5059
 Leave Link  401 at Mon Sep 28 02:02:14 2026, MaxMem=  1610612736 cpu:               0.6 elap:               0.1
 (Enter /share/software/user/restricted/gaussian/g16.B01/l502.exe)
 Keep R1 and R2 ints in memory in symmetry-blocked form, NReq=296222914.
 FoFCou: FMM=F IPFlag=           0 FMFlag=           0 FMFlg1=           0
         NFxFlg=           0 DoJE=F BraDBF=F KetDBF=F FulRan=T
         wScrn=  0.000000 ICntrl=       600 IOpCl=  0 I1Cent=           0 NGrid=           0
         NMat0=    1 NMatS0=  19306 NMatT0=    0 NMatD0=    1 NMtDS0=    0 NMtDT0=    0
 Petite list used in FoFCou.
 UHF open shell SCF:
 Using DIIS extrapolation, IDIIS=  1040.
 NGot=  1610612736 LenX=  1413030086 LenY=  1412987620
 Requested convergence on RMS density matrix=1.00D-08 within 128 cycles.
 Requested convergence on MAX density matrix=1.00D-06.
 Requested convergence on             energy=1.00D-06.
 No special actions if energy rises.

 Cycle   1  Pass 1  IDiag  1:
 Inv3:  Mode=1 IEnd=     4747692.
 Iteration    1 A*A^-1 deviation from unit magnitude is 2.89D-15 for   1236.
 Iteration    1 A*A^-1 deviation from orthogonality  is 1.72D-15 for    415    269.
 Iteration    1 A^-1*A deviation from unit magnitude is 2.89D-15 for   1225.
 Iteration    1 A^-1*A deviation from orthogonality  is 2.35D-15 for   1109    584.
 E= -2805.08252763433    
 DIIS: error= 1.75D-08 at cycle   1 NSaved=   1.
 NSaved= 1 IEnMin= 1 EnMin= -2805.08252763433     IErMin= 1 ErrMin= 1.75D-08
 ErrMax= 1.75D-08  0.00D+00 EMaxC= 1.00D-01 BMatC= 3.01D-14 BMatP= 3.01D-14
 IDIUse=1 WtCom= 1.00D+00 WtEn= 0.00D+00
 Coeff-Com:  0.100D+01
 Coeff:      0.100D+01
 Gap=     0.306 Goal=   None    Shift=    0.000
 Gap=     0.243 Goal=   None    Shift=    0.000
 RMSDP=4.26D-09 MaxDP=1.79D-07              OVMax= 1.25D-07

 Error on total polarization charges =  0.02347
 SCF Done:  E(UM062X) =  -2805.08252763     A.U. after    1 cycles
            NFock=  1  Conv=0.43D-08     -V/T= 2.0014
 <Sx>= 0.0000 <Sy>= 0.0000 <Sz>= 0.5000 <S**2>= 0.7619 S= 0.5059
 <L.S>=  0.00000000000    
 KE= 2.801127176396D+03 PE=-7.526341478061D+03 EE= 1.501487095083D+03
 SMD-CDS (non-electrostatic) energy       (kcal/mol) =       2.17
 (included in total energy above)
 Annihilation of the first spin contaminant:
 S**2 before annihilation     0.7619,   after     0.7501
 Leave Link  502 at Mon Sep 28 02:02:17 2026, MaxMem=  1610612736 cpu:              28.5 elap:               3.6
 (Enter /share/software/user/restricted/gaussian/g16.B01/l801.exe)
 DoSCS=F DFT=T ScalE2(SS,OS)=  1.000000  1.000000
 Range of M.O.s used for correlation:     1   196
 NBasis=   196 NAE=    38 NBE=    37 NFC=     0 NFV=     0
 NROrb=    196 NOA=    38 NOB=    37 NVA=   158 NVB=   159

 **** Warning!!: The largest alpha MO coefficient is  0.16947202D+03


 **** Warning!!: The largest beta MO coefficient is  0.16982519D+03

 Leave Link  801 at Mon Sep 28 02:02:18 2026, MaxMem=  1610612736 cpu:               0.2 elap:               0.0
 (Enter /share/software/user/restricted/gaussian/g16.B01/l1101.exe)
 Using compressed storage, NAtomX=    11.
 Will process     12 centers per pass.
 Leave Link 1101 at Mon Sep 28 02:02:18 2026, MaxMem=  1610612736 cpu:               0.6 elap:               0.1
 (Enter /share/software/user/restricted/gaussian/g16.B01/l1102.exe)
 Symmetrizing basis deriv contribution to polar:
 IMax=3 JMax=2 DiffMx= 0.00D+00
 Leave Link 1102 at Mon Sep 28 02:02:18 2026, MaxMem=  1610612736 cpu:               0.2 elap:               0.0
 (Enter /share/software/user/restricted/gaussian/g16.B01/l1110.exe)
 Forming Gx(P) for the SCF density, NAtomX=    11.
 Integral derivatives from FoFJK, PRISM(SPDF).
 Do as many integral derivatives as possible in FoFJK.
 G2DrvN: MDV=    1610611742.
 G2DrvN: will do    12 centers at a time, making    1 passes.
 Calling FoFCou, ICntrl=  3107 FMM=F I1Cent=   0 AccDes= 0.00D+00.
 FoFJK:  IHMeth= 1 ICntrl=    3107 DoSepK=F KAlg= 0 I1Cent=           0 FoldK=F
 IRaf=         0 NMat=       1 IRICut=       1 DoRegI=T DoRafI=F ISym2E= 1 IDoP0=0 IntGTp=1.
 FoFCou: FMM=F IPFlag=           0 FMFlag=      100000 FMFlg1=           0
         NFxFlg=           0 DoJE=F BraDBF=F KetDBF=F FulRan=T
         wScrn=  0.000000 ICntrl=      3107 IOpCl=  1 I1Cent=           0 NGrid=           0
         NMat0=    1 NMatS0=      1 NMatT0=    0 NMatD0=    1 NMtDS0=    0 NMtDT0=    0
 Petite list used in FoFCou.
 NEqPCM:  Using equilibrium solvation (IEInf=0, Eps=  78.3553, EpsInf=   1.7778)
 G2PCM: DoFxE=T DoFxN=T DoGrad=T DoDP/DQ/DG/TGxP=FFFF NFrqRd=   0 IEInf=0 SqF1=F DoCFld=F IF1Alg=4.
 GePol: Maximum number of non-zero 1st derivatives   =     549
 End of G2Drv F.D. properties file   721 does not exist.
 End of G2Drv F.D. properties file   722 does not exist.
 End of G2Drv F.D. properties file   788 does not exist.
 Leave Link 1110 at Mon Sep 28 02:02:47 2026, MaxMem=  1610612736 cpu:             232.9 elap:              29.1
 (Enter /share/software/user/restricted/gaussian/g16.B01/l1002.exe)
 Minotr:  UHF open shell wavefunction.
          IDoAtm=11111111111
 NEqPCM:  Using equilibrium solvation (IEInf=0, Eps=  78.3553, EpsInf=   1.7778)
          Direct CPHF calculation.
          Differentiating once with respect to electric field.
                with respect to dipole field.
          Differentiating once with respect to nuclear coordinates.
          Using symmetry in CPHF.
          Requested convergence is 1.0D-08 RMS, and 1.0D-07 maximum.
          Secondary convergence is 1.0D-12 RMS, and 1.0D-12 maximum.
          NewPWx=T KeepS1=F KeepF1=F KeepIn=T MapXYZ=F SortEE=F KeepMc=T.
         3377 words used for storage of precomputed grid.
 Keep R1 and R2 ints in memory in symmetry-blocked form, NReq=296228214.
 FoFCou: FMM=F IPFlag=           0 FMFlag=           0 FMFlg1=           0
         NFxFlg=           0 DoJE=F BraDBF=F KetDBF=F FulRan=T
         wScrn=  0.000000 ICntrl=       600 IOpCl=  0 I1Cent=           0 NGrid=           0
         NMat0=    1 NMatS0=  19306 NMatT0=    0 NMatD0=    1 NMtDS0=    0 NMtDT0=    0
 Petite list used in FoFCou.
          MDV=    1610612736 using IRadAn=       1.
          Solving linear equations simultaneously, MaxMat=       0.
          There are    36 degrees of freedom in the 1st order CPHF.  IDoFFX=6 NUNeed=     3.
     33 vectors produced by pass  0 Test12= 3.30D-14 2.78D-09 XBig12= 1.61D+02 5.10D+00.
 AX will form    33 AO Fock derivatives at one time.
     33 vectors produced by pass  1 Test12= 3.30D-14 2.78D-09 XBig12= 1.29D+01 5.88D-01.
     33 vectors produced by pass  2 Test12= 3.30D-14 2.78D-09 XBig12= 2.75D-01 7.86D-02.
     33 vectors produced by pass  3 Test12= 3.30D-14 2.78D-09 XBig12= 1.30D-02 1.61D-02.
     33 vectors produced by pass  4 Test12= 3.30D-14 2.78D-09 XBig12= 5.40D-04 3.98D-03.
     33 vectors produced by pass  5 Test12= 3.30D-14 2.78D-09 XBig12= 7.88D-06 3.87D-04.
     33 vectors produced by pass  6 Test12= 3.30D-14 2.78D-09 XBig12= 5.78D-08 5.62D-05.
     22 vectors produced by pass  7 Test12= 3.30D-14 2.78D-09 XBig12= 3.91D-10 2.74D-06.
      3 vectors produced by pass  8 Test12= 3.30D-14 2.78D-09 XBig12= 2.68D-12 2.07D-07.
      2 vectors produced by pass  9 Test12= 3.30D-14 2.78D-09 XBig12= 2.08D-14 1.66D-08.
 InvSVY:  IOpt=1 It=  1 EMax= 1.60D-14
 Solved reduced A of dimension   258 with    36 vectors.
 FullF1:  Do perturbations      1 to       3.
 Isotropic polarizability for W=    0.000000      114.10 Bohr**3.
 End of Minotr F.D. properties file   721 does not exist.
 End of Minotr F.D. properties file   722 does not exist.
 End of Minotr F.D. properties file   788 does not exist.
 Leave Link 1002 at Mon Sep 28 02:04:50 2026, MaxMem=  1610612736 cpu:             985.5 elap:             123.3
 (Enter /share/software/user/restricted/gaussian/g16.B01/l601.exe)
 Copying SCF densities to generalized density rwf, IOpCl= 1 IROHF=0.

 **********************************************************************

            Population analysis using the SCF Density.

 **********************************************************************

 Orbital symmetries:
 Alpha Orbitals:
       Occupied  (A') (A') (A') (A") (A') (A') (A') (A') (A') (A')
                 (A') (A') (A') (A") (A') (A') (A") (A') (A') (A")
                 (A') (A') (A') (A') (A') (A') (A') (A') (A') (A')
                 (A") (A') (A') (A") (A') (A") (A') (A")
       Virtual   (A") (A') (A") (A') (A') (A') (A') (A") (A') (A')
                 (A') (A") (A') (A") (A') (A") (A') (A') (A") (A')
                 (A') (A") (A') (A") (A') (A') (A') (A') (A') (A")
                 (A') (A') (A') (A') (A') (A') (A') (A') (A') (A')
                 (A') (A') (A') (A') (A") (A') (A') (A') (A') (A")
                 (A") (A') (A') (A') (A") (A') (A") (A") (A') (A')
                 (A') (A") (A") (A') (A') (A') (A") (A') (A') (A')
                 (A') (A') (A') (A') (A') (A') (A') (A') (A') (A')
                 (A") (A') (A") (A') (A") (A") (A') (A") (A") (A')
                 (A') (A') (A') (A') (A') (A") (A') (A") (A') (A')
                 (A") (A") (A') (A") (A') (A') (A") (A') (A') (A')
                 (A') (A') (A") (A') (A') (A') (A') (A") (A') (A")
                 (A") (A') (A") (A") (A') (A") (A') (A') (A') (A')
                 (A') (A') (A') (A') (A') (A') (A') (A") (A') (A")
                 (A') (A') (A') (A') (A") (A') (A') (A') (A') (A')
                 (A') (A') (A') (A') (A") (A') (A') (A')
 Beta  Orbitals:
       Occupied  (A') (A') (A') (A") (A') (A') (A') (A') (A') (A')
                 (A') (A') (A') (A") (A') (A') (A") (A') (A') (A")
                 (A') (A') (A') (A') (A') (A') (A') (A') (A') (A')
                 (A") (A') (A') (A") (A') (A") (A")
       Virtual   (A') (A") (A') (A') (A") (A') (A') (A') (A") (A')
                 (A') (A') (A") (A") (A') (A') (A") (A') (A') (A')
                 (A") (A') (A") (A') (A") (A') (A') (A') (A') (A')
                 (A') (A") (A') (A') (A') (A') (A') (A') (A') (A')
                 (A') (A') (A') (A') (A') (A") (A') (A') (A') (A')
                 (A') (A") (A") (A') (A') (A") (A') (A") (A") (A')
                 (A') (A') (A") (A") (A') (A') (A') (A") (A') (A')
                 (A') (A') (A') (A') (A') (A') (A') (A') (A') (A')
                 (A') (A") (A') (A") (A') (A") (A") (A') (A") (A")
                 (A') (A') (A') (A') (A') (A') (A") (A") (A') (A')
                 (A') (A") (A") (A') (A") (A') (A') (A") (A') (A')
                 (A') (A') (A') (A") (A') (A') (A') (A') (A") (A')
                 (A") (A") (A') (A") (A") (A') (A") (A') (A') (A')
                 (A') (A') (A') (A') (A') (A') (A') (A') (A") (A')
                 (A") (A') (A') (A') (A') (A") (A') (A') (A') (A')
                 (A') (A') (A') (A') (A') (A") (A') (A') (A')
 The electronic state is 2-A'.
 Alpha  occ. eigenvalues -- -485.34093 -63.33281 -57.16031 -57.15772 -57.15765
 Alpha  occ. eigenvalues --  -10.61591 -10.58141 -10.56678 -10.56188 -10.55954
 Alpha  occ. eigenvalues --  -10.55865  -9.01999  -6.84798  -6.83767  -6.83751
 Alpha  occ. eigenvalues --   -2.87948  -2.87593  -2.87574  -2.86665  -2.86665
 Alpha  occ. eigenvalues --   -0.99529  -0.91073  -0.86276  -0.82659  -0.70396
 Alpha  occ. eigenvalues --   -0.67989  -0.60300  -0.54666  -0.52409  -0.49756
 Alpha  occ. eigenvalues --   -0.47455  -0.47226  -0.42531  -0.38749  -0.35866
 Alpha  occ. eigenvalues --   -0.33074  -0.31345  -0.30583
 Alpha virt. eigenvalues --    0.00036   0.00342   0.00542   0.01548   0.01922
 Alpha virt. eigenvalues --    0.02359   0.04224   0.04712   0.05278   0.06247
 Alpha virt. eigenvalues --    0.07407   0.07933   0.09074   0.09372   0.10864
 Alpha virt. eigenvalues --    0.11881   0.13533   0.13620   0.13944   0.14245
 Alpha virt. eigenvalues --    0.14680   0.15068   0.15287   0.15950   0.16040
 Alpha virt. eigenvalues --    0.16165   0.17723   0.19006   0.19781   0.21223
 Alpha virt. eigenvalues --    0.21443   0.22161   0.24378   0.24911   0.25813
 Alpha virt. eigenvalues --    0.26248   0.27220   0.30038   0.30663   0.31420
 Alpha virt. eigenvalues --    0.35300   0.36975   0.37952   0.38320   0.44331
 Alpha virt. eigenvalues --    0.45505   0.48680   0.51016   0.51587   0.55271
 Alpha virt. eigenvalues --    0.57634   0.57687   0.57855   0.58793   0.59117
 Alpha virt. eigenvalues --    0.61398   0.62874   0.63758   0.63963   0.64383
 Alpha virt. eigenvalues --    0.65145   0.68766   0.69836   0.70409   0.75036
 Alpha virt. eigenvalues --    0.76672   0.77121   0.77845   0.78697   0.80733
 Alpha virt. eigenvalues --    0.84442   0.87673   0.87932   0.91094   0.91770
 Alpha virt. eigenvalues --    0.92928   0.94712   0.95422   0.98501   1.02187
 Alpha virt. eigenvalues --    1.04435   1.07897   1.10052   1.11786   1.22920
 Alpha virt. eigenvalues --    1.24260   1.26712   1.28327   1.32933   1.36511
 Alpha virt. eigenvalues --    1.53667   1.55571   1.56343   1.58716   1.76867
 Alpha virt. eigenvalues --    1.80094   1.81151   1.81154   1.84289   1.85443
 Alpha virt. eigenvalues --    1.93270   1.96698   1.99645   2.00308   2.02190
 Alpha virt. eigenvalues --    2.05554   2.05909   2.14614   2.23375   2.25299
 Alpha virt. eigenvalues --    2.29714   2.34068   2.35714   2.36001   2.48939
 Alpha virt. eigenvalues --    2.49712   2.58581   2.69032   2.72074   2.80162
 Alpha virt. eigenvalues --    2.81515   2.83561   2.92527   2.93471   3.02595
 Alpha virt. eigenvalues --    3.10949   3.15170   3.17649   3.32057   3.35081
 Alpha virt. eigenvalues --    3.36581   3.44490   3.56171   3.65461   3.73856
 Alpha virt. eigenvalues --    4.00056   4.02430   4.28101   4.32328   4.36412
 Alpha virt. eigenvalues --    4.50969   4.69659   4.76217   6.89685   7.63581
 Alpha virt. eigenvalues --    7.74647   7.81271  23.33703  23.89974  23.93545
 Alpha virt. eigenvalues --   24.09814  24.12873  24.22885  48.41636 290.78150
 Alpha virt. eigenvalues --  290.90086 290.997781020.98692
  Beta  occ. eigenvalues -- -485.34085 -63.33277 -57.16018 -57.15769 -57.15762
  Beta  occ. eigenvalues --  -10.61495 -10.57173 -10.56687 -10.56111 -10.55979
  Beta  occ. eigenvalues --  -10.55872  -9.01989  -6.84773  -6.83761  -6.83746
  Beta  occ. eigenvalues --   -2.87935  -2.87580  -2.87562  -2.86662  -2.86661
  Beta  occ. eigenvalues --   -0.98826  -0.90552  -0.85216  -0.82207  -0.69697
  Beta  occ. eigenvalues --   -0.66343  -0.59592  -0.53854  -0.51728  -0.49324
  Beta  occ. eigenvalues --   -0.46923  -0.45587  -0.42009  -0.38301  -0.35632
  Beta  occ. eigenvalues --   -0.32178  -0.30423
  Beta virt. eigenvalues --   -0.06143  -0.00018   0.00475   0.01617   0.01678
  Beta virt. eigenvalues --    0.02139   0.02812   0.04453   0.04847   0.05658
  Beta virt. eigenvalues --    0.06965   0.07489   0.07874   0.09218   0.09537
  Beta virt. eigenvalues --    0.10999   0.11952   0.13119   0.13831   0.13915
  Beta virt. eigenvalues --    0.14030   0.14237   0.14929   0.15195   0.16081
  Beta virt. eigenvalues --    0.16120   0.16324   0.17890   0.19365   0.19933
  Beta virt. eigenvalues --    0.21225   0.22017   0.22048   0.24635   0.25358
  Beta virt. eigenvalues --    0.25393   0.26004   0.27619   0.30319   0.30822
  Beta virt. eigenvalues --    0.31916   0.35873   0.37261   0.38060   0.38762
  Beta virt. eigenvalues --    0.44344   0.45505   0.49106   0.51043   0.51833
  Beta virt. eigenvalues --    0.55364   0.55488   0.57775   0.57892   0.58888
  Beta virt. eigenvalues --    0.59233   0.59400   0.62787   0.63904   0.64127
  Beta virt. eigenvalues --    0.64389   0.64929   0.68774   0.69753   0.72095
  Beta virt. eigenvalues --    0.74971   0.76083   0.77141   0.77803   0.78505
  Beta virt. eigenvalues --    0.81319   0.83972   0.87256   0.88196   0.91349
  Beta virt. eigenvalues --    0.91960   0.92392   0.94470   0.95152   0.98827
  Beta virt. eigenvalues --    1.02127   1.04930   1.08231   1.11073   1.11727
  Beta virt. eigenvalues --    1.23325   1.24423   1.25972   1.29733   1.33765
  Beta virt. eigenvalues --    1.37978   1.54254   1.56205   1.57246   1.59310
  Beta virt. eigenvalues --    1.77717   1.80466   1.81512   1.82046   1.84757
  Beta virt. eigenvalues --    1.86414   1.93317   1.97438   2.00688   2.00767
  Beta virt. eigenvalues --    2.02352   2.05659   2.06050   2.14838   2.23660
  Beta virt. eigenvalues --    2.25464   2.30207   2.34850   2.36059   2.36631
  Beta virt. eigenvalues --    2.49269   2.50133   2.58858   2.69197   2.72853
  Beta virt. eigenvalues --    2.80568   2.81528   2.84271   2.92669   2.93334
  Beta virt. eigenvalues --    3.04954   3.11012   3.15794   3.17926   3.32140
  Beta virt. eigenvalues --    3.35147   3.37006   3.44683   3.56387   3.65624
  Beta virt. eigenvalues --    3.74514   4.00261   4.02838   4.28142   4.32369
  Beta virt. eigenvalues --    4.36533   4.51075   4.69760   4.76407   6.89667
  Beta virt. eigenvalues --    7.63581   7.74651   7.81283  23.33824  23.90205
  Beta virt. eigenvalues --   23.93587  24.09799  24.13058  24.23399  48.41634
  Beta virt. eigenvalues --  290.78156 290.90091 290.998021020.98700
          Condensed to atoms (all electrons):
               1          2          3          4          5          6
     1  C    6.790785  -1.212205   1.373189  -2.021102   1.636563  -1.072114
     2  C   -1.212205   8.647413  -2.036024   1.507191  -2.037690   1.531120
     3  C    1.373189  -2.036024   8.807844  -2.744322   2.001553  -1.752022
     4  C   -2.021102   1.507191  -2.744322   9.842021  -2.428898   2.128877
     5  C    1.636563  -2.037690   2.001553  -2.428898   8.332449  -1.907774
     6  C   -1.072114   1.531120  -1.752022   2.128877  -1.907774   7.570328
     7  H    0.058967   0.244154  -0.001906   0.000360   0.016169  -0.028488
     8  Br   0.107081  -0.042857   0.012364  -0.065980   0.125674   0.002845
     9  H   -0.001078   0.022087  -0.042462   0.297937   0.001997   0.016755
    10  H    0.027495  -0.037337   0.055264  -0.085473   0.369551  -0.039728
    11  H    0.012504  -0.026751   0.016759  -0.002652   0.011287   0.300427
               7          8          9         10         11
     1  C    0.058967   0.107081  -0.001078   0.027495   0.012504
     2  C    0.244154  -0.042857   0.022087  -0.037337  -0.026751
     3  C   -0.001906   0.012364  -0.042462   0.055264   0.016759
     4  C    0.000360  -0.065980   0.297937  -0.085473  -0.002652
     5  C    0.016169   0.125674   0.001997   0.369551   0.011287
     6  C   -0.028488   0.002845   0.016755  -0.039728   0.300427
     7  H    0.356686  -0.023937  -0.000117   0.000399  -0.000068
     8  Br  -0.023937  35.138665  -0.030326   0.003849  -0.000395
     9  H   -0.000117  -0.030326   0.345647  -0.003795   0.000622
    10  H    0.000399   0.003849  -0.003795   0.338537   0.003519
    11  H   -0.000068  -0.000395   0.000622   0.003519   0.347507
          Atomic-Atomic Spin Densities.
               1          2          3          4          5          6
     1  C    1.074623  -0.069088  -0.050357   0.018249   0.009770  -0.190580
     2  C   -0.069088   0.093455  -0.053103  -0.015514  -0.056917   0.138750
     3  C   -0.050357  -0.053103   0.125675   0.029633   0.011861  -0.013250
     4  C    0.018249  -0.015514   0.029633  -0.064537  -0.011227   0.027073
     5  C    0.009770  -0.056917   0.011861  -0.011227   0.104218  -0.041591
     6  C   -0.190580   0.138750  -0.013250   0.027073  -0.041591   0.150135
     7  H    0.001318   0.021541  -0.022974  -0.002200  -0.000504  -0.006534
     8  Br   0.002843   0.006441  -0.019440   0.001809  -0.000779  -0.004782
     9  H    0.003514  -0.004170   0.004496  -0.003401   0.003751  -0.003464
    10  H    0.002968   0.000731  -0.000845   0.006441  -0.005523  -0.006810
    11  H   -0.008099   0.001111  -0.002267   0.002121  -0.007107   0.014939
               7          8          9         10         11
     1  C    0.001318   0.002843   0.003514   0.002968  -0.008099
     2  C    0.021541   0.006441  -0.004170   0.000731   0.001111
     3  C   -0.022974  -0.019440   0.004496  -0.000845  -0.002267
     4  C   -0.002200   0.001809  -0.003401   0.006441   0.002121
     5  C   -0.000504  -0.000779   0.003751  -0.005523  -0.007107
     6  C   -0.006534  -0.004782  -0.003464  -0.006810   0.014939
     7  H    0.030242   0.003829  -0.000163   0.000096   0.000047
     8  Br   0.003829   0.026042   0.000230  -0.000001  -0.000051
     9  H   -0.000163   0.000230   0.001478  -0.000218  -0.000030
    10  H    0.000096  -0.000001  -0.000218   0.009094   0.001086
    11  H    0.000047  -0.000051  -0.000030   0.001086   0.022255
 Mulliken charges and spin densities:
               1          2
     1  C    0.299915   0.795162
     2  C   -0.559099   0.063238
     3  C    0.309761   0.009429
     4  C   -0.427958  -0.011553
     5  C   -0.120882   0.005952
     6  C   -0.750228   0.063885
     7  H    0.377779   0.024697
     8  Br  -0.226984   0.016141
     9  H    0.392734   0.002023
    10  H    0.367720   0.007020
    11  H    0.337242   0.024006
 Sum of Mulliken charges =  -0.00000   1.00000
 Mulliken charges and spin densities with hydrogens summed into heavy atoms:
               1          2
     1  C    0.299915   0.795162
     2  C   -0.181320   0.087935
     3  C    0.309761   0.009429
     4  C   -0.035225  -0.009530
     5  C    0.246838   0.012972
     6  C   -0.412986   0.087891
     8  Br  -0.226984   0.016141
 APT charges:
               1
     1  C   -0.033751
     2  C   -0.240505
     3  C    0.543672
     4  C   -0.261971
     5  C    0.034394
     6  C   -0.123825
     7  H    0.135544
     8  Br  -0.364100
     9  H    0.113576
    10  H    0.075893
    11  H    0.121072
 Sum of APT charges =   0.00000
 APT charges with hydrogens summed into heavy atoms:
               1
     1  C   -0.033751
     2  C   -0.104961
     3  C    0.543672
     4  C   -0.148395
     5  C    0.110287
     6  C   -0.002753
     8  Br  -0.364100
 Electronic spatial extent (au):  <R**2>=           1181.8833
 Charge=             -0.0000 electrons
 Dipole moment (field-independent basis, Debye):
    X=              1.6026    Y=              1.6266    Z=             -0.0000  Tot=              2.2834
 Quadrupole moment (field-independent basis, Debye-Ang):
   XX=            -46.3947   YY=            -49.9045   ZZ=            -57.5450
   XY=              3.3621   XZ=              0.0000   YZ=             -0.0000
 Traceless Quadrupole moment (field-independent basis, Debye-Ang):
   XX=              4.8867   YY=              1.3769   ZZ=             -6.2636
   XY=              3.3621   XZ=              0.0000   YZ=             -0.0000
 Octapole moment (field-independent basis, Debye-Ang**2):
  XXX=             -3.5588  YYY=            -43.2722  ZZZ=              0.0000  XYY=              8.8362
  XXY=            -11.4175  XXZ=              0.0000  XZZ=             -6.4887  YZZ=            -24.8809
  YYZ=             -0.0000  XYZ=             -0.0000
 Hexadecapole moment (field-independent basis, Debye-Ang**3):
 XXXX=           -311.1055 YYYY=           -950.4522 ZZZZ=            -70.0127 XXXY=            -93.9125
 XXXZ=              0.0000 YYYX=            -51.1984 YYYZ=             -0.0000 ZZZX=              0.0000
 ZZZY=              0.0000 XXYY=           -219.0478 XXZZ=            -79.5664 YYZZ=           -205.5263
 XXYZ=              0.0000 YYXZ=             -0.0000 ZZXY=            -40.9897
 N-N= 4.186446789482D+02 E-N=-7.526341478982D+03  KE= 2.801127176396D+03
 Symmetry A'   KE= 2.417682745453D+03
 Symmetry A"   KE= 3.834444309427D+02
 Symmetry A'   SP= 1.000000000000D+00
 Symmetry A"   SP=-5.318949321514D-15
  Exact polarizability: 122.912  11.179 151.995   0.000  -0.000  67.405
 Approx polarizability: 115.300   8.537 138.584  -0.000  -0.000  64.679
                          Isotropic Fermi Contact Couplings
        Atom                 a.u.       MegaHertz       Gauss      10(-4) cm-1
     1  C(13)              0.44075     495.48841     176.80259     165.27714
     2  C(13)              0.01685      18.93755       6.75739       6.31689
     3  C(13)              0.06453      72.53923      25.88380      24.19648
     4  C(13)             -0.00815      -9.16592      -3.27063      -3.05742
     5  C(13)              0.04935      55.48269      19.79760      18.50703
     6  C(13)              0.01276      14.34861       5.11994       4.78618
     7  H(1)               0.01195      53.43063      19.06538      17.82254
     8  Br(79)             0.01107      12.44250       4.43979       4.15037
     9  H(1)               0.00085       3.78252       1.34970       1.26171
    10  H(1)               0.00327      14.62963       5.22022       4.87992
    11  H(1)               0.01114      49.80665      17.77225      16.61371
 --------------------------------------------------------
       Center         ----  Spin Dipole Couplings  ----
                      3XX-RR        3YY-RR        3ZZ-RR
 --------------------------------------------------------
     1   Atom        0.208807      0.182987     -0.391794
     2   Atom       -0.006578      0.102949     -0.096371
     3   Atom        0.017127     -0.012833     -0.004294
     4   Atom        0.026017      0.025679     -0.051696
     5   Atom        0.018023     -0.005850     -0.012173
     6   Atom        0.109335     -0.009241     -0.100094
     7   Atom       -0.000435      0.012648     -0.012212
     8   Atom       -0.111358      0.180231     -0.068874
     9   Atom        0.001019      0.001417     -0.002436
    10   Atom        0.010052     -0.004614     -0.005438
    11   Atom        0.012520     -0.000018     -0.012503
 --------------------------------------------------------
                        XY            XZ            YZ
 --------------------------------------------------------
     1   Atom       -0.755578     -0.000000      0.000000
     2   Atom        0.012098      0.000000      0.000000
     3   Atom       -0.033357      0.000000     -0.000000
     4   Atom       -0.006864     -0.000000     -0.000000
     5   Atom       -0.046004     -0.000000      0.000000
     6   Atom        0.002994     -0.000000      0.000000
     7   Atom        0.015563     -0.000000     -0.000000
     8   Atom       -0.014719      0.000000     -0.000000
     9   Atom       -0.000104      0.000000     -0.000000
    10   Atom        0.000833      0.000000      0.000000
    11   Atom        0.015890     -0.000000     -0.000000
 --------------------------------------------------------


 ---------------------------------------------------------------------------------
              Anisotropic Spin Dipole Couplings in Principal Axis System
 ---------------------------------------------------------------------------------

       Atom             a.u.   MegaHertz   Gauss  10(-4) cm-1        Axes

              Baa    -0.5598   -75.119   -26.804   -25.057  0.7010  0.7131  0.0000
     1 C(13)  Bbb    -0.3918   -52.575   -18.760   -17.537  0.0000  0.0000  1.0000
              Bcc     0.9516   127.694    45.564    42.594  0.7131 -0.7010  0.0000
 
              Baa    -0.0964   -12.932    -4.614    -4.314  0.0000  0.0000  1.0000
     2 C(13)  Bbb    -0.0079    -1.060    -0.378    -0.354  0.9941 -0.1085 -0.0000
              Bcc     0.1043    13.992     4.993     4.667  0.1085  0.9941 -0.0000
 
              Baa    -0.0344    -4.619    -1.648    -1.541  0.5433  0.8395 -0.0000
     3 C(13)  Bbb    -0.0043    -0.576    -0.206    -0.192  0.0000  0.0000  1.0000
              Bcc     0.0387     5.195     1.854     1.733  0.8395 -0.5433  0.0000
 
              Baa    -0.0517    -6.937    -2.475    -2.314  0.0000  0.0000  1.0000
     4 C(13)  Bbb     0.0190     2.547     0.909     0.850  0.6983  0.7158 -0.0000
              Bcc     0.0327     4.390     1.566     1.464  0.7158 -0.6983 -0.0000
 
              Baa    -0.0414    -5.561    -1.984    -1.855  0.6119  0.7909 -0.0000
     5 C(13)  Bbb    -0.0122    -1.634    -0.583    -0.545  0.0000  0.0000  1.0000
              Bcc     0.0536     7.194     2.567     2.400  0.7909 -0.6119  0.0000
 
              Baa    -0.1001   -13.432    -4.793    -4.480  0.0000  0.0000  1.0000
     6 C(13)  Bbb    -0.0093    -1.250    -0.446    -0.417 -0.0252  0.9997 -0.0000
              Bcc     0.1094    14.682     5.239     4.897  0.9997  0.0252  0.0000
 
              Baa    -0.0122    -6.516    -2.325    -2.174  0.0000  0.0000  1.0000
     7 H(1)   Bbb    -0.0108    -5.750    -2.052    -1.918  0.8329 -0.5534 -0.0000
              Bcc     0.0230    12.266     4.377     4.091  0.5534  0.8329 -0.0000
 
              Baa    -0.1121   -15.037    -5.365    -5.016  0.9987  0.0503  0.0000
     8 Br(79) Bbb    -0.0689    -9.239    -3.297    -3.082  0.0000  0.0000  1.0000
              Bcc     0.1810    24.275     8.662     8.097 -0.0503  0.9987 -0.0000
 
              Baa    -0.0024    -1.300    -0.464    -0.433  0.0000  0.0000  1.0000
     9 H(1)   Bbb     0.0010     0.530     0.189     0.177  0.9712  0.2382  0.0000
              Bcc     0.0014     0.770     0.275     0.257 -0.2382  0.9712 -0.0000
 
              Baa    -0.0054    -2.902    -1.035    -0.968  0.0000  0.0000  1.0000
    10 H(1)   Bbb    -0.0047    -2.487    -0.887    -0.830 -0.0565  0.9984 -0.0000
              Bcc     0.0101     5.389     1.923     1.797  0.9984  0.0565 -0.0000
 
              Baa    -0.0125    -6.671    -2.380    -2.225  0.0000  0.0000  1.0000
    11 H(1)   Bbb    -0.0108    -5.779    -2.062    -1.928 -0.5626  0.8267 -0.0000
              Bcc     0.0233    12.450     4.442     4.153  0.8267  0.5626 -0.0000
 

 ---------------------------------------------------------------------------------

 No NMR shielding tensors so no spin-rotation constants.
 Leave Link  601 at Mon Sep 28 02:04:52 2026, MaxMem=  1610612736 cpu:               8.3 elap:               1.2
 (Enter /share/software/user/restricted/gaussian/g16.B01/l701.exe)
 ... and contract with generalized density number  0.
 Compute integral second derivatives.
 D2PCM: PCM CHGder 2nd derivatives, FixD1E=F FixD2E=F DoIter=F DoCFld=F I1PDM=0
 GePol: Maximum number of non-zero 2nd derivatives   =     549
 Leave Link  701 at Mon Sep 28 02:04:54 2026, MaxMem=  1610612736 cpu:              21.0 elap:               2.8
 (Enter /share/software/user/restricted/gaussian/g16.B01/l702.exe)
 L702 exits ... SP integral derivatives will be done elsewhere.
 Leave Link  702 at Mon Sep 28 02:04:54 2026, MaxMem=  1610612736 cpu:               0.1 elap:               0.0
 (Enter /share/software/user/restricted/gaussian/g16.B01/l703.exe)
 Integral derivatives from FoFJK, PRISM(SPDF).
 Compute integral second derivatives, UseDBF=F ICtDFT=           0.
 Calling FoFJK, ICntrl=    100127 FMM=F ISym2X=1 I1Cent= 0 IOpClX= 1 NMat=1 NMatS=1 NMatT=0.
 FoFJK:  IHMeth= 1 ICntrl=  100127 DoSepK=F KAlg= 0 I1Cent=           0 FoldK=F
 IRaf=         0 NMat=       1 IRICut=       1 DoRegI=T DoRafI=F ISym2E= 1 IDoP0=0 IntGTp=1.
 FoFCou: FMM=F IPFlag=           0 FMFlag=      100000 FMFlg1=         800
         NFxFlg=           0 DoJE=F BraDBF=F KetDBF=F FulRan=T
         wScrn=  0.000000 ICntrl=    100127 IOpCl=  1 I1Cent=           0 NGrid=           0
         NMat0=    1 NMatS0=      1 NMatT0=    0 NMatD0=    1 NMtDS0=    0 NMtDT0=    0
 Petite list used in FoFCou.
 Leave Link  703 at Mon Sep 28 02:05:09 2026, MaxMem=  1610612736 cpu:             114.0 elap:              14.6
 (Enter /share/software/user/restricted/gaussian/g16.B01/l716.exe)
 Dipole        = 6.30496272D-01 6.39943149D-01-2.29679175D-32
 Polarizability= 1.22911814D+02 1.11786318D+01 1.51994639D+02
                 5.86280605D-14-1.29464865D-12 6.74049848D+01
 Full mass-weighted force constant matrix:
 Low frequencies ---  -32.4494   -8.4132   -7.4663   -0.0045   -0.0007    0.0075
 Low frequencies ---  165.9038  257.6491  321.7797
 Diagonal vibrational polarizability:
        1.6542826       6.3421575      10.0359075
 Harmonic frequencies (cm**-1), IR intensities (KM/Mole), Raman scattering
 activities (A**4/AMU), depolarization ratios for plane and unpolarized
 incident light, reduced masses (AMU), force constants (mDyne/A),
 and normal coordinates:
                      1                      2                      3
                     A"                     A'                     A'
 Frequencies --    165.8643               257.6425               321.7795
 Red. masses --      4.8407                 5.5017                11.2919
 Frc consts  --      0.0785                 0.2152                 0.6889
 IR Inten    --      0.4752                 0.5414                 5.1417
  Atom  AN      X      Y      Z        X      Y      Z        X      Y      Z
     1   6     0.00   0.00  -0.05    -0.06  -0.15   0.00    -0.14  -0.28  -0.00
     2   6     0.00  -0.00   0.26     0.19  -0.22  -0.00    -0.12  -0.25   0.00
     3   6     0.00   0.00   0.29     0.30  -0.08  -0.00    -0.00  -0.09   0.00
     4   6     0.00   0.00   0.27     0.27   0.10  -0.00     0.01  -0.25   0.00
     5   6     0.00   0.00  -0.03     0.03   0.19  -0.00    -0.02  -0.28   0.00
     6   6     0.00   0.00  -0.29    -0.12   0.04   0.00    -0.11  -0.37  -0.00
     7   1     0.00  -0.00   0.35     0.24  -0.40  -0.00    -0.08  -0.40   0.00
     8  35    -0.00  -0.00  -0.07    -0.10   0.02   0.00     0.06   0.25  -0.00
     9   1     0.00   0.00   0.38     0.40   0.23   0.00    -0.07  -0.32  -0.00
    10   1     0.00   0.00  -0.13    -0.02   0.37  -0.00    -0.05  -0.20   0.00
    11   1    -0.00   0.00  -0.63    -0.28   0.08   0.00    -0.13  -0.36   0.00
                      4                      5                      6
                     A"                     A"                     A'
 Frequencies --    416.1994               481.3651               611.1098
 Red. masses --      3.0709                 4.8526                 7.0774
 Frc consts  --      0.3134                 0.6625                 1.5573
 IR Inten    --      8.3766                 1.2055                 4.8145
  Atom  AN      X      Y      Z        X      Y      Z        X      Y      Z
     1   6     0.00  -0.00  -0.20    -0.00   0.00  -0.32    -0.19   0.34  -0.00
     2   6     0.00  -0.00   0.21     0.00   0.00   0.01     0.30   0.15   0.00
     3   6    -0.00  -0.00  -0.10     0.00  -0.00   0.41     0.13  -0.09  -0.00
     4   6    -0.00   0.00  -0.18     0.00  -0.00  -0.12     0.10  -0.29   0.00
     5   6    -0.00   0.00   0.24    -0.00  -0.00  -0.08    -0.34  -0.19  -0.00
     6   6     0.00   0.00  -0.06    -0.00   0.00   0.23    -0.12   0.07  -0.00
     7   1     0.00   0.00   0.60     0.00   0.00  -0.19     0.34   0.01   0.00
     8  35    -0.00  -0.00   0.00    -0.00  -0.00  -0.01     0.01   0.01   0.00
     9   1    -0.00   0.00  -0.31     0.00   0.00  -0.51     0.25  -0.14   0.00
    10   1    -0.00  -0.00   0.59    -0.00   0.00  -0.27    -0.37  -0.06   0.00
    11   1    -0.00   0.00  -0.07     0.00   0.00   0.53     0.32  -0.05   0.00
                      7                      8                      9
                     A"                     A'                     A"
 Frequencies --    657.1381               671.5963               773.4724
 Red. masses --      2.5788                 8.1508                 1.3542
 Frc consts  --      0.6561                 2.1660                 0.4773
 IR Inten    --     37.8234                20.5583               114.7002
  Atom  AN      X      Y      Z        X      Y      Z        X      Y      Z
     1   6    -0.00   0.00   0.16    -0.30   0.20  -0.00    -0.00   0.00   0.06
     2   6    -0.00   0.00  -0.11    -0.20   0.17   0.00    -0.00   0.00  -0.04
     3   6     0.00   0.00   0.18     0.11   0.37  -0.00    -0.00  -0.00   0.08
     4   6     0.00  -0.00  -0.15     0.29  -0.01   0.00     0.00   0.00  -0.09
     5   6     0.00  -0.00   0.18     0.27  -0.03  -0.00     0.00   0.00  -0.05
     6   6    -0.00  -0.00  -0.13    -0.09  -0.34   0.00     0.00  -0.00  -0.10
     7   1    -0.00  -0.00  -0.52    -0.12  -0.16   0.00    -0.00   0.00   0.06
     8  35    -0.00  -0.00   0.00    -0.01  -0.05   0.00    -0.00  -0.00  -0.00
     9   1     0.00  -0.00  -0.55     0.07  -0.23   0.00    -0.00  -0.00   0.46
    10   1     0.00   0.00   0.10     0.17   0.34  -0.00     0.00   0.00   0.64
    11   1     0.00  -0.00  -0.52    -0.04  -0.35   0.00    -0.00  -0.00   0.58
                     10                     11                     12
                     A"                     A"                     A'
 Frequencies --    863.7816               913.0144               979.6589
 Red. masses --      1.3862                 1.3488                 6.9117
 Frc consts  --      0.6094                 0.6624                 3.9083
 IR Inten    --     15.9630                 1.0050                44.6677
  Atom  AN      X      Y      Z        X      Y      Z        X      Y      Z
     1   6    -0.00   0.00   0.03    -0.00  -0.00  -0.01    -0.21   0.19   0.00
     2   6    -0.00   0.00  -0.17     0.00  -0.00  -0.02     0.31  -0.01   0.00
     3   6    -0.00  -0.00   0.05     0.00   0.00   0.04    -0.07  -0.27   0.00
     4   6     0.00   0.00   0.02    -0.00  -0.00  -0.12    -0.28   0.26   0.00
     5   6     0.00   0.00   0.03    -0.00  -0.00  -0.01     0.25   0.05  -0.00
     6   6    -0.00  -0.00  -0.00     0.00   0.00   0.12    -0.03  -0.26   0.00
     7   1     0.00  -0.00   0.96     0.00  -0.00   0.10     0.35  -0.13  -0.00
     8  35    -0.00  -0.00  -0.00     0.00   0.00  -0.00     0.00   0.01   0.00
     9   1     0.00   0.00  -0.14    -0.00  -0.00   0.72    -0.31   0.24  -0.00
    10   1     0.00  -0.00  -0.18     0.00  -0.00   0.03     0.29  -0.12   0.00
    11   1    -0.00  -0.00   0.01     0.00   0.00  -0.66    -0.02  -0.27  -0.00
                     13                     14                     15
                     A"                     A'                     A'
 Frequencies --   1009.8910              1058.9303              1085.0297
 Red. masses --      1.3392                 4.5355                 1.7052
 Frc consts  --      0.8047                 2.9965                 1.1828
 IR Inten    --      0.1846                27.6404                24.9130
  Atom  AN      X      Y      Z        X      Y      Z        X      Y      Z
     1   6     0.00  -0.00   0.00    -0.19   0.16   0.00     0.03  -0.02   0.00
     2   6    -0.00   0.00  -0.02    -0.15  -0.13   0.00     0.02   0.10   0.00
     3   6     0.00   0.00   0.00    -0.06  -0.18   0.00    -0.07  -0.13   0.00
     4   6     0.00  -0.00   0.08     0.07  -0.16  -0.00     0.06  -0.10  -0.00
     5   6    -0.00  -0.00  -0.14     0.24   0.01   0.00     0.07   0.06   0.00
     6   6     0.00   0.00   0.08     0.06   0.30  -0.00    -0.08  -0.03   0.00
     7   1    -0.00   0.00   0.07    -0.08  -0.47  -0.00    -0.14   0.68  -0.00
     8  35    -0.00  -0.00   0.00     0.00   0.01   0.00     0.00   0.01  -0.00
     9   1     0.00  -0.00  -0.43    -0.08  -0.33   0.00     0.02  -0.16   0.00
    10   1    -0.00   0.00   0.78     0.35  -0.30  -0.00    -0.01   0.41  -0.00
    11   1    -0.00   0.00  -0.42    -0.04   0.35   0.00    -0.50   0.08  -0.00
                     16                     17                     18
                     A'                     A'                     A'
 Frequencies --   1109.5523              1174.2731              1284.0118
 Red. masses --      1.6739                 1.1314                 1.7703
 Frc consts  --      1.2142                 0.9192                 1.7197
 IR Inten    --     20.7319                 2.9224                 1.2308
  Atom  AN      X      Y      Z        X      Y      Z        X      Y      Z
     1   6    -0.03   0.04   0.00    -0.00  -0.02  -0.00    -0.13  -0.09  -0.00
     2   6    -0.13  -0.01   0.00     0.03  -0.02  -0.00    -0.01   0.03  -0.00
     3   6    -0.01  -0.15   0.00     0.00   0.02  -0.00     0.18  -0.00  -0.00
     4   6     0.06   0.04  -0.00    -0.04  -0.05   0.00    -0.05  -0.01   0.00
     5   6    -0.04   0.04   0.00     0.00   0.07  -0.00    -0.01   0.07  -0.00
     6   6     0.08  -0.05  -0.00     0.03   0.01   0.00     0.04   0.02   0.00
     7   1    -0.19   0.19  -0.00     0.07  -0.18   0.00    -0.17   0.64   0.00
     8  35     0.00   0.01  -0.00     0.00  -0.00   0.00    -0.00  -0.00   0.00
     9   1     0.40   0.37   0.00    -0.44  -0.44  -0.00    -0.30  -0.25  -0.00
    10   1    -0.11   0.29  -0.00    -0.14   0.64   0.00     0.13  -0.50   0.00
    11   1     0.65  -0.21  -0.00     0.37  -0.08  -0.00     0.26  -0.04   0.00
                     19                     20                     21
                     A'                     A'                     A'
 Frequencies --   1298.3737              1441.0515              1476.3900
 Red. masses --      2.6376                 2.6610                 2.1696
 Frc consts  --      2.6198                 3.2558                 2.7864
 IR Inten    --      3.6466                21.4882                64.1032
  Atom  AN      X      Y      Z        X      Y      Z        X      Y      Z
     1   6     0.03   0.03  -0.00     0.08   0.19   0.00    -0.12   0.01  -0.00
     2   6     0.08  -0.18   0.00    -0.11  -0.12  -0.00     0.05  -0.14  -0.00
     3   6    -0.13   0.07  -0.00     0.13  -0.09   0.00     0.04   0.12  -0.00
     4   6     0.12   0.12   0.00     0.06   0.16  -0.00    -0.13  -0.05   0.00
     5   6     0.06  -0.13  -0.00    -0.11  -0.08   0.00     0.04  -0.11   0.00
     6   6    -0.18   0.08  -0.00     0.09  -0.06   0.00     0.14   0.05   0.00
     7   1    -0.13   0.64   0.00    -0.19   0.14  -0.00    -0.10   0.45   0.00
     8  35    -0.00  -0.00   0.00    -0.00   0.00  -0.00    -0.00  -0.00  -0.00
     9   1    -0.17  -0.17   0.00    -0.52  -0.39  -0.00     0.29   0.39  -0.00
    10   1     0.04  -0.07   0.00    -0.18   0.10  -0.00    -0.13   0.56   0.00
    11   1     0.59  -0.12   0.00    -0.56   0.10  -0.00    -0.28   0.18  -0.00
                     22                     23                     24
                     A'                     A'                     A'
 Frequencies --   1594.0888              1653.1585              3219.5445
 Red. masses --      6.3802                 7.4406                 1.0877
 Frc consts  --      9.5523                11.9809                 6.6429
 IR Inten    --     20.0735                50.0112                 2.3675
  Atom  AN      X      Y      Z        X      Y      Z        X      Y      Z
     1   6    -0.08   0.09  -0.00     0.31   0.29  -0.00    -0.00  -0.00  -0.00
     2   6     0.14  -0.25   0.00    -0.10  -0.24  -0.00     0.00   0.00  -0.00
     3   6    -0.30   0.13  -0.00     0.21   0.07  -0.00    -0.00  -0.00  -0.00
     4   6     0.16  -0.12   0.00    -0.27  -0.27   0.00     0.02  -0.01   0.00
     5   6    -0.17   0.36  -0.00     0.09   0.23  -0.00    -0.06  -0.02  -0.00
     6   6     0.25  -0.17  -0.00    -0.28  -0.09   0.00     0.01   0.05  -0.00
     7   1     0.03   0.25   0.00    -0.22   0.15   0.00    -0.02  -0.00   0.00
     8  35     0.00   0.00   0.00    -0.00   0.00   0.00    -0.00   0.00   0.00
     9   1     0.10  -0.22   0.00     0.29   0.28  -0.00    -0.17   0.17   0.00
    10   1     0.05  -0.56   0.00     0.22  -0.17   0.00     0.74   0.19   0.00
    11   1    -0.26  -0.06   0.00     0.22  -0.24   0.00    -0.15  -0.57   0.00
                     25                     26                     27
                     A'                     A'                     A'
 Frequencies --   3226.2063              3232.0153              3242.6017
 Red. masses --      1.0921                 1.0939                 1.0963
 Frc consts  --      6.6975                 6.7322                 6.7916
 IR Inten    --      1.8820                 2.0842                 0.7366
  Atom  AN      X      Y      Z        X      Y      Z        X      Y      Z
     1   6     0.00   0.00   0.00     0.00   0.00  -0.00    -0.00  -0.00   0.00
     2   6    -0.08  -0.02   0.00     0.01   0.00  -0.00    -0.00  -0.00   0.00
     3   6     0.00  -0.00   0.00    -0.00  -0.00  -0.00    -0.00  -0.00   0.00
     4   6     0.00  -0.00  -0.00     0.03  -0.02   0.00     0.06  -0.06  -0.00
     5   6    -0.01  -0.00  -0.00    -0.04  -0.01  -0.00     0.04   0.01   0.00
     6   6    -0.00  -0.01  -0.00    -0.02  -0.07  -0.00     0.00   0.02   0.00
     7   1     0.95   0.25  -0.00    -0.14  -0.04   0.00     0.03   0.01  -0.00
     8  35     0.00   0.00   0.00     0.00   0.00  -0.00     0.00   0.00  -0.00
     9   1    -0.03   0.03  -0.00    -0.28   0.28   0.00    -0.62   0.63  -0.00
    10   1     0.09   0.02   0.00     0.45   0.11   0.00    -0.40  -0.11  -0.00
    11   1     0.03   0.11   0.00     0.20   0.75  -0.00    -0.05  -0.18  -0.00

 -------------------
 - Thermochemistry -
 -------------------
 Temperature   298.150 Kelvin.  Pressure   1.00000 Atm.
 Atom     1 has atomic number  6 and mass  12.00000
 Atom     2 has atomic number  6 and mass  12.00000
 Atom     3 has atomic number  6 and mass  12.00000
 Atom     4 has atomic number  6 and mass  12.00000
 Atom     5 has atomic number  6 and mass  12.00000
 Atom     6 has atomic number  6 and mass  12.00000
 Atom     7 has atomic number  1 and mass   1.00783
 Atom     8 has atomic number 35 and mass  78.91834
 Atom     9 has atomic number  1 and mass   1.00783
 Atom    10 has atomic number  1 and mass   1.00783
 Atom    11 has atomic number  1 and mass   1.00783
 Molecular mass:   154.94964 amu.
 Principal axes and moments of inertia in atomic units:
                           1         2         3
     Eigenvalues --   295.433411793.530542088.96395
           X            0.27926   0.96022   0.00000
           Y            0.96022  -0.27926   0.00000
           Z           -0.00000  -0.00000   1.00000
 This molecule is an asymmetric top.
 Rotational symmetry number  1.
 Rotational temperatures (Kelvin)      0.29318     0.04829     0.04146
 Rotational constants (GHZ):           6.10879     1.00625     0.86394
 Zero-point vibrational energy     204667.5 (Joules/Mol)
                                   48.91672 (Kcal/Mol)
 Warning -- explicit consideration of   6 degrees of freedom as
           vibrations may cause significant error
 Vibrational temperatures:    238.64   370.69   462.97   598.82   692.58
          (Kelvin)            879.25   945.48   966.28  1112.85  1242.79
                             1313.62  1409.51  1453.01  1523.56  1561.12
                             1596.40  1689.52  1847.41  1868.07  2073.35
                             2124.20  2293.54  2378.53  4632.21  4641.79
                             4650.15  4665.38
 
 Zero-point correction=                           0.077954 (Hartree/Particle)
 Thermal correction to Energy=                    0.083628
 Thermal correction to Enthalpy=                  0.084572
 Thermal correction to Gibbs Free Energy=         0.046485
 Sum of electronic and zero-point Energies=          -2805.004574
 Sum of electronic and thermal Energies=             -2804.998900
 Sum of electronic and thermal Enthalpies=           -2804.997955
 Sum of electronic and thermal Free Energies=        -2805.036042
 
                     E (Thermal)             CV                S
                      KCal/Mol        Cal/Mol-Kelvin    Cal/Mol-Kelvin
 Total                   52.477             20.936             80.161
 Electronic               0.000              0.000              1.377
 Translational            0.889              2.981             41.023
 Rotational               0.889              2.981             28.494
 Vibrational             50.700             14.975              9.266
 Vibration     1          0.624              1.884              2.482
 Vibration     2          0.667              1.750              1.678
 Vibration     3          0.707              1.632              1.301
 Vibration     4          0.779              1.435              0.905
 Vibration     5          0.838              1.291              0.706
 Vibration     6          0.970              1.008              0.431
                       Q            Log10(Q)             Ln(Q)
 Total Bot       0.415272D-21        -21.381667        -49.233108
 Total V=0       0.298220D+15         14.474537         33.328853
 Vib (Bot)       0.727224D-35        -35.138332        -80.909000
 Vib (Bot)    1  0.121662D+01          0.085157          0.196080
 Vib (Bot)    2  0.754751D+00         -0.122197         -0.281368
 Vib (Bot)    3  0.583573D+00         -0.233905         -0.538585
 Vib (Bot)    4  0.423109D+00         -0.373548         -0.860125
 Vib (Bot)    5  0.347035D+00         -0.459627         -1.058330
 Vib (Bot)    6  0.241545D+00         -0.617001         -1.420697
 Vib (V=0)       0.522242D+01          0.717872          1.652961
 Vib (V=0)    1  0.181536D+01          0.258963          0.596285
 Vib (V=0)    2  0.140534D+01          0.147783          0.340282
 Vib (V=0)    3  0.126848D+01          0.103283          0.237817
 Vib (V=0)    4  0.115500D+01          0.062581          0.144098
 Vib (V=0)    5  0.110863D+01          0.044787          0.103127
 Vib (V=0)    6  0.105529D+01          0.023371          0.053813
 Electronic      0.200000D+01          0.301030          0.693147
 Translational   0.758123D+08          7.879740         18.143771
 Rotational      0.376613D+06          5.575895         12.838973
 
                                                         BrPh_3_rad m062x_smd
                                                             IR Spectrum
 
   3333                                                             1 1    11    11    1 111 1                                       
   2222                                                             6 5    44    22    1 100 09  9 8  7   66 6    4 4   3 2   1      
   4322                                                             5 9    74    98    7 185 18  1 6  7   75 1    8 1   2 5   6      
   3260                                                             3 4    61    84    4 059 00  3 4  3   27 1    1 6   2 8   6      
 
   XXXX                                                             X X    XX    XX    X XXX XX  X X  X   XX X    X X   X X   X      
                                                                    X X    XX            XXX  X    X  X   XX                         
                                                                    X X    XX            XXX  X    X  X   XX                         
                                                                    X X    XX            XXX  X       X   XX                         
                                                                    X      X               X  X       X    X                         
                                                                    X      X                  X       X    X                         
                                                                    X      X                  X       X    X                         
                                                                    X      X                  X       X                              
                                                                    X      X                          X                              
                                                                           X                          X                              
                                                                           X                          X                              
                                                                                                      X                              
                                                                                                      X                              
                                                                                                      X                              
                                                                                                      X                              
                                                                                                      X                              
                                                                                                      X                              
                                                                                                      X                              
                                                                                                      X                              
                                                                                                      X                              
 
 ***** Axes restored to original set *****
 -------------------------------------------------------------------
 Center     Atomic                   Forces (Hartrees/Bohr)
 Number     Number              X              Y              Z
 -------------------------------------------------------------------
      1        6          -0.000098552   -0.000069095   -0.000000000
      2        6           0.000200377   -0.000006300    0.000000000
      3        6          -0.000244213    0.000122947    0.000000000
      4        6           0.000119705   -0.000061836   -0.000000000
      5        6          -0.000012511   -0.000050903    0.000000000
      6        6           0.000068658    0.000032238   -0.000000000
      7        1           0.000000752    0.000018262    0.000000000
      8       35           0.000012636   -0.000017304    0.000000000
      9        1          -0.000009933   -0.000009363    0.000000000
     10        1          -0.000025674    0.000026582   -0.000000000
     11        1          -0.000011245    0.000014772    0.000000000
 -------------------------------------------------------------------
 Cartesian Forces:  Max     0.000244213 RMS     0.000069364
 Force constants in Cartesian coordinates: 
                1             2             3             4             5 
      1  0.684747D+00
      2  0.210057D-02  0.343802D+00
      3  0.000000D+00  0.000000D+00  0.748298D-01
      4 -0.315317D+00  0.118489D+00  0.000000D+00  0.750125D+00
      5  0.779223D-01 -0.146275D+00  0.000000D+00  0.522612D-01  0.619605D+00
      6  0.000000D+00  0.000000D+00 -0.508385D-01  0.000000D+00  0.000000D+00
      7  0.329212D-01  0.251827D-01  0.000000D+00 -0.104790D+00  0.182782D-01
      8  0.105455D+00 -0.284013D-01  0.000000D+00 -0.642209D-01 -0.313519D+00
      9  0.000000D+00  0.000000D+00  0.118902D-01  0.000000D+00  0.000000D+00
     10 -0.838974D-01 -0.756771D-03  0.000000D+00  0.380748D-01 -0.799851D-01
     11 -0.184329D-02 -0.349431D-02  0.000000D+00 -0.230555D-01 -0.268277D-01
     12  0.000000D+00  0.000000D+00 -0.408848D-02  0.000000D+00  0.000000D+00
     13  0.319029D-01 -0.318161D-01  0.000000D+00 -0.177827D-01  0.381248D-01
     14 -0.991333D-01 -0.304862D-01  0.000000D+00  0.343522D-01 -0.579107D-01
     15  0.000000D+00  0.000000D+00  0.123981D-01  0.000000D+00  0.000000D+00
     16 -0.311914D+00 -0.117990D+00  0.000000D+00 -0.571151D-01  0.213790D-01
     17 -0.806203D-01 -0.148918D+00  0.000000D+00 -0.194466D-01  0.704348D-01
     18  0.000000D+00  0.000000D+00 -0.526038D-01  0.000000D+00  0.000000D+00
     19 -0.200057D-01 -0.971756D-02  0.000000D+00 -0.270409D+00 -0.133236D+00
     20  0.112074D-01  0.125209D-01  0.000000D+00 -0.125504D+00 -0.129212D+00
     21  0.000000D+00  0.000000D+00 -0.712306D-03  0.000000D+00  0.000000D+00
     22  0.155607D-02  0.372050D-02  0.000000D+00 -0.157996D-01  0.901676D-02
     23 -0.227303D-02 -0.559039D-02  0.000000D+00  0.324503D-01 -0.157291D-01
     24  0.000000D+00  0.000000D+00  0.448837D-02  0.000000D+00  0.000000D+00
     25 -0.166076D-02  0.210512D-03  0.000000D+00 -0.418162D-02 -0.254652D-02
     26 -0.325679D-04  0.842446D-03  0.000000D+00 -0.234375D-02  0.445801D-03
     27  0.000000D+00  0.000000D+00 -0.108267D-02  0.000000D+00  0.000000D+00
     28  0.168794D-02  0.156414D-03  0.000000D+00 -0.108141D-03  0.547264D-03
     29 -0.108383D-02 -0.588400D-02  0.000000D+00  0.116521D-02  0.945950D-04
     30  0.000000D+00  0.000000D+00  0.667297D-02  0.000000D+00  0.000000D+00
     31 -0.200207D-01  0.104202D-01  0.000000D+00 -0.269666D-02 -0.176174D-02
     32 -0.116990D-01  0.118842D-01  0.000000D+00 -0.414770D-02 -0.110667D-02
     33  0.000000D+00  0.000000D+00 -0.953758D-03  0.000000D+00  0.000000D+00
                6             7             8             9            10 
      6  0.120269D+00
      7  0.000000D+00  0.519441D+00
      8  0.000000D+00  0.755331D-01  0.591802D+00
      9 -0.574553D-01  0.000000D+00  0.000000D+00  0.108657D+00
     10  0.000000D+00 -0.260048D+00 -0.650487D-01  0.000000D+00  0.657725D+00
     11  0.000000D+00 -0.137015D+00 -0.179662D+00  0.000000D+00 -0.276686D-02
     12  0.537483D-02  0.000000D+00  0.000000D+00 -0.591589D-01  0.000000D+00
     13  0.000000D+00 -0.649379D-01 -0.335916D-01  0.000000D+00 -0.286887D+00
     14  0.000000D+00  0.359154D-01  0.730408D-01  0.000000D+00  0.512162D-01
     15 -0.108829D-02  0.000000D+00  0.000000D+00  0.358175D-02  0.000000D+00
     16  0.000000D+00 -0.194305D-01 -0.391877D-01  0.000000D+00  0.400280D-01
     17  0.000000D+00 -0.406830D-01 -0.616244D-01  0.000000D+00  0.835738D-01
     18  0.444254D-02  0.000000D+00  0.000000D+00 -0.279412D-02  0.000000D+00
     19  0.000000D+00  0.334301D-02  0.313626D-02  0.000000D+00  0.149915D-02
     20  0.000000D+00 -0.262670D-01 -0.124156D-01  0.000000D+00  0.122686D-02
     21 -0.341683D-01  0.000000D+00  0.000000D+00  0.429337D-02  0.000000D+00
     22  0.000000D+00 -0.106216D+00  0.436429D-01  0.000000D+00 -0.343820D-01
     23  0.000000D+00  0.444970D-01 -0.572124D-01  0.000000D+00 -0.652059D-03
     24  0.327010D-02  0.000000D+00  0.000000D+00 -0.183610D-01  0.000000D+00
     25  0.000000D+00  0.145065D-02 -0.271680D-01  0.000000D+00 -0.560905D-01
     26  0.000000D+00  0.284040D-02 -0.105955D-01  0.000000D+00 -0.148301D-02
     27  0.559625D-02  0.000000D+00  0.000000D+00  0.218956D-02  0.000000D+00
     28  0.000000D+00 -0.179606D-02  0.262369D-02  0.000000D+00 -0.176015D-01
     29  0.000000D+00  0.238753D-02 -0.333150D-03  0.000000D+00  0.157226D-01
     30 -0.106714D-02  0.000000D+00  0.000000D+00  0.694946D-02  0.000000D+00
     31  0.000000D+00  0.631750D-04 -0.117411D-02  0.000000D+00  0.157924D-02
     32  0.000000D+00 -0.669574D-03 -0.107951D-02  0.000000D+00 -0.104695D-02
     33  0.566488D-02  0.000000D+00  0.000000D+00  0.207925D-03  0.000000D+00
               11            12            13            14            15 
     11  0.766675D+00
     12  0.000000D+00  0.130155D+00
     13  0.128952D+00  0.000000D+00  0.725430D+00
     14 -0.182705D+00  0.000000D+00  0.378481D-01  0.674453D+00
     15  0.000000D+00 -0.622582D-01  0.000000D+00  0.000000D+00  0.135173D+00
     16  0.261371D-01  0.000000D+00 -0.122314D+00  0.474502D-01  0.000000D+00
     17 -0.259623D-01  0.000000D+00 -0.386651D-01 -0.323367D+00  0.000000D+00
     18  0.000000D+00  0.610091D-02  0.000000D+00  0.000000D+00 -0.625785D-01
     19  0.879998D-03  0.000000D+00 -0.517526D-04  0.960411D-03  0.000000D+00
     20 -0.490673D-02  0.000000D+00  0.636861D-03 -0.867588D-03  0.000000D+00
     21  0.000000D+00  0.567911D-02  0.000000D+00  0.000000D+00 -0.304976D-03
     22  0.230512D-01  0.000000D+00 -0.547758D-03 -0.699436D-02  0.000000D+00
     23  0.255320D-02  0.000000D+00 -0.373115D-03  0.235519D-03  0.000000D+00
     24  0.000000D+00  0.302193D-02  0.000000D+00  0.000000D+00  0.436833D-02
     25  0.866718D-03  0.000000D+00  0.450075D-02  0.276743D-01  0.000000D+00
     26 -0.352184D+00  0.000000D+00 -0.162581D-02 -0.939355D-02  0.000000D+00
     27  0.000000D+00 -0.359415D-01  0.000000D+00  0.000000D+00  0.423479D-02
     28 -0.144911D-01  0.000000D+00 -0.274352D+00 -0.126630D+00  0.000000D+00
     29  0.114426D-01  0.000000D+00 -0.127509D+00 -0.132515D+00  0.000000D+00
     30  0.000000D+00  0.439277D-02  0.000000D+00  0.000000D+00 -0.394923D-01
     31 -0.715482D-03  0.000000D+00  0.503859D-02 -0.265957D-02  0.000000D+00
     32 -0.492906D-02  0.000000D+00  0.280185D-01 -0.104842D-01  0.000000D+00
     33  0.000000D+00  0.672219D-02  0.000000D+00  0.000000D+00  0.596631D-02
               16            17            18            19            20 
     16  0.744825D+00
     17 -0.448367D-01  0.629996D+00
     18  0.000000D+00  0.000000D+00  0.126177D+00
     19 -0.242792D-02  0.181437D-02  0.000000D+00  0.287035D+00
     20  0.442616D-02 -0.102194D-02  0.000000D+00  0.135760D+00  0.134628D+00
     21  0.000000D+00  0.000000D+00  0.591660D-02  0.000000D+00  0.000000D+00
     22 -0.101783D-02  0.117426D-02  0.000000D+00  0.122250D-02 -0.771832D-03
     23  0.102298D-02  0.127996D-02  0.000000D+00  0.990087D-03  0.103586D-02
     24  0.000000D+00  0.000000D+00 -0.890801D-03  0.000000D+00  0.000000D+00
     25 -0.402803D-02  0.289489D-02  0.000000D+00  0.285650D-03 -0.120807D-02
     26  0.232716D-02  0.702309D-03  0.000000D+00  0.940283D-04 -0.332690D-03
     27  0.000000D+00  0.000000D+00  0.679923D-02  0.000000D+00  0.000000D+00
     28  0.465628D-02  0.356129D-02  0.000000D+00 -0.654751D-05 -0.782010D-04
     29 -0.262243D-01 -0.115865D-01  0.000000D+00 -0.148190D-03  0.857126D-04
     30  0.000000D+00  0.000000D+00  0.534622D-02  0.000000D+00  0.000000D+00
     31 -0.271262D+00  0.131233D+00  0.000000D+00 -0.484546D-03  0.571286D-03
     32  0.125496D+00 -0.129933D+00  0.000000D+00 -0.533491D-03  0.486303D-03
     33  0.000000D+00  0.000000D+00 -0.359155D-01  0.000000D+00  0.000000D+00
               21            22            23            24            25 
     21  0.219033D-01
     22  0.000000D+00  0.156050D+00
     23  0.000000D+00 -0.745353D-01  0.723160D-01
     24 -0.189133D-02  0.000000D+00  0.000000D+00  0.845442D-02
     25  0.000000D+00  0.299104D-03 -0.124268D-02  0.000000D+00  0.582826D-01
     26  0.000000D+00  0.489127D-03  0.106997D-02  0.000000D+00 -0.955586D-04
     27  0.127404D-03  0.000000D+00  0.000000D+00 -0.193897D-02  0.000000D+00
     28  0.000000D+00 -0.110776D-02 -0.591966D-04  0.000000D+00  0.105347D-02
     29  0.000000D+00  0.101737D-02 -0.176665D-04  0.000000D+00 -0.668532D-03
     30 -0.635049D-03  0.000000D+00  0.000000D+00  0.110038D-03  0.000000D+00
     31  0.000000D+00 -0.566794D-04  0.174972D-03  0.000000D+00  0.887389D-04
     32  0.000000D+00  0.189338D-03  0.591047D-04  0.000000D+00  0.128294D-02
     33 -0.207811D-03  0.000000D+00  0.000000D+00 -0.631087D-03  0.000000D+00
               26            27            28            29            30 
     26  0.369171D+00
     27  0.000000D+00  0.245304D-01
     28  0.379525D-05  0.000000D+00  0.287159D+00
     29  0.729944D-03  0.000000D+00  0.134939D+00  0.136309D+00
     30  0.000000D+00 -0.434480D-02  0.000000D+00  0.000000D+00  0.263521D-01
     31 -0.173823D-03  0.000000D+00  0.415103D-03  0.401394D-03  0.000000D+00
     32 -0.456426D-03  0.000000D+00 -0.573631D-03  0.167387D-02  0.000000D+00
     33  0.000000D+00 -0.169655D-03  0.000000D+00  0.000000D+00 -0.428429D-02
               31            32            33 
     31  0.287335D+00
     32 -0.136316D+00  0.133885D+00
     33  0.000000D+00  0.000000D+00  0.236008D-01
 FormGI is forming the generalized inverse of G from B-inverse, IUseBI=4.
 Leave Link  716 at Mon Sep 28 02:05:09 2026, MaxMem=  1610612736 cpu:               0.7 elap:               0.1
 (Enter /share/software/user/restricted/gaussian/g16.B01/l103.exe)

 GradGradGradGradGradGradGradGradGradGradGradGradGradGradGradGradGradGrad
 Berny optimization.
 Red2BG is reusing G-inverse.
 Internal  Forces:  Max     0.000129056 RMS     0.000036479
 Search for a local minimum.
 Step number   1 out of a maximum of    2
 All quantities printed in internal units (Hartrees-Bohrs-Radians)
 Second derivative matrix not updated -- analytic derivatives used.
 ITU=  0
     Eigenvalues ---    0.01636   0.01784   0.01950   0.02406   0.02657
     Eigenvalues ---    0.02788   0.03230   0.03361   0.10448   0.11031
     Eigenvalues ---    0.11448   0.12176   0.14535   0.17429   0.18382
     Eigenvalues ---    0.19225   0.23702   0.27236   0.36540   0.36597
     Eigenvalues ---    0.36751   0.37000   0.42198   0.42666   0.47189
     Eigenvalues ---    0.48983   0.52349
 Angle between quadratic step and forces=  15.76 degrees.
 Linear search not attempted -- first point.
 Iteration  1 RMS(Cart)=  0.00023164 RMS(Int)=  0.00000005
 Iteration  2 RMS(Cart)=  0.00000006 RMS(Int)=  0.00000001
 ITry= 1 IFail=0 DXMaxC= 5.91D-04 DCOld= 1.00D+10 DXMaxT= 3.00D-01 DXLimC= 3.00D+00 Rises=F
 ClnCor:  largest displacement from symmetrization is 6.54D-12 for atom    11.
 Variable       Old X    -DE/DX   Delta X   Delta X   Delta X     New X
                                 (Linear)    (Quad)   (Total)
    R1        2.59466   0.00003   0.00000   0.00015   0.00015   2.59482
    R2        2.59448  -0.00004   0.00000  -0.00016  -0.00016   2.59432
    R3        2.63776  -0.00003   0.00000  -0.00014  -0.00014   2.63762
    R4        2.04809   0.00001   0.00000  -0.00001  -0.00001   2.04807
    R5        2.62861  -0.00004   0.00000  -0.00012  -0.00012   2.62849
    R6        3.60190   0.00002   0.00000   0.00041   0.00041   3.60232
    R7        2.63278   0.00002   0.00000   0.00004   0.00004   2.63282
    R8        2.04640   0.00001   0.00000   0.00000   0.00000   2.04640
    R9        2.64193   0.00003   0.00000   0.00010   0.00010   2.64203
   R10        2.04910   0.00001   0.00000   0.00002   0.00002   2.04911
   R11        2.04823   0.00002   0.00000   0.00006   0.00006   2.04829
    A1        2.20583   0.00004   0.00000   0.00023   0.00023   2.20606
    A2        2.01289  -0.00011   0.00000  -0.00068  -0.00068   2.01221
    A3        2.14260   0.00004   0.00000   0.00021   0.00021   2.14281
    A4        2.12770   0.00007   0.00000   0.00047   0.00047   2.12817
    A5        2.12652   0.00013   0.00000   0.00076   0.00076   2.12728
    A6        2.07628  -0.00005   0.00000  -0.00029  -0.00029   2.07599
    A7        2.08038  -0.00008   0.00000  -0.00046  -0.00046   2.07992
    A8        2.08478  -0.00005   0.00000  -0.00028  -0.00028   2.08450
    A9        2.10240   0.00003   0.00000   0.00016   0.00016   2.10256
   A10        2.09600   0.00001   0.00000   0.00012   0.00012   2.09612
   A11        2.10510  -0.00003   0.00000  -0.00021  -0.00021   2.10489
   A12        2.08444   0.00005   0.00000   0.00044   0.00044   2.08488
   A13        2.09364  -0.00002   0.00000  -0.00023  -0.00023   2.09342
   A14        2.03124   0.00002   0.00000   0.00019   0.00019   2.03142
   A15        2.13750  -0.00002   0.00000  -0.00015  -0.00015   2.13735
   A16        2.11445  -0.00001   0.00000  -0.00004  -0.00004   2.11441
    D1        0.00000  -0.00000   0.00000   0.00000  -0.00000   0.00000
    D2        3.14159   0.00000   0.00000   0.00000   0.00000   3.14159
    D3       -0.00000  -0.00000   0.00000  -0.00000   0.00000   0.00000
    D4        3.14159  -0.00000   0.00000  -0.00000   0.00000   3.14159
    D5       -0.00000   0.00000   0.00000   0.00000   0.00000   0.00000
    D6        3.14159   0.00000   0.00000   0.00000   0.00000   3.14159
    D7        3.14159   0.00000   0.00000   0.00000   0.00000   3.14159
    D8        0.00000   0.00000   0.00000   0.00000   0.00000   0.00000
    D9       -0.00000  -0.00000   0.00000  -0.00000   0.00000   0.00000
   D10        3.14159  -0.00000   0.00000  -0.00000   0.00000   3.14159
   D11        3.14159  -0.00000   0.00000  -0.00000   0.00000   3.14159
   D12       -0.00000  -0.00000   0.00000  -0.00000   0.00000   0.00000
   D13        0.00000   0.00000   0.00000   0.00000  -0.00000   0.00000
   D14        3.14159   0.00000   0.00000   0.00000   0.00000   3.14159
   D15        3.14159  -0.00000   0.00000  -0.00000   0.00000   3.14159
   D16       -0.00000  -0.00000   0.00000   0.00000   0.00000   0.00000
   D17       -0.00000   0.00000   0.00000   0.00000   0.00000   0.00000
   D18        3.14159   0.00000   0.00000   0.00000   0.00000   3.14159
   D19        3.14159   0.00000   0.00000   0.00000   0.00000   3.14159
   D20        0.00000   0.00000   0.00000   0.00000  -0.00000   0.00000
         Item               Value     Threshold  Converged?
 Maximum Force            0.000129     0.000450     YES
 RMS     Force            0.000036     0.000300     YES
 Maximum Displacement     0.000591     0.001800     YES
 RMS     Displacement     0.000232     0.001200     YES
 Predicted change in Energy=-1.860474D-07
 Optimization completed.
    -- Stationary point found.
                           ----------------------------
                           !   Optimized Parameters   !
                           ! (Angstroms and Degrees)  !
 --------------------------                            --------------------------
 ! Name  Definition              Value          Derivative Info.                !
 --------------------------------------------------------------------------------
 ! R1    R(1,2)                  1.373          -DE/DX =    0.0                 !
 ! R2    R(1,6)                  1.3729         -DE/DX =    0.0                 !
 ! R3    R(2,3)                  1.3958         -DE/DX =    0.0                 !
 ! R4    R(2,7)                  1.0838         -DE/DX =    0.0                 !
 ! R5    R(3,4)                  1.391          -DE/DX =    0.0                 !
 ! R6    R(3,8)                  1.906          -DE/DX =    0.0                 !
 ! R7    R(4,5)                  1.3932         -DE/DX =    0.0                 !
 ! R8    R(4,9)                  1.0829         -DE/DX =    0.0                 !
 ! R9    R(5,6)                  1.398          -DE/DX =    0.0                 !
 ! R10   R(5,10)                 1.0843         -DE/DX =    0.0                 !
 ! R11   R(6,11)                 1.0839         -DE/DX =    0.0                 !
 ! A1    A(2,1,6)              126.385          -DE/DX =    0.0                 !
 ! A2    A(1,2,3)              115.3302         -DE/DX =   -0.0001              !
 ! A3    A(1,2,7)              122.7617         -DE/DX =    0.0                 !
 ! A4    A(3,2,7)              121.9081         -DE/DX =    0.0001              !
 ! A5    A(2,3,4)              121.8408         -DE/DX =    0.0001              !
 ! A6    A(2,3,8)              118.9622         -DE/DX =   -0.0001              !
 ! A7    A(4,3,8)              119.197          -DE/DX =   -0.0001              !
 ! A8    A(3,4,5)              119.4492         -DE/DX =    0.0                 !
 ! A9    A(3,4,9)              120.4589         -DE/DX =    0.0                 !
 ! A10   A(5,4,9)              120.092          -DE/DX =    0.0                 !
 ! A11   A(4,5,6)              120.6135         -DE/DX =    0.0                 !
 ! A12   A(4,5,10)             119.4296         -DE/DX =    0.0001              !
 ! A13   A(6,5,10)             119.9569         -DE/DX =    0.0                 !
 ! A14   A(1,6,5)              116.3813         -DE/DX =    0.0                 !
 ! A15   A(1,6,11)             122.4697         -DE/DX =    0.0                 !
 ! A16   A(5,6,11)             121.149          -DE/DX =    0.0                 !
 ! D1    D(6,1,2,3)              0.0            -DE/DX =    0.0                 !
 ! D2    D(6,1,2,7)            180.0            -DE/DX =    0.0                 !
 ! D3    D(2,1,6,5)              0.0            -DE/DX =    0.0                 !
 ! D4    D(2,1,6,11)           180.0            -DE/DX =    0.0                 !
 ! D5    D(1,2,3,4)              0.0            -DE/DX =    0.0                 !
 ! D6    D(1,2,3,8)            180.0            -DE/DX =    0.0                 !
 ! D7    D(7,2,3,4)            180.0            -DE/DX =    0.0                 !
 ! D8    D(7,2,3,8)              0.0            -DE/DX =    0.0                 !
 ! D9    D(2,3,4,5)              0.0            -DE/DX =    0.0                 !
 ! D10   D(2,3,4,9)            180.0            -DE/DX =    0.0                 !
 ! D11   D(8,3,4,5)            180.0            -DE/DX =    0.0                 !
 ! D12   D(8,3,4,9)              0.0            -DE/DX =    0.0                 !
 ! D13   D(3,4,5,6)              0.0            -DE/DX =    0.0                 !
 ! D14   D(3,4,5,10)           180.0            -DE/DX =    0.0                 !
 ! D15   D(9,4,5,6)            180.0            -DE/DX =    0.0                 !
 ! D16   D(9,4,5,10)             0.0            -DE/DX =    0.0                 !
 ! D17   D(4,5,6,1)              0.0            -DE/DX =    0.0                 !
 ! D18   D(4,5,6,11)           180.0            -DE/DX =    0.0                 !
 ! D19   D(10,5,6,1)           180.0            -DE/DX =    0.0                 !
 ! D20   D(10,5,6,11)            0.0            -DE/DX =    0.0                 !
 --------------------------------------------------------------------------------
 GradGradGradGradGradGradGradGradGradGradGradGradGradGradGradGradGradGrad

 Leave Link  103 at Mon Sep 28 02:05:10 2026, MaxMem=  1610612736 cpu:               3.6 elap:               0.5
 (Enter /share/software/user/restricted/gaussian/g16.B01/l9999.exe)

 ----------------------------------------------------------------------

 Electric dipole moment (input orientation):
 (Debye = 10**-18 statcoulomb cm , SI units = C m)
                  (au)            (Debye)         (10**-30 SI)
   Tot        0.898361D+00      0.228341D+01      0.761662D+01
   x         -0.898312D+00     -0.228328D+01     -0.761620D+01
   y          0.943116D-02      0.239716D-01      0.799607D-01
   z          0.000000D+00      0.000000D+00      0.000000D+00

 Dipole polarizability, Alpha (input orientation).
 (esu units = cm**3 , SI units = C**2 m**2 J**-1)
 Alpha(0;0):
               (au)            (10**-24 esu)      (10**-40 SI)
   iso        0.114104D+03      0.169084D+02      0.188132D+02
   aniso      0.769155D+02      0.113977D+02      0.126817D+02
   xx         0.148543D+03      0.220117D+02      0.244914D+02
   yx        -0.146096D+02     -0.216492D+01     -0.240880D+01
   yy         0.126364D+03      0.187252D+02      0.208346D+02
   zx         0.000000D+00      0.000000D+00      0.000000D+00
   zy         0.000000D+00      0.000000D+00      0.000000D+00
   zz         0.674050D+02      0.998839D+01      0.111136D+02

 ----------------------------------------------------------------------

 Dipole orientation:
     6          0.02631009          2.50601759          0.02092008
     6          0.01434028          1.36590112         -2.30980348
     6         -0.01334916         -1.27149848         -2.27585410
     6         -0.02760464         -2.62932220         -0.02514010
     6         -0.01401641         -1.33505291          2.26750188
     6          0.01371331          1.30618326          2.32126331
     1          0.02546906          2.42590966         -4.06220686
    35         -0.03208393         -3.05597180         -5.40459165
     1         -0.04908678         -4.67548083         -0.04815921
     1         -0.02513535         -2.39412388          4.02165126
     1          0.02445913          2.32971457          4.09538568

 Electric dipole moment (dipole orientation):
 (Debye = 10**-18 statcoulomb cm , SI units = C m)
                  (au)            (Debye)         (10**-30 SI)
   Tot        0.898361D+00      0.228341D+01      0.761662D+01
   x          0.000000D+00      0.000000D+00      0.000000D+00
   y          0.000000D+00      0.000000D+00      0.000000D+00
   z          0.898361D+00      0.228341D+01      0.761662D+01

 Dipole polarizability, Alpha (dipole orientation).
 (esu units = cm**3 , SI units = C**2 m**2 J**-1)
 Alpha(0;0):
               (au)            (10**-24 esu)      (10**-40 SI)
   iso        0.114104D+03      0.169084D+02      0.188132D+02
   aniso      0.769155D+02      0.113977D+02      0.126817D+02
   xx         0.674114D+02      0.998935D+01      0.111146D+02
   yx         0.615733D+00      0.912422D-01      0.101521D+00
   yy         0.126053D+03      0.186791D+02      0.207834D+02
   zx         0.150896D+00      0.223605D-01      0.248795D-01
   zy         0.143728D+02      0.212983D+01      0.236975D+01
   zz         0.148847D+03      0.220568D+02      0.245415D+02

 ----------------------------------------------------------------------
 1\1\GINC-SH04-01N15\Freq\UM062X\6-311++G(d)\C6H4Br1(2)\JLAPIER\28-Sep-
 2026\0\\#P Geom=AllCheck Guess=TCheck SCRF=Check GenChk UM062X/6-311++
 G(d) Freq\\BrPh_3_rad m062x_smd\\0,2\C,0.0028528807,1.3262436164,0.\C,
 1.2298165517,0.7099718575,0.\C,1.1971996812,-0.685491303,0.\C,-0.00130
 49087,-1.3915170543,0.\C,-1.2072613585,-0.6938826943,0.\C,-1.221035177
 6,0.704097963,0.\H,2.1629864789,1.2611689162,0.\Br,2.8428510449,-1.647
 1753098,0.\H,-0.0004922554,-2.4744254503,0.\H,-2.141349974,-1.24457391
 02,0.\H,-2.1541221331,1.2555833688,0.\\Version=ES64L-G16RevB.01\State=
 2-A'\HF=-2805.0825276\S2=0.761923\S2-1=0.\S2A=0.750068\RMSD=4.263e-09\
 RMSF=6.936e-05\ZeroPoint=0.0779537\Thermal=0.083628\Dipole=-0.8983117,
 0.0094312,0.\DipoleDeriv=0.1127814,-0.0493642,0.,0.1050797,-0.1259395,
 0.,0.,0.,-0.0880946,-0.2722579,0.1810064,0.,0.1552918,-0.3253362,0.,0.
 ,0.,-0.1239216,1.1337689,-0.5346319,0.,-0.540774,0.5560845,0.,0.,0.,-0
 .0588375,-0.5020142,0.0497151,0.,0.1418255,-0.1048287,0.,0.,0.,-0.1790
 71,0.1041575,0.0085279,0.,-0.1192473,0.1650389,0.,0.,0.,-0.1660134,-0.
 0543264,-0.0038624,0.,-0.0733355,-0.1653761,0.,0.,0.,-0.1517721,0.0352
 026,-0.0518137,0.,-0.0045723,0.1560491,0.,0.,0.,0.2153814,-0.6860445,0
 .3243459,0.,0.3293709,-0.332169,0.,0.,0.,-0.074085,0.1236793,0.056434,
 0.,0.0088944,0.0083765,0.,0.,0.,0.2086731,-0.0237834,-0.0572624,0.,-0.
 0722549,0.0559972,0.,0.,0.,0.1954645,0.0288368,0.0769054,0.,0.0697217,
 0.1121033,0.,0.,0.,0.2222762\Polar=148.5425802,-14.6096108,126.3638733
 ,0.,0.,67.4049848\Quadrupole=4.8360094,-0.1791395,-4.6568699,1.289385,
 0.,0.\PG=CS [SG(C6H4Br1)]\NImag=0\\0.68474700,0.00210057,0.34380152,0.
 ,0.,0.07482985,-0.31531656,0.11848920,0.,0.75012475,0.07792232,-0.1462
 7500,0.,0.05226120,0.61960465,0.,0.,-0.05083847,0.,0.,0.12026893,0.032
 92117,0.02518269,0.,-0.10479015,0.01827817,0.,0.51944086,0.10545506,-0
 .02840129,0.,-0.06422090,-0.31351901,0.,0.07553311,0.59180164,0.,0.,0.
 01189017,0.,0.,-0.05745530,0.,0.,0.10865711,-0.08389744,-0.00075677,0.
 ,0.03807478,-0.07998512,0.,-0.26004815,-0.06504867,0.,0.65772507,-0.00
 184329,-0.00349431,0.,-0.02305552,-0.02682766,0.,-0.13701474,-0.179661
 51,0.,-0.00276686,0.76667480,0.,0.,-0.00408848,0.,0.,0.00537483,0.,0.,
 -0.05915891,0.,0.,0.13015532,0.03190289,-0.03181609,0.,-0.01778269,0.0
 3812483,0.,-0.06493788,-0.03359161,0.,-0.28688665,0.12895204,0.,0.7254
 3048,-0.09913328,-0.03048622,0.,0.03435222,-0.05791068,0.,0.03591541,0
 .07304082,0.,0.05121621,-0.18270540,0.,0.03784814,0.67445259,0.,0.,0.0
 1239811,0.,0.,-0.00108829,0.,0.,0.00358175,0.,0.,-0.06225818,0.,0.,0.1
 3517296,-0.31191385,-0.11798963,0.,-0.05711514,0.02137903,0.,-0.019430
 54,-0.03918774,0.,0.04002800,0.02613708,0.,-0.12231397,0.04745019,0.,0
 .74482451,-0.08062027,-0.14891784,0.,-0.01944661,0.07043479,0.,-0.0406
 8298,-0.06162440,0.,0.08357380,-0.02596235,0.,-0.03866511,-0.32336663,
 0.,-0.04483668,0.62999554,0.,0.,-0.05260378,0.,0.,0.00444254,0.,0.,-0.
 00279412,0.,0.,0.00610091,0.,0.,-0.06257850,0.,0.,0.12617723,-0.020005
 70,-0.00971756,0.,-0.27040893,-0.13323619,0.,0.00334301,0.00313626,0.,
 0.00149915,0.00088000,0.,-0.00005175,0.00096041,0.,-0.00242792,0.00181
 437,0.,0.28703509,0.01120737,0.01252086,0.,-0.12550367,-0.12921172,0.,
 -0.02626704,-0.01241564,0.,0.00122686,-0.00490673,0.,0.00063686,-0.000
 86759,0.,0.00442616,-0.00102194,0.,0.13576028,0.13462757,0.,0.,-0.0007
 1231,0.,0.,-0.03416833,0.,0.,0.00429337,0.,0.,0.00567911,0.,0.,-0.0003
 0498,0.,0.,0.00591660,0.,0.,0.02190332,0.00155607,0.00372050,0.,-0.015
 79964,0.00901676,0.,-0.10621609,0.04364294,0.,-0.03438205,0.02305118,0
 .,-0.00054776,-0.00699436,0.,-0.00101783,0.00117426,0.,0.00122250,-0.0
 0077183,0.,0.15605013,-0.00227303,-0.00559039,0.,0.03245032,-0.0157290
 8,0.,0.04449702,-0.05721244,0.,-0.00065206,0.00255320,0.,-0.00037312,0
 .00023552,0.,0.00102298,0.00127996,0.,0.00099009,0.00103586,0.,-0.0745
 3528,0.07231597,0.,0.,0.00448837,0.,0.,0.00327010,0.,0.,-0.01836100,0.
 ,0.,0.00302193,0.,0.,0.00436833,0.,0.,-0.00089080,0.,0.,-0.00189133,0.
 ,0.,0.00845442,-0.00166076,0.00021051,0.,-0.00418162,-0.00254652,0.,0.
 00145065,-0.02716804,0.,-0.05609050,0.00086672,0.,0.00450075,0.0276743
 4,0.,-0.00402803,0.00289489,0.,0.00028565,-0.00120807,0.,0.00029910,-0
 .00124268,0.,0.05828256,-0.00003257,0.00084245,0.,-0.00234375,0.000445
 80,0.,0.00284040,-0.01059551,0.,-0.00148301,-0.35218355,0.,-0.00162581
 ,-0.00939355,0.,0.00232716,0.00070231,0.,0.00009403,-0.00033269,0.,0.0
 0048913,0.00106997,0.,-0.00009556,0.36917126,0.,0.,-0.00108267,0.,0.,0
 .00559625,0.,0.,0.00218956,0.,0.,-0.03594149,0.,0.,0.00423479,0.,0.,0.
 00679923,0.,0.,0.00012740,0.,0.,-0.00193897,0.,0.,0.02453036,0.0016879
 4,0.00015641,0.,-0.00010814,0.00054726,0.,-0.00179606,0.00262369,0.,-0
 .01760146,-0.01449111,0.,-0.27435200,-0.12662971,0.,0.00465628,0.00356
 129,0.,-0.00000655,-0.00007820,0.,-0.00110776,-0.00005920,0.,0.0010534
 7,0.00000380,0.,0.28715919,-0.00108383,-0.00588400,0.,0.00116521,0.000
 09460,0.,0.00238753,-0.00033315,0.,0.01572257,0.01144258,0.,-0.1275086
 2,-0.13251468,0.,-0.02622430,-0.01158652,0.,-0.00014819,0.00008571,0.,
 0.00101737,-0.00001767,0.,-0.00066853,0.00072994,0.,0.13493939,0.13630
 932,0.,0.,0.00667297,0.,0.,-0.00106714,0.,0.,0.00694946,0.,0.,0.004392
 77,0.,0.,-0.03949230,0.,0.,0.00534622,0.,0.,-0.00063505,0.,0.,0.000110
 04,0.,0.,-0.00434480,0.,0.,0.02635213,-0.02002075,0.01042015,0.,-0.002
 69666,-0.00176174,0.,0.00006318,-0.00117411,0.,0.00157924,-0.00071548,
 0.,0.00503859,-0.00265957,0.,-0.27126150,0.13123303,0.,-0.00048455,0.0
 0057129,0.,-0.00005668,0.00017497,0.,0.00008874,-0.00017382,0.,0.00041
 510,0.00040139,0.,0.28733529,-0.01169905,0.01188422,0.,-0.00414770,-0.
 00110667,0.,-0.00066957,-0.00107951,0.,-0.00104695,-0.00492906,0.,0.02
 801848,-0.01048419,0.,0.12549574,-0.12993292,0.,-0.00053349,0.00048630
 ,0.,0.00018934,0.00005910,0.,0.00128294,-0.00045643,0.,-0.00057363,0.0
 0167387,0.,-0.13631610,0.13388527,0.,0.,-0.00095376,0.,0.,0.00566488,0
 .,0.,0.00020792,0.,0.,0.00672219,0.,0.,0.00596631,0.,0.,-0.03591551,0.
 ,0.,-0.00020781,0.,0.,-0.00063109,0.,0.,-0.00016965,0.,0.,-0.00428429,
 0.,0.,0.02360080\\0.00009855,0.00006909,0.,-0.00020038,0.00000630,0.,0
 .00024421,-0.00012295,0.,-0.00011970,0.00006184,0.,0.00001251,0.000050
 90,0.,-0.00006866,-0.00003224,0.,-0.00000075,-0.00001826,0.,-0.0000126
 4,0.00001730,0.,0.00000993,0.00000936,0.,0.00002567,-0.00002658,0.,0.0
 0001125,-0.00001477,0.\\\@


 QED = W**5 (WHICH WAS WHAT WE WANTED)
 Job cpu time:       0 days  0 hours 23 minutes 20.7 seconds.
 Elapsed time:       0 days  0 hours  2 minutes 56.2 seconds.
 File lengths (MBytes):  RWF=    132 Int=      0 D2E=      0 Chk=     10 Scr=      1
 Normal termination of Gaussian 16 at Mon Sep 28 02:05:10 2026.
