%nprocshared=8
%mem=12GB
%chk=calcs/tsscan_m062x_gas/chks/TS_BrBz_1234_x1.chk
#p Opt=(ModRedundant,MaxCycles=100) M062X/6-311++G(d) Int=UltraFine NoSymm

TS_BrBz_1234_x1 tsscan_m062x_gas

-1 2
C      1.21296400     1.23951300     0.06022500
C      0.64294400    -0.00309100     0.16801900
C     -0.72771000    -0.11261400     0.11422400
C     -1.51622600     1.02181300    -0.07493500
C     -0.92452800     2.27550400    -0.20322400
C      0.45676800     2.39301900    -0.12105900
Br     3.09651050     1.40049007    -0.35065938
Br     2.02401000    -1.95949600    -0.35613900
Br    -1.55790500    -1.83486700     0.35203700
Br    -3.42963000     0.96192400    -0.16872400
H     -1.54421400     3.14915000    -0.36123600
H      0.93112100     3.36527200    -0.19762000

B 1 7 S 16 0.080

