%nprocshared=8
%mem=12GB
%chk=calcs/tsscan_m062x_gas/chks/TS_BrBz_123456_x1.chk
#p Opt=(ModRedundant,MaxCycles=100) M062X/6-311++G(d) Int=UltraFine NoSymm

TS_BrBz_123456_x1 tsscan_m062x_gas

-1 2
C      1.07248300     0.87737600     0.05118300
C      1.30091900    -0.48075400     0.03041000
C      0.23089700    -1.36358400    -0.08875000
C     -1.07248300    -0.87737600     0.05118300
C     -1.30091900     0.48075400     0.03041000
C     -0.23089700     1.36358300    -0.08875100
Br     2.48306492     2.15452887    -0.37652707
Br     3.10359700    -1.18898600     0.28410500
Br     0.52146500    -3.17041500    -0.74544400
Br    -2.51271300    -2.12649500     0.46256700
Br    -3.10359700     1.18898500     0.28410300
Br    -0.52146500     3.17041600    -0.74544200

B 1 7 S 16 0.080

