%nprocshared=16
%mem=38GB
%chk=calcs/tsscan_m062x_gas/chks/TS_BDE_245_24_x2.chk
#p Opt=(ModRedundant,MaxCycles=100) M062X/6-311++G(d) Int=UltraFine NoSymm

TS_BDE_245_24_x2 tsscan_m062x_gas

-1 2
C     -0.59501600    -0.11279900    -1.06728900
C     -0.60387900     1.06967200    -0.35326500
C     -1.78203600     1.47317000     0.25019700
C     -2.93725500     0.69923500     0.14450300
C     -2.91525400    -0.48217000    -0.59520900
C     -1.73627200    -0.89477400    -1.20298400
C      1.74883800    -0.38090400    -1.11945800
C      2.14024900    -1.07274900     0.02660300
C      3.40354600    -0.89323400     0.57777600
C      4.27799400    -0.01692300    -0.04565700
C      3.91923100     0.67823500    -1.19113400
C      2.64978200     0.49208900    -1.71790800
O      0.53870200    -0.59843700    -1.71499100
Br     1.40689617     2.36126773     0.63455079
H     -1.81900000     2.41489400     0.78829300
Br    -4.52112500     1.30967700     1.01318000
Br    -4.44989100    -1.58850200    -0.79894500
H     -1.69276900    -1.82480500    -1.75772800
Br     0.96302400    -2.31518000     0.83882800
H      3.69341300    -1.43481500     1.46821200
Br     6.01686100     0.22568400     0.69740900
H      4.60468700     1.37988800    -1.64818500
H      2.31450500     1.05404400    -2.57944000

B 2 14 S 16 0.080

