%nprocshared=8
%mem=12GB
%chk=calcs/tsscan_m062x_gas/chks/TS_ClBz_124_x2.chk
#p Opt=(ModRedundant,MaxCycles=100) M062X/6-311++G(d) Int=UltraFine NoSymm

TS_ClBz_124_x2 tsscan_m062x_gas

-1 2
C     -0.83605800    -0.90719100     0.05418600
C     -0.56530100     0.42144900     0.28007800
C      0.75128100     0.86009300     0.25758300
C      1.76286300    -0.06104300     0.02332400
C      1.49796800    -1.40661900    -0.20765300
C      0.17445600    -1.83412200    -0.19265600
Cl    -2.50029600    -1.50415300     0.09222300
Cl    -2.15206978     2.25657442     0.08707944
H      0.98157600     1.91022500     0.40980300
Cl     3.44692700     0.47522200     0.01048000
H      2.30728400    -2.10082900    -0.39770100
H     -0.06712700    -2.87773400    -0.36762400

B 2 8 S 16 0.080

