%nprocshared=8
%mem=12GB
%chk=calcs/tsscan_m062x_gas/chks/TS_ClBz_1245_x1.chk
#p Opt=(ModRedundant,MaxCycles=100) M062X/6-311++G(d) Int=UltraFine NoSymm

TS_ClBz_1245_x1 tsscan_m062x_gas

-1 2
C      1.20314700     0.68440200     0.14969500
C      1.20314700    -0.68440200     0.14969500
C     -0.00000000    -1.41733800     0.26976700
C     -1.20314700    -0.68440200     0.14969500
C     -1.20314700     0.68440200     0.14969500
C      0.00000000     1.41733800     0.26976700
Cl     2.65821068     1.56652894    -0.36127902
Cl     2.69866300    -1.60585400    -0.11640800
H     -0.00000000    -2.46597700     0.54294400
Cl    -2.69866300    -1.60585400    -0.11640800
Cl    -2.69866300     1.60585400    -0.11640800
H      0.00000000     2.46597700     0.54294400

B 1 7 S 16 0.080

