%nprocshared=8
%mem=12GB
%chk=calcs/tsscan_m062x_gas/chks/TS_ClBz_123456_x1.chk
#p Opt=(ModRedundant,MaxCycles=100) M062X/6-311++G(d) Int=UltraFine NoSymm

TS_ClBz_123456_x1 tsscan_m062x_gas

-1 2
C     -0.00492400     1.39210300    -0.06211600
C      1.20501400     0.68481700     0.05089400
C      1.20618900    -0.68720100     0.04892100
C     -0.00237700    -1.39625300    -0.06525500
C     -1.21225800    -0.68922500     0.04998000
C     -1.21342300     0.68279400     0.05112500
Cl    -0.00623433     3.07844134    -0.61231325
Cl     2.69769600     1.59014500     0.35962100
Cl     2.70107900    -1.59068700     0.35228900
Cl    -0.00139900    -3.03852500    -0.73549000
Cl    -2.70478600    -1.59524900     0.35730900
Cl    -2.70812700     1.58559800     0.35757300

B 1 7 S 16 0.080

