%nprocshared=8
%mem=12GB
%chk=calcs/tsscan_m062x_smd/chks/TS_BrBz_123456_x1.chk
#p Opt=(ModRedundant,MaxCycles=100) M062X/6-311++G(d) SCRF=(SMD,Solvent=Water) Int=UltraFine NoSymm

TS_BrBz_123456_x1 tsscan_m062x_smd

-1 2
C     -0.76529200     1.21481400     0.05739500
C     -1.46178700     0.00006700    -0.03212900
C     -0.76539800    -1.21475100     0.05738700
C      0.62575200    -1.19160300     0.18957800
C      1.30618000    -0.00006500     0.22760700
C      0.62586100     1.19153600     0.18958400
Br    -1.71612313     2.80458088     0.47223660
Br    -3.33835600     0.00014400    -0.27612600
Br    -1.71020900    -2.86037200     0.00456900
Br     1.60601900    -2.82854500     0.37961400
Br     3.62072700    -0.00014000    -0.61043400
Br     1.60629100     2.82839100     0.37960600

B 1 7 S 16 0.080

