%nprocshared=8
%mem=12GB
%chk=calcs/tsscan_m062x_smd/chks/TS_ClBz_12345_x3.chk
#p Opt=(ModRedundant,MaxCycles=100) M062X/6-311++G(d) SCRF=(SMD,Solvent=Water) Int=UltraFine NoSymm

TS_ClBz_12345_x3 tsscan_m062x_smd

-1 2
C     -0.18409200    -1.16066200     1.19924200
C     -0.12902200     0.23484900     1.19868700
C     -0.09527800     0.90705400    -0.00000000
C     -0.12902200     0.23484900    -1.19868700
C     -0.18409200    -1.16066200    -1.19924200
C     -0.20430000    -1.85977600     0.00000000
Cl    -0.23448100    -2.07255500     2.68145900
Cl    -0.12902200     1.11684300     2.70663600
Cl    -0.62932610     3.30795610     0.00000000
Cl    -0.12902200     1.11684300    -2.70663600
Cl    -0.23448100    -2.07255500    -2.68145900
H     -0.24025300    -2.94132500     0.00000000

B 3 9 S 16 0.080

