 Entering Gaussian System, Link 0=g16
 Initial command:
 /share/software/user/restricted/gaussian/g16.B01/l1.exe "/lscratch/jlapier/g16_45675613_46/Gau-3783.inp" -scrdir="/lscratch/jlapier/g16_45675613_46/"
 Entering Link 1 = /share/software/user/restricted/gaussian/g16.B01/l1.exe PID=      3784.
  
 Copyright (c) 1988-2017, Gaussian, Inc.  All Rights Reserved.
  
 This is part of the Gaussian(R) 16 program.  It is based on
 the Gaussian(R) 09 system (copyright 2009, Gaussian, Inc.),
 the Gaussian(R) 03 system (copyright 2003, Gaussian, Inc.),
 the Gaussian(R) 98 system (copyright 1998, Gaussian, Inc.),
 the Gaussian(R) 94 system (copyright 1995, Gaussian, Inc.),
 the Gaussian 92(TM) system (copyright 1992, Gaussian, Inc.),
 the Gaussian 90(TM) system (copyright 1990, Gaussian, Inc.),
 the Gaussian 88(TM) system (copyright 1988, Gaussian, Inc.),
 the Gaussian 86(TM) system (copyright 1986, Carnegie Mellon
 University), and the Gaussian 82(TM) system (copyright 1983,
 Carnegie Mellon University). Gaussian is a federally registered
 trademark of Gaussian, Inc.
  
 This software contains proprietary and confidential information,
 including trade secrets, belonging to Gaussian, Inc.
  
 This software is provided under written license and may be
 used, copied, transmitted, or stored only in accord with that
 written license.
  
 The following legend is applicable only to US Government
 contracts under FAR:
  
                    RESTRICTED RIGHTS LEGEND
  
 Use, reproduction and disclosure by the US Government is
 subject to restrictions as set forth in subparagraphs (a)
 and (c) of the Commercial Computer Software - Restricted
 Rights clause in FAR 52.227-19.
  
 Gaussian, Inc.
 340 Quinnipiac St., Bldg. 40, Wallingford CT 06492
  
  
 ---------------------------------------------------------------
 Warning -- This program may not be used in any manner that
 competes with the business of Gaussian, Inc. or will provide
 assistance to any competitor of Gaussian, Inc.  The licensee
 of this program is prohibited from giving any competitor of
 Gaussian, Inc. access to this program.  By using this program,
 the user acknowledges that Gaussian, Inc. is engaged in the
 business of creating and licensing software in the field of
 computational chemistry and represents and warrants to the
 licensee that it is not a competitor of Gaussian, Inc. and that
 it will not use this program in any manner prohibited above.
 ---------------------------------------------------------------
  

 Cite this work as:
 Gaussian 16, Revision B.01,
 M. J. Frisch, G. W. Trucks, H. B. Schlegel, G. E. Scuseria, 
 M. A. Robb, J. R. Cheeseman, G. Scalmani, V. Barone, 
 G. A. Petersson, H. Nakatsuji, X. Li, M. Caricato, A. V. Marenich, 
 J. Bloino, B. G. Janesko, R. Gomperts, B. Mennucci, H. P. Hratchian, 
 J. V. Ortiz, A. F. Izmaylov, J. L. Sonnenberg, D. Williams-Young, 
 F. Ding, F. Lipparini, F. Egidi, J. Goings, B. Peng, A. Petrone, 
 T. Henderson, D. Ranasinghe, V. G. Zakrzewski, J. Gao, N. Rega, 
 G. Zheng, W. Liang, M. Hada, M. Ehara, K. Toyota, R. Fukuda, 
 J. Hasegawa, M. Ishida, T. Nakajima, Y. Honda, O. Kitao, H. Nakai, 
 T. Vreven, K. Throssell, J. A. Montgomery, Jr., J. E. Peralta, 
 F. Ogliaro, M. J. Bearpark, J. J. Heyd, E. N. Brothers, K. N. Kudin, 
 V. N. Staroverov, T. A. Keith, R. Kobayashi, J. Normand, 
 K. Raghavachari, A. P. Rendell, J. C. Burant, S. S. Iyengar, 
 J. Tomasi, M. Cossi, J. M. Millam, M. Klene, C. Adamo, R. Cammi, 
 J. W. Ochterski, R. L. Martin, K. Morokuma, O. Farkas, 
 J. B. Foresman, and D. J. Fox, Gaussian, Inc., Wallingford CT, 2016.
 
 ******************************************
 Gaussian 16:  ES64L-G16RevB.01 20-Dec-2017
                28-Sep-2026 
 ******************************************
 %nprocshared=8
 Will use up to    8 processors via shared memory.
 %mem=12GB
 %oldchk=calcs/am1/chks/ClPh_235_anion.chk
 %chk=calcs/b3lyp_smd/chks/ClPh_235_anion.chk
 Copying data from "calcs/am1/chks/ClPh_235_anion.chk" to current chk file "calcs/b3lyp_smd/chks/ClPh_235_anion.chk"
 IOpt=  2 FromEx=T IUOpen= 4 IOptOp= 5 NList=   0 IFRang= 0 IUIn= 4 IUOut= 2.
 ----------------------------------------------------------------------
 #p Opt Freq B3LYP/6-311++G(d) SCRF=(SMD,Solvent=Water) Int=UltraFine G
 eom=Check
 ----------------------------------------------------------------------
 1/18=20,19=15,26=6,29=2,38=1/1,3;
 2/9=110,12=2,40=1/2;
 3/5=4,6=6,7=1011,11=2,14=-4,25=1,30=1,70=32201,71=1,72=1,74=-5,75=-5/1,2,3;
 4//1;
 5/5=2,38=5,53=1/2;
 6/7=2,8=2,9=2,10=2,28=1/1;
 7//1,2,3,16;
 1/18=20,19=15,26=6/3(2);
 2/9=110/2;
 99//99;
 2/9=110/2;
 3/5=4,6=6,7=1011,11=2,14=-2,25=1,30=1,70=32205,71=1,72=1,74=-5,75=-5/1,2,3;
 4/5=5,16=3,69=1/1;
 5/5=2,38=5,53=1/2;
 7//1,2,3,16;
 1/18=20,19=15,26=6/3(-5);
 2/9=110/2;
 6/7=2,8=2,9=2,10=2,19=2,28=1/1;
 99/9=1/99;
 Leave Link    1 at Mon Sep 28 02:44:57 2026, MaxMem=  1610612736 cpu:               0.5 elap:               0.1
 (Enter /share/software/user/restricted/gaussian/g16.B01/l101.exe)
 ------------------------
 ClPh_235_anion b3lyp_smd
 ------------------------
 Structure from the checkpoint file:  "calcs/b3lyp_smd/chks/ClPh_235_anion.chk"
 Charge = -1 Multiplicity = 1
 Redundant internal coordinates found in file.  (old form).
 C,0,0.0008530376,1.4175221481,0.
 C,0,1.1918911973,0.70658724,0.
 C,0,1.2135911204,-0.6946836464,0.
 C,0,0.0089319452,-1.4070140091,0.
 C,0,-1.1894401757,-0.6855177055,0.
 C,0,-1.1963620438,0.7112656471,0.
 Cl,0,2.6782775775,1.5714889822,0.
 Cl,0,2.6754031449,-1.6005725755,0.
 H,0,0.0082363815,-2.5037521642,0.
 Cl,0,-2.6704650947,-1.5721416471,0.
 H,0,-2.1493403303,1.2568177304,0.
 Recover connectivity data from disk.
 ITRead=  0  0  0  0  0  0  0  0  0  0  0
 MicOpt= -1 -1 -1 -1 -1 -1 -1 -1 -1 -1 -1
 NAtoms=     11 NQM=       11 NQMF=       0 NMMI=      0 NMMIF=      0
                NMic=       0 NMicF=      0.
                    Isotopes and Nuclear Properties:
 (Nuclear quadrupole moments (NQMom) in fm**2, nuclear magnetic moments (NMagM)
  in nuclear magnetons)

  Atom         1           2           3           4           5           6           7           8           9          10
 IAtWgt=          12          12          12          12          12          12          35          35           1          35
 AtmWgt=  12.0000000  12.0000000  12.0000000  12.0000000  12.0000000  12.0000000  34.9688527  34.9688527   1.0078250  34.9688527
 NucSpn=           0           0           0           0           0           0           3           3           1           3
 AtZEff=   3.9000000   3.9000000   3.9000000   3.9000000   3.9000000   3.9000000 204.0000000 204.0000000   1.0000000 204.0000000
 NQMom=    0.0000000   0.0000000   0.0000000   0.0000000   0.0000000   0.0000000  -8.1650000  -8.1650000   0.0000000  -8.1650000
 NMagM=    0.0000000   0.0000000   0.0000000   0.0000000   0.0000000   0.0000000   0.8218740   0.8218740   2.7928460   0.8218740
 AtZNuc=   6.0000000   6.0000000   6.0000000   6.0000000   6.0000000   6.0000000  17.0000000  17.0000000   1.0000000  17.0000000

  Atom        11
 IAtWgt=           1
 AtmWgt=   1.0078250
 NucSpn=           1
 AtZEff=   1.0000000
 NQMom=    0.0000000
 NMagM=    2.7928460
 AtZNuc=   1.0000000
 Leave Link  101 at Mon Sep 28 02:44:57 2026, MaxMem=  1610612736 cpu:               2.3 elap:               0.3
 (Enter /share/software/user/restricted/gaussian/g16.B01/l103.exe)

 GradGradGradGradGradGradGradGradGradGradGradGradGradGradGradGradGradGrad
 Berny optimization.
 Initialization pass.
                           ----------------------------
                           !    Initial Parameters    !
                           ! (Angstroms and Degrees)  !
 --------------------------                            --------------------------
 ! Name  Definition              Value          Derivative Info.                !
 --------------------------------------------------------------------------------
 ! R1    R(1,2)                  1.3871         estimate D2E/DX2                !
 ! R2    R(1,6)                  1.39           estimate D2E/DX2                !
 ! R3    R(2,3)                  1.4014         estimate D2E/DX2                !
 ! R4    R(2,7)                  1.7197         estimate D2E/DX2                !
 ! R5    R(3,4)                  1.3995         estimate D2E/DX2                !
 ! R6    R(3,8)                  1.7197         estimate D2E/DX2                !
 ! R7    R(4,5)                  1.3988         estimate D2E/DX2                !
 ! R8    R(4,9)                  1.0967         estimate D2E/DX2                !
 ! R9    R(5,6)                  1.3968         estimate D2E/DX2                !
 ! R10   R(5,10)                 1.7261         estimate D2E/DX2                !
 ! R11   R(6,11)                 1.0981         estimate D2E/DX2                !
 ! A1    A(2,1,6)              118.6298         estimate D2E/DX2                !
 ! A2    A(1,2,3)              121.7203         estimate D2E/DX2                !
 ! A3    A(1,2,7)              118.9725         estimate D2E/DX2                !
 ! A4    A(3,2,7)              119.3072         estimate D2E/DX2                !
 ! A5    A(2,3,4)              119.7092         estimate D2E/DX2                !
 ! A6    A(2,3,8)              122.6738         estimate D2E/DX2                !
 ! A7    A(4,3,8)              117.617          estimate D2E/DX2                !
 ! A8    A(3,4,5)              118.353          estimate D2E/DX2                !
 ! A9    A(3,4,9)              120.6327         estimate D2E/DX2                !
 ! A10   A(5,4,9)              121.0143         estimate D2E/DX2                !
 ! A11   A(4,5,6)              121.3345         estimate D2E/DX2                !
 ! A12   A(4,5,10)             118.0423         estimate D2E/DX2                !
 ! A13   A(6,5,10)             120.6232         estimate D2E/DX2                !
 ! A14   A(1,6,5)              120.2531         estimate D2E/DX2                !
 ! A15   A(1,6,11)             119.6731         estimate D2E/DX2                !
 ! A16   A(5,6,11)             120.0738         estimate D2E/DX2                !
 ! D1    D(6,1,2,3)              0.0            estimate D2E/DX2                !
 ! D2    D(6,1,2,7)            180.0            estimate D2E/DX2                !
 ! D3    D(2,1,6,5)              0.0            estimate D2E/DX2                !
 ! D4    D(2,1,6,11)           180.0            estimate D2E/DX2                !
 ! D5    D(1,2,3,4)              0.0            estimate D2E/DX2                !
 ! D6    D(1,2,3,8)            180.0            estimate D2E/DX2                !
 ! D7    D(7,2,3,4)            180.0            estimate D2E/DX2                !
 ! D8    D(7,2,3,8)              0.0            estimate D2E/DX2                !
 ! D9    D(2,3,4,5)              0.0            estimate D2E/DX2                !
 ! D10   D(2,3,4,9)            180.0            estimate D2E/DX2                !
 ! D11   D(8,3,4,5)            180.0            estimate D2E/DX2                !
 ! D12   D(8,3,4,9)              0.0            estimate D2E/DX2                !
 ! D13   D(3,4,5,6)              0.0            estimate D2E/DX2                !
 ! D14   D(3,4,5,10)           180.0            estimate D2E/DX2                !
 ! D15   D(9,4,5,6)            180.0            estimate D2E/DX2                !
 ! D16   D(9,4,5,10)             0.0            estimate D2E/DX2                !
 ! D17   D(4,5,6,1)              0.0            estimate D2E/DX2                !
 ! D18   D(4,5,6,11)           180.0            estimate D2E/DX2                !
 ! D19   D(10,5,6,1)           180.0            estimate D2E/DX2                !
 ! D20   D(10,5,6,11)            0.0            estimate D2E/DX2                !
 --------------------------------------------------------------------------------
 Trust Radius=3.00D-01 FncErr=5.00D-06 GrdErr=5.00D-06 EigMax=2.50D+02 EigMin=1.00D-04
 Number of steps in this run=     57 maximum allowed number of steps=    100.
 GradGradGradGradGradGradGradGradGradGradGradGradGradGradGradGradGradGrad

 Leave Link  103 at Mon Sep 28 02:44:57 2026, MaxMem=  1610612736 cpu:               0.1 elap:               0.0
 (Enter /share/software/user/restricted/gaussian/g16.B01/l202.exe)
                          Input orientation:                          
 ---------------------------------------------------------------------
 Center     Atomic      Atomic             Coordinates (Angstroms)
 Number     Number       Type             X           Y           Z
 ---------------------------------------------------------------------
      1          6           0        0.000853    1.417522   -0.000000
      2          6           0        1.191891    0.706587   -0.000000
      3          6           0        1.213591   -0.694684    0.000000
      4          6           0        0.008932   -1.407014    0.000000
      5          6           0       -1.189440   -0.685518    0.000000
      6          6           0       -1.196362    0.711266   -0.000000
      7         17           0        2.678278    1.571489   -0.000000
      8         17           0        2.675403   -1.600573    0.000000
      9          1           0        0.008236   -2.503752    0.000000
     10         17           0       -2.670465   -1.572142    0.000000
     11          1           0       -2.149340    1.256818   -0.000000
 ---------------------------------------------------------------------
                    Distance matrix (angstroms):
                    1          2          3          4          5
     1  C    0.000000
     2  C    1.387083   0.000000
     3  C    2.435600   1.401439   0.000000
     4  C    2.824548   2.422128   1.399506   0.000000
     5  C    2.416521   2.758386   2.403049   1.398804   0.000000
     6  C    1.390008   2.388258   2.790084   2.437179   1.396801
     7  Cl   2.681848   1.719709   2.698304   3.999611   4.478093
     8  Cl   4.032631   2.742954   1.719747   2.673487   3.971692
     9  H    3.921281   3.421596   2.173847   1.096738   2.177247
    10  Cl   4.009243   4.484462   3.981937   2.684481   1.726133
    11  H    2.156190   3.386234   3.888144   3.428431   2.166581
                    6          7          8          9         10
     6  C    0.000000
     7  Cl   3.968982   0.000000
     8  Cl   4.509452   3.172063   0.000000
     9  H    3.433278   4.872033   2.815939   0.000000
    10  Cl   2.717890   6.204149   5.345944   2.836078   0.000000
    11  H    1.098087   4.837862   5.607391   4.335553   2.876557
                   11
    11  H    0.000000
 Stoichiometry    C6H2Cl3(1-)
 Framework group  CS[SG(C6H2Cl3)]
 Deg. of freedom    19
 Full point group                 CS      NOp   2
 RotChk:  IX=1 Diff= 4.71D-16
 Largest Abelian subgroup         CS      NOp   2
 Largest concise Abelian subgroup C1      NOp   1
                         Standard orientation:                         
 ---------------------------------------------------------------------
 Center     Atomic      Atomic             Coordinates (Angstroms)
 Number     Number       Type             X           Y           Z
 ---------------------------------------------------------------------
      1          6           0        1.309942    1.237334   -0.000000
      2          6           0        1.231743   -0.147543   -0.000000
      3          6           0        0.000000   -0.816005    0.000000
      4          6           0       -1.189400   -0.078478    0.000000
      5          6           0       -1.105240    1.317792    0.000000
      6          6           0        0.129373    1.971078   -0.000000
      7         17           0        2.686879   -1.064046   -0.000000
      8         17           0       -0.125512   -2.531165    0.000000
      9          1           0       -2.161644   -0.585997    0.000000
     10         17           0       -2.577142    2.219480    0.000000
     11          1           0        0.171308    3.068364   -0.000000
 ---------------------------------------------------------------------
 Rotational constants (GHZ):           1.8931788           0.6063637           0.4592660
 Leave Link  202 at Mon Sep 28 02:44:57 2026, MaxMem=  1610612736 cpu:               0.3 elap:               0.0
 (Enter /share/software/user/restricted/gaussian/g16.B01/l301.exe)
 Standard basis: 6-311++G(d) (5D, 7F)
 Ernie: Thresh=  0.10000D-02 Tol=  0.10000D-05 Strict=F.
 There are   179 symmetry adapted cartesian basis functions of A'  symmetry.
 There are    60 symmetry adapted cartesian basis functions of A"  symmetry.
 There are   170 symmetry adapted basis functions of A'  symmetry.
 There are    60 symmetry adapted basis functions of A"  symmetry.
   230 basis functions,   387 primitive gaussians,   239 cartesian basis functions
    45 alpha electrons       45 beta electrons
       nuclear repulsion energy       614.2080342102 Hartrees.
 IExCor=  402 DFT=T Ex+Corr=B3LYP ExCW=0 ScaHFX=  0.200000
 ScaDFX=  0.800000  0.720000  1.000000  0.810000 ScalE2=  1.000000  1.000000
 IRadAn=      5 IRanWt=     -1 IRanGd=            0 ICorTp=0 IEmpDi=  4
 NAtoms=   11 NActive=   11 NUniq=   11 SFac= 1.00D+00 NAtFMM=   60 NAOKFM=F Big=F
 Integral buffers will be    131072 words long.
 Raffenetti 2 integral format.
 Two-electron integral symmetry is turned on.
 ------------------------------------------------------------------------------
 Polarizable Continuum Model (PCM)
 =================================
 Model                : PCM.
 Atomic radii         : SMD-Coulomb.
 Polarization charges : Total charges.
 Charge compensation  : None.
 Solution method      : On-the-fly selection.
 Cavity type          : VdW (van der Waals Surface) (Alpha=1.000).
 Cavity algorithm     : GePol (No added spheres)
                        Default sphere list used, NSphG=   11.
                        Lebedev-Laikov grids with approx.  5.0 points / Ang**2.
                        Smoothing algorithm: York/Karplus (Gamma=1.0000).
                        Polarization charges: spherical gaussians, with
                                              point-specific exponents (IZeta= 3).
                        Self-potential: point-specific (ISelfS= 7).
                        Self-field    : sphere-specific E.n sum rule (ISelfD= 2).
 1st derivatives      : Analytical E(r).r(x)/FMM algorithm (CHGder, D1EAlg=3).
                        Cavity 1st derivative terms included.
 Solvent              : Water, Eps=  78.355300 Eps(inf)=   1.777849
 ------------------------------------------------------------------------------
 Spheres list:
 ISph  on   Nord     Re0    Alpha      Xe            Ye            Ze
    1   C      1    1.8500  1.000      1.309942      1.237334     -0.000000
    2   C      2    1.8500  1.000      1.231743     -0.147543     -0.000000
    3   C      3    1.8500  1.000      0.000000     -0.816005      0.000000
    4   C      4    1.8500  1.000     -1.189400     -0.078478      0.000000
    5   C      5    1.8500  1.000     -1.105240      1.317792      0.000000
    6   C      6    1.8500  1.000      0.129373      1.971078     -0.000000
    7  Cl      7    2.3800  1.000      2.686879     -1.064046     -0.000000
    8  Cl      8    2.3800  1.000     -0.125512     -2.531165      0.000000
    9   H      9    1.2000  1.000     -2.161644     -0.585997      0.000000
   10  Cl     10    2.3800  1.000     -2.577142      2.219480      0.000000
   11   H     11    1.2000  1.000      0.171308      3.068364     -0.000000
 ------------------------------------------------------------------------------
 GePol: Number of generator spheres                  =      11
 GePol: Total number of spheres                      =      11
 GePol: Number of exposed spheres                    =      11 (100.00%)
 GePol: Number of points                             =    1472
 GePol: Average weight of points                     =       0.14
 GePol: Minimum weight of points                     =   0.26D-08
 GePol: Maximum weight of points                     =    0.18138
 GePol: Number of points with low weight             =      32
 GePol: Fraction of low-weight points (<1% of avg)   =       2.17%
 GePol: Cavity surface area                          =    204.042 Ang**2
 GePol: Cavity volume                                =    202.949 Ang**3
 ------------------------------------------------------------------------------
 Atomic radii for non-electrostatic terms: SMD-CDS.
 ------------------------------------------------------------------------------
 PCM non-electrostatic energy =         0.0049933889 Hartrees.
 Nuclear repulsion after PCM non-electrostatic terms =      614.2130275991 Hartrees.
 Leave Link  301 at Mon Sep 28 02:44:57 2026, MaxMem=  1610612736 cpu:               0.3 elap:               0.0
 (Enter /share/software/user/restricted/gaussian/g16.B01/l302.exe)
 NPDir=0 NMtPBC=     1 NCelOv=     1 NCel=       1 NClECP=     1 NCelD=      1
         NCelK=      1 NCelE2=     1 NClLst=     1 CellRange=     0.0.
 One-electron integrals computed using PRISM.
 One-electron integral symmetry used in STVInt
 NBasis=   230 RedAO= T EigKep=  1.23D-06  NBF=   170    60
 NBsUse=   230 1.00D-06 EigRej= -1.00D+00 NBFU=   170    60
 Precomputing XC quadrature grid using
 IXCGrd= 4 IRadAn=           5 IRanWt=          -1 IRanGd=           0 AccXCQ= 0.00D+00.
 Generated NRdTot=       0 NPtTot=           0 NUsed=           0 NTot=          32
 NSgBfM=   236   236   236   236   236 MxSgAt=    11 MxSgA2=    11.
 Leave Link  302 at Mon Sep 28 02:44:57 2026, MaxMem=  1610612736 cpu:               0.8 elap:               0.1
 (Enter /share/software/user/restricted/gaussian/g16.B01/l303.exe)
 DipDrv:  MaxL=1.
 Leave Link  303 at Mon Sep 28 02:44:57 2026, MaxMem=  1610612736 cpu:               0.6 elap:               0.1
 (Enter /share/software/user/restricted/gaussian/g16.B01/l401.exe)
 ExpMin= 3.60D-02 ExpMax= 1.06D+05 ExpMxC= 3.62D+03 IAcc=3 IRadAn=         5 AccDes= 0.00D+00
 Harris functional with IExCor=  402 and IRadAn=       5 diagonalized for initial guess.
 HarFok:  IExCor=  402 AccDes= 0.00D+00 IRadAn=         5 IDoV= 1 UseB2=F ITyADJ=14
 ICtDFT=  3500011 ScaDFX=  1.000000  1.000000  1.000000  1.000000
 FoFCou: FMM=F IPFlag=           0 FMFlag=      100000 FMFlg1=           0
         NFxFlg=           0 DoJE=T BraDBF=F KetDBF=T FulRan=T
         wScrn=  0.000000 ICntrl=       500 IOpCl=  0 I1Cent=   200000004 NGrid=           0
         NMat0=    1 NMatS0=      1 NMatT0=    0 NMatD0=    1 NMtDS0=    0 NMtDT0=    0
 Petite list used in FoFCou.
 Harris En= -1610.51220011214    
 JPrj=0 DoOrth=F DoCkMO=F.
 Initial guess orbital symmetries:
       Occupied  (A') (A') (A') (A') (A') (A') (A') (A') (A') (A')
                 (A') (A') (A') (A') (A') (A') (A") (A') (A") (A')
                 (A") (A') (A') (A') (A') (A') (A') (A') (A') (A')
                 (A') (A') (A") (A') (A') (A') (A") (A") (A') (A")
                 (A') (A') (A") (A') (A")
       Virtual   (A") (A") (A') (A') (A') (A') (A') (A") (A') (A')
                 (A") (A') (A') (A") (A") (A') (A') (A') (A') (A')
                 (A") (A') (A") (A') (A') (A") (A') (A") (A') (A')
                 (A') (A") (A') (A') (A') (A") (A') (A') (A') (A')
                 (A') (A') (A') (A') (A') (A') (A') (A') (A') (A')
                 (A') (A') (A') (A') (A") (A") (A') (A') (A") (A')
                 (A") (A') (A') (A') (A") (A') (A') (A") (A") (A")
                 (A') (A') (A') (A") (A') (A') (A') (A") (A') (A')
                 (A') (A") (A") (A') (A') (A") (A') (A") (A') (A')
                 (A') (A") (A") (A') (A') (A') (A') (A') (A') (A')
                 (A") (A") (A') (A') (A') (A') (A") (A") (A') (A")
                 (A') (A') (A') (A') (A') (A') (A') (A") (A") (A')
                 (A') (A') (A") (A") (A") (A') (A') (A') (A') (A')
                 (A') (A") (A") (A") (A') (A") (A') (A') (A') (A')
                 (A') (A") (A') (A') (A') (A') (A") (A") (A") (A")
                 (A') (A") (A') (A') (A') (A') (A') (A') (A') (A')
                 (A') (A') (A') (A') (A') (A') (A') (A') (A') (A')
                 (A') (A') (A') (A") (A") (A") (A') (A') (A') (A')
                 (A') (A') (A') (A') (A')
 The electronic state of the initial guess is 1-A'.
 Leave Link  401 at Mon Sep 28 02:44:58 2026, MaxMem=  1610612736 cpu:               3.7 elap:               0.6
 (Enter /share/software/user/restricted/gaussian/g16.B01/l502.exe)
 Keep R1 ints in memory in symmetry-blocked form, NReq=538860879.
 FoFCou: FMM=F IPFlag=           0 FMFlag=           0 FMFlg1=           0
         NFxFlg=           0 DoJE=F BraDBF=F KetDBF=F FulRan=T
         wScrn=  0.000000 ICntrl=       600 IOpCl=  0 I1Cent=           0 NGrid=           0
         NMat0=    1 NMatS0=  26565 NMatT0=    0 NMatD0=    1 NMtDS0=    0 NMtDT0=    0
 Petite list used in FoFCou.
 Closed shell SCF:
 Using DIIS extrapolation, IDIIS=  1040.
 NGot=  1610612736 LenX=  1424497779 LenY=  1424440217
 Requested convergence on RMS density matrix=1.00D-08 within 128 cycles.
 Requested convergence on MAX density matrix=1.00D-06.
 Requested convergence on             energy=1.00D-06.
 No special actions if energy rises.

 Cycle   1  Pass 1  IDiag  1:
 Inv3:  Mode=1 IEnd=     6500352.
 Iteration    1 A*A^-1 deviation from unit magnitude is 6.22D-15 for   1456.
 Iteration    1 A*A^-1 deviation from orthogonality  is 2.66D-15 for   1467     56.
 Iteration    1 A^-1*A deviation from unit magnitude is 5.77D-15 for   1456.
 Iteration    1 A^-1*A deviation from orthogonality  is 1.78D-15 for    449     77.
 E= -1610.30109622869    
 DIIS: error= 3.64D-02 at cycle   1 NSaved=   1.
 NSaved= 1 IEnMin= 1 EnMin= -1610.30109622869     IErMin= 1 ErrMin= 3.64D-02
 ErrMax= 3.64D-02  0.00D+00 EMaxC= 1.00D-01 BMatC= 3.83D-01 BMatP= 3.83D-01
 IDIUse=3 WtCom= 6.36D-01 WtEn= 3.64D-01
 Coeff-Com:  0.100D+01
 Coeff-En:   0.100D+01
 Coeff:      0.100D+01
 Gap=     0.219 Goal=   None    Shift=    0.000
 GapD=    0.219 DampG=1.000 DampE=0.500 DampFc=0.5000 IDamp=-1.
 Damping current iteration by 5.00D-01
 RMSDP=2.54D-01 MaxDP=1.47D+01              OVMax= 6.37D-01

 Cycle   2  Pass 1  IDiag  1:
 E= -1610.34566755230     Delta-E=       -0.044571323607 Rises=F Damp=T
 DIIS: error= 1.30D-02 at cycle   2 NSaved=   2.
 NSaved= 2 IEnMin= 2 EnMin= -1610.34566755230     IErMin= 2 ErrMin= 1.30D-02
 ErrMax= 1.30D-02  0.00D+00 EMaxC= 1.00D-01 BMatC= 5.86D-02 BMatP= 3.83D-01
 IDIUse=3 WtCom= 8.70D-01 WtEn= 1.30D-01
 Coeff-Com:  0.181D+00 0.819D+00
 Coeff-En:   0.440D+00 0.560D+00
 Coeff:      0.214D+00 0.786D+00
 Gap=     0.143 Goal=   None    Shift=    0.000
 RMSDP=1.32D-01 MaxDP=7.88D+00 DE=-4.46D-02 OVMax= 5.41D-01

 Cycle   3  Pass 1  IDiag  1:
 E= -1610.60293244776     Delta-E=       -0.257264895466 Rises=F Damp=F
 DIIS: error= 1.57D-02 at cycle   3 NSaved=   3.
 NSaved= 3 IEnMin= 3 EnMin= -1610.60293244776     IErMin= 2 ErrMin= 1.30D-02
 ErrMax= 1.57D-02  0.00D+00 EMaxC= 1.00D-01 BMatC= 2.77D-02 BMatP= 5.86D-02
 IDIUse=3 WtCom= 8.43D-01 WtEn= 1.57D-01
 Coeff-Com: -0.254D-01 0.381D+00 0.645D+00
 Coeff-En:   0.000D+00 0.000D+00 0.100D+01
 Coeff:     -0.214D-01 0.321D+00 0.700D+00
 Gap=     0.144 Goal=   None    Shift=    0.000
 RMSDP=2.17D-02 MaxDP=1.26D+00 DE=-2.57D-01 OVMax= 1.06D-01

 Cycle   4  Pass 1  IDiag  1:
 E= -1610.61863639334     Delta-E=       -0.015703945579 Rises=F Damp=F
 DIIS: error= 1.07D-02 at cycle   4 NSaved=   4.
 NSaved= 4 IEnMin= 4 EnMin= -1610.61863639334     IErMin= 4 ErrMin= 1.07D-02
 ErrMax= 1.07D-02  0.00D+00 EMaxC= 1.00D-01 BMatC= 1.51D-02 BMatP= 2.77D-02
 IDIUse=3 WtCom= 8.93D-01 WtEn= 1.07D-01
 Coeff-Com: -0.501D-01 0.114D+00 0.466D+00 0.470D+00
 Coeff-En:   0.000D+00 0.000D+00 0.357D+00 0.643D+00
 Coeff:     -0.448D-01 0.102D+00 0.454D+00 0.489D+00
 Gap=     0.170 Goal=   None    Shift=    0.000
 RMSDP=4.08D-03 MaxDP=3.10D-01 DE=-1.57D-02 OVMax= 4.89D-02

 Cycle   5  Pass 1  IDiag  1:
 E= -1610.63474497673     Delta-E=       -0.016108583388 Rises=F Damp=F
 DIIS: error= 1.14D-03 at cycle   5 NSaved=   5.
 NSaved= 5 IEnMin= 5 EnMin= -1610.63474497673     IErMin= 5 ErrMin= 1.14D-03
 ErrMax= 1.14D-03  0.00D+00 EMaxC= 1.00D-01 BMatC= 2.56D-04 BMatP= 1.51D-02
 IDIUse=3 WtCom= 9.89D-01 WtEn= 1.14D-02
 Coeff-Com: -0.133D-01 0.232D-01 0.120D+00 0.193D+00 0.676D+00
 Coeff-En:   0.000D+00 0.000D+00 0.000D+00 0.000D+00 0.100D+01
 Coeff:     -0.132D-01 0.230D-01 0.119D+00 0.191D+00 0.680D+00
 Gap=     0.169 Goal=   None    Shift=    0.000
 RMSDP=3.59D-03 MaxDP=2.30D-01 DE=-1.61D-02 OVMax= 7.82D-03

 Cycle   6  Pass 1  IDiag  1:
 E= -1610.63498975765     Delta-E=       -0.000244780920 Rises=F Damp=F
 DIIS: error= 4.48D-04 at cycle   6 NSaved=   6.
 NSaved= 6 IEnMin= 6 EnMin= -1610.63498975765     IErMin= 6 ErrMin= 4.48D-04
 ErrMax= 4.48D-04  0.00D+00 EMaxC= 1.00D-01 BMatC= 3.76D-05 BMatP= 2.56D-04
 IDIUse=3 WtCom= 9.96D-01 WtEn= 4.48D-03
 Coeff-Com: -0.146D-02-0.126D-02 0.617D-02 0.480D-01 0.376D+00 0.572D+00
 Coeff-En:   0.000D+00 0.000D+00 0.000D+00 0.000D+00 0.000D+00 0.100D+01
 Coeff:     -0.145D-02-0.125D-02 0.614D-02 0.477D-01 0.374D+00 0.574D+00
 Gap=     0.169 Goal=   None    Shift=    0.000
 RMSDP=1.67D-03 MaxDP=1.14D-01 DE=-2.45D-04 OVMax= 2.63D-03

 Cycle   7  Pass 1  IDiag  1:
 E= -1610.63502235752     Delta-E=       -0.000032599868 Rises=F Damp=F
 DIIS: error= 1.09D-04 at cycle   7 NSaved=   7.
 NSaved= 7 IEnMin= 7 EnMin= -1610.63502235752     IErMin= 7 ErrMin= 1.09D-04
 ErrMax= 1.09D-04  0.00D+00 EMaxC= 1.00D-01 BMatC= 2.20D-06 BMatP= 3.76D-05
 IDIUse=3 WtCom= 9.99D-01 WtEn= 1.09D-03
 Coeff-Com:  0.192D-03-0.158D-02-0.336D-02 0.823D-02 0.114D+00 0.256D+00
 Coeff-Com:  0.627D+00
 Coeff-En:   0.000D+00 0.000D+00 0.000D+00 0.000D+00 0.000D+00 0.000D+00
 Coeff-En:   0.100D+01
 Coeff:      0.192D-03-0.158D-02-0.336D-02 0.822D-02 0.114D+00 0.256D+00
 Coeff:      0.627D+00
 Gap=     0.169 Goal=   None    Shift=    0.000
 RMSDP=3.40D-04 MaxDP=3.04D-02 DE=-3.26D-05 OVMax= 7.88D-04

 Cycle   8  Pass 1  IDiag  1:
 E= -1610.63502431544     Delta-E=       -0.000001957922 Rises=F Damp=F
 DIIS: error= 4.87D-05 at cycle   8 NSaved=   8.
 NSaved= 8 IEnMin= 8 EnMin= -1610.63502431544     IErMin= 8 ErrMin= 4.87D-05
 ErrMax= 4.87D-05  0.00D+00 EMaxC= 1.00D-01 BMatC= 3.35D-07 BMatP= 2.20D-06
 IDIUse=1 WtCom= 1.00D+00 WtEn= 0.00D+00
 Coeff-Com:  0.312D-03-0.829D-03-0.248D-02 0.431D-04 0.328D-01 0.859D-01
 Coeff-Com:  0.325D+00 0.559D+00
 Coeff:      0.312D-03-0.829D-03-0.248D-02 0.431D-04 0.328D-01 0.859D-01
 Coeff:      0.325D+00 0.559D+00
 Gap=     0.169 Goal=   None    Shift=    0.000
 RMSDP=9.25D-05 MaxDP=6.39D-03 DE=-1.96D-06 OVMax= 2.78D-04

 Cycle   9  Pass 1  IDiag  1:
 E= -1610.63502459749     Delta-E=       -0.000000282056 Rises=F Damp=F
 DIIS: error= 2.65D-05 at cycle   9 NSaved=   9.
 NSaved= 9 IEnMin= 9 EnMin= -1610.63502459749     IErMin= 9 ErrMin= 2.65D-05
 ErrMax= 2.65D-05  0.00D+00 EMaxC= 1.00D-01 BMatC= 7.18D-08 BMatP= 3.35D-07
 IDIUse=1 WtCom= 1.00D+00 WtEn= 0.00D+00
 Coeff-Com:  0.197D-03-0.376D-03-0.119D-02-0.136D-02 0.492D-02 0.143D-01
 Coeff-Com:  0.104D+00 0.351D+00 0.529D+00
 Coeff:      0.197D-03-0.376D-03-0.119D-02-0.136D-02 0.492D-02 0.143D-01
 Coeff:      0.104D+00 0.351D+00 0.529D+00
 Gap=     0.169 Goal=   None    Shift=    0.000
 RMSDP=6.17D-05 MaxDP=5.25D-03 DE=-2.82D-07 OVMax= 1.20D-04

 Cycle  10  Pass 1  IDiag  1:
 E= -1610.63502467398     Delta-E=       -0.000000076490 Rises=F Damp=F
 DIIS: error= 3.66D-06 at cycle  10 NSaved=  10.
 NSaved=10 IEnMin=10 EnMin= -1610.63502467398     IErMin=10 ErrMin= 3.66D-06
 ErrMax= 3.66D-06  0.00D+00 EMaxC= 1.00D-01 BMatC= 2.14D-09 BMatP= 7.18D-08
 IDIUse=1 WtCom= 1.00D+00 WtEn= 0.00D+00
 Coeff-Com:  0.239D-04-0.228D-04 0.435D-04-0.378D-03-0.178D-02-0.586D-02
 Coeff-Com: -0.234D-02 0.600D-01 0.180D+00 0.770D+00
 Coeff:      0.239D-04-0.228D-04 0.435D-04-0.378D-03-0.178D-02-0.586D-02
 Coeff:     -0.234D-02 0.600D-01 0.180D+00 0.770D+00
 Gap=     0.169 Goal=   None    Shift=    0.000
 RMSDP=1.41D-05 MaxDP=8.96D-04 DE=-7.65D-08 OVMax= 2.37D-05

 Cycle  11  Pass 1  IDiag  1:
 E= -1610.63502467645     Delta-E=       -0.000000002464 Rises=F Damp=F
 DIIS: error= 6.45D-07 at cycle  11 NSaved=  11.
 NSaved=11 IEnMin=11 EnMin= -1610.63502467645     IErMin=11 ErrMin= 6.45D-07
 ErrMax= 6.45D-07  0.00D+00 EMaxC= 1.00D-01 BMatC= 1.34D-10 BMatP= 2.14D-09
 IDIUse=1 WtCom= 1.00D+00 WtEn= 0.00D+00
 Coeff-Com: -0.104D-05 0.790D-05 0.788D-04-0.688D-04-0.877D-03-0.280D-02
 Coeff-Com: -0.564D-02 0.951D-03 0.337D-01 0.291D+00 0.684D+00
 Coeff:     -0.104D-05 0.790D-05 0.788D-04-0.688D-04-0.877D-03-0.280D-02
 Coeff:     -0.564D-02 0.951D-03 0.337D-01 0.291D+00 0.684D+00
 Gap=     0.169 Goal=   None    Shift=    0.000
 RMSDP=2.52D-06 MaxDP=2.36D-04 DE=-2.46D-09 OVMax= 5.74D-06

 Cycle  12  Pass 1  IDiag  1:
 E= -1610.63502467658     Delta-E=       -0.000000000127 Rises=F Damp=F
 DIIS: error= 3.80D-07 at cycle  12 NSaved=  12.
 NSaved=12 IEnMin=12 EnMin= -1610.63502467658     IErMin=12 ErrMin= 3.80D-07
 ErrMax= 3.80D-07  0.00D+00 EMaxC= 1.00D-01 BMatC= 3.25D-11 BMatP= 1.34D-10
 IDIUse=1 WtCom= 1.00D+00 WtEn= 0.00D+00
 Coeff-Com: -0.241D-05 0.429D-05 0.281D-04 0.811D-05-0.192D-03-0.587D-03
 Coeff-Com: -0.203D-02-0.689D-02-0.585D-02 0.551D-01 0.368D+00 0.592D+00
 Coeff:     -0.241D-05 0.429D-05 0.281D-04 0.811D-05-0.192D-03-0.587D-03
 Coeff:     -0.203D-02-0.689D-02-0.585D-02 0.551D-01 0.368D+00 0.592D+00
 Gap=     0.169 Goal=   None    Shift=    0.000
 RMSDP=9.05D-07 MaxDP=7.52D-05 DE=-1.27D-10 OVMax= 2.44D-06

 Cycle  13  Pass 1  IDiag  1:
 E= -1610.63502467660     Delta-E=       -0.000000000026 Rises=F Damp=F
 DIIS: error= 7.94D-08 at cycle  13 NSaved=  13.
 NSaved=13 IEnMin=13 EnMin= -1610.63502467660     IErMin=13 ErrMin= 7.94D-08
 ErrMax= 7.94D-08  0.00D+00 EMaxC= 1.00D-01 BMatC= 1.50D-12 BMatP= 3.25D-11
 IDIUse=1 WtCom= 1.00D+00 WtEn= 0.00D+00
 Coeff-Com: -0.642D-06 0.869D-06 0.499D-05 0.685D-05-0.235D-04-0.670D-04
 Coeff-Com: -0.442D-03-0.275D-02-0.446D-02 0.103D-02 0.885D-01 0.240D+00
 Coeff-Com:  0.679D+00
 Coeff:     -0.642D-06 0.869D-06 0.499D-05 0.685D-05-0.235D-04-0.670D-04
 Coeff:     -0.442D-03-0.275D-02-0.446D-02 0.103D-02 0.885D-01 0.240D+00
 Coeff:      0.679D+00
 Gap=     0.169 Goal=   None    Shift=    0.000
 RMSDP=1.66D-07 MaxDP=8.64D-06 DE=-2.59D-11 OVMax= 6.61D-07

 Cycle  14  Pass 1  IDiag  1:
 E= -1610.63502467661     Delta-E=       -0.000000000008 Rises=F Damp=F
 DIIS: error= 1.80D-08 at cycle  14 NSaved=  14.
 NSaved=14 IEnMin=14 EnMin= -1610.63502467661     IErMin=14 ErrMin= 1.80D-08
 ErrMax= 1.80D-08  0.00D+00 EMaxC= 1.00D-01 BMatC= 1.21D-13 BMatP= 1.50D-12
 IDIUse=1 WtCom= 1.00D+00 WtEn= 0.00D+00
 Coeff-Com: -0.106D-06 0.219D-06 0.597D-06 0.291D-05 0.755D-05 0.934D-05
 Coeff-Com: -0.340D-04-0.333D-03-0.856D-03-0.516D-02-0.857D-02 0.269D-01
 Coeff-Com:  0.233D+00 0.755D+00
 Coeff:     -0.106D-06 0.219D-06 0.597D-06 0.291D-05 0.755D-05 0.934D-05
 Coeff:     -0.340D-04-0.333D-03-0.856D-03-0.516D-02-0.857D-02 0.269D-01
 Coeff:      0.233D+00 0.755D+00
 Gap=     0.169 Goal=   None    Shift=    0.000
 RMSDP=8.44D-08 MaxDP=5.70D-06 DE=-7.50D-12 OVMax= 2.34D-07

 Cycle  15  Pass 1  IDiag  1:
 E= -1610.63502467660     Delta-E=        0.000000000005 Rises=F Damp=F
 DIIS: error= 8.95D-09 at cycle  15 NSaved=  15.
 NSaved=15 IEnMin=14 EnMin= -1610.63502467661     IErMin=15 ErrMin= 8.95D-09
 ErrMax= 8.95D-09  0.00D+00 EMaxC= 1.00D-01 BMatC= 2.02D-14 BMatP= 1.21D-13
 IDIUse=1 WtCom= 1.00D+00 WtEn= 0.00D+00
 Coeff-Com:  0.278D-07-0.322D-07-0.351D-06 0.900D-06 0.746D-05 0.141D-04
 Coeff-Com:  0.229D-04 0.478D-04-0.741D-04-0.271D-02-0.114D-01-0.530D-02
 Coeff-Com:  0.582D-01 0.369D+00 0.592D+00
 Coeff:      0.278D-07-0.322D-07-0.351D-06 0.900D-06 0.746D-05 0.141D-04
 Coeff:      0.229D-04 0.478D-04-0.741D-04-0.271D-02-0.114D-01-0.530D-02
 Coeff:      0.582D-01 0.369D+00 0.592D+00
 Gap=     0.169 Goal=   None    Shift=    0.000
 RMSDP=3.23D-08 MaxDP=1.35D-06 DE= 4.77D-12 OVMax= 6.21D-08

 Cycle  16  Pass 1  IDiag  1:
 E= -1610.63502467661     Delta-E=       -0.000000000003 Rises=F Damp=F
 DIIS: error= 3.42D-09 at cycle  16 NSaved=  16.
 NSaved=16 IEnMin=14 EnMin= -1610.63502467661     IErMin=16 ErrMin= 3.42D-09
 ErrMax= 3.42D-09  0.00D+00 EMaxC= 1.00D-01 BMatC= 1.61D-15 BMatP= 2.02D-14
 IDIUse=1 WtCom= 1.00D+00 WtEn= 0.00D+00
 Coeff-Com:  0.192D-07-0.298D-07-0.140D-06 0.220D-06 0.263D-05 0.519D-05
 Coeff-Com:  0.900D-05 0.406D-04 0.474D-04-0.627D-03-0.396D-02-0.473D-02
 Coeff-Com:  0.173D-02 0.870D-01 0.256D+00 0.665D+00
 Coeff:      0.192D-07-0.298D-07-0.140D-06 0.220D-06 0.263D-05 0.519D-05
 Coeff:      0.900D-05 0.406D-04 0.474D-04-0.627D-03-0.396D-02-0.473D-02
 Coeff:      0.173D-02 0.870D-01 0.256D+00 0.665D+00
 Gap=     0.169 Goal=   None    Shift=    0.000
 RMSDP=1.70D-08 MaxDP=7.12D-07 DE=-3.18D-12 OVMax= 1.66D-08

 Cycle  17  Pass 1  IDiag  1:
 E= -1610.63502467660     Delta-E=        0.000000000003 Rises=F Damp=F
 DIIS: error= 9.33D-10 at cycle  17 NSaved=  17.
 NSaved=17 IEnMin=14 EnMin= -1610.63502467661     IErMin=17 ErrMin= 9.33D-10
 ErrMax= 9.33D-10  0.00D+00 EMaxC= 1.00D-01 BMatC= 2.17D-16 BMatP= 1.61D-15
 IDIUse=1 WtCom= 1.00D+00 WtEn= 0.00D+00
 Large coefficients: NSaved= 17 BigCof=    0.00 CofMax=   10.00 Det=-1.85D-15
 Inversion failed.  Reducing to 16 matrices.
 Large coefficients: NSaved= 16 BigCof=    0.00 CofMax=   10.00 Det=-1.86D-15
 Inversion failed.  Reducing to 15 matrices.
 Coeff-Com:  0.513D-07 0.738D-11-0.219D-06-0.609D-06-0.286D-05 0.346D-05
 Coeff-Com:  0.326D-04 0.201D-03 0.987D-04-0.124D-02-0.846D-02-0.161D-01
 Coeff-Com:  0.244D-01 0.303D+00 0.698D+00
 Coeff:      0.513D-07 0.738D-11-0.219D-06-0.609D-06-0.286D-05 0.346D-05
 Coeff:      0.326D-04 0.201D-03 0.987D-04-0.124D-02-0.846D-02-0.161D-01
 Coeff:      0.244D-01 0.303D+00 0.698D+00
 Gap=     0.169 Goal=   None    Shift=    0.000
 RMSDP=7.02D-09 MaxDP=4.58D-07 DE= 3.41D-12 OVMax= 4.71D-09

 Error on total polarization charges =  0.03270
 SCF Done:  E(RB3LYP) =  -1610.63502468     A.U. after   17 cycles
            NFock= 17  Conv=0.70D-08     -V/T= 2.0025
 KE= 1.606653542594D+03 PE=-5.059034139243D+03 EE= 1.227532544374D+03
 SMD-CDS (non-electrostatic) energy       (kcal/mol) =       3.13
 (included in total energy above)
 Leave Link  502 at Mon Sep 28 02:45:14 2026, MaxMem=  1610612736 cpu:             118.4 elap:              15.9
 (Enter /share/software/user/restricted/gaussian/g16.B01/l601.exe)
 Copying SCF densities to generalized density rwf, IOpCl= 0 IROHF=0.

 **********************************************************************

            Population analysis using the SCF Density.

 **********************************************************************

 Orbital symmetries:
       Occupied  (A') (A') (A') (A') (A') (A') (A') (A') (A') (A')
                 (A') (A') (A') (A') (A") (A') (A") (A') (A') (A")
                 (A') (A') (A') (A') (A') (A') (A') (A') (A') (A')
                 (A') (A') (A') (A") (A') (A") (A') (A") (A') (A')
                 (A") (A') (A") (A") (A')
       Virtual   (A") (A") (A') (A') (A') (A') (A') (A') (A") (A')
                 (A") (A') (A') (A") (A') (A') (A") (A') (A') (A")
                 (A') (A') (A") (A') (A') (A") (A') (A') (A") (A')
                 (A") (A') (A') (A") (A') (A') (A') (A') (A') (A')
                 (A') (A') (A') (A') (A') (A') (A') (A') (A') (A')
                 (A') (A') (A") (A") (A') (A') (A") (A') (A') (A')
                 (A') (A") (A') (A") (A') (A") (A") (A") (A') (A')
                 (A') (A') (A") (A') (A') (A') (A") (A') (A') (A')
                 (A") (A") (A") (A') (A') (A") (A') (A') (A') (A')
                 (A") (A') (A') (A') (A') (A') (A') (A") (A') (A')
                 (A') (A") (A') (A") (A') (A') (A') (A") (A') (A")
                 (A") (A') (A') (A') (A') (A') (A') (A") (A") (A')
                 (A') (A') (A") (A") (A") (A') (A') (A') (A') (A")
                 (A') (A") (A') (A") (A") (A') (A') (A') (A') (A')
                 (A') (A') (A') (A') (A") (A') (A") (A") (A") (A")
                 (A') (A") (A') (A') (A') (A') (A') (A') (A') (A')
                 (A') (A') (A') (A') (A') (A') (A') (A') (A') (A')
                 (A') (A') (A') (A") (A") (A") (A') (A') (A') (A')
                 (A') (A') (A') (A') (A')
 The electronic state is 1-A'.
 Alpha  occ. eigenvalues -- -101.55319-101.55042-101.53854 -10.23317 -10.22568
 Alpha  occ. eigenvalues --  -10.21432 -10.18177 -10.16412 -10.12070  -9.46891
 Alpha  occ. eigenvalues --   -9.46602  -9.45479  -7.23309  -7.23008  -7.22396
 Alpha  occ. eigenvalues --   -7.22335  -7.22105  -7.22066  -7.21864  -7.21001
 Alpha  occ. eigenvalues --   -7.20927  -0.91012  -0.88056  -0.85312  -0.80274
 Alpha  occ. eigenvalues --   -0.72508  -0.69865  -0.59080  -0.57708  -0.49918
 Alpha  occ. eigenvalues --   -0.47636  -0.45298  -0.43121  -0.41310  -0.39911
 Alpha  occ. eigenvalues --   -0.37069  -0.36678  -0.34337  -0.32978  -0.31347
 Alpha  occ. eigenvalues --   -0.30334  -0.29918  -0.24022  -0.22641  -0.18335
 Alpha virt. eigenvalues --   -0.01405  -0.00815   0.00141   0.00562   0.01685
 Alpha virt. eigenvalues --    0.02124   0.03588   0.04813   0.05536   0.05545
 Alpha virt. eigenvalues --    0.06738   0.06887   0.07788   0.07849   0.08634
 Alpha virt. eigenvalues --    0.09379   0.10780   0.10813   0.11566   0.11665
 Alpha virt. eigenvalues --    0.12055   0.12904   0.13455   0.13582   0.14400
 Alpha virt. eigenvalues --    0.14604   0.15156   0.15956   0.16390   0.17555
 Alpha virt. eigenvalues --    0.18340   0.18493   0.20385   0.20582   0.21057
 Alpha virt. eigenvalues --    0.22364   0.23021   0.23618   0.24224   0.25014
 Alpha virt. eigenvalues --    0.26238   0.27049   0.27635   0.28599   0.28906
 Alpha virt. eigenvalues --    0.29972   0.30666   0.33217   0.33812   0.35059
 Alpha virt. eigenvalues --    0.42065   0.43597   0.44403   0.46022   0.46096
 Alpha virt. eigenvalues --    0.46674   0.48172   0.48511   0.49728   0.51573
 Alpha virt. eigenvalues --    0.53402   0.54541   0.56068   0.58680   0.59103
 Alpha virt. eigenvalues --    0.59785   0.61340   0.62114   0.63250   0.64071
 Alpha virt. eigenvalues --    0.66709   0.67292   0.67520   0.70410   0.72575
 Alpha virt. eigenvalues --    0.74533   0.77912   0.79238   0.83656   0.85103
 Alpha virt. eigenvalues --    0.85199   0.85882   0.86736   0.87095   0.87514
 Alpha virt. eigenvalues --    0.87787   0.88007   0.90487   0.92245   0.93313
 Alpha virt. eigenvalues --    0.93982   0.94856   0.95883   0.96478   0.97700
 Alpha virt. eigenvalues --    0.97942   1.00516   1.01380   1.08164   1.09282
 Alpha virt. eigenvalues --    1.16323   1.17242   1.19311   1.21645   1.24504
 Alpha virt. eigenvalues --    1.25220   1.27896   1.31241   1.33104   1.34169
 Alpha virt. eigenvalues --    1.34881   1.48261   1.52758   1.55341   1.58440
 Alpha virt. eigenvalues --    1.69036   1.78645   1.79897   1.81052   1.83642
 Alpha virt. eigenvalues --    1.85387   1.88690   1.91812   1.92826   2.00463
 Alpha virt. eigenvalues --    2.05210   2.09032   2.16531   2.23864   2.25328
 Alpha virt. eigenvalues --    2.25731   2.27269   2.28128   2.30654   2.34209
 Alpha virt. eigenvalues --    2.35016   2.42045   2.43258   2.46070   2.52398
 Alpha virt. eigenvalues --    2.53720   2.57896   2.62444   2.62949   2.64543
 Alpha virt. eigenvalues --    2.71713   2.78293   2.79174   2.88616   2.89679
 Alpha virt. eigenvalues --    3.04898   3.07765   3.13336   3.13928   3.20357
 Alpha virt. eigenvalues --    3.26789   3.28503   3.33620   3.53755   3.57677
 Alpha virt. eigenvalues --    3.74723   3.96306   3.97766   4.80010   9.75530
 Alpha virt. eigenvalues --    9.80590   9.83133  23.27095  23.82845  23.86262
 Alpha virt. eigenvalues --   23.99896  24.02522  24.13212  25.79931  25.83387
 Alpha virt. eigenvalues --   25.88602  26.09673  26.11373  26.21837  26.49747
 Alpha virt. eigenvalues --   26.63464  26.75644 215.74425 215.80066 215.82881
          Condensed to atoms (all electrons):
               1          2          3          4          5          6
     1  C   23.379108  -3.986548  -4.313799  -8.381145   2.929199  -1.372906
     2  C   -3.986548  25.179417  -6.796558  -3.086844  -6.341844   0.788378
     3  C   -4.313799  -6.796558  25.110683  -5.273180   0.647917  -2.893572
     4  C   -8.381145  -3.086844  -5.273180  31.344541  -3.312982  -5.134981
     5  C    2.929199  -6.341844   0.647917  -3.312982  19.390190  -4.986114
     6  C   -1.372906   0.788378  -2.893572  -5.134981  -4.986114  18.900088
     7  Cl  -1.047306  -1.539823   1.173155   0.786124   0.071536  -0.022808
     8  Cl   0.732035   0.813737  -1.510386  -0.661639  -0.318312   0.210123
     9  H   -0.021522   0.032329  -0.033860   0.441059  -0.116236  -0.058890
    10  Cl   0.065278   0.164044  -0.019832   0.398003  -1.598176   0.231112
    11  H   -0.344503   0.151780  -0.031760  -0.024375  -0.542936   0.894665
               7          8          9         10         11
     1  C   -1.047306   0.732035  -0.021522   0.065278  -0.344503
     2  C   -1.539823   0.813737   0.032329   0.164044   0.151780
     3  C    1.173155  -1.510386  -0.033860  -0.019832  -0.031760
     4  C    0.786124  -0.661639   0.441059   0.398003  -0.024375
     5  C    0.071536  -0.318312  -0.116236  -1.598176  -0.542936
     6  C   -0.022808   0.210123  -0.058890   0.231112   0.894665
     7  Cl  17.683727  -0.344486  -0.004631  -0.016573  -0.010949
     8  Cl  -0.344486  17.689737   0.000071  -0.015770   0.007044
     9  H   -0.004631   0.000071   0.412413   0.014971  -0.000072
    10  Cl  -0.016573  -0.015770   0.014971  17.476971   0.047745
    11  H   -0.010949   0.007044  -0.000072   0.047745   0.563149
 Mulliken charges:
               1
     1  C   -1.637891
     2  C    0.621931
     3  C   -0.058809
     4  C   -1.094582
     5  C    0.177759
     6  C   -0.555094
     7  Cl   0.272034
     8  Cl   0.397846
     9  H    0.334368
    10  Cl   0.252227
    11  H    0.290211
 Sum of Mulliken charges =  -1.00000
 Mulliken charges with hydrogens summed into heavy atoms:
               1
     1  C   -1.637891
     2  C    0.621931
     3  C   -0.058809
     4  C   -0.760214
     5  C    0.177759
     6  C   -0.264883
     7  Cl   0.272034
     8  Cl   0.397846
    10  Cl   0.252227
 Electronic spatial extent (au):  <R**2>=           2142.1041
 Charge=             -1.0000 electrons
 Dipole moment (field-independent basis, Debye):
    X=             -6.3912    Y=             -3.5820    Z=              0.0000  Tot=              7.3265
 Quadrupole moment (field-independent basis, Debye-Ang):
   XX=            -96.9164   YY=            -89.7667   ZZ=            -78.3739
   XY=             -2.1077   XZ=              0.0000   YZ=              0.0000
 Traceless Quadrupole moment (field-independent basis, Debye-Ang):
   XX=             -8.5641   YY=             -1.4144   ZZ=              9.9784
   XY=             -2.1077   XZ=              0.0000   YZ=              0.0000
 Octapole moment (field-independent basis, Debye-Ang**2):
  XXX=            -47.3333  YYY=            -21.8127  ZZZ=             -0.0000  XYY=            -12.5383
  XXY=            -31.6556  XXZ=              0.0000  XZZ=             -4.7112  YZZ=             -7.8786
  YYZ=              0.0000  XYZ=              0.0000
 Hexadecapole moment (field-independent basis, Debye-Ang**3):
 XXXX=          -1533.7272 YYYY=          -1405.0022 ZZZZ=            -99.4813 XXXY=            280.4815
 XXXZ=              0.0000 YYYX=            297.9352 YYYZ=             -0.0000 ZZZX=              0.0000
 ZZZY=             -0.0000 XXYY=           -525.5264 XXZZ=           -266.1163 YYZZ=           -259.2403
 XXYZ=             -0.0000 YYXZ=              0.0000 ZZXY=            100.1613
 N-N= 6.142130275991D+02 E-N=-5.059034139398D+03  KE= 1.606653542594D+03
 Symmetry A'   KE= 1.462940066351D+03
 Symmetry A"   KE= 1.437134762431D+02
 No NMR shielding tensors so no spin-rotation constants.
 Leave Link  601 at Mon Sep 28 02:45:14 2026, MaxMem=  1610612736 cpu:               0.6 elap:               0.1
 (Enter /share/software/user/restricted/gaussian/g16.B01/l701.exe)
 ... and contract with generalized density number  0.
 Compute integral first derivatives.
 D1PCM: PCM CHGder 1st derivatives, ID1Alg=3 FixD1E=F DoIter=F DoCFld=F I1PDM=0.
 GePol: Maximum number of non-zero 1st derivatives   =     371
 Leave Link  701 at Mon Sep 28 02:45:15 2026, MaxMem=  1610612736 cpu:               4.1 elap:               0.5
 (Enter /share/software/user/restricted/gaussian/g16.B01/l702.exe)
 L702 exits ... SP integral derivatives will be done elsewhere.
 Leave Link  702 at Mon Sep 28 02:45:15 2026, MaxMem=  1610612736 cpu:               0.3 elap:               0.0
 (Enter /share/software/user/restricted/gaussian/g16.B01/l703.exe)
 Integral derivatives from FoFJK, PRISM(SPDF).
 Compute integral first derivatives, UseDBF=F ICtDFT=           0.
 Calling FoFJK, ICntrl=      2127 FMM=F ISym2X=1 I1Cent= 0 IOpClX= 0 NMat=1 NMatS=1 NMatT=0.
 FoFJK:  IHMeth= 1 ICntrl=    2127 DoSepK=F KAlg= 0 I1Cent=           0 FoldK=F
 IRaf=         0 NMat=       1 IRICut=       1 DoRegI=T DoRafI=F ISym2E= 1 IDoP0=0 IntGTp=1.
 FoFCou: FMM=F IPFlag=           0 FMFlag=      100000 FMFlg1=         800
         NFxFlg=           0 DoJE=F BraDBF=F KetDBF=F FulRan=T
         wScrn=  0.000000 ICntrl=      2127 IOpCl=  0 I1Cent=           0 NGrid=           0
         NMat0=    1 NMatS0=      1 NMatT0=    0 NMatD0=    1 NMtDS0=    0 NMtDT0=    0
 Petite list used in FoFCou.
 Leave Link  703 at Mon Sep 28 02:45:18 2026, MaxMem=  1610612736 cpu:              21.4 elap:               2.7
 (Enter /share/software/user/restricted/gaussian/g16.B01/l716.exe)
 Dipole        =-2.51448231D+00-1.40925764D+00 1.75781260D-31
 ***** Axes restored to original set *****
 -------------------------------------------------------------------
 Center     Atomic                   Forces (Hartrees/Bohr)
 Number     Number              X              Y              Z
 -------------------------------------------------------------------
      1        6           0.004916366    0.018327789    0.000000000
      2        6          -0.030863829   -0.019317488   -0.000000000
      3        6          -0.020551576    0.009769582   -0.000000000
      4        6          -0.002791490   -0.002661387   -0.000000000
      5        6           0.020561266    0.006007424    0.000000000
      6        6          -0.004148844   -0.004388050   -0.000000000
      7       17           0.029751729    0.015580612   -0.000000000
      8       17           0.020739218   -0.014102024    0.000000000
      9        1           0.000247958    0.009543614    0.000000000
     10       17          -0.021153318   -0.012067301   -0.000000000
     11        1           0.003292518   -0.006692770    0.000000000
 -------------------------------------------------------------------
 Cartesian Forces:  Max     0.030863829 RMS     0.012565696
 Leave Link  716 at Mon Sep 28 02:45:18 2026, MaxMem=  1610612736 cpu:               0.2 elap:               0.0
 (Enter /share/software/user/restricted/gaussian/g16.B01/l103.exe)

 GradGradGradGradGradGradGradGradGradGradGradGradGradGradGradGradGradGrad
 Berny optimization.
 FormGI is forming the generalized inverse of G from B-inverse, IUseBI=4.
 Internal  Forces:  Max     0.033555917 RMS     0.007963646
 Search for a local minimum.
 Step number   1 out of a maximum of   57
 All quantities printed in internal units (Hartrees-Bohrs-Radians)
 RMS Force = .79636D-02 SwitMx=.10000D-02 MixMth= 1
 Mixed Optimization -- RFO/linear search
 Second derivative matrix not updated -- first step.
 ITU=  0
     Eigenvalues ---    0.02081   0.02092   0.02100   0.02119   0.02123
     Eigenvalues ---    0.02133   0.02162   0.02212   0.16000   0.16000
     Eigenvalues ---    0.23313   0.23501   0.25000   0.25000   0.25000
     Eigenvalues ---    0.25000   0.32920   0.33615   0.33619   0.33895
     Eigenvalues ---    0.34045   0.42011   0.42995   0.45599   0.45948
     Eigenvalues ---    0.46780   0.47425
 RFO step:  Lambda=-8.84198725D-03 EMin= 2.08089902D-02
 Linear search not attempted -- first point.
 Iteration  1 RMS(Cart)=  0.02633547 RMS(Int)=  0.00027795
 Iteration  2 RMS(Cart)=  0.00034887 RMS(Int)=  0.00004269
 Iteration  3 RMS(Cart)=  0.00000006 RMS(Int)=  0.00004269
 ITry= 1 IFail=0 DXMaxC= 9.94D-02 DCOld= 1.00D+10 DXMaxT= 3.00D-01 DXLimC= 3.00D+00 Rises=F
 ClnCor:  largest displacement from symmetrization is 2.56D-09 for atom     9.
 Variable       Old X    -DE/DX   Delta X   Delta X   Delta X     New X
                                 (Linear)    (Quad)   (Total)
    R1        2.62121   0.00496   0.00000   0.01135   0.01141   2.63262
    R2        2.62673   0.01145   0.00000   0.02453   0.02458   2.65132
    R3        2.64834   0.00319   0.00000   0.00730   0.00731   2.65565
    R4        3.24978   0.03356   0.00000   0.09725   0.09725   3.34703
    R5        2.64468  -0.00282   0.00000  -0.00687  -0.00692   2.63776
    R6        3.24985   0.02506   0.00000   0.07264   0.07264   3.32249
    R7        2.64336  -0.00731   0.00000  -0.01686  -0.01692   2.62644
    R8        2.07254  -0.00954   0.00000  -0.02733  -0.02733   2.04521
    R9        2.63957   0.00033   0.00000   0.00031   0.00030   2.63987
   R10        3.26192   0.02434   0.00000   0.07201   0.07201   3.33393
   R11        2.07508  -0.00619   0.00000  -0.01779  -0.01779   2.05730
    A1        2.07048  -0.01143   0.00000  -0.03982  -0.03965   2.03083
    A2        2.12442   0.00304   0.00000   0.01379   0.01386   2.13828
    A3        2.07646   0.00101   0.00000   0.00287   0.00283   2.07930
    A4        2.08230  -0.00405   0.00000  -0.01666  -0.01669   2.06561
    A5        2.08932   0.00127   0.00000   0.00324   0.00319   2.09250
    A6        2.14106   0.00118   0.00000   0.00539   0.00542   2.14648
    A7        2.05280  -0.00245   0.00000  -0.00863  -0.00860   2.04420
    A8        2.06565   0.00196   0.00000   0.00336   0.00324   2.06889
    A9        2.10544  -0.00119   0.00000  -0.00291  -0.00285   2.10259
   A10        2.11210  -0.00077   0.00000  -0.00045  -0.00039   2.11171
   A11        2.11769  -0.00138   0.00000  -0.00909  -0.00917   2.10852
   A12        2.06023   0.00161   0.00000   0.00812   0.00816   2.06839
   A13        2.10527  -0.00024   0.00000   0.00097   0.00101   2.10628
   A14        2.09881   0.00654   0.00000   0.02851   0.02854   2.12736
   A15        2.08869   0.00101   0.00000   0.01108   0.01107   2.09976
   A16        2.09568  -0.00755   0.00000  -0.03959  -0.03961   2.05607
    D1        0.00000  -0.00000   0.00000   0.00000   0.00000   0.00000
    D2        3.14159  -0.00000   0.00000  -0.00000   0.00000   3.14159
    D3       -0.00000  -0.00000   0.00000  -0.00000   0.00000   0.00000
    D4        3.14159   0.00000   0.00000   0.00000   0.00000   3.14159
    D5       -0.00000   0.00000   0.00000   0.00000   0.00000   0.00000
    D6        3.14159   0.00000   0.00000   0.00000   0.00000   3.14159
    D7        3.14159   0.00000   0.00000   0.00000   0.00000   3.14159
    D8        0.00000   0.00000   0.00000   0.00000  -0.00000   0.00000
    D9        0.00000   0.00000   0.00000  -0.00000   0.00000   0.00000
   D10        3.14159  -0.00000   0.00000  -0.00000   0.00000   3.14159
   D11        3.14159   0.00000   0.00000  -0.00000   0.00000   3.14159
   D12        0.00000  -0.00000   0.00000  -0.00000  -0.00000   0.00000
   D13       -0.00000  -0.00000   0.00000   0.00000   0.00000   0.00000
   D14        3.14159  -0.00000   0.00000  -0.00000   0.00000   3.14159
   D15        3.14159  -0.00000   0.00000  -0.00000   0.00000   3.14159
   D16       -0.00000  -0.00000   0.00000  -0.00000   0.00000   0.00000
   D17        0.00000   0.00000   0.00000   0.00000   0.00000   0.00000
   D18        3.14159  -0.00000   0.00000  -0.00000   0.00000   3.14159
   D19        3.14159   0.00000   0.00000   0.00000   0.00000   3.14159
   D20       -0.00000  -0.00000   0.00000  -0.00000   0.00000   0.00000
         Item               Value     Threshold  Converged?
 Maximum Force            0.033556     0.000450     NO 
 RMS     Force            0.007964     0.000300     NO 
 Maximum Displacement     0.099414     0.001800     NO 
 RMS     Displacement     0.026306     0.001200     NO 
 Predicted change in Energy=-4.539393D-03
 Lowest energy point so far.  Saving SCF results.
 GradGradGradGradGradGradGradGradGradGradGradGradGradGradGradGradGradGrad

 Leave Link  103 at Mon Sep 28 02:45:18 2026, MaxMem=  1610612736 cpu:               2.7 elap:               0.4
 (Enter /share/software/user/restricted/gaussian/g16.B01/l202.exe)
                          Input orientation:                          
 ---------------------------------------------------------------------
 Center     Atomic      Atomic             Coordinates (Angstroms)
 Number     Number       Type             X           Y           Z
 ---------------------------------------------------------------------
      1          6           0       -0.001074    1.450155   -0.000000
      2          6           0        1.183909    0.717627   -0.000000
      3          6           0        1.203307   -0.687549    0.000000
      4          6           0        0.002870   -1.399821    0.000000
      5          6           0       -1.191219   -0.688597    0.000000
      6          6           0       -1.191953    0.708361   -0.000000
      7         17           0        2.730885    1.580137   -0.000000
      8         17           0        2.691183   -1.624272    0.000000
      9          1           0        0.006896   -2.482093    0.000000
     10         17           0       -2.708027   -1.589617    0.000000
     11          1           0       -2.155202    1.215669   -0.000000
 ---------------------------------------------------------------------
                    Distance matrix (angstroms):
                    1          2          3          4          5
     1  C    0.000000
     2  C    1.393120   0.000000
     3  C    2.453632   1.405309   0.000000
     4  C    2.849980   2.424549   1.395844   0.000000
     5  C    2.447592   2.760199   2.394526   1.389852   0.000000
     6  C    1.403016   2.375880   2.772333   2.423228   1.396958
     7  Cl   2.735049   1.771174   2.734208   4.040076   4.531010
     8  Cl   4.086606   2.785024   1.758188   2.697666   3.993561
     9  H    3.932256   3.409335   2.156800   1.082279   2.156874
    10  Cl   4.070358   4.524438   4.014008   2.717533   1.764240
    11  H    2.166853   3.376049   3.860287   3.390880   2.134360
                    6          7          8          9         10
     6  C    0.000000
     7  Cl   4.018538   0.000000
     8  Cl   4.529892   3.204655   0.000000
     9  H    3.408259   4.890994   2.818023   0.000000
    10  Cl   2.753031   6.295165   5.399321   2.857852   0.000000
    11  H    1.088674   4.899661   5.617180   4.283469   2.859238
                   11
    11  H    0.000000
 Stoichiometry    C6H2Cl3(1-)
 Framework group  CS[SG(C6H2Cl3)]
 Deg. of freedom    19
 Full point group                 CS      NOp   2
 RotChk:  IX=1 Diff= 3.89D-03
 Largest Abelian subgroup         CS      NOp   2
 Largest concise Abelian subgroup C1      NOp   1
                         Standard orientation:                         
 ---------------------------------------------------------------------
 Center     Atomic      Atomic             Coordinates (Angstroms)
 Number     Number       Type             X           Y           Z
 ---------------------------------------------------------------------
      1          6           0        1.342068    1.255563    0.000000
      2          6           0        1.238104   -0.133673    0.000000
      3          6           0        0.000000   -0.798498    0.000000
      4          6           0       -1.185368   -0.061422    0.000000
      5          6           0       -1.104508    1.326076    0.000000
      6          6           0        0.134905    1.970551    0.000000
      7         17           0        2.716515   -1.109049    0.000000
      8         17           0       -0.145583   -2.550648    0.000000
      9          1           0       -2.143991   -0.563786    0.000000
     10         17           0       -2.603191    2.256933    0.000000
     11          1           0        0.141185    3.059207    0.000000
 ---------------------------------------------------------------------
 Rotational constants (GHZ):           1.8654383           0.5917543           0.4492449
 Leave Link  202 at Mon Sep 28 02:45:18 2026, MaxMem=  1610612736 cpu:               0.3 elap:               0.1
 (Enter /share/software/user/restricted/gaussian/g16.B01/l301.exe)
 Standard basis: 6-311++G(d) (5D, 7F)
 Ernie: Thresh=  0.10000D-02 Tol=  0.10000D-05 Strict=F.
 There are   179 symmetry adapted cartesian basis functions of A'  symmetry.
 There are    60 symmetry adapted cartesian basis functions of A"  symmetry.
 There are   170 symmetry adapted basis functions of A'  symmetry.
 There are    60 symmetry adapted basis functions of A"  symmetry.
   230 basis functions,   387 primitive gaussians,   239 cartesian basis functions
    45 alpha electrons       45 beta electrons
       nuclear repulsion energy       607.9262268274 Hartrees.
 IExCor=  402 DFT=T Ex+Corr=B3LYP ExCW=0 ScaHFX=  0.200000
 ScaDFX=  0.800000  0.720000  1.000000  0.810000 ScalE2=  1.000000  1.000000
 IRadAn=      5 IRanWt=     -1 IRanGd=            0 ICorTp=0 IEmpDi=  4
 NAtoms=   11 NActive=   11 NUniq=   11 SFac= 1.00D+00 NAtFMM=   60 NAOKFM=F Big=F
 Integral buffers will be    131072 words long.
 Raffenetti 2 integral format.
 Two-electron integral symmetry is turned on.
 ------------------------------------------------------------------------------
 Polarizable Continuum Model (PCM)
 =================================
 Model                : PCM.
 Atomic radii         : SMD-Coulomb.
 Polarization charges : Total charges.
 Charge compensation  : None.
 Solution method      : On-the-fly selection.
 Cavity type          : VdW (van der Waals Surface) (Alpha=1.000).
 Cavity algorithm     : GePol (No added spheres)
                        Default sphere list used, NSphG=   11.
                        Lebedev-Laikov grids with approx.  5.0 points / Ang**2.
                        Smoothing algorithm: York/Karplus (Gamma=1.0000).
                        Polarization charges: spherical gaussians, with
                                              point-specific exponents (IZeta= 3).
                        Self-potential: point-specific (ISelfS= 7).
                        Self-field    : sphere-specific E.n sum rule (ISelfD= 2).
 1st derivatives      : Analytical E(r).r(x)/FMM algorithm (CHGder, D1EAlg=3).
                        Cavity 1st derivative terms included.
 Solvent              : Water, Eps=  78.355300 Eps(inf)=   1.777849
 ------------------------------------------------------------------------------
 Spheres list:
 ISph  on   Nord     Re0    Alpha      Xe            Ye            Ze
    1   C      1    1.8500  1.000      1.342068      1.255563     -0.000000
    2   C      2    1.8500  1.000      1.238104     -0.133673      0.000000
    3   C      3    1.8500  1.000      0.000000     -0.798498      0.000000
    4   C      4    1.8500  1.000     -1.185368     -0.061422      0.000000
    5   C      5    1.8500  1.000     -1.104508      1.326076      0.000000
    6   C      6    1.8500  1.000      0.134905      1.970551      0.000000
    7  Cl      7    2.3800  1.000      2.716515     -1.109049      0.000000
    8  Cl      8    2.3800  1.000     -0.145583     -2.550648     -0.000000
    9   H      9    1.2000  1.000     -2.143991     -0.563786      0.000000
   10  Cl     10    2.3800  1.000     -2.603191      2.256933      0.000000
   11   H     11    1.2000  1.000      0.141185      3.059207      0.000000
 ------------------------------------------------------------------------------
 GePol: Number of generator spheres                  =      11
 GePol: Total number of spheres                      =      11
 GePol: Number of exposed spheres                    =      11 (100.00%)
 GePol: Number of points                             =    1487
 GePol: Average weight of points                     =       0.14
 GePol: Minimum weight of points                     =   0.20D-10
 GePol: Maximum weight of points                     =    0.18138
 GePol: Number of points with low weight             =      35
 GePol: Fraction of low-weight points (<1% of avg)   =       2.35%
 GePol: Cavity surface area                          =    205.859 Ang**2
 GePol: Cavity volume                                =    204.603 Ang**3
 ------------------------------------------------------------------------------
 Atomic radii for non-electrostatic terms: SMD-CDS.
 ------------------------------------------------------------------------------
 PCM non-electrostatic energy =         0.0050582931 Hartrees.
 Nuclear repulsion after PCM non-electrostatic terms =      607.9312851206 Hartrees.
 Leave Link  301 at Mon Sep 28 02:45:18 2026, MaxMem=  1610612736 cpu:               0.4 elap:               0.1
 (Enter /share/software/user/restricted/gaussian/g16.B01/l302.exe)
 NPDir=0 NMtPBC=     1 NCelOv=     1 NCel=       1 NClECP=     1 NCelD=      1
         NCelK=      1 NCelE2=     1 NClLst=     1 CellRange=     0.0.
 One-electron integrals computed using PRISM.
 One-electron integral symmetry used in STVInt
 NBasis=   230 RedAO= T EigKep=  1.30D-06  NBF=   170    60
 NBsUse=   230 1.00D-06 EigRej= -1.00D+00 NBFU=   170    60
 Precomputing XC quadrature grid using
 IXCGrd= 4 IRadAn=           5 IRanWt=          -1 IRanGd=           0 AccXCQ= 0.00D+00.
 Generated NRdTot=       0 NPtTot=           0 NUsed=           0 NTot=          32
 NSgBfM=   236   236   236   236   236 MxSgAt=    11 MxSgA2=    11.
 Leave Link  302 at Mon Sep 28 02:45:19 2026, MaxMem=  1610612736 cpu:               0.9 elap:               0.1
 (Enter /share/software/user/restricted/gaussian/g16.B01/l303.exe)
 DipDrv:  MaxL=1.
 Leave Link  303 at Mon Sep 28 02:45:19 2026, MaxMem=  1610612736 cpu:               0.6 elap:               0.1
 (Enter /share/software/user/restricted/gaussian/g16.B01/l401.exe)
 Initial guess from the checkpoint file:  "calcs/b3lyp_smd/chks/ClPh_235_anion.chk"
 B after Tr=    -0.000000    0.000000   -0.000000
         Rot=    0.999996   -0.000000    0.000000    0.002888 Ang=   0.33 deg.
 Guess basis will be translated and rotated to current coordinates.
 JPrj=2 DoOrth=T DoCkMO=T.
 Initial guess orbital symmetries:
       Occupied  (A') (A') (A') (A') (A') (A') (A') (A') (A') (A')
                 (A') (A') (A') (A') (A") (A') (A") (A') (A') (A")
                 (A') (A') (A') (A') (A') (A') (A') (A') (A') (A')
                 (A') (A') (A') (A") (A') (A") (A') (A") (A') (A')
                 (A") (A') (A") (A") (A')
       Virtual   (A") (A") (A') (A') (A') (A') (A') (A') (A") (A')
                 (A") (A') (A') (A") (A') (A') (A") (A') (A') (A")
                 (A') (A') (A") (A') (A') (A") (A') (A') (A") (A')
                 (A") (A') (A') (A") (A') (A') (A') (A') (A') (A')
                 (A') (A') (A') (A') (A') (A') (A') (A') (A') (A')
                 (A') (A') (A") (A") (A') (A') (A") (A') (A') (A')
                 (A') (A") (A') (A") (A') (A") (A") (A") (A') (A')
                 (A') (A') (A") (A') (A') (A') (A") (A') (A') (A')
                 (A") (A") (A") (A') (A') (A") (A') (A') (A') (A')
                 (A") (A') (A') (A') (A') (A') (A') (A") (A') (A')
                 (A') (A") (A') (A") (A') (A') (A') (A") (A') (A")
                 (A") (A') (A') (A') (A') (A') (A') (A") (A") (A')
                 (A') (A') (A") (A") (A") (A') (A') (A') (A') (A")
                 (A') (A") (A') (A") (A") (A') (A') (A') (A') (A')
                 (A') (A') (A') (A') (A") (A') (A") (A") (A") (A")
                 (A') (A") (A') (A') (A') (A') (A') (A') (A') (A')
                 (A') (A') (A') (A') (A') (A') (A') (A') (A') (A')
                 (A') (A') (A') (A") (A") (A") (A') (A') (A') (A')
                 (A') (A') (A') (A') (A')
 The electronic state of the initial guess is 1-A'.
 Generating alternative initial guess.
 ExpMin= 3.60D-02 ExpMax= 1.06D+05 ExpMxC= 3.62D+03 IAcc=3 IRadAn=         5 AccDes= 0.00D+00
 Harris functional with IExCor=  402 and IRadAn=       5 diagonalized for initial guess.
 HarFok:  IExCor=  402 AccDes= 0.00D+00 IRadAn=         5 IDoV= 1 UseB2=F ITyADJ=14
 ICtDFT=  3500011 ScaDFX=  1.000000  1.000000  1.000000  1.000000
 FoFCou: FMM=F IPFlag=           0 FMFlag=      100000 FMFlg1=           0
         NFxFlg=           0 DoJE=T BraDBF=F KetDBF=T FulRan=T
         wScrn=  0.000000 ICntrl=       500 IOpCl=  0 I1Cent=   200000004 NGrid=           0
         NMat0=    1 NMatS0=      1 NMatT0=    0 NMatD0=    1 NMtDS0=    0 NMtDT0=    0
 Petite list used in FoFCou.
 Harris En= -1610.51402806639    
 Leave Link  401 at Mon Sep 28 02:45:19 2026, MaxMem=  1610612736 cpu:               5.2 elap:               0.7
 (Enter /share/software/user/restricted/gaussian/g16.B01/l502.exe)
 Keep R1 ints in memory in symmetry-blocked form, NReq=538860879.
 FoFCou: FMM=F IPFlag=           0 FMFlag=           0 FMFlg1=           0
         NFxFlg=           0 DoJE=F BraDBF=F KetDBF=F FulRan=T
         wScrn=  0.000000 ICntrl=       600 IOpCl=  0 I1Cent=           0 NGrid=           0
         NMat0=    1 NMatS0=  26565 NMatT0=    0 NMatD0=    1 NMtDS0=    0 NMtDT0=    0
 Petite list used in FoFCou.
 Closed shell SCF:
 Using DIIS extrapolation, IDIIS=  1040.
 NGot=  1610612736 LenX=  1424497779 LenY=  1424440217
 Requested convergence on RMS density matrix=1.00D-08 within 128 cycles.
 Requested convergence on MAX density matrix=1.00D-06.
 Requested convergence on             energy=1.00D-06.
 No special actions if energy rises.

 Cycle   1  Pass 1  IDiag  1:
 Inv3:  Mode=1 IEnd=     6633507.
 Iteration    1 A*A^-1 deviation from unit magnitude is 4.33D-15 for   1470.
 Iteration    1 A*A^-1 deviation from orthogonality  is 1.66D-15 for   1478   1220.
 Iteration    1 A^-1*A deviation from unit magnitude is 3.77D-15 for   1456.
 Iteration    1 A^-1*A deviation from orthogonality  is 1.87D-15 for   1484   1356.
 E= -1610.63742286200    
 DIIS: error= 1.93D-03 at cycle   1 NSaved=   1.
 NSaved= 1 IEnMin= 1 EnMin= -1610.63742286200     IErMin= 1 ErrMin= 1.93D-03
 ErrMax= 1.93D-03  0.00D+00 EMaxC= 1.00D-01 BMatC= 2.08D-03 BMatP= 2.08D-03
 IDIUse=3 WtCom= 9.81D-01 WtEn= 1.93D-02
 Coeff-Com:  0.100D+01
 Coeff-En:   0.100D+01
 Coeff:      0.100D+01
 Gap=     0.176 Goal=   None    Shift=    0.000
 GapD=    0.176 DampG=1.000 DampE=1.000 DampFc=1.0000 IDamp=-1.
 RMSDP=1.56D-02 MaxDP=8.12D-01              OVMax= 1.94D-02

 Cycle   2  Pass 1  IDiag  1:
 E= -1610.64024152763     Delta-E=       -0.002818665633 Rises=F Damp=F
 DIIS: error= 9.84D-04 at cycle   2 NSaved=   2.
 NSaved= 2 IEnMin= 2 EnMin= -1610.64024152763     IErMin= 2 ErrMin= 9.84D-04
 ErrMax= 9.84D-04  0.00D+00 EMaxC= 1.00D-01 BMatC= 2.79D-04 BMatP= 2.08D-03
 IDIUse=3 WtCom= 9.90D-01 WtEn= 9.84D-03
 Coeff-Com:  0.149D+00 0.851D+00
 Coeff-En:   0.000D+00 0.100D+01
 Coeff:      0.148D+00 0.852D+00
 Gap=     0.172 Goal=   None    Shift=    0.000
 RMSDP=2.23D-03 MaxDP=1.26D-01 DE=-2.82D-03 OVMax= 6.42D-03

 Cycle   3  Pass 1  IDiag  1:
 E= -1610.64019765498     Delta-E=        0.000043872651 Rises=F Damp=F
 DIIS: error= 1.12D-03 at cycle   3 NSaved=   3.
 NSaved= 3 IEnMin= 2 EnMin= -1610.64024152763     IErMin= 2 ErrMin= 9.84D-04
 ErrMax= 1.12D-03  0.00D+00 EMaxC= 1.00D-01 BMatC= 3.37D-04 BMatP= 2.79D-04
 IDIUse=3 WtCom= 2.30D-01 WtEn= 7.70D-01
 Coeff-Com: -0.135D-01 0.528D+00 0.486D+00
 Coeff-En:   0.000D+00 0.533D+00 0.467D+00
 Coeff:     -0.311D-02 0.532D+00 0.471D+00
 Gap=     0.175 Goal=   None    Shift=    0.000
 RMSDP=1.13D-03 MaxDP=8.45D-02 DE= 4.39D-05 OVMax= 4.16D-03

 Cycle   4  Pass 1  IDiag  1:
 E= -1610.64050684354     Delta-E=       -0.000309188561 Rises=F Damp=F
 DIIS: error= 2.76D-04 at cycle   4 NSaved=   4.
 NSaved= 4 IEnMin= 4 EnMin= -1610.64050684354     IErMin= 4 ErrMin= 2.76D-04
 ErrMax= 2.76D-04  0.00D+00 EMaxC= 1.00D-01 BMatC= 8.34D-06 BMatP= 2.79D-04
 IDIUse=3 WtCom= 9.97D-01 WtEn= 2.76D-03
 Coeff-Com: -0.103D-01 0.239D+00 0.241D+00 0.530D+00
 Coeff-En:   0.000D+00 0.000D+00 0.000D+00 0.100D+01
 Coeff:     -0.103D-01 0.238D+00 0.241D+00 0.531D+00
 Gap=     0.174 Goal=   None    Shift=    0.000
 RMSDP=2.14D-04 MaxDP=1.29D-02 DE=-3.09D-04 OVMax= 1.41D-03

 Cycle   5  Pass 1  IDiag  1:
 E= -1610.64051495664     Delta-E=       -0.000008113105 Rises=F Damp=F
 DIIS: error= 9.94D-05 at cycle   5 NSaved=   5.
 NSaved= 5 IEnMin= 5 EnMin= -1610.64051495664     IErMin= 5 ErrMin= 9.94D-05
 ErrMax= 9.94D-05  0.00D+00 EMaxC= 1.00D-01 BMatC= 1.18D-06 BMatP= 8.34D-06
 IDIUse=1 WtCom= 1.00D+00 WtEn= 0.00D+00
 Coeff-Com: -0.388D-02 0.641D-01 0.692D-01 0.289D+00 0.581D+00
 Coeff:     -0.388D-02 0.641D-01 0.692D-01 0.289D+00 0.581D+00
 Gap=     0.174 Goal=   None    Shift=    0.000
 RMSDP=1.02D-04 MaxDP=5.80D-03 DE=-8.11D-06 OVMax= 5.54D-04

 Cycle   6  Pass 1  IDiag  1:
 E= -1610.64051610826     Delta-E=       -0.000001151616 Rises=F Damp=F
 DIIS: error= 2.51D-05 at cycle   6 NSaved=   6.
 NSaved= 6 IEnMin= 6 EnMin= -1610.64051610826     IErMin= 6 ErrMin= 2.51D-05
 ErrMax= 2.51D-05  0.00D+00 EMaxC= 1.00D-01 BMatC= 1.66D-07 BMatP= 1.18D-06
 IDIUse=1 WtCom= 1.00D+00 WtEn= 0.00D+00
 Coeff-Com: -0.104D-02 0.638D-02 0.900D-02 0.971D-01 0.328D+00 0.561D+00
 Coeff:     -0.104D-02 0.638D-02 0.900D-02 0.971D-01 0.328D+00 0.561D+00
 Gap=     0.174 Goal=   None    Shift=    0.000
 RMSDP=3.74D-05 MaxDP=2.40D-03 DE=-1.15D-06 OVMax= 1.05D-04

 Cycle   7  Pass 1  IDiag  1:
 E= -1610.64051627246     Delta-E=       -0.000000164204 Rises=F Damp=F
 DIIS: error= 5.09D-06 at cycle   7 NSaved=   7.
 NSaved= 7 IEnMin= 7 EnMin= -1610.64051627246     IErMin= 7 ErrMin= 5.09D-06
 ErrMax= 5.09D-06  0.00D+00 EMaxC= 1.00D-01 BMatC= 6.93D-09 BMatP= 1.66D-07
 IDIUse=1 WtCom= 1.00D+00 WtEn= 0.00D+00
 Coeff-Com: -0.183D-04-0.486D-02-0.399D-02 0.111D-01 0.757D-01 0.214D+00
 Coeff-Com:  0.708D+00
 Coeff:     -0.183D-04-0.486D-02-0.399D-02 0.111D-01 0.757D-01 0.214D+00
 Coeff:      0.708D+00
 Gap=     0.174 Goal=   None    Shift=    0.000
 RMSDP=2.34D-05 MaxDP=1.62D-03 DE=-1.64D-07 OVMax= 4.93D-05

 Cycle   8  Pass 1  IDiag  1:
 E= -1610.64051627923     Delta-E=       -0.000000006770 Rises=F Damp=F
 DIIS: error= 3.70D-06 at cycle   8 NSaved=   8.
 NSaved= 8 IEnMin= 8 EnMin= -1610.64051627923     IErMin= 8 ErrMin= 3.70D-06
 ErrMax= 3.70D-06  0.00D+00 EMaxC= 1.00D-01 BMatC= 1.56D-09 BMatP= 6.93D-09
 IDIUse=1 WtCom= 1.00D+00 WtEn= 0.00D+00
 Coeff-Com:  0.114D-03-0.322D-02-0.295D-02-0.317D-02 0.570D-02 0.488D-01
 Coeff-Com:  0.366D+00 0.589D+00
 Coeff:      0.114D-03-0.322D-02-0.295D-02-0.317D-02 0.570D-02 0.488D-01
 Coeff:      0.366D+00 0.589D+00
 Gap=     0.174 Goal=   None    Shift=    0.000
 RMSDP=7.96D-06 MaxDP=6.19D-04 DE=-6.77D-09 OVMax= 2.27D-05

 Cycle   9  Pass 1  IDiag  1:
 E= -1610.64051628076     Delta-E=       -0.000000001522 Rises=F Damp=F
 DIIS: error= 1.86D-06 at cycle   9 NSaved=   9.
 NSaved= 9 IEnMin= 9 EnMin= -1610.64051628076     IErMin= 9 ErrMin= 1.86D-06
 ErrMax= 1.86D-06  0.00D+00 EMaxC= 1.00D-01 BMatC= 2.81D-10 BMatP= 1.56D-09
 IDIUse=1 WtCom= 1.00D+00 WtEn= 0.00D+00
 Coeff-Com:  0.613D-04-0.116D-02-0.112D-02-0.309D-02-0.717D-02-0.187D-02
 Coeff-Com:  0.113D+00 0.347D+00 0.554D+00
 Coeff:      0.613D-04-0.116D-02-0.112D-02-0.309D-02-0.717D-02-0.187D-02
 Coeff:      0.113D+00 0.347D+00 0.554D+00
 Gap=     0.174 Goal=   None    Shift=    0.000
 RMSDP=1.86D-06 MaxDP=6.41D-05 DE=-1.52D-09 OVMax= 8.18D-06

 Cycle  10  Pass 1  IDiag  1:
 E= -1610.64051628108     Delta-E=       -0.000000000321 Rises=F Damp=F
 DIIS: error= 3.26D-07 at cycle  10 NSaved=  10.
 NSaved=10 IEnMin=10 EnMin= -1610.64051628108     IErMin=10 ErrMin= 3.26D-07
 ErrMax= 3.26D-07  0.00D+00 EMaxC= 1.00D-01 BMatC= 1.83D-11 BMatP= 2.81D-10
 IDIUse=1 WtCom= 1.00D+00 WtEn= 0.00D+00
 Coeff-Com:  0.127D-04-0.104D-03-0.134D-03-0.946D-03-0.402D-02-0.753D-02
 Coeff-Com:  0.331D-02 0.829D-01 0.253D+00 0.674D+00
 Coeff:      0.127D-04-0.104D-03-0.134D-03-0.946D-03-0.402D-02-0.753D-02
 Coeff:      0.331D-02 0.829D-01 0.253D+00 0.674D+00
 Gap=     0.174 Goal=   None    Shift=    0.000
 RMSDP=1.13D-06 MaxDP=9.64D-05 DE=-3.21D-10 OVMax= 2.95D-06

 Cycle  11  Pass 1  IDiag  1:
 E= -1610.64051628109     Delta-E=       -0.000000000015 Rises=F Damp=F
 DIIS: error= 1.11D-07 at cycle  11 NSaved=  11.
 NSaved=11 IEnMin=11 EnMin= -1610.64051628109     IErMin=11 ErrMin= 1.11D-07
 ErrMax= 1.11D-07  0.00D+00 EMaxC= 1.00D-01 BMatC= 4.85D-12 BMatP= 1.83D-11
 IDIUse=1 WtCom= 1.00D+00 WtEn= 0.00D+00
 Coeff-Com:  0.331D-06 0.744D-04 0.509D-04-0.146D-03-0.123D-02-0.368D-02
 Coeff-Com: -0.118D-01 0.416D-02 0.783D-01 0.405D+00 0.530D+00
 Coeff:      0.331D-06 0.744D-04 0.509D-04-0.146D-03-0.123D-02-0.368D-02
 Coeff:     -0.118D-01 0.416D-02 0.783D-01 0.405D+00 0.530D+00
 Gap=     0.174 Goal=   None    Shift=    0.000
 RMSDP=2.80D-07 MaxDP=1.77D-05 DE=-1.55D-11 OVMax= 6.08D-07

 Cycle  12  Pass 1  IDiag  1:
 E= -1610.64051628110     Delta-E=       -0.000000000006 Rises=F Damp=F
 DIIS: error= 1.14D-08 at cycle  12 NSaved=  12.
 NSaved=12 IEnMin=12 EnMin= -1610.64051628110     IErMin=12 ErrMin= 1.14D-08
 ErrMax= 1.14D-08  0.00D+00 EMaxC= 1.00D-01 BMatC= 6.59D-14 BMatP= 4.85D-12
 IDIUse=1 WtCom= 1.00D+00 WtEn= 0.00D+00
 Coeff-Com: -0.408D-06 0.259D-04 0.206D-04 0.863D-05-0.872D-04-0.558D-03
 Coeff-Com: -0.388D-02-0.520D-02 0.632D-02 0.812D-01 0.150D+00 0.772D+00
 Coeff:     -0.408D-06 0.259D-04 0.206D-04 0.863D-05-0.872D-04-0.558D-03
 Coeff:     -0.388D-02-0.520D-02 0.632D-02 0.812D-01 0.150D+00 0.772D+00
 Gap=     0.174 Goal=   None    Shift=    0.000
 RMSDP=1.15D-07 MaxDP=9.54D-06 DE=-6.37D-12 OVMax= 2.13D-07

 Cycle  13  Pass 1  IDiag  1:
 E= -1610.64051628111     Delta-E=       -0.000000000012 Rises=F Damp=F
 DIIS: error= 5.80D-09 at cycle  13 NSaved=  13.
 NSaved=13 IEnMin=13 EnMin= -1610.64051628111     IErMin=13 ErrMin= 5.80D-09
 ErrMax= 5.80D-09  0.00D+00 EMaxC= 1.00D-01 BMatC= 1.22D-14 BMatP= 6.59D-14
 IDIUse=1 WtCom= 1.00D+00 WtEn= 0.00D+00
 Coeff-Com: -0.343D-06 0.934D-05 0.871D-05 0.156D-04 0.161D-04-0.837D-04
 Coeff-Com: -0.116D-02-0.262D-02-0.112D-02 0.145D-01 0.321D-01 0.340D+00
 Coeff-Com:  0.618D+00
 Coeff:     -0.343D-06 0.934D-05 0.871D-05 0.156D-04 0.161D-04-0.837D-04
 Coeff:     -0.116D-02-0.262D-02-0.112D-02 0.145D-01 0.321D-01 0.340D+00
 Coeff:      0.618D+00
 Gap=     0.174 Goal=   None    Shift=    0.000
 RMSDP=2.49D-08 MaxDP=1.42D-06 DE=-1.21D-11 OVMax= 3.89D-08

 Cycle  14  Pass 1  IDiag  1:
 E= -1610.64051628110     Delta-E=        0.000000000009 Rises=F Damp=F
 DIIS: error= 2.55D-09 at cycle  14 NSaved=  14.
 NSaved=14 IEnMin=13 EnMin= -1610.64051628111     IErMin=14 ErrMin= 2.55D-09
 ErrMax= 2.55D-09  0.00D+00 EMaxC= 1.00D-01 BMatC= 1.35D-15 BMatP= 1.22D-14
 IDIUse=1 WtCom= 1.00D+00 WtEn= 0.00D+00
 Coeff-Com: -0.929D-07 0.738D-06 0.149D-05 0.831D-05 0.246D-04 0.497D-04
 Coeff-Com: -0.208D-04-0.698D-03-0.166D-02-0.466D-02-0.680D-02 0.652D-01
 Coeff-Com:  0.269D+00 0.680D+00
 Coeff:     -0.929D-07 0.738D-06 0.149D-05 0.831D-05 0.246D-04 0.497D-04
 Coeff:     -0.208D-04-0.698D-03-0.166D-02-0.466D-02-0.680D-02 0.652D-01
 Coeff:      0.269D+00 0.680D+00
 Gap=     0.174 Goal=   None    Shift=    0.000
 RMSDP=9.25D-09 MaxDP=7.24D-07 DE= 8.87D-12 OVMax= 1.57D-08

 Error on total polarization charges =  0.03189
 SCF Done:  E(RB3LYP) =  -1610.64051628     A.U. after   14 cycles
            NFock= 14  Conv=0.92D-08     -V/T= 2.0026
 KE= 1.606455184210D+03 PE=-5.046216198110D+03 EE= 1.221189212498D+03
 SMD-CDS (non-electrostatic) energy       (kcal/mol) =       3.17
 (included in total energy above)
 Leave Link  502 at Mon Sep 28 02:45:34 2026, MaxMem=  1610612736 cpu:             108.5 elap:              14.5
 (Enter /share/software/user/restricted/gaussian/g16.B01/l701.exe)
 ... and contract with generalized density number  0.
 Compute integral first derivatives.
 D1PCM: PCM CHGder 1st derivatives, ID1Alg=3 FixD1E=F DoIter=F DoCFld=F I1PDM=0.
 GePol: Maximum number of non-zero 1st derivatives   =     376
 Leave Link  701 at Mon Sep 28 02:45:35 2026, MaxMem=  1610612736 cpu:               4.1 elap:               0.5
 (Enter /share/software/user/restricted/gaussian/g16.B01/l702.exe)
 L702 exits ... SP integral derivatives will be done elsewhere.
 Leave Link  702 at Mon Sep 28 02:45:35 2026, MaxMem=  1610612736 cpu:               0.1 elap:               0.0
 (Enter /share/software/user/restricted/gaussian/g16.B01/l703.exe)
 Integral derivatives from FoFJK, PRISM(SPDF).
 Compute integral first derivatives, UseDBF=F ICtDFT=           0.
 Calling FoFJK, ICntrl=      2127 FMM=F ISym2X=1 I1Cent= 0 IOpClX= 0 NMat=1 NMatS=1 NMatT=0.
 FoFJK:  IHMeth= 1 ICntrl=    2127 DoSepK=F KAlg= 0 I1Cent=           0 FoldK=F
 IRaf=         0 NMat=       1 IRICut=       1 DoRegI=T DoRafI=F ISym2E= 1 IDoP0=0 IntGTp=1.
 FoFCou: FMM=F IPFlag=           0 FMFlag=      100000 FMFlg1=         800
         NFxFlg=           0 DoJE=F BraDBF=F KetDBF=F FulRan=T
         wScrn=  0.000000 ICntrl=      2127 IOpCl=  0 I1Cent=           0 NGrid=           0
         NMat0=    1 NMatS0=      1 NMatT0=    0 NMatD0=    1 NMtDS0=    0 NMtDT0=    0
 Petite list used in FoFCou.
 Leave Link  703 at Mon Sep 28 02:45:37 2026, MaxMem=  1610612736 cpu:              19.6 elap:               2.5
 (Enter /share/software/user/restricted/gaussian/g16.B01/l716.exe)
 Dipole        =-2.55088138D+00-1.28920662D+00 5.74263506D-32
 ***** Axes restored to original set *****
 -------------------------------------------------------------------
 Center     Atomic                   Forces (Hartrees/Bohr)
 Number     Number              X              Y              Z
 -------------------------------------------------------------------
      1        6           0.005603988    0.002787585   -0.000000000
      2        6          -0.017325780   -0.010808786   -0.000000000
      3        6          -0.006918859    0.008878074   -0.000000000
      4        6           0.000367779   -0.002391740    0.000000000
      5        6           0.009386491    0.006480272   -0.000000000
      6        6          -0.002714656   -0.002928744    0.000000000
      7       17           0.010366761    0.005641968   -0.000000000
      8       17           0.006318103   -0.004481230   -0.000000000
      9        1           0.000616648   -0.000105016    0.000000000
     10       17          -0.005424938   -0.002909711    0.000000000
     11        1          -0.000275535   -0.000162672   -0.000000000
 -------------------------------------------------------------------
 Cartesian Forces:  Max     0.017325780 RMS     0.005428524
 Leave Link  716 at Mon Sep 28 02:45:37 2026, MaxMem=  1610612736 cpu:               0.2 elap:               0.0
 (Enter /share/software/user/restricted/gaussian/g16.B01/l103.exe)

 GradGradGradGradGradGradGradGradGradGradGradGradGradGradGradGradGradGrad
 Berny optimization.
 Using GEDIIS/GDIIS optimizer.
 FormGI is forming the generalized inverse of G from B-inverse, IUseBI=4.
 Internal  Forces:  Max     0.011806490 RMS     0.002660299
 Search for a local minimum.
 Step number   2 out of a maximum of   57
 All quantities printed in internal units (Hartrees-Bohrs-Radians)
 RMS Force = .26603D-02 SwitMx=.10000D-02 MixMth= 1
 Mixed Optimization -- RFO/linear search
 Update second derivatives using D2CorX and points    1    2
 DE= -5.49D-03 DEPred=-4.54D-03 R= 1.21D+00
 TightC=F SS=  1.41D+00  RLast= 1.64D-01 DXNew= 5.0454D-01 4.9247D-01
 Trust test= 1.21D+00 RLast= 1.64D-01 DXMaxT set to 4.92D-01
 ITU=  1  0
 Use linear search instead of GDIIS.
     Eigenvalues ---    0.02081   0.02092   0.02100   0.02118   0.02123
     Eigenvalues ---    0.02134   0.02163   0.02210   0.15893   0.16094
     Eigenvalues ---    0.19873   0.23853   0.24335   0.25000   0.25000
     Eigenvalues ---    0.25095   0.27808   0.33123   0.33628   0.33936
     Eigenvalues ---    0.34663   0.42139   0.43481   0.45644   0.46308
     Eigenvalues ---    0.47110   0.48575
 RFO step:  Lambda=-7.77988379D-04 EMin= 2.08080029D-02
 Quartic linear search produced a step of  0.40391.
 Iteration  1 RMS(Cart)=  0.01040504 RMS(Int)=  0.00007555
 Iteration  2 RMS(Cart)=  0.00009601 RMS(Int)=  0.00002953
 Iteration  3 RMS(Cart)=  0.00000000 RMS(Int)=  0.00002953
 ITry= 1 IFail=0 DXMaxC= 3.28D-02 DCOld= 1.00D+10 DXMaxT= 4.92D-01 DXLimC= 3.00D+00 Rises=F
 ClnCor:  largest displacement from symmetrization is 6.73D-11 for atom     8.
 Variable       Old X    -DE/DX   Delta X   Delta X   Delta X     New X
                                 (Linear)    (Quad)   (Total)
    R1        2.63262  -0.00323   0.00461  -0.01323  -0.00857   2.62404
    R2        2.65132   0.00175   0.00993  -0.00197   0.00798   2.65929
    R3        2.65565  -0.00398   0.00295  -0.01505  -0.01207   2.64358
    R4        3.34703   0.01181   0.03928   0.02053   0.05981   3.40684
    R5        2.63776  -0.00241  -0.00280  -0.00555  -0.00836   2.62940
    R6        3.32249   0.00774   0.02934   0.01083   0.04017   3.36267
    R7        2.62644  -0.00066  -0.00683   0.00339  -0.00349   2.62295
    R8        2.04521   0.00011  -0.01104   0.00850  -0.00254   2.04267
    R9        2.63987  -0.00147   0.00012  -0.00398  -0.00389   2.63598
   R10        3.33393   0.00615   0.02909   0.00496   0.03405   3.36798
   R11        2.05730   0.00016  -0.00718   0.00592  -0.00126   2.05603
    A1        2.03083  -0.00335  -0.01602  -0.00719  -0.02311   2.00772
    A2        2.13828   0.00397   0.00560   0.01695   0.02261   2.16089
    A3        2.07930  -0.00170   0.00114  -0.00969  -0.00857   2.07072
    A4        2.06561  -0.00227  -0.00674  -0.00726  -0.01404   2.05157
    A5        2.09250   0.00039   0.00129   0.00015   0.00143   2.09393
    A6        2.14648   0.00059   0.00219   0.00230   0.00449   2.15097
    A7        2.04420  -0.00098  -0.00347  -0.00244  -0.00592   2.03829
    A8        2.06889  -0.00267   0.00131  -0.01730  -0.01606   2.05282
    A9        2.10259   0.00074  -0.00115   0.00378   0.00266   2.10525
   A10        2.11171   0.00193  -0.00016   0.01352   0.01340   2.12511
   A11        2.10852   0.00239  -0.00370   0.01798   0.01420   2.12271
   A12        2.06839  -0.00067   0.00330  -0.00707  -0.00374   2.06465
   A13        2.10628  -0.00172   0.00041  -0.01091  -0.01046   2.09583
   A14        2.12736  -0.00072   0.01153  -0.01058   0.00094   2.12829
   A15        2.09976   0.00060   0.00447   0.00058   0.00505   2.10481
   A16        2.05607   0.00012  -0.01600   0.01001  -0.00599   2.05009
    D1        0.00000  -0.00000   0.00000   0.00000  -0.00000   0.00000
    D2        3.14159   0.00000   0.00000   0.00000   0.00000   3.14159
    D3       -0.00000   0.00000   0.00000  -0.00000   0.00000   0.00000
    D4        3.14159   0.00000   0.00000  -0.00000   0.00000   3.14159
    D5       -0.00000   0.00000   0.00000   0.00000   0.00000   0.00000
    D6        3.14159   0.00000   0.00000   0.00000   0.00000   3.14159
    D7        3.14159  -0.00000   0.00000  -0.00000   0.00000   3.14159
    D8        0.00000  -0.00000   0.00000  -0.00000  -0.00000   0.00000
    D9        0.00000  -0.00000   0.00000  -0.00000  -0.00000   0.00000
   D10        3.14159   0.00000   0.00000   0.00000   0.00000   3.14159
   D11        3.14159  -0.00000   0.00000  -0.00000   0.00000   3.14159
   D12        0.00000  -0.00000   0.00000  -0.00000   0.00000   0.00000
   D13       -0.00000  -0.00000   0.00000   0.00000   0.00000   0.00000
   D14        3.14159   0.00000   0.00000   0.00000   0.00000   3.14159
   D15        3.14159  -0.00000   0.00000  -0.00000   0.00000   3.14159
   D16       -0.00000   0.00000   0.00000   0.00000   0.00000   0.00000
   D17        0.00000   0.00000   0.00000   0.00000  -0.00000   0.00000
   D18        3.14159   0.00000   0.00000   0.00000   0.00000   3.14159
   D19        3.14159  -0.00000   0.00000  -0.00000   0.00000   3.14159
   D20       -0.00000  -0.00000   0.00000  -0.00000   0.00000   0.00000
         Item               Value     Threshold  Converged?
 Maximum Force            0.011806     0.000450     NO 
 RMS     Force            0.002660     0.000300     NO 
 Maximum Displacement     0.032823     0.001800     NO 
 RMS     Displacement     0.010405     0.001200     NO 
 Predicted change in Energy=-7.742393D-04
 Lowest energy point so far.  Saving SCF results.
 GradGradGradGradGradGradGradGradGradGradGradGradGradGradGradGradGradGrad

 Leave Link  103 at Mon Sep 28 02:45:38 2026, MaxMem=  1610612736 cpu:               0.4 elap:               0.1
 (Enter /share/software/user/restricted/gaussian/g16.B01/l202.exe)
                          Input orientation:                          
 ---------------------------------------------------------------------
 Center     Atomic      Atomic             Coordinates (Angstroms)
 Number     Number       Type             X           Y           Z
 ---------------------------------------------------------------------
      1          6           0       -0.002584    1.463204   -0.000000
      2          6           0        1.166540    0.713996   -0.000000
      3          6           0        1.194787   -0.684643    0.000000
      4          6           0        0.003746   -1.403991    0.000000
      5          6           0       -1.182860   -0.683903    0.000000
      6          6           0       -1.191894    0.710969   -0.000000
      7         17           0        2.747828    1.579847   -0.000000
      8         17           0        2.702456   -1.629825    0.000000
      9          1           0        0.013338   -2.484884    0.000000
     10         17           0       -2.719246   -1.587209    0.000000
     11          1           0       -2.160535    1.206439   -0.000000
 ---------------------------------------------------------------------
                    Distance matrix (angstroms):
                    1          2          3          4          5
     1  C    0.000000
     2  C    1.388584   0.000000
     3  C    2.459054   1.398924   0.000000
     4  C    2.867203   2.416187   1.391417   0.000000
     5  C    2.450127   2.733826   2.377647   1.388006   0.000000
     6  C    1.407237   2.358436   2.764775   2.429529   1.394902
     7  Cl   2.752884   1.802823   2.745879   4.053798   4.535953
     8  Cl   4.109023   2.802237   1.779448   2.708143   3.998806
     9  H    3.948120   3.400398   2.153297   1.080935   2.162041
    10  Cl   4.084761   4.516069   4.016750   2.729149   1.782258
    11  H    2.173173   3.363321   3.851542   3.390938   2.128202
                    6          7          8          9         10
     6  C    0.000000
     7  Cl   4.034396   0.000000
     8  Cl   4.543707   3.209993   0.000000
     9  H    3.415562   4.898926   2.821787   0.000000
    10  Cl   2.759426   6.318160   5.421869   2.876254   0.000000
    11  H    1.088005   4.922546   5.629660   4.283876   2.848970
                   11
    11  H    0.000000
 Stoichiometry    C6H2Cl3(1-)
 Framework group  CS[SG(C6H2Cl3)]
 Deg. of freedom    19
 Full point group                 CS      NOp   2
 RotChk:  IX=1 Diff= 4.50D-03
 Largest Abelian subgroup         CS      NOp   2
 Largest concise Abelian subgroup C1      NOp   1
                         Standard orientation:                         
 ---------------------------------------------------------------------
 Center     Atomic      Atomic             Coordinates (Angstroms)
 Number     Number       Type             X           Y           Z
 ---------------------------------------------------------------------
      1          6           0        1.347756    1.268909   -0.000000
      2          6           0        1.226085   -0.114334   -0.000000
      3          6           0        0.000000   -0.787908    0.000000
      4          6           0       -1.189623   -0.066216    0.000000
      5          6           0       -1.101858    1.319012    0.000000
      6          6           0        0.129799    1.973818   -0.000000
      7         17           0        2.726466   -1.113848   -0.000000
      8         17           0       -0.138319   -2.561972    0.000000
      9          1           0       -2.142837   -0.575924    0.000000
     10         17           0       -2.614602    2.261376    0.000000
     11          1           0        0.119624    3.061776   -0.000000
 ---------------------------------------------------------------------
 Rotational constants (GHZ):           1.8559192           0.5879141           0.4464794
 Leave Link  202 at Mon Sep 28 02:45:38 2026, MaxMem=  1610612736 cpu:               0.1 elap:               0.0
 (Enter /share/software/user/restricted/gaussian/g16.B01/l301.exe)
 Standard basis: 6-311++G(d) (5D, 7F)
 Ernie: Thresh=  0.10000D-02 Tol=  0.10000D-05 Strict=F.
 There are   179 symmetry adapted cartesian basis functions of A'  symmetry.
 There are    60 symmetry adapted cartesian basis functions of A"  symmetry.
 There are   170 symmetry adapted basis functions of A'  symmetry.
 There are    60 symmetry adapted basis functions of A"  symmetry.
   230 basis functions,   387 primitive gaussians,   239 cartesian basis functions
    45 alpha electrons       45 beta electrons
       nuclear repulsion energy       605.8896251107 Hartrees.
 IExCor=  402 DFT=T Ex+Corr=B3LYP ExCW=0 ScaHFX=  0.200000
 ScaDFX=  0.800000  0.720000  1.000000  0.810000 ScalE2=  1.000000  1.000000
 IRadAn=      5 IRanWt=     -1 IRanGd=            0 ICorTp=0 IEmpDi=  4
 NAtoms=   11 NActive=   11 NUniq=   11 SFac= 1.00D+00 NAtFMM=   60 NAOKFM=F Big=F
 Integral buffers will be    131072 words long.
 Raffenetti 2 integral format.
 Two-electron integral symmetry is turned on.
 ------------------------------------------------------------------------------
 Polarizable Continuum Model (PCM)
 =================================
 Model                : PCM.
 Atomic radii         : SMD-Coulomb.
 Polarization charges : Total charges.
 Charge compensation  : None.
 Solution method      : On-the-fly selection.
 Cavity type          : VdW (van der Waals Surface) (Alpha=1.000).
 Cavity algorithm     : GePol (No added spheres)
                        Default sphere list used, NSphG=   11.
                        Lebedev-Laikov grids with approx.  5.0 points / Ang**2.
                        Smoothing algorithm: York/Karplus (Gamma=1.0000).
                        Polarization charges: spherical gaussians, with
                                              point-specific exponents (IZeta= 3).
                        Self-potential: point-specific (ISelfS= 7).
                        Self-field    : sphere-specific E.n sum rule (ISelfD= 2).
 1st derivatives      : Analytical E(r).r(x)/FMM algorithm (CHGder, D1EAlg=3).
                        Cavity 1st derivative terms included.
 Solvent              : Water, Eps=  78.355300 Eps(inf)=   1.777849
 ------------------------------------------------------------------------------
 Spheres list:
 ISph  on   Nord     Re0    Alpha      Xe            Ye            Ze
    1   C      1    1.8500  1.000      1.347756      1.268909     -0.000000
    2   C      2    1.8500  1.000      1.226085     -0.114334     -0.000000
    3   C      3    1.8500  1.000      0.000000     -0.787908      0.000000
    4   C      4    1.8500  1.000     -1.189623     -0.066216      0.000000
    5   C      5    1.8500  1.000     -1.101858      1.319012      0.000000
    6   C      6    1.8500  1.000      0.129799      1.973818     -0.000000
    7  Cl      7    2.3800  1.000      2.726466     -1.113848     -0.000000
    8  Cl      8    2.3800  1.000     -0.138319     -2.561972      0.000000
    9   H      9    1.2000  1.000     -2.142837     -0.575924      0.000000
   10  Cl     10    2.3800  1.000     -2.614602      2.261376      0.000000
   11   H     11    1.2000  1.000      0.119624      3.061776     -0.000000
 ------------------------------------------------------------------------------
 GePol: Number of generator spheres                  =      11
 GePol: Total number of spheres                      =      11
 GePol: Number of exposed spheres                    =      11 (100.00%)
 GePol: Number of points                             =    1493
 GePol: Average weight of points                     =       0.14
 GePol: Minimum weight of points                     =   0.15D-09
 GePol: Maximum weight of points                     =    0.18138
 GePol: Number of points with low weight             =      40
 GePol: Fraction of low-weight points (<1% of avg)   =       2.68%
 GePol: Cavity surface area                          =    206.496 Ang**2
 GePol: Cavity volume                                =    205.228 Ang**3
 ------------------------------------------------------------------------------
 Atomic radii for non-electrostatic terms: SMD-CDS.
 ------------------------------------------------------------------------------
 PCM non-electrostatic energy =         0.0050687224 Hartrees.
 Nuclear repulsion after PCM non-electrostatic terms =      605.8946938331 Hartrees.
 Leave Link  301 at Mon Sep 28 02:45:38 2026, MaxMem=  1610612736 cpu:               0.3 elap:               0.0
 (Enter /share/software/user/restricted/gaussian/g16.B01/l302.exe)
 NPDir=0 NMtPBC=     1 NCelOv=     1 NCel=       1 NClECP=     1 NCelD=      1
         NCelK=      1 NCelE2=     1 NClLst=     1 CellRange=     0.0.
 One-electron integrals computed using PRISM.
 One-electron integral symmetry used in STVInt
 NBasis=   230 RedAO= T EigKep=  1.33D-06  NBF=   170    60
 NBsUse=   230 1.00D-06 EigRej= -1.00D+00 NBFU=   170    60
 Precomputing XC quadrature grid using
 IXCGrd= 4 IRadAn=           5 IRanWt=          -1 IRanGd=           0 AccXCQ= 0.00D+00.
 Generated NRdTot=       0 NPtTot=           0 NUsed=           0 NTot=          32
 NSgBfM=   236   236   236   236   236 MxSgAt=    11 MxSgA2=    11.
 Leave Link  302 at Mon Sep 28 02:45:38 2026, MaxMem=  1610612736 cpu:               0.9 elap:               0.1
 (Enter /share/software/user/restricted/gaussian/g16.B01/l303.exe)
 DipDrv:  MaxL=1.
 Leave Link  303 at Mon Sep 28 02:45:38 2026, MaxMem=  1610612736 cpu:               0.4 elap:               0.1
 (Enter /share/software/user/restricted/gaussian/g16.B01/l401.exe)
 Initial guess from the checkpoint file:  "calcs/b3lyp_smd/chks/ClPh_235_anion.chk"
 B after Tr=     0.000000    0.000000   -0.000000
         Rot=    1.000000    0.000000   -0.000000   -0.000863 Ang=  -0.10 deg.
 Guess basis will be translated and rotated to current coordinates.
 JPrj=2 DoOrth=T DoCkMO=T.
 Initial guess orbital symmetries:
       Occupied  (A') (A') (A') (A') (A') (A') (A') (A') (A') (A')
                 (A') (A') (A') (A') (A") (A') (A") (A') (A') (A")
                 (A') (A') (A') (A') (A') (A') (A') (A') (A') (A')
                 (A') (A') (A') (A") (A') (A") (A') (A") (A') (A')
                 (A") (A') (A") (A") (A')
       Virtual   (A") (A") (A') (A') (A') (A') (A') (A') (A") (A')
                 (A') (A") (A') (A") (A') (A') (A') (A") (A') (A")
                 (A') (A') (A") (A') (A') (A") (A') (A') (A") (A')
                 (A") (A') (A') (A") (A') (A') (A') (A') (A') (A')
                 (A') (A') (A') (A') (A') (A') (A') (A') (A') (A')
                 (A') (A') (A") (A') (A") (A') (A') (A") (A') (A')
                 (A') (A") (A') (A') (A") (A") (A") (A") (A') (A')
                 (A') (A") (A') (A') (A') (A') (A") (A') (A') (A')
                 (A") (A") (A') (A") (A') (A') (A") (A') (A') (A')
                 (A') (A") (A') (A') (A') (A') (A') (A") (A') (A')
                 (A") (A') (A') (A") (A') (A') (A') (A") (A") (A')
                 (A") (A') (A') (A') (A') (A') (A') (A") (A") (A')
                 (A') (A') (A") (A") (A") (A') (A') (A') (A') (A')
                 (A") (A") (A') (A") (A") (A') (A') (A') (A') (A')
                 (A') (A') (A') (A') (A") (A') (A") (A") (A") (A")
                 (A') (A") (A') (A') (A') (A') (A') (A') (A') (A')
                 (A') (A') (A') (A') (A') (A') (A') (A') (A') (A')
                 (A') (A') (A') (A") (A") (A") (A') (A') (A') (A')
                 (A') (A') (A') (A') (A')
 The electronic state of the initial guess is 1-A'.
 Generating alternative initial guess.
 ExpMin= 3.60D-02 ExpMax= 1.06D+05 ExpMxC= 3.62D+03 IAcc=3 IRadAn=         5 AccDes= 0.00D+00
 Harris functional with IExCor=  402 and IRadAn=       5 diagonalized for initial guess.
 HarFok:  IExCor=  402 AccDes= 0.00D+00 IRadAn=         5 IDoV= 1 UseB2=F ITyADJ=14
 ICtDFT=  3500011 ScaDFX=  1.000000  1.000000  1.000000  1.000000
 FoFCou: FMM=F IPFlag=           0 FMFlag=      100000 FMFlg1=           0
         NFxFlg=           0 DoJE=T BraDBF=F KetDBF=T FulRan=T
         wScrn=  0.000000 ICntrl=       500 IOpCl=  0 I1Cent=   200000004 NGrid=           0
         NMat0=    1 NMatS0=      1 NMatT0=    0 NMatD0=    1 NMtDS0=    0 NMtDT0=    0
 Petite list used in FoFCou.
 Harris En= -1610.51298089394    
 Leave Link  401 at Mon Sep 28 02:45:38 2026, MaxMem=  1610612736 cpu:               3.9 elap:               0.5
 (Enter /share/software/user/restricted/gaussian/g16.B01/l502.exe)
 Keep R1 ints in memory in symmetry-blocked form, NReq=538860879.
 FoFCou: FMM=F IPFlag=           0 FMFlag=           0 FMFlg1=           0
         NFxFlg=           0 DoJE=F BraDBF=F KetDBF=F FulRan=T
         wScrn=  0.000000 ICntrl=       600 IOpCl=  0 I1Cent=           0 NGrid=           0
         NMat0=    1 NMatS0=  26565 NMatT0=    0 NMatD0=    1 NMtDS0=    0 NMtDT0=    0
 Petite list used in FoFCou.
 Closed shell SCF:
 Using DIIS extrapolation, IDIIS=  1040.
 NGot=  1610612736 LenX=  1424497779 LenY=  1424440217
 Requested convergence on RMS density matrix=1.00D-08 within 128 cycles.
 Requested convergence on MAX density matrix=1.00D-06.
 Requested convergence on             energy=1.00D-06.
 No special actions if energy rises.

 Cycle   1  Pass 1  IDiag  1:
 Inv3:  Mode=1 IEnd=     6687147.
 Iteration    1 A*A^-1 deviation from unit magnitude is 5.77D-15 for   1485.
 Iteration    1 A*A^-1 deviation from orthogonality  is 2.35D-15 for   1484   1354.
 Iteration    1 A^-1*A deviation from unit magnitude is 6.22D-15 for   1485.
 Iteration    1 A^-1*A deviation from orthogonality  is 1.95D-15 for   1490   1362.
 E= -1610.64021763108    
 DIIS: error= 1.00D-03 at cycle   1 NSaved=   1.
 NSaved= 1 IEnMin= 1 EnMin= -1610.64021763108     IErMin= 1 ErrMin= 1.00D-03
 ErrMax= 1.00D-03  0.00D+00 EMaxC= 1.00D-01 BMatC= 7.97D-04 BMatP= 7.97D-04
 IDIUse=3 WtCom= 9.90D-01 WtEn= 1.00D-02
 Coeff-Com:  0.100D+01
 Coeff-En:   0.100D+01
 Coeff:      0.100D+01
 Gap=     0.179 Goal=   None    Shift=    0.000
 GapD=    0.179 DampG=1.000 DampE=1.000 DampFc=1.0000 IDamp=-1.
 RMSDP=1.23D-02 MaxDP=8.55D-01              OVMax= 1.56D-02

 Cycle   2  Pass 1  IDiag  1:
 E= -1610.64138339788     Delta-E=       -0.001165766798 Rises=F Damp=F
 DIIS: error= 4.75D-04 at cycle   2 NSaved=   2.
 NSaved= 2 IEnMin= 2 EnMin= -1610.64138339788     IErMin= 2 ErrMin= 4.75D-04
 ErrMax= 4.75D-04  0.00D+00 EMaxC= 1.00D-01 BMatC= 9.21D-05 BMatP= 7.97D-04
 IDIUse=3 WtCom= 9.95D-01 WtEn= 4.75D-03
 Coeff-Com:  0.125D+00 0.875D+00
 Coeff-En:   0.000D+00 0.100D+01
 Coeff:      0.125D+00 0.875D+00
 Gap=     0.177 Goal=   None    Shift=    0.000
 RMSDP=1.06D-03 MaxDP=6.75D-02 DE=-1.17D-03 OVMax= 4.23D-03

 Cycle   3  Pass 1  IDiag  1:
 E= -1610.64139167814     Delta-E=       -0.000008280259 Rises=F Damp=F
 DIIS: error= 6.52D-04 at cycle   3 NSaved=   3.
 NSaved= 3 IEnMin= 3 EnMin= -1610.64139167814     IErMin= 2 ErrMin= 4.75D-04
 ErrMax= 6.52D-04  0.00D+00 EMaxC= 1.00D-01 BMatC= 8.89D-05 BMatP= 9.21D-05
 IDIUse=3 WtCom= 9.93D-01 WtEn= 6.52D-03
 Coeff-Com: -0.876D-02 0.498D+00 0.511D+00
 Coeff-En:   0.000D+00 0.478D+00 0.522D+00
 Coeff:     -0.870D-02 0.498D+00 0.511D+00
 Gap=     0.178 Goal=   None    Shift=    0.000
 RMSDP=7.95D-04 MaxDP=3.61D-02 DE=-8.28D-06 OVMax= 2.79D-03

 Cycle   4  Pass 1  IDiag  1:
 E= -1610.64147219266     Delta-E=       -0.000080514519 Rises=F Damp=F
 DIIS: error= 2.19D-04 at cycle   4 NSaved=   4.
 NSaved= 4 IEnMin= 4 EnMin= -1610.64147219266     IErMin= 4 ErrMin= 2.19D-04
 ErrMax= 2.19D-04  0.00D+00 EMaxC= 1.00D-01 BMatC= 6.00D-06 BMatP= 8.89D-05
 IDIUse=3 WtCom= 9.98D-01 WtEn= 2.19D-03
 Coeff-Com: -0.993D-02 0.245D+00 0.293D+00 0.471D+00
 Coeff-En:   0.000D+00 0.000D+00 0.000D+00 0.100D+01
 Coeff:     -0.991D-02 0.245D+00 0.293D+00 0.472D+00
 Gap=     0.178 Goal=   None    Shift=    0.000
 RMSDP=1.83D-04 MaxDP=1.45D-02 DE=-8.05D-05 OVMax= 8.70D-04

 Cycle   5  Pass 1  IDiag  1:
 E= -1610.64147829674     Delta-E=       -0.000006104081 Rises=F Damp=F
 DIIS: error= 4.58D-05 at cycle   5 NSaved=   5.
 NSaved= 5 IEnMin= 5 EnMin= -1610.64147829674     IErMin= 5 ErrMin= 4.58D-05
 ErrMax= 4.58D-05  0.00D+00 EMaxC= 1.00D-01 BMatC= 3.05D-07 BMatP= 6.00D-06
 IDIUse=1 WtCom= 1.00D+00 WtEn= 0.00D+00
 Coeff-Com: -0.408D-02 0.707D-01 0.879D-01 0.222D+00 0.623D+00
 Coeff:     -0.408D-02 0.707D-01 0.879D-01 0.222D+00 0.623D+00
 Gap=     0.178 Goal=   None    Shift=    0.000
 RMSDP=7.65D-05 MaxDP=4.28D-03 DE=-6.10D-06 OVMax= 2.50D-04

 Cycle   6  Pass 1  IDiag  1:
 E= -1610.64147856353     Delta-E=       -0.000000266786 Rises=F Damp=F
 DIIS: error= 1.79D-05 at cycle   6 NSaved=   6.
 NSaved= 6 IEnMin= 6 EnMin= -1610.64147856353     IErMin= 6 ErrMin= 1.79D-05
 ErrMax= 1.79D-05  0.00D+00 EMaxC= 1.00D-01 BMatC= 6.35D-08 BMatP= 3.05D-07
 IDIUse=1 WtCom= 1.00D+00 WtEn= 0.00D+00
 Coeff-Com: -0.849D-03 0.593D-02 0.811D-02 0.575D-01 0.357D+00 0.572D+00
 Coeff:     -0.849D-03 0.593D-02 0.811D-02 0.575D-01 0.357D+00 0.572D+00
 Gap=     0.178 Goal=   None    Shift=    0.000
 RMSDP=2.02D-05 MaxDP=1.31D-03 DE=-2.67D-07 OVMax= 8.77D-05

 Cycle   7  Pass 1  IDiag  1:
 E= -1610.64147863283     Delta-E=       -0.000000069305 Rises=F Damp=F
 DIIS: error= 4.01D-06 at cycle   7 NSaved=   7.
 NSaved= 7 IEnMin= 7 EnMin= -1610.64147863283     IErMin= 7 ErrMin= 4.01D-06
 ErrMax= 4.01D-06  0.00D+00 EMaxC= 1.00D-01 BMatC= 3.47D-09 BMatP= 6.35D-08
 IDIUse=1 WtCom= 1.00D+00 WtEn= 0.00D+00
 Coeff-Com: -0.567D-05-0.447D-02-0.410D-02 0.710D-02 0.105D+00 0.256D+00
 Coeff-Com:  0.641D+00
 Coeff:     -0.567D-05-0.447D-02-0.410D-02 0.710D-02 0.105D+00 0.256D+00
 Coeff:      0.641D+00
 Gap=     0.178 Goal=   None    Shift=    0.000
 RMSDP=1.67D-05 MaxDP=1.08D-03 DE=-6.93D-08 OVMax= 3.11D-05

 Cycle   8  Pass 1  IDiag  1:
 E= -1610.64147863637     Delta-E=       -0.000000003539 Rises=F Damp=F
 DIIS: error= 1.93D-06 at cycle   8 NSaved=   8.
 NSaved= 8 IEnMin= 8 EnMin= -1610.64147863637     IErMin= 8 ErrMin= 1.93D-06
 ErrMax= 1.93D-06  0.00D+00 EMaxC= 1.00D-01 BMatC= 5.24D-10 BMatP= 3.47D-09
 IDIUse=1 WtCom= 1.00D+00 WtEn= 0.00D+00
 Coeff-Com:  0.875D-04-0.298D-02-0.266D-02-0.288D-02 0.706D-02 0.556D-01
 Coeff-Com:  0.321D+00 0.625D+00
 Coeff:      0.875D-04-0.298D-02-0.266D-02-0.288D-02 0.706D-02 0.556D-01
 Coeff:      0.321D+00 0.625D+00
 Gap=     0.178 Goal=   None    Shift=    0.000
 RMSDP=3.72D-06 MaxDP=2.66D-04 DE=-3.54D-09 OVMax= 1.16D-05

 Cycle   9  Pass 1  IDiag  1:
 E= -1610.64147863689     Delta-E=       -0.000000000515 Rises=F Damp=F
 DIIS: error= 1.17D-06 at cycle   9 NSaved=   9.
 NSaved= 9 IEnMin= 9 EnMin= -1610.64147863689     IErMin= 9 ErrMin= 1.17D-06
 ErrMax= 1.17D-06  0.00D+00 EMaxC= 1.00D-01 BMatC= 1.06D-10 BMatP= 5.24D-10
 IDIUse=1 WtCom= 1.00D+00 WtEn= 0.00D+00
 Coeff-Com:  0.548D-04-0.128D-02-0.108D-02-0.236D-02-0.746D-02 0.394D-02
 Coeff-Com:  0.119D+00 0.374D+00 0.515D+00
 Coeff:      0.548D-04-0.128D-02-0.108D-02-0.236D-02-0.746D-02 0.394D-02
 Coeff:      0.119D+00 0.374D+00 0.515D+00
 Gap=     0.178 Goal=   None    Shift=    0.000
 RMSDP=1.06D-06 MaxDP=6.19D-05 DE=-5.15D-10 OVMax= 5.23D-06

 Cycle  10  Pass 1  IDiag  1:
 E= -1610.64147863701     Delta-E=       -0.000000000122 Rises=F Damp=F
 DIIS: error= 2.40D-07 at cycle  10 NSaved=  10.
 NSaved=10 IEnMin=10 EnMin= -1610.64147863701     IErMin=10 ErrMin= 2.40D-07
 ErrMax= 2.40D-07  0.00D+00 EMaxC= 1.00D-01 BMatC= 6.98D-12 BMatP= 1.06D-10
 IDIUse=1 WtCom= 1.00D+00 WtEn= 0.00D+00
 Coeff-Com:  0.104D-04-0.947D-04-0.638D-04-0.536D-03-0.419D-02-0.702D-02
 Coeff-Com:  0.319D-02 0.655D-01 0.230D+00 0.713D+00
 Coeff:      0.104D-04-0.947D-04-0.638D-04-0.536D-03-0.419D-02-0.702D-02
 Coeff:      0.319D-02 0.655D-01 0.230D+00 0.713D+00
 Gap=     0.178 Goal=   None    Shift=    0.000
 RMSDP=7.14D-07 MaxDP=5.06D-05 DE=-1.22D-10 OVMax= 1.80D-06

 Cycle  11  Pass 1  IDiag  1:
 E= -1610.64147863700     Delta-E=        0.000000000005 Rises=F Damp=F
 DIIS: error= 8.49D-08 at cycle  11 NSaved=  11.
 NSaved=11 IEnMin=10 EnMin= -1610.64147863701     IErMin=11 ErrMin= 8.49D-08
 ErrMax= 8.49D-08  0.00D+00 EMaxC= 1.00D-01 BMatC= 1.36D-12 BMatP= 6.98D-12
 IDIUse=1 WtCom= 1.00D+00 WtEn= 0.00D+00
 Coeff-Com: -0.467D-07 0.840D-04 0.676D-04-0.578D-04-0.141D-02-0.431D-02
 Coeff-Com: -0.119D-01-0.676D-02 0.655D-01 0.388D+00 0.571D+00
 Coeff:     -0.467D-07 0.840D-04 0.676D-04-0.578D-04-0.141D-02-0.431D-02
 Coeff:     -0.119D-01-0.676D-02 0.655D-01 0.388D+00 0.571D+00
 Gap=     0.178 Goal=   None    Shift=    0.000
 RMSDP=2.29D-07 MaxDP=1.86D-05 DE= 5.00D-12 OVMax= 4.61D-07

 Cycle  12  Pass 1  IDiag  1:
 E= -1610.64147863701     Delta-E=       -0.000000000005 Rises=F Damp=F
 DIIS: error= 2.01D-08 at cycle  12 NSaved=  12.
 NSaved=12 IEnMin=10 EnMin= -1610.64147863701     IErMin=12 ErrMin= 2.01D-08
 ErrMax= 2.01D-08  0.00D+00 EMaxC= 1.00D-01 BMatC= 9.49D-14 BMatP= 1.36D-12
 IDIUse=1 WtCom= 1.00D+00 WtEn= 0.00D+00
 Coeff-Com: -0.622D-06 0.437D-04 0.305D-04 0.166D-04-0.216D-03-0.132D-02
 Coeff-Com: -0.568D-02-0.893D-02 0.899D-02 0.121D+00 0.276D+00 0.610D+00
 Coeff:     -0.622D-06 0.437D-04 0.305D-04 0.166D-04-0.216D-03-0.132D-02
 Coeff:     -0.568D-02-0.893D-02 0.899D-02 0.121D+00 0.276D+00 0.610D+00
 Gap=     0.178 Goal=   None    Shift=    0.000
 RMSDP=7.18D-08 MaxDP=6.11D-06 DE=-5.00D-12 OVMax= 1.17D-07

 Cycle  13  Pass 1  IDiag  1:
 E= -1610.64147863701     Delta-E=       -0.000000000005 Rises=F Damp=F
 DIIS: error= 2.86D-09 at cycle  13 NSaved=  13.
 NSaved=13 IEnMin=13 EnMin= -1610.64147863701     IErMin=13 ErrMin= 2.86D-09
 ErrMax= 2.86D-09  0.00D+00 EMaxC= 1.00D-01 BMatC= 3.34D-15 BMatP= 9.49D-14
 IDIUse=1 WtCom= 1.00D+00 WtEn= 0.00D+00
 Coeff-Com: -0.292D-06 0.101D-04 0.740D-05 0.137D-04 0.305D-04-0.170D-03
 Coeff-Com: -0.110D-02-0.254D-02-0.216D-02 0.111D-01 0.493D-01 0.202D+00
 Coeff-Com:  0.744D+00
 Coeff:     -0.292D-06 0.101D-04 0.740D-05 0.137D-04 0.305D-04-0.170D-03
 Coeff:     -0.110D-02-0.254D-02-0.216D-02 0.111D-01 0.493D-01 0.202D+00
 Coeff:      0.744D+00
 Gap=     0.178 Goal=   None    Shift=    0.000
 RMSDP=1.98D-08 MaxDP=8.31D-07 DE=-5.23D-12 OVMax= 2.67D-08

 Cycle  14  Pass 1  IDiag  1:
 E= -1610.64147863701     Delta-E=        0.000000000006 Rises=F Damp=F
 DIIS: error= 1.73D-09 at cycle  14 NSaved=  14.
 NSaved=14 IEnMin=13 EnMin= -1610.64147863701     IErMin=14 ErrMin= 1.73D-09
 ErrMax= 1.73D-09  0.00D+00 EMaxC= 1.00D-01 BMatC= 3.96D-16 BMatP= 3.34D-15
 IDIUse=1 WtCom= 1.00D+00 WtEn= 0.00D+00
 Coeff-Com: -0.879D-07 0.162D-05 0.158D-05 0.483D-05 0.219D-04 0.147D-05
 Coeff-Com: -0.120D-03-0.489D-03-0.139D-02-0.290D-02 0.411D-02 0.466D-01
 Coeff-Com:  0.305D+00 0.649D+00
 Coeff:     -0.879D-07 0.162D-05 0.158D-05 0.483D-05 0.219D-04 0.147D-05
 Coeff:     -0.120D-03-0.489D-03-0.139D-02-0.290D-02 0.411D-02 0.466D-01
 Coeff:      0.305D+00 0.649D+00
 Gap=     0.178 Goal=   None    Shift=    0.000
 RMSDP=7.27D-09 MaxDP=4.64D-07 DE= 6.14D-12 OVMax= 1.35D-08

 Error on total polarization charges =  0.03136
 SCF Done:  E(RB3LYP) =  -1610.64147864     A.U. after   14 cycles
            NFock= 14  Conv=0.73D-08     -V/T= 2.0026
 KE= 1.606403025944D+03 PE=-5.042088494637D+03 EE= 1.219149296223D+03
 SMD-CDS (non-electrostatic) energy       (kcal/mol) =       3.18
 (included in total energy above)
 Leave Link  502 at Mon Sep 28 02:45:52 2026, MaxMem=  1610612736 cpu:             104.9 elap:              14.0
 (Enter /share/software/user/restricted/gaussian/g16.B01/l701.exe)
 ... and contract with generalized density number  0.
 Compute integral first derivatives.
 D1PCM: PCM CHGder 1st derivatives, ID1Alg=3 FixD1E=F DoIter=F DoCFld=F I1PDM=0.
 GePol: Maximum number of non-zero 1st derivatives   =     374
 Leave Link  701 at Mon Sep 28 02:45:53 2026, MaxMem=  1610612736 cpu:               4.2 elap:               0.5
 (Enter /share/software/user/restricted/gaussian/g16.B01/l702.exe)
 L702 exits ... SP integral derivatives will be done elsewhere.
 Leave Link  702 at Mon Sep 28 02:45:53 2026, MaxMem=  1610612736 cpu:               0.1 elap:               0.0
 (Enter /share/software/user/restricted/gaussian/g16.B01/l703.exe)
 Integral derivatives from FoFJK, PRISM(SPDF).
 Compute integral first derivatives, UseDBF=F ICtDFT=           0.
 Calling FoFJK, ICntrl=      2127 FMM=F ISym2X=1 I1Cent= 0 IOpClX= 0 NMat=1 NMatS=1 NMatT=0.
 FoFJK:  IHMeth= 1 ICntrl=    2127 DoSepK=F KAlg= 0 I1Cent=           0 FoldK=F
 IRaf=         0 NMat=       1 IRICut=       1 DoRegI=T DoRafI=F ISym2E= 1 IDoP0=0 IntGTp=1.
 FoFCou: FMM=F IPFlag=           0 FMFlag=      100000 FMFlg1=         800
         NFxFlg=           0 DoJE=F BraDBF=F KetDBF=F FulRan=T
         wScrn=  0.000000 ICntrl=      2127 IOpCl=  0 I1Cent=           0 NGrid=           0
         NMat0=    1 NMatS0=      1 NMatT0=    0 NMatD0=    1 NMtDS0=    0 NMtDT0=    0
 Petite list used in FoFCou.
 Leave Link  703 at Mon Sep 28 02:45:56 2026, MaxMem=  1610612736 cpu:              22.1 elap:               2.9
 (Enter /share/software/user/restricted/gaussian/g16.B01/l716.exe)
 Dipole        =-2.57093148D+00-1.20815515D+00 2.07092553D-31
 ***** Axes restored to original set *****
 -------------------------------------------------------------------
 Center     Atomic                   Forces (Hartrees/Bohr)
 Number     Number              X              Y              Z
 -------------------------------------------------------------------
      1        6           0.002749977   -0.002232743    0.000000000
      2        6          -0.005062941   -0.001721028   -0.000000000
      3        6           0.001397845    0.002699182   -0.000000000
      4        6          -0.000415898   -0.001827577    0.000000000
      5        6           0.001384805    0.002697338    0.000000000
      6        6          -0.002258330   -0.001190112    0.000000000
      7       17           0.003022479    0.001936243    0.000000000
      8       17          -0.000206564   -0.000031556   -0.000000000
      9        1          -0.000184597   -0.000711977    0.000000000
     10       17          -0.000219033   -0.000225364   -0.000000000
     11        1          -0.000207743    0.000607594    0.000000000
 -------------------------------------------------------------------
 Cartesian Forces:  Max     0.005062941 RMS     0.001591505
 Leave Link  716 at Mon Sep 28 02:45:56 2026, MaxMem=  1610612736 cpu:               0.2 elap:               0.0
 (Enter /share/software/user/restricted/gaussian/g16.B01/l103.exe)

 GradGradGradGradGradGradGradGradGradGradGradGradGradGradGradGradGradGrad
 Berny optimization.
 Using GEDIIS/GDIIS optimizer.
 FormGI is forming the generalized inverse of G from B-inverse, IUseBI=4.
 Internal  Forces:  Max     0.003585844 RMS     0.000851661
 Search for a local minimum.
 Step number   3 out of a maximum of   57
 All quantities printed in internal units (Hartrees-Bohrs-Radians)
 RMS Force = .85166D-03 SwitMx=.10000D-02 MixMth= 2
 Mixed Optimization -- En-DIIS/RFO-DIIS
 Update second derivatives using D2CorX and points    1    2    3
 DE= -9.62D-04 DEPred=-7.74D-04 R= 1.24D+00
 TightC=F SS=  1.41D+00  RLast= 9.46D-02 DXNew= 8.2823D-01 2.8371D-01
 Trust test= 1.24D+00 RLast= 9.46D-02 DXMaxT set to 4.92D-01
 ITU=  1  1  0
 Use linear search instead of GDIIS.
     Eigenvalues ---    0.02081   0.02092   0.02100   0.02118   0.02123
     Eigenvalues ---    0.02135   0.02164   0.02209   0.15181   0.16045
     Eigenvalues ---    0.16289   0.23683   0.24671   0.25000   0.25042
     Eigenvalues ---    0.25185   0.27023   0.33137   0.33927   0.34014
     Eigenvalues ---    0.35029   0.42286   0.44176   0.45740   0.46442
     Eigenvalues ---    0.47151   0.49058
 RFO step:  Lambda=-9.60138606D-05 EMin= 2.08073266D-02
 Quartic linear search produced a step of  0.18005.
 Iteration  1 RMS(Cart)=  0.00317185 RMS(Int)=  0.00000468
 Iteration  2 RMS(Cart)=  0.00000672 RMS(Int)=  0.00000192
 Iteration  3 RMS(Cart)=  0.00000000 RMS(Int)=  0.00000192
 ITry= 1 IFail=0 DXMaxC= 1.18D-02 DCOld= 1.00D+10 DXMaxT= 4.92D-01 DXLimC= 3.00D+00 Rises=F
 ClnCor:  largest displacement from symmetrization is 2.29D-09 for atom     9.
 Variable       Old X    -DE/DX   Delta X   Delta X   Delta X     New X
                                 (Linear)    (Quad)   (Total)
    R1        2.62404  -0.00233  -0.00154  -0.00458  -0.00612   2.61793
    R2        2.65929   0.00043   0.00144   0.00092   0.00235   2.66165
    R3        2.64358  -0.00134  -0.00217  -0.00200  -0.00417   2.63941
    R4        3.40684   0.00359   0.01077   0.00932   0.02008   3.42692
    R5        2.62940   0.00149  -0.00151   0.00457   0.00306   2.63246
    R6        3.36267  -0.00015   0.00723  -0.00232   0.00491   3.36758
    R7        2.62295   0.00093  -0.00063   0.00244   0.00181   2.62476
    R8        2.04267   0.00071  -0.00046   0.00171   0.00126   2.04393
    R9        2.63598  -0.00125  -0.00070  -0.00254  -0.00325   2.63274
   R10        3.36798   0.00030   0.00613  -0.00008   0.00605   3.37403
   R11        2.05603   0.00046  -0.00023   0.00106   0.00084   2.05687
    A1        2.00772   0.00140  -0.00416   0.00671   0.00256   2.01028
    A2        2.16089   0.00021   0.00407  -0.00155   0.00252   2.16342
    A3        2.07072  -0.00044  -0.00154  -0.00071  -0.00225   2.06847
    A4        2.05157   0.00023  -0.00253   0.00226  -0.00027   2.05130
    A5        2.09393  -0.00020   0.00026  -0.00078  -0.00052   2.09342
    A6        2.15097   0.00040   0.00081   0.00151   0.00232   2.15328
    A7        2.03829  -0.00021  -0.00107  -0.00073  -0.00180   2.03649
    A8        2.05282  -0.00086  -0.00289  -0.00151  -0.00440   2.04842
    A9        2.10525   0.00066   0.00048   0.00294   0.00342   2.10867
   A10        2.12511   0.00020   0.00241  -0.00143   0.00098   2.12609
   A11        2.12271   0.00086   0.00256   0.00322   0.00578   2.12849
   A12        2.06465  -0.00049  -0.00067  -0.00212  -0.00279   2.06185
   A13        2.09583  -0.00037  -0.00188  -0.00110  -0.00298   2.09285
   A14        2.12829  -0.00142   0.00017  -0.00610  -0.00594   2.12235
   A15        2.10481   0.00021   0.00091  -0.00013   0.00078   2.10559
   A16        2.05009   0.00121  -0.00108   0.00624   0.00516   2.05525
    D1       -0.00000  -0.00000   0.00000  -0.00000   0.00000   0.00000
    D2        3.14159   0.00000   0.00000   0.00000   0.00000   3.14159
    D3        0.00000   0.00000   0.00000  -0.00000  -0.00000   0.00000
    D4        3.14159   0.00000   0.00000   0.00000   0.00000   3.14159
    D5        0.00000  -0.00000   0.00000   0.00000   0.00000   0.00000
    D6        3.14159   0.00000   0.00000   0.00000   0.00000   3.14159
    D7        3.14159  -0.00000   0.00000  -0.00000   0.00000   3.14159
    D8       -0.00000  -0.00000   0.00000  -0.00000   0.00000   0.00000
    D9       -0.00000   0.00000   0.00000   0.00000   0.00000   0.00000
   D10        3.14159   0.00000   0.00000   0.00000   0.00000   3.14159
   D11        3.14159   0.00000   0.00000   0.00000   0.00000   3.14159
   D12        0.00000  -0.00000   0.00000  -0.00000  -0.00000   0.00000
   D13        0.00000  -0.00000   0.00000  -0.00000   0.00000   0.00000
   D14        3.14159  -0.00000   0.00000  -0.00000   0.00000   3.14159
   D15        3.14159  -0.00000   0.00000  -0.00000   0.00000   3.14159
   D16       -0.00000  -0.00000   0.00000  -0.00000   0.00000   0.00000
   D17        0.00000   0.00000   0.00000   0.00000   0.00000   0.00000
   D18        3.14159  -0.00000   0.00000   0.00000   0.00000   3.14159
   D19        3.14159   0.00000   0.00000   0.00000   0.00000   3.14159
   D20       -0.00000   0.00000   0.00000   0.00000   0.00000   0.00000
         Item               Value     Threshold  Converged?
 Maximum Force            0.003586     0.000450     NO 
 RMS     Force            0.000852     0.000300     NO 
 Maximum Displacement     0.011761     0.001800     NO 
 RMS     Displacement     0.003172     0.001200     NO 
 Predicted change in Energy=-6.908695D-05
 Lowest energy point so far.  Saving SCF results.
 GradGradGradGradGradGradGradGradGradGradGradGradGradGradGradGradGradGrad

 Leave Link  103 at Mon Sep 28 02:45:57 2026, MaxMem=  1610612736 cpu:               1.3 elap:               0.2
 (Enter /share/software/user/restricted/gaussian/g16.B01/l202.exe)
                          Input orientation:                          
 ---------------------------------------------------------------------
 Center     Atomic      Atomic             Coordinates (Angstroms)
 Number     Number       Type             X           Y           Z
 ---------------------------------------------------------------------
      1          6           0       -0.001942    1.460246   -0.000000
      2          6           0        1.164116    0.712253   -0.000000
      3          6           0        1.195209   -0.684116    0.000000
      4          6           0        0.003900   -1.406153    0.000000
      5          6           0       -1.181467   -0.682189    0.000000
      6          6           0       -1.194567    0.710934   -0.000000
      7         17           0        2.753155    1.586071   -0.000000
      8         17           0        2.704848   -1.631049    0.000000
      9          1           0        0.011480   -2.487727    0.000000
     10         17           0       -2.720663   -1.587036    0.000000
     11          1           0       -2.162493    1.208767   -0.000000
 ---------------------------------------------------------------------
                    Distance matrix (angstroms):
                    1          2          3          4          5
     1  C    0.000000
     2  C    1.385347   0.000000
     3  C    2.455903   1.396715   0.000000
     4  C    2.866405   2.415315   1.393038   0.000000
     5  C    2.445671   2.728779   2.376677   1.388964   0.000000
     6  C    1.408482   2.358684   2.767163   2.432772   1.393185
     7  Cl   2.757970   1.813450   2.753351   4.063473   4.541614
     8  Cl   4.108871   2.804446   1.782048   2.710295   4.000473
     9  H    3.947995   3.401241   2.157366   1.081600   2.164045
    10  Cl   4.083794   4.514227   4.018622   2.730561   1.785461
    11  H    2.175137   3.363459   3.854500   3.395743   2.130288
                    6          7          8          9         10
     6  C    0.000000
     7  Cl   4.043560   0.000000
     8  Cl   4.548662   3.217483   0.000000
     9  H    3.418476   4.910459   2.826328   0.000000
    10  Cl   2.758557   6.327029   5.425690   2.876778   0.000000
    11  H    1.088448   4.930107   5.635208   4.288383   2.850977
                   11
    11  H    0.000000
 Stoichiometry    C6H2Cl3(1-)
 Framework group  CS[SG(C6H2Cl3)]
 Deg. of freedom    19
 Full point group                 CS      NOp   2
 RotChk:  IX=1 Diff= 7.00D-04
 Largest Abelian subgroup         CS      NOp   2
 Largest concise Abelian subgroup C1      NOp   1
                         Standard orientation:                         
 ---------------------------------------------------------------------
 Center     Atomic      Atomic             Coordinates (Angstroms)
 Number     Number       Type             X           Y           Z
 ---------------------------------------------------------------------
      1          6           0        1.343752    1.268205   -0.000000
      2          6           0        1.222420   -0.111819   -0.000000
      3          6           0        0.000000   -0.787467   -0.000000
      4          6           0       -1.192486   -0.067375    0.000000
      5          6           0       -1.101400    1.318598    0.000000
      6          6           0        0.126497    1.976803    0.000000
      7         17           0        2.733949   -1.113759   -0.000000
      8         17           0       -0.138077   -2.564158   -0.000000
      9          1           0       -2.146985   -0.576089    0.000000
     10         17           0       -2.617279    2.261987    0.000000
     11          1           0        0.118208    3.065219    0.000000
 ---------------------------------------------------------------------
 Rotational constants (GHZ):           1.8523717           0.5866644           0.4455533
 Leave Link  202 at Mon Sep 28 02:45:57 2026, MaxMem=  1610612736 cpu:               0.3 elap:               0.1
 (Enter /share/software/user/restricted/gaussian/g16.B01/l301.exe)
 Standard basis: 6-311++G(d) (5D, 7F)
 Ernie: Thresh=  0.10000D-02 Tol=  0.10000D-05 Strict=F.
 There are   179 symmetry adapted cartesian basis functions of A'  symmetry.
 There are    60 symmetry adapted cartesian basis functions of A"  symmetry.
 There are   170 symmetry adapted basis functions of A'  symmetry.
 There are    60 symmetry adapted basis functions of A"  symmetry.
   230 basis functions,   387 primitive gaussians,   239 cartesian basis functions
    45 alpha electrons       45 beta electrons
       nuclear repulsion energy       605.2642361587 Hartrees.
 IExCor=  402 DFT=T Ex+Corr=B3LYP ExCW=0 ScaHFX=  0.200000
 ScaDFX=  0.800000  0.720000  1.000000  0.810000 ScalE2=  1.000000  1.000000
 IRadAn=      5 IRanWt=     -1 IRanGd=            0 ICorTp=0 IEmpDi=  4
 NAtoms=   11 NActive=   11 NUniq=   11 SFac= 1.00D+00 NAtFMM=   60 NAOKFM=F Big=F
 Integral buffers will be    131072 words long.
 Raffenetti 2 integral format.
 Two-electron integral symmetry is turned on.
 ------------------------------------------------------------------------------
 Polarizable Continuum Model (PCM)
 =================================
 Model                : PCM.
 Atomic radii         : SMD-Coulomb.
 Polarization charges : Total charges.
 Charge compensation  : None.
 Solution method      : On-the-fly selection.
 Cavity type          : VdW (van der Waals Surface) (Alpha=1.000).
 Cavity algorithm     : GePol (No added spheres)
                        Default sphere list used, NSphG=   11.
                        Lebedev-Laikov grids with approx.  5.0 points / Ang**2.
                        Smoothing algorithm: York/Karplus (Gamma=1.0000).
                        Polarization charges: spherical gaussians, with
                                              point-specific exponents (IZeta= 3).
                        Self-potential: point-specific (ISelfS= 7).
                        Self-field    : sphere-specific E.n sum rule (ISelfD= 2).
 1st derivatives      : Analytical E(r).r(x)/FMM algorithm (CHGder, D1EAlg=3).
                        Cavity 1st derivative terms included.
 Solvent              : Water, Eps=  78.355300 Eps(inf)=   1.777849
 ------------------------------------------------------------------------------
 Spheres list:
 ISph  on   Nord     Re0    Alpha      Xe            Ye            Ze
    1   C      1    1.8500  1.000      1.343752      1.268205     -0.000000
    2   C      2    1.8500  1.000      1.222420     -0.111819     -0.000000
    3   C      3    1.8500  1.000     -0.000000     -0.787467     -0.000000
    4   C      4    1.8500  1.000     -1.192486     -0.067375      0.000000
    5   C      5    1.8500  1.000     -1.101400      1.318598      0.000000
    6   C      6    1.8500  1.000      0.126497      1.976803     -0.000000
    7  Cl      7    2.3800  1.000      2.733949     -1.113759     -0.000000
    8  Cl      8    2.3800  1.000     -0.138077     -2.564158     -0.000000
    9   H      9    1.2000  1.000     -2.146985     -0.576089      0.000000
   10  Cl     10    2.3800  1.000     -2.617279      2.261987      0.000000
   11   H     11    1.2000  1.000      0.118208      3.065219      0.000000
 ------------------------------------------------------------------------------
 GePol: Number of generator spheres                  =      11
 GePol: Total number of spheres                      =      11
 GePol: Number of exposed spheres                    =      11 (100.00%)
 GePol: Number of points                             =    1493
 GePol: Average weight of points                     =       0.14
 GePol: Minimum weight of points                     =   0.18D-09
 GePol: Maximum weight of points                     =    0.18138
 GePol: Number of points with low weight             =      44
 GePol: Fraction of low-weight points (<1% of avg)   =       2.95%
 GePol: Cavity surface area                          =    206.768 Ang**2
 GePol: Cavity volume                                =    205.460 Ang**3
 ------------------------------------------------------------------------------
 Atomic radii for non-electrostatic terms: SMD-CDS.
 ------------------------------------------------------------------------------
 PCM non-electrostatic energy =         0.0050704482 Hartrees.
 Nuclear repulsion after PCM non-electrostatic terms =      605.2693066069 Hartrees.
 Leave Link  301 at Mon Sep 28 02:45:57 2026, MaxMem=  1610612736 cpu:               0.3 elap:               0.0
 (Enter /share/software/user/restricted/gaussian/g16.B01/l302.exe)
 NPDir=0 NMtPBC=     1 NCelOv=     1 NCel=       1 NClECP=     1 NCelD=      1
         NCelK=      1 NCelE2=     1 NClLst=     1 CellRange=     0.0.
 One-electron integrals computed using PRISM.
 One-electron integral symmetry used in STVInt
 NBasis=   230 RedAO= T EigKep=  1.34D-06  NBF=   170    60
 NBsUse=   230 1.00D-06 EigRej= -1.00D+00 NBFU=   170    60
 Precomputing XC quadrature grid using
 IXCGrd= 4 IRadAn=           5 IRanWt=          -1 IRanGd=           0 AccXCQ= 0.00D+00.
 Generated NRdTot=       0 NPtTot=           0 NUsed=           0 NTot=          32
 NSgBfM=   236   236   236   236   236 MxSgAt=    11 MxSgA2=    11.
 Leave Link  302 at Mon Sep 28 02:45:58 2026, MaxMem=  1610612736 cpu:               7.1 elap:               1.1
 (Enter /share/software/user/restricted/gaussian/g16.B01/l303.exe)
 DipDrv:  MaxL=1.
 Leave Link  303 at Mon Sep 28 02:45:58 2026, MaxMem=  1610612736 cpu:               0.4 elap:               0.1
 (Enter /share/software/user/restricted/gaussian/g16.B01/l401.exe)
 Initial guess from the checkpoint file:  "calcs/b3lyp_smd/chks/ClPh_235_anion.chk"
 B after Tr=    -0.000000   -0.000000    0.000000
         Rot=    1.000000    0.000000   -0.000000   -0.000293 Ang=  -0.03 deg.
 Guess basis will be translated and rotated to current coordinates.
 JPrj=2 DoOrth=T DoCkMO=T.
 Initial guess orbital symmetries:
       Occupied  (A') (A') (A') (A') (A') (A') (A') (A') (A') (A')
                 (A') (A') (A') (A') (A") (A') (A") (A') (A') (A")
                 (A') (A') (A') (A') (A') (A') (A') (A') (A') (A')
                 (A') (A') (A') (A") (A') (A") (A') (A") (A') (A')
                 (A") (A') (A") (A") (A')
       Virtual   (A") (A') (A") (A') (A') (A') (A') (A') (A") (A')
                 (A') (A") (A') (A") (A') (A') (A') (A") (A') (A")
                 (A') (A') (A") (A') (A') (A") (A') (A') (A") (A')
                 (A") (A') (A') (A") (A') (A') (A') (A') (A') (A')
                 (A') (A') (A') (A') (A') (A') (A') (A') (A') (A')
                 (A') (A') (A") (A') (A") (A') (A') (A") (A') (A')
                 (A') (A") (A') (A') (A") (A") (A") (A") (A') (A')
                 (A') (A") (A') (A') (A') (A') (A') (A") (A') (A')
                 (A") (A') (A") (A") (A') (A') (A") (A') (A') (A')
                 (A') (A") (A') (A') (A') (A') (A') (A") (A') (A')
                 (A") (A') (A') (A") (A') (A') (A') (A") (A") (A")
                 (A') (A') (A') (A') (A') (A') (A') (A") (A") (A')
                 (A') (A') (A") (A") (A") (A') (A') (A') (A') (A')
                 (A") (A") (A') (A") (A') (A") (A') (A') (A') (A')
                 (A') (A') (A') (A') (A") (A') (A") (A") (A") (A")
                 (A') (A") (A') (A') (A') (A') (A') (A') (A') (A')
                 (A') (A') (A') (A') (A') (A') (A') (A') (A') (A')
                 (A') (A') (A') (A") (A") (A") (A') (A') (A') (A')
                 (A') (A') (A') (A') (A')
 The electronic state of the initial guess is 1-A'.
 Leave Link  401 at Mon Sep 28 02:45:59 2026, MaxMem=  1610612736 cpu:               5.0 elap:               0.7
 (Enter /share/software/user/restricted/gaussian/g16.B01/l502.exe)
 Keep R1 ints in memory in symmetry-blocked form, NReq=538860879.
 FoFCou: FMM=F IPFlag=           0 FMFlag=           0 FMFlg1=           0
         NFxFlg=           0 DoJE=F BraDBF=F KetDBF=F FulRan=T
         wScrn=  0.000000 ICntrl=       600 IOpCl=  0 I1Cent=           0 NGrid=           0
         NMat0=    1 NMatS0=  26565 NMatT0=    0 NMatD0=    1 NMtDS0=    0 NMtDT0=    0
 Petite list used in FoFCou.
 Closed shell SCF:
 Using DIIS extrapolation, IDIIS=  1040.
 NGot=  1610612736 LenX=  1424497779 LenY=  1424440217
 Requested convergence on RMS density matrix=1.00D-08 within 128 cycles.
 Requested convergence on MAX density matrix=1.00D-06.
 Requested convergence on             energy=1.00D-06.
 No special actions if energy rises.

 Cycle   1  Pass 1  IDiag  1:
 Inv3:  Mode=1 IEnd=     6687147.
 Iteration    1 A*A^-1 deviation from unit magnitude is 5.55D-15 for   1483.
 Iteration    1 A*A^-1 deviation from orthogonality  is 2.22D-15 for    895     69.
 Iteration    1 A^-1*A deviation from unit magnitude is 5.11D-15 for   1483.
 Iteration    1 A^-1*A deviation from orthogonality  is 1.87D-15 for    458     74.
 E= -1610.64147194030    
 DIIS: error= 3.44D-04 at cycle   1 NSaved=   1.
 NSaved= 1 IEnMin= 1 EnMin= -1610.64147194030     IErMin= 1 ErrMin= 3.44D-04
 ErrMax= 3.44D-04  0.00D+00 EMaxC= 1.00D-01 BMatC= 6.02D-05 BMatP= 6.02D-05
 IDIUse=3 WtCom= 9.97D-01 WtEn= 3.44D-03
 Coeff-Com:  0.100D+01
 Coeff-En:   0.100D+01
 Coeff:      0.100D+01
 Gap=     0.178 Goal=   None    Shift=    0.000
 RMSDP=3.99D-03 MaxDP=2.10D-01              OVMax= 4.85D-03

 Cycle   2  Pass 1  IDiag  1:
 E= -1610.64156312752     Delta-E=       -0.000091187222 Rises=F Damp=F
 DIIS: error= 9.62D-05 at cycle   2 NSaved=   2.
 NSaved= 2 IEnMin= 2 EnMin= -1610.64156312752     IErMin= 2 ErrMin= 9.62D-05
 ErrMax= 9.62D-05  0.00D+00 EMaxC= 1.00D-01 BMatC= 4.74D-06 BMatP= 6.02D-05
 IDIUse=1 WtCom= 1.00D+00 WtEn= 0.00D+00
 Coeff-Com:  0.829D-01 0.917D+00
 Coeff:      0.829D-01 0.917D+00
 Gap=     0.178 Goal=   None    Shift=    0.000
 RMSDP=4.63D-04 MaxDP=2.83D-02 DE=-9.12D-05 OVMax= 1.02D-03

 Cycle   3  Pass 1  IDiag  1:
 E= -1610.64156342336     Delta-E=       -0.000000295834 Rises=F Damp=F
 DIIS: error= 1.29D-04 at cycle   3 NSaved=   3.
 NSaved= 3 IEnMin= 3 EnMin= -1610.64156342336     IErMin= 2 ErrMin= 9.62D-05
 ErrMax= 1.29D-04  0.00D+00 EMaxC= 1.00D-01 BMatC= 5.02D-06 BMatP= 4.74D-06
 IDIUse=3 WtCom= 9.99D-01 WtEn= 1.29D-03
 Coeff-Com: -0.132D-01 0.512D+00 0.502D+00
 Coeff-En:   0.000D+00 0.485D+00 0.515D+00
 Coeff:     -0.132D-01 0.512D+00 0.502D+00
 Gap=     0.178 Goal=   None    Shift=    0.000
 RMSDP=1.34D-04 MaxDP=6.25D-03 DE=-2.96D-07 OVMax= 6.66D-04

 Cycle   4  Pass 1  IDiag  1:
 E= -1610.64156824469     Delta-E=       -0.000004821331 Rises=F Damp=F
 DIIS: error= 3.69D-05 at cycle   4 NSaved=   4.
 NSaved= 4 IEnMin= 4 EnMin= -1610.64156824469     IErMin= 4 ErrMin= 3.69D-05
 ErrMax= 3.69D-05  0.00D+00 EMaxC= 1.00D-01 BMatC= 2.27D-07 BMatP= 4.74D-06
 IDIUse=1 WtCom= 1.00D+00 WtEn= 0.00D+00
 Coeff-Com: -0.981D-02 0.220D+00 0.257D+00 0.533D+00
 Coeff:     -0.981D-02 0.220D+00 0.257D+00 0.533D+00
 Gap=     0.178 Goal=   None    Shift=    0.000
 RMSDP=3.28D-05 MaxDP=1.98D-03 DE=-4.82D-06 OVMax= 2.14D-04

 Cycle   5  Pass 1  IDiag  1:
 E= -1610.64156846481     Delta-E=       -0.000000220120 Rises=F Damp=F
 DIIS: error= 1.37D-05 at cycle   5 NSaved=   5.
 NSaved= 5 IEnMin= 5 EnMin= -1610.64156846481     IErMin= 5 ErrMin= 1.37D-05
 ErrMax= 1.37D-05  0.00D+00 EMaxC= 1.00D-01 BMatC= 2.85D-08 BMatP= 2.27D-07
 IDIUse=1 WtCom= 1.00D+00 WtEn= 0.00D+00
 Coeff-Com: -0.402D-02 0.592D-01 0.774D-01 0.290D+00 0.577D+00
 Coeff:     -0.402D-02 0.592D-01 0.774D-01 0.290D+00 0.577D+00
 Gap=     0.178 Goal=   None    Shift=    0.000
 RMSDP=2.90D-05 MaxDP=2.16D-03 DE=-2.20D-07 OVMax= 8.41D-05

 Cycle   6  Pass 1  IDiag  1:
 E= -1610.64156849348     Delta-E=       -0.000000028677 Rises=F Damp=F
 DIIS: error= 3.38D-06 at cycle   6 NSaved=   6.
 NSaved= 6 IEnMin= 6 EnMin= -1610.64156849348     IErMin= 6 ErrMin= 3.38D-06
 ErrMax= 3.38D-06  0.00D+00 EMaxC= 1.00D-01 BMatC= 3.60D-09 BMatP= 2.85D-08
 IDIUse=1 WtCom= 1.00D+00 WtEn= 0.00D+00
 Coeff-Com: -0.370D-03-0.438D-02-0.314D-06 0.744D-01 0.311D+00 0.619D+00
 Coeff:     -0.370D-03-0.438D-02-0.314D-06 0.744D-01 0.311D+00 0.619D+00
 Gap=     0.178 Goal=   None    Shift=    0.000
 RMSDP=9.24D-06 MaxDP=6.20D-04 DE=-2.87D-08 OVMax= 3.56D-05

 Cycle   7  Pass 1  IDiag  1:
 E= -1610.64156849750     Delta-E=       -0.000000004021 Rises=F Damp=F
 DIIS: error= 9.58D-07 at cycle   7 NSaved=   7.
 NSaved= 7 IEnMin= 7 EnMin= -1610.64156849750     IErMin= 7 ErrMin= 9.58D-07
 ErrMax= 9.58D-07  0.00D+00 EMaxC= 1.00D-01 BMatC= 2.28D-10 BMatP= 3.60D-09
 IDIUse=1 WtCom= 1.00D+00 WtEn= 0.00D+00
 Coeff-Com:  0.131D-03-0.753D-02-0.642D-02 0.758D-02 0.835D-01 0.277D+00
 Coeff-Com:  0.646D+00
 Coeff:      0.131D-03-0.753D-02-0.642D-02 0.758D-02 0.835D-01 0.277D+00
 Coeff:      0.646D+00
 Gap=     0.178 Goal=   None    Shift=    0.000
 RMSDP=5.14D-06 MaxDP=4.21D-04 DE=-4.02D-09 OVMax= 8.71D-06

 Cycle   8  Pass 1  IDiag  1:
 E= -1610.64156849778     Delta-E=       -0.000000000273 Rises=F Damp=F
 DIIS: error= 3.47D-07 at cycle   8 NSaved=   8.
 NSaved= 8 IEnMin= 8 EnMin= -1610.64156849778     IErMin= 8 ErrMin= 3.47D-07
 ErrMax= 3.47D-07  0.00D+00 EMaxC= 1.00D-01 BMatC= 2.08D-11 BMatP= 2.28D-10
 IDIUse=1 WtCom= 1.00D+00 WtEn= 0.00D+00
 Coeff-Com:  0.107D-03-0.278D-02-0.254D-02-0.454D-02 0.139D-02 0.520D-01
 Coeff-Com:  0.271D+00 0.686D+00
 Coeff:      0.107D-03-0.278D-02-0.254D-02-0.454D-02 0.139D-02 0.520D-01
 Coeff:      0.271D+00 0.686D+00
 Gap=     0.178 Goal=   None    Shift=    0.000
 RMSDP=9.61D-07 MaxDP=7.22D-05 DE=-2.73D-10 OVMax= 3.18D-06

 Cycle   9  Pass 1  IDiag  1:
 E= -1610.64156849781     Delta-E=       -0.000000000029 Rises=F Damp=F
 DIIS: error= 1.78D-07 at cycle   9 NSaved=   9.
 NSaved= 9 IEnMin= 9 EnMin= -1610.64156849781     IErMin= 9 ErrMin= 1.78D-07
 ErrMax= 1.78D-07  0.00D+00 EMaxC= 1.00D-01 BMatC= 4.49D-12 BMatP= 2.08D-11
 IDIUse=1 WtCom= 1.00D+00 WtEn= 0.00D+00
 Coeff-Com:  0.462D-04-0.886D-03-0.852D-03-0.302D-02-0.586D-02 0.574D-02
 Coeff-Com:  0.978D-01 0.387D+00 0.520D+00
 Coeff:      0.462D-04-0.886D-03-0.852D-03-0.302D-02-0.586D-02 0.574D-02
 Coeff:      0.978D-01 0.387D+00 0.520D+00
 Gap=     0.178 Goal=   None    Shift=    0.000
 RMSDP=3.41D-07 MaxDP=2.64D-05 DE=-2.89D-11 OVMax= 1.07D-06

 Cycle  10  Pass 1  IDiag  1:
 E= -1610.64156849781     Delta-E=        0.000000000001 Rises=F Damp=F
 DIIS: error= 5.76D-08 at cycle  10 NSaved=  10.
 NSaved=10 IEnMin= 9 EnMin= -1610.64156849781     IErMin=10 ErrMin= 5.76D-08
 ErrMax= 5.76D-08  0.00D+00 EMaxC= 1.00D-01 BMatC= 5.01D-13 BMatP= 4.49D-12
 IDIUse=1 WtCom= 1.00D+00 WtEn= 0.00D+00
 Coeff-Com:  0.225D-05 0.102D-03 0.374D-04-0.768D-03-0.359D-02-0.873D-02
 Coeff-Com: -0.300D-02 0.617D-01 0.271D+00 0.683D+00
 Coeff:      0.225D-05 0.102D-03 0.374D-04-0.768D-03-0.359D-02-0.873D-02
 Coeff:     -0.300D-02 0.617D-01 0.271D+00 0.683D+00
 Gap=     0.178 Goal=   None    Shift=    0.000
 RMSDP=1.61D-07 MaxDP=9.32D-06 DE= 1.36D-12 OVMax= 3.73D-07

 Cycle  11  Pass 1  IDiag  1:
 E= -1610.64156849781     Delta-E=       -0.000000000000 Rises=F Damp=F
 DIIS: error= 2.18D-08 at cycle  11 NSaved=  11.
 NSaved=11 IEnMin= 9 EnMin= -1610.64156849781     IErMin=11 ErrMin= 2.18D-08
 ErrMax= 2.18D-08  0.00D+00 EMaxC= 1.00D-01 BMatC= 1.00D-13 BMatP= 5.01D-13
 IDIUse=1 WtCom= 1.00D+00 WtEn= 0.00D+00
 Coeff-Com: -0.197D-05 0.134D-03 0.884D-04-0.112D-03-0.121D-02-0.518D-02
 Coeff-Com: -0.103D-01-0.689D-03 0.113D+00 0.416D+00 0.488D+00
 Coeff:     -0.197D-05 0.134D-03 0.884D-04-0.112D-03-0.121D-02-0.518D-02
 Coeff:     -0.103D-01-0.689D-03 0.113D+00 0.416D+00 0.488D+00
 Gap=     0.178 Goal=   None    Shift=    0.000
 RMSDP=2.88D-08 MaxDP=1.88D-06 DE=-4.55D-13 OVMax= 1.27D-07

 Cycle  12  Pass 1  IDiag  1:
 E= -1610.64156849781     Delta-E=       -0.000000000004 Rises=F Damp=F
 DIIS: error= 3.04D-09 at cycle  12 NSaved=  12.
 NSaved=12 IEnMin=12 EnMin= -1610.64156849781     IErMin=12 ErrMin= 3.04D-09
 ErrMax= 3.04D-09  0.00D+00 EMaxC= 1.00D-01 BMatC= 3.02D-15 BMatP= 1.00D-13
 IDIUse=1 WtCom= 1.00D+00 WtEn= 0.00D+00
 Coeff-Com: -0.101D-05 0.387D-04 0.267D-04 0.420D-04-0.555D-04-0.112D-02
 Coeff-Com: -0.369D-02-0.812D-02 0.117D-01 0.850D-01 0.184D+00 0.732D+00
 Coeff:     -0.101D-05 0.387D-04 0.267D-04 0.420D-04-0.555D-04-0.112D-02
 Coeff:     -0.369D-02-0.812D-02 0.117D-01 0.850D-01 0.184D+00 0.732D+00
 Gap=     0.178 Goal=   None    Shift=    0.000
 RMSDP=1.04D-08 MaxDP=4.80D-07 DE=-4.09D-12 OVMax= 3.94D-08

 Cycle  13  Pass 1  IDiag  1:
 E= -1610.64156849781     Delta-E=        0.000000000002 Rises=F Damp=F
 DIIS: error= 8.22D-10 at cycle  13 NSaved=  13.
 NSaved=13 IEnMin=12 EnMin= -1610.64156849781     IErMin=13 ErrMin= 8.22D-10
 ErrMax= 8.22D-10  0.00D+00 EMaxC= 1.00D-01 BMatC= 2.03D-16 BMatP= 3.02D-15
 IDIUse=1 WtCom= 1.00D+00 WtEn= 0.00D+00
 Coeff-Com: -0.260D-06 0.404D-05 0.418D-05 0.219D-04 0.553D-04-0.346D-04
 Coeff-Com: -0.444D-03-0.245D-02-0.443D-02-0.412D-02 0.218D-01 0.249D+00
 Coeff-Com:  0.741D+00
 Coeff:     -0.260D-06 0.404D-05 0.418D-05 0.219D-04 0.553D-04-0.346D-04
 Coeff:     -0.444D-03-0.245D-02-0.443D-02-0.412D-02 0.218D-01 0.249D+00
 Coeff:      0.741D+00
 Gap=     0.178 Goal=   None    Shift=    0.000
 RMSDP=1.08D-08 MaxDP=5.96D-07 DE= 2.27D-12 OVMax= 5.57D-09

 Cycle  14  Pass 1  IDiag  1:
 E= -1610.64156849781     Delta-E=       -0.000000000002 Rises=F Damp=F
 DIIS: error= 2.11D-10 at cycle  14 NSaved=  14.
 NSaved=14 IEnMin=12 EnMin= -1610.64156849781     IErMin=14 ErrMin= 2.11D-10
 ErrMax= 2.11D-10  0.00D+00 EMaxC= 1.00D-01 BMatC= 1.22D-17 BMatP= 2.03D-16
 IDIUse=1 WtCom= 1.00D+00 WtEn= 0.00D+00
 Coeff-Com: -0.186D-07-0.116D-05-0.752D-07 0.599D-05 0.266D-04 0.721D-04
 Coeff-Com:  0.975D-04-0.270D-03-0.236D-02-0.682D-02-0.343D-02 0.381D-01
 Coeff-Com:  0.242D+00 0.733D+00
 Coeff:     -0.186D-07-0.116D-05-0.752D-07 0.599D-05 0.266D-04 0.721D-04
 Coeff:      0.975D-04-0.270D-03-0.236D-02-0.682D-02-0.343D-02 0.381D-01
 Coeff:      0.242D+00 0.733D+00
 Gap=     0.178 Goal=   None    Shift=    0.000
 RMSDP=6.65D-09 MaxDP=4.61D-07 DE=-2.27D-12 OVMax= 1.50D-09

 Error on total polarization charges =  0.03123
 SCF Done:  E(RB3LYP) =  -1610.64156850     A.U. after   14 cycles
            NFock= 14  Conv=0.67D-08     -V/T= 2.0026
 KE= 1.606387408125D+03 PE=-5.040827613144D+03 EE= 1.218529329914D+03
 SMD-CDS (non-electrostatic) energy       (kcal/mol) =       3.18
 (included in total energy above)
 Leave Link  502 at Mon Sep 28 02:46:15 2026, MaxMem=  1610612736 cpu:             114.6 elap:              16.2
 (Enter /share/software/user/restricted/gaussian/g16.B01/l701.exe)
 ... and contract with generalized density number  0.
 Compute integral first derivatives.
 D1PCM: PCM CHGder 1st derivatives, ID1Alg=3 FixD1E=F DoIter=F DoCFld=F I1PDM=0.
 GePol: Maximum number of non-zero 1st derivatives   =     374
 Leave Link  701 at Mon Sep 28 02:46:16 2026, MaxMem=  1610612736 cpu:               4.1 elap:               0.5
 (Enter /share/software/user/restricted/gaussian/g16.B01/l702.exe)
 L702 exits ... SP integral derivatives will be done elsewhere.
 Leave Link  702 at Mon Sep 28 02:46:16 2026, MaxMem=  1610612736 cpu:               0.2 elap:               0.0
 (Enter /share/software/user/restricted/gaussian/g16.B01/l703.exe)
 Integral derivatives from FoFJK, PRISM(SPDF).
 Compute integral first derivatives, UseDBF=F ICtDFT=           0.
 Calling FoFJK, ICntrl=      2127 FMM=F ISym2X=1 I1Cent= 0 IOpClX= 0 NMat=1 NMatS=1 NMatT=0.
 FoFJK:  IHMeth= 1 ICntrl=    2127 DoSepK=F KAlg= 0 I1Cent=           0 FoldK=F
 IRaf=         0 NMat=       1 IRICut=       1 DoRegI=T DoRafI=F ISym2E= 1 IDoP0=0 IntGTp=1.
 FoFCou: FMM=F IPFlag=           0 FMFlag=      100000 FMFlg1=         800
         NFxFlg=           0 DoJE=F BraDBF=F KetDBF=F FulRan=T
         wScrn=  0.000000 ICntrl=      2127 IOpCl=  0 I1Cent=           0 NGrid=           0
         NMat0=    1 NMatS0=      1 NMatT0=    0 NMatD0=    1 NMtDS0=    0 NMtDT0=    0
 Petite list used in FoFCou.
 Leave Link  703 at Mon Sep 28 02:46:18 2026, MaxMem=  1610612736 cpu:              19.5 elap:               2.4
 (Enter /share/software/user/restricted/gaussian/g16.B01/l716.exe)
 Dipole        =-2.57591763D+00-1.17757588D+00 9.38948079D-32
 ***** Axes restored to original set *****
 -------------------------------------------------------------------
 Center     Atomic                   Forces (Hartrees/Bohr)
 Number     Number              X              Y              Z
 -------------------------------------------------------------------
      1        6           0.001083780   -0.001542903    0.000000000
      2        6          -0.002396640    0.000208735   -0.000000000
      3        6           0.001334236   -0.000173633    0.000000000
      4        6           0.000047750   -0.000188238   -0.000000000
      5        6           0.000061292    0.000496316   -0.000000000
      6        6          -0.000678206    0.000005195    0.000000000
      7       17           0.001004412    0.000511716   -0.000000000
      8       17          -0.000843534    0.000589814    0.000000000
      9        1          -0.000072861   -0.000115198    0.000000000
     10       17           0.000341870    0.000019192    0.000000000
     11        1           0.000117901    0.000189003    0.000000000
 -------------------------------------------------------------------
 Cartesian Forces:  Max     0.002396640 RMS     0.000660952
 Leave Link  716 at Mon Sep 28 02:46:19 2026, MaxMem=  1610612736 cpu:               0.2 elap:               0.0
 (Enter /share/software/user/restricted/gaussian/g16.B01/l103.exe)

 GradGradGradGradGradGradGradGradGradGradGradGradGradGradGradGradGradGrad
 Berny optimization.
 Using GEDIIS/GDIIS optimizer.
 FormGI is forming the generalized inverse of G from B-inverse, IUseBI=4.
 Internal  Forces:  Max     0.001420715 RMS     0.000367038
 Search for a local minimum.
 Step number   4 out of a maximum of   57
 All quantities printed in internal units (Hartrees-Bohrs-Radians)
 RMS Force = .36704D-03 SwitMx=.10000D-02 MixMth= 2
 Mixed Optimization -- En-DIIS/RFO-DIIS
 Swapping is turned off.
 Update second derivatives using D2CorX and points    1    2    3    4
 DE= -8.99D-05 DEPred=-6.91D-05 R= 1.30D+00
 TightC=F SS=  1.41D+00  RLast= 2.69D-02 DXNew= 8.2823D-01 8.0582D-02
 Trust test= 1.30D+00 RLast= 2.69D-02 DXMaxT set to 4.92D-01
 ITU=  1  1  1  0
     Eigenvalues ---    0.02081   0.02092   0.02100   0.02118   0.02123
     Eigenvalues ---    0.02135   0.02164   0.02209   0.12539   0.16061
     Eigenvalues ---    0.16100   0.23084   0.24362   0.24992   0.25049
     Eigenvalues ---    0.25521   0.26975   0.32951   0.33557   0.33956
     Eigenvalues ---    0.34934   0.42380   0.42858   0.45520   0.46086
     Eigenvalues ---    0.46936   0.48524
 En-DIIS/RFO-DIIS/Sim-DIIS IScMMF=       -3 using points:     4    3
 RFO step:  Lambda=-2.83435352D-05.
 NNeg= 0 NGDIIS= 2 SimSw=  2.50D-01 Rises=F DC= -8.99D-05 SmlDif=  1.00D-05
 NRisDI= 0 DoIntr=F SqrtH=F CThrHd= 10.0 CDAdj=  3.0
 RMS Error=  0.1865882453D-02 NUsed= 2 OKEnD=T EnDIS=F
 InvSVX:  RCond= 1.80D-04 Info=           0 Equed=N FErr=  2.01D-15 BErr=  0.00D+00
 DidBck=F Rises=F RFO-DIIS coefs:    1.40737   -0.40737
 Iteration  1 RMS(Cart)=  0.00160511 RMS(Int)=  0.00000169
 Iteration  2 RMS(Cart)=  0.00000207 RMS(Int)=  0.00000045
 Iteration  3 RMS(Cart)=  0.00000000 RMS(Int)=  0.00000045
 ITry= 1 IFail=0 DXMaxC= 5.16D-03 DCOld= 1.00D+10 DXMaxT= 4.92D-01 DXLimC= 3.00D+00 Rises=F
 ClnCor:  largest displacement from symmetrization is 2.54D-11 for atom     9.
 Variable       Old X    -DE/DX   Delta X   Delta X   Delta X     New X
                                 (Linear)    (Quad)   (Total)
    R1        2.61793  -0.00142  -0.00249  -0.00225  -0.00475   2.61318
    R2        2.66165  -0.00026   0.00096  -0.00106  -0.00010   2.66154
    R3        2.63941  -0.00031  -0.00170   0.00014  -0.00156   2.63785
    R4        3.42692   0.00113   0.00818   0.00059   0.00877   3.43569
    R5        2.63246   0.00017   0.00125  -0.00060   0.00065   2.63311
    R6        3.36758  -0.00102   0.00200  -0.00401  -0.00200   3.36558
    R7        2.62476   0.00022   0.00074  -0.00002   0.00072   2.62548
    R8        2.04393   0.00011   0.00051  -0.00031   0.00020   2.04412
    R9        2.63274  -0.00031  -0.00132   0.00012  -0.00120   2.63154
   R10        3.37403  -0.00031   0.00247  -0.00164   0.00083   3.37486
   R11        2.05687  -0.00002   0.00034  -0.00059  -0.00025   2.05662
    A1        2.01028   0.00070   0.00104   0.00165   0.00269   2.01297
    A2        2.16342   0.00013   0.00103   0.00015   0.00118   2.16459
    A3        2.06847   0.00008  -0.00092   0.00121   0.00029   2.06876
    A4        2.05130  -0.00022  -0.00011  -0.00136  -0.00147   2.04984
    A5        2.09342  -0.00028  -0.00021  -0.00127  -0.00148   2.09193
    A6        2.15328   0.00014   0.00094   0.00016   0.00111   2.15439
    A7        2.03649   0.00015  -0.00073   0.00111   0.00038   2.03687
    A8        2.04842  -0.00011  -0.00179   0.00101  -0.00078   2.04764
    A9        2.10867   0.00017   0.00139  -0.00005   0.00135   2.11002
   A10        2.12609  -0.00006   0.00040  -0.00096  -0.00056   2.12553
   A11        2.12849   0.00016   0.00235  -0.00023   0.00212   2.13061
   A12        2.06185  -0.00026  -0.00114  -0.00077  -0.00191   2.05994
   A13        2.09285   0.00010  -0.00121   0.00101  -0.00021   2.09264
   A14        2.12235  -0.00061  -0.00242  -0.00131  -0.00373   2.11863
   A15        2.10559   0.00003   0.00032  -0.00051  -0.00019   2.10539
   A16        2.05525   0.00058   0.00210   0.00182   0.00392   2.05917
    D1       -0.00000  -0.00000   0.00000  -0.00000   0.00000   0.00000
    D2        3.14159  -0.00000   0.00000  -0.00000   0.00000   3.14159
    D3        0.00000  -0.00000   0.00000  -0.00000   0.00000   0.00000
    D4        3.14159   0.00000   0.00000  -0.00000   0.00000   3.14159
    D5        0.00000   0.00000   0.00000   0.00000  -0.00000   0.00000
    D6        3.14159   0.00000   0.00000   0.00000   0.00000   3.14159
    D7        3.14159   0.00000   0.00000   0.00000   0.00000   3.14159
    D8        0.00000   0.00000   0.00000   0.00000   0.00000   0.00000
    D9        0.00000  -0.00000   0.00000  -0.00000   0.00000   0.00000
   D10        3.14159  -0.00000   0.00000  -0.00000   0.00000   3.14159
   D11        3.14159  -0.00000   0.00000  -0.00000   0.00000   3.14159
   D12       -0.00000  -0.00000   0.00000  -0.00000   0.00000   0.00000
   D13       -0.00000  -0.00000   0.00000   0.00000   0.00000   0.00000
   D14        3.14159   0.00000   0.00000   0.00000   0.00000   3.14159
   D15        3.14159  -0.00000   0.00000  -0.00000   0.00000   3.14159
   D16        0.00000   0.00000   0.00000   0.00000   0.00000   0.00000
   D17       -0.00000   0.00000   0.00000   0.00000   0.00000   0.00000
   D18        3.14159   0.00000   0.00000   0.00000   0.00000   3.14159
   D19        3.14159   0.00000   0.00000   0.00000   0.00000   3.14159
   D20       -0.00000  -0.00000   0.00000  -0.00000   0.00000   0.00000
         Item               Value     Threshold  Converged?
 Maximum Force            0.001421     0.000450     NO 
 RMS     Force            0.000367     0.000300     NO 
 Maximum Displacement     0.005156     0.001800     NO 
 RMS     Displacement     0.001605     0.001200     NO 
 Predicted change in Energy=-1.417376D-05
 Lowest energy point so far.  Saving SCF results.
 GradGradGradGradGradGradGradGradGradGradGradGradGradGradGradGradGradGrad

 Leave Link  103 at Mon Sep 28 02:46:19 2026, MaxMem=  1610612736 cpu:               1.7 elap:               0.2
 (Enter /share/software/user/restricted/gaussian/g16.B01/l202.exe)
                          Input orientation:                          
 ---------------------------------------------------------------------
 Center     Atomic      Atomic             Coordinates (Angstroms)
 Number     Number       Type             X           Y           Z
 ---------------------------------------------------------------------
      1          6           0       -0.001745    1.457517   -0.000000
      2          6           0        1.162453    0.711277   -0.000000
      3          6           0        1.195649   -0.684219    0.000000
      4          6           0        0.004073   -1.406475    0.000000
      5          6           0       -1.181078   -0.681426    0.000000
      6          6           0       -1.196084    0.711044   -0.000000
      7         17           0        2.755511    1.587414   -0.000000
      8         17           0        2.704782   -1.629964    0.000000
      9          1           0        0.010236   -2.488162    0.000000
     10         17           0       -2.719596   -1.588288    0.000000
     11          1           0       -2.162624    1.211281   -0.000000
 ---------------------------------------------------------------------
                    Distance matrix (angstroms):
                    1          2          3          4          5
     1  C    0.000000
     2  C    1.382835   0.000000
     3  C    2.453729   1.395891   0.000000
     4  C    2.863999   2.413860   1.393380   0.000000
     5  C    2.442520   2.726126   2.376728   1.389345   0.000000
     6  C    1.408427   2.358538   2.768961   2.433982   1.392551
     7  Cl   2.760315   1.818090   2.755628   4.066176   4.543608
     8  Cl   4.105829   2.803603   1.780988   2.709940   3.999953
     9  H    3.945697   3.400590   2.158568   1.081704   2.164145
    10  Cl   4.082112   4.512018   4.018269   2.729731   1.785900
    11  H    2.174863   3.362461   3.856283   3.398121   2.132082
                    6          7          8          9         10
     6  C    0.000000
     7  Cl   4.047608   0.000000
     8  Cl   4.549404   3.217779   0.000000
     9  H    3.419083   4.913945   2.827911   0.000000
    10  Cl   2.758263   6.329446   5.424538   2.874327   0.000000
    11  H    1.088318   4.932497   5.635984   4.290361   2.854436
                   11
    11  H    0.000000
 Stoichiometry    C6H2Cl3(1-)
 Framework group  CS[SG(C6H2Cl3)]
 Deg. of freedom    19
 Full point group                 CS      NOp   2
 RotChk:  IX=1 Diff= 2.53D-04
 Largest Abelian subgroup         CS      NOp   2
 Largest concise Abelian subgroup C1      NOp   1
                         Standard orientation:                         
 ---------------------------------------------------------------------
 Center     Atomic      Atomic             Coordinates (Angstroms)
 Number     Number       Type             X           Y           Z
 ---------------------------------------------------------------------
      1          6           0        1.340946    1.267427   -0.000000
      2          6           0        1.220550   -0.110158   -0.000000
      3          6           0        0.000000   -0.787482   -0.000000
      4          6           0       -1.192933   -0.067469    0.000000
      5          6           0       -1.101033    1.318833    0.000000
      6          6           0        0.125282    1.978643    0.000000
      7         17           0        2.736178   -1.114309   -0.000000
      8         17           0       -0.136942   -2.563197   -0.000000
      9          1           0       -2.148099   -0.575151    0.000000
     10         17           0       -2.618551    2.260414    0.000000
     11          1           0        0.119571    3.066946    0.000000
 ---------------------------------------------------------------------
 Rotational constants (GHZ):           1.8534644           0.5864146           0.4454723
 Leave Link  202 at Mon Sep 28 02:46:19 2026, MaxMem=  1610612736 cpu:               0.6 elap:               0.1
 (Enter /share/software/user/restricted/gaussian/g16.B01/l301.exe)
 Standard basis: 6-311++G(d) (5D, 7F)
 Ernie: Thresh=  0.10000D-02 Tol=  0.10000D-05 Strict=F.
 There are   179 symmetry adapted cartesian basis functions of A'  symmetry.
 There are    60 symmetry adapted cartesian basis functions of A"  symmetry.
 There are   170 symmetry adapted basis functions of A'  symmetry.
 There are    60 symmetry adapted basis functions of A"  symmetry.
   230 basis functions,   387 primitive gaussians,   239 cartesian basis functions
    45 alpha electrons       45 beta electrons
       nuclear repulsion energy       605.2207166144 Hartrees.
 IExCor=  402 DFT=T Ex+Corr=B3LYP ExCW=0 ScaHFX=  0.200000
 ScaDFX=  0.800000  0.720000  1.000000  0.810000 ScalE2=  1.000000  1.000000
 IRadAn=      5 IRanWt=     -1 IRanGd=            0 ICorTp=0 IEmpDi=  4
 NAtoms=   11 NActive=   11 NUniq=   11 SFac= 1.00D+00 NAtFMM=   60 NAOKFM=F Big=F
 Integral buffers will be    131072 words long.
 Raffenetti 2 integral format.
 Two-electron integral symmetry is turned on.
 ------------------------------------------------------------------------------
 Polarizable Continuum Model (PCM)
 =================================
 Model                : PCM.
 Atomic radii         : SMD-Coulomb.
 Polarization charges : Total charges.
 Charge compensation  : None.
 Solution method      : On-the-fly selection.
 Cavity type          : VdW (van der Waals Surface) (Alpha=1.000).
 Cavity algorithm     : GePol (No added spheres)
                        Default sphere list used, NSphG=   11.
                        Lebedev-Laikov grids with approx.  5.0 points / Ang**2.
                        Smoothing algorithm: York/Karplus (Gamma=1.0000).
                        Polarization charges: spherical gaussians, with
                                              point-specific exponents (IZeta= 3).
                        Self-potential: point-specific (ISelfS= 7).
                        Self-field    : sphere-specific E.n sum rule (ISelfD= 2).
 1st derivatives      : Analytical E(r).r(x)/FMM algorithm (CHGder, D1EAlg=3).
                        Cavity 1st derivative terms included.
 Solvent              : Water, Eps=  78.355300 Eps(inf)=   1.777849
 ------------------------------------------------------------------------------
 Spheres list:
 ISph  on   Nord     Re0    Alpha      Xe            Ye            Ze
    1   C      1    1.8500  1.000      1.340946      1.267427     -0.000000
    2   C      2    1.8500  1.000      1.220550     -0.110158     -0.000000
    3   C      3    1.8500  1.000     -0.000000     -0.787482     -0.000000
    4   C      4    1.8500  1.000     -1.192933     -0.067469      0.000000
    5   C      5    1.8500  1.000     -1.101033      1.318833      0.000000
    6   C      6    1.8500  1.000      0.125282      1.978643     -0.000000
    7  Cl      7    2.3800  1.000      2.736178     -1.114309     -0.000000
    8  Cl      8    2.3800  1.000     -0.136942     -2.563197     -0.000000
    9   H      9    1.2000  1.000     -2.148099     -0.575151      0.000000
   10  Cl     10    2.3800  1.000     -2.618551      2.260414      0.000000
   11   H     11    1.2000  1.000      0.119571      3.066946      0.000000
 ------------------------------------------------------------------------------
 GePol: Number of generator spheres                  =      11
 GePol: Total number of spheres                      =      11
 GePol: Number of exposed spheres                    =      11 (100.00%)
 GePol: Number of points                             =    1491
 GePol: Average weight of points                     =       0.14
 GePol: Minimum weight of points                     =   0.20D-10
 GePol: Maximum weight of points                     =    0.18138
 GePol: Number of points with low weight             =      42
 GePol: Fraction of low-weight points (<1% of avg)   =       2.82%
 GePol: Cavity surface area                          =    206.814 Ang**2
 GePol: Cavity volume                                =    205.486 Ang**3
 ------------------------------------------------------------------------------
 Atomic radii for non-electrostatic terms: SMD-CDS.
 ------------------------------------------------------------------------------
 PCM non-electrostatic energy =         0.0050669158 Hartrees.
 Nuclear repulsion after PCM non-electrostatic terms =      605.2257835302 Hartrees.
 Leave Link  301 at Mon Sep 28 02:46:19 2026, MaxMem=  1610612736 cpu:               0.3 elap:               0.0
 (Enter /share/software/user/restricted/gaussian/g16.B01/l302.exe)
 NPDir=0 NMtPBC=     1 NCelOv=     1 NCel=       1 NClECP=     1 NCelD=      1
         NCelK=      1 NCelE2=     1 NClLst=     1 CellRange=     0.0.
 One-electron integrals computed using PRISM.
 One-electron integral symmetry used in STVInt
 NBasis=   230 RedAO= T EigKep=  1.33D-06  NBF=   170    60
 NBsUse=   230 1.00D-06 EigRej= -1.00D+00 NBFU=   170    60
 Precomputing XC quadrature grid using
 IXCGrd= 4 IRadAn=           5 IRanWt=          -1 IRanGd=           0 AccXCQ= 0.00D+00.
 Generated NRdTot=       0 NPtTot=           0 NUsed=           0 NTot=          32
 NSgBfM=   236   236   236   236   236 MxSgAt=    11 MxSgA2=    11.
 Leave Link  302 at Mon Sep 28 02:46:19 2026, MaxMem=  1610612736 cpu:               2.1 elap:               0.3
 (Enter /share/software/user/restricted/gaussian/g16.B01/l303.exe)
 DipDrv:  MaxL=1.
 Leave Link  303 at Mon Sep 28 02:46:19 2026, MaxMem=  1610612736 cpu:               0.4 elap:               0.1
 (Enter /share/software/user/restricted/gaussian/g16.B01/l401.exe)
 Initial guess from the checkpoint file:  "calcs/b3lyp_smd/chks/ClPh_235_anion.chk"
 B after Tr=     0.000000    0.000000   -0.000000
         Rot=    1.000000   -0.000000    0.000000   -0.000191 Ang=  -0.02 deg.
 Guess basis will be translated and rotated to current coordinates.
 JPrj=2 DoOrth=T DoCkMO=T.
 Initial guess orbital symmetries:
       Occupied  (A') (A') (A') (A') (A') (A') (A') (A') (A') (A')
                 (A') (A') (A') (A') (A") (A') (A") (A') (A') (A")
                 (A') (A') (A') (A') (A') (A') (A') (A') (A') (A')
                 (A') (A') (A') (A") (A') (A") (A') (A") (A') (A')
                 (A") (A') (A") (A") (A')
       Virtual   (A") (A') (A") (A') (A') (A') (A') (A') (A") (A')
                 (A') (A") (A') (A") (A') (A') (A') (A") (A') (A")
                 (A') (A') (A') (A") (A') (A") (A') (A') (A") (A')
                 (A") (A') (A') (A") (A') (A') (A') (A') (A') (A')
                 (A') (A') (A') (A') (A') (A') (A') (A') (A') (A')
                 (A') (A') (A") (A') (A") (A') (A') (A") (A') (A')
                 (A') (A") (A') (A') (A") (A") (A") (A") (A') (A')
                 (A') (A") (A') (A') (A') (A') (A') (A") (A') (A')
                 (A") (A') (A") (A') (A") (A') (A") (A') (A') (A')
                 (A') (A') (A") (A') (A') (A') (A') (A") (A') (A')
                 (A") (A') (A') (A") (A') (A') (A') (A") (A") (A")
                 (A') (A') (A') (A') (A') (A') (A') (A") (A") (A')
                 (A') (A') (A") (A") (A") (A') (A') (A') (A') (A')
                 (A") (A") (A') (A") (A') (A") (A') (A') (A') (A')
                 (A') (A') (A') (A') (A") (A') (A") (A") (A") (A")
                 (A') (A") (A') (A') (A') (A') (A') (A') (A') (A')
                 (A') (A') (A') (A') (A') (A') (A') (A') (A') (A')
                 (A') (A') (A') (A") (A") (A") (A') (A') (A') (A')
                 (A') (A') (A') (A') (A')
 The electronic state of the initial guess is 1-A'.
 Leave Link  401 at Mon Sep 28 02:46:20 2026, MaxMem=  1610612736 cpu:               5.1 elap:               0.8
 (Enter /share/software/user/restricted/gaussian/g16.B01/l502.exe)
 Keep R1 ints in memory in symmetry-blocked form, NReq=538860879.
 FoFCou: FMM=F IPFlag=           0 FMFlag=           0 FMFlg1=           0
         NFxFlg=           0 DoJE=F BraDBF=F KetDBF=F FulRan=T
         wScrn=  0.000000 ICntrl=       600 IOpCl=  0 I1Cent=           0 NGrid=           0
         NMat0=    1 NMatS0=  26565 NMatT0=    0 NMatD0=    1 NMtDS0=    0 NMtDT0=    0
 Petite list used in FoFCou.
 Closed shell SCF:
 Using DIIS extrapolation, IDIIS=  1040.
 NGot=  1610612736 LenX=  1424497779 LenY=  1424440217
 Requested convergence on RMS density matrix=1.00D-08 within 128 cycles.
 Requested convergence on MAX density matrix=1.00D-06.
 Requested convergence on             energy=1.00D-06.
 No special actions if energy rises.

 Cycle   1  Pass 1  IDiag  1:
 Inv3:  Mode=1 IEnd=     6669243.
 Iteration    1 A*A^-1 deviation from unit magnitude is 5.11D-15 for   1480.
 Iteration    1 A*A^-1 deviation from orthogonality  is 1.73D-15 for   1483   1357.
 Iteration    1 A^-1*A deviation from unit magnitude is 4.66D-15 for   1477.
 Iteration    1 A^-1*A deviation from orthogonality  is 1.79D-15 for   1476   1226.
 E= -1610.64156131449    
 DIIS: error= 1.35D-04 at cycle   1 NSaved=   1.
 NSaved= 1 IEnMin= 1 EnMin= -1610.64156131449     IErMin= 1 ErrMin= 1.35D-04
 ErrMax= 1.35D-04  0.00D+00 EMaxC= 1.00D-01 BMatC= 1.50D-05 BMatP= 1.50D-05
 IDIUse=3 WtCom= 9.99D-01 WtEn= 1.35D-03
 Coeff-Com:  0.100D+01
 Coeff-En:   0.100D+01
 Coeff:      0.100D+01
 Gap=     0.178 Goal=   None    Shift=    0.000
 RMSDP=2.10D-03 MaxDP=1.35D-01              OVMax= 2.58D-03

 Cycle   2  Pass 1  IDiag  1:
 E= -1610.64158513208     Delta-E=       -0.000023817593 Rises=F Damp=F
 DIIS: error= 4.24D-05 at cycle   2 NSaved=   2.
 NSaved= 2 IEnMin= 2 EnMin= -1610.64158513208     IErMin= 2 ErrMin= 4.24D-05
 ErrMax= 4.24D-05  0.00D+00 EMaxC= 1.00D-01 BMatC= 9.58D-07 BMatP= 1.50D-05
 IDIUse=1 WtCom= 1.00D+00 WtEn= 0.00D+00
 Coeff-Com:  0.613D-01 0.939D+00
 Coeff:      0.613D-01 0.939D+00
 Gap=     0.178 Goal=   None    Shift=    0.000
 RMSDP=2.34D-04 MaxDP=1.49D-02 DE=-2.38D-05 OVMax= 3.91D-04

 Cycle   3  Pass 1  IDiag  1:
 E= -1610.64158539050     Delta-E=       -0.000000258417 Rises=F Damp=F
 DIIS: error= 5.67D-05 at cycle   3 NSaved=   3.
 NSaved= 3 IEnMin= 3 EnMin= -1610.64158539050     IErMin= 2 ErrMin= 4.24D-05
 ErrMax= 5.67D-05  0.00D+00 EMaxC= 1.00D-01 BMatC= 8.56D-07 BMatP= 9.58D-07
 IDIUse=1 WtCom= 1.00D+00 WtEn= 0.00D+00
 Coeff-Com: -0.162D-01 0.490D+00 0.526D+00
 Coeff:     -0.162D-01 0.490D+00 0.526D+00
 Gap=     0.178 Goal=   None    Shift=    0.000
 RMSDP=5.44D-05 MaxDP=3.25D-03 DE=-2.58D-07 OVMax= 2.46D-04

 Cycle   4  Pass 1  IDiag  1:
 E= -1610.64158617494     Delta-E=       -0.000000784436 Rises=F Damp=F
 DIIS: error= 1.88D-05 at cycle   4 NSaved=   4.
 NSaved= 4 IEnMin= 4 EnMin= -1610.64158617494     IErMin= 4 ErrMin= 1.88D-05
 ErrMax= 1.88D-05  0.00D+00 EMaxC= 1.00D-01 BMatC= 4.11D-08 BMatP= 8.56D-07
 IDIUse=1 WtCom= 1.00D+00 WtEn= 0.00D+00
 Coeff-Com: -0.984D-02 0.206D+00 0.263D+00 0.541D+00
 Coeff:     -0.984D-02 0.206D+00 0.263D+00 0.541D+00
 Gap=     0.178 Goal=   None    Shift=    0.000
 RMSDP=1.70D-05 MaxDP=9.23D-04 DE=-7.84D-07 OVMax= 1.07D-04

 Cycle   5  Pass 1  IDiag  1:
 E= -1610.64158621045     Delta-E=       -0.000000035518 Rises=F Damp=F
 DIIS: error= 8.51D-06 at cycle   5 NSaved=   5.
 NSaved= 5 IEnMin= 5 EnMin= -1610.64158621045     IErMin= 5 ErrMin= 8.51D-06
 ErrMax= 8.51D-06  0.00D+00 EMaxC= 1.00D-01 BMatC= 8.37D-09 BMatP= 4.11D-08
 IDIUse=1 WtCom= 1.00D+00 WtEn= 0.00D+00
 Coeff-Com: -0.323D-02 0.425D-01 0.689D-01 0.325D+00 0.567D+00
 Coeff:     -0.323D-02 0.425D-01 0.689D-01 0.325D+00 0.567D+00
 Gap=     0.178 Goal=   None    Shift=    0.000
 RMSDP=1.28D-05 MaxDP=1.02D-03 DE=-3.55D-08 OVMax= 4.31D-05

 Cycle   6  Pass 1  IDiag  1:
 E= -1610.64158621924     Delta-E=       -0.000000008791 Rises=F Damp=F
 DIIS: error= 1.72D-06 at cycle   6 NSaved=   6.
 NSaved= 6 IEnMin= 6 EnMin= -1610.64158621924     IErMin= 6 ErrMin= 1.72D-06
 ErrMax= 1.72D-06  0.00D+00 EMaxC= 1.00D-01 BMatC= 6.63D-10 BMatP= 8.37D-09
 IDIUse=1 WtCom= 1.00D+00 WtEn= 0.00D+00
 Coeff-Com: -0.496D-03-0.265D-02 0.592D-02 0.108D+00 0.294D+00 0.595D+00
 Coeff:     -0.496D-03-0.265D-02 0.592D-02 0.108D+00 0.294D+00 0.595D+00
 Gap=     0.178 Goal=   None    Shift=    0.000
 RMSDP=3.74D-06 MaxDP=2.96D-04 DE=-8.79D-09 OVMax= 1.04D-05

 Cycle   7  Pass 1  IDiag  1:
 E= -1610.64158621990     Delta-E=       -0.000000000657 Rises=F Damp=F
 DIIS: error= 4.76D-07 at cycle   7 NSaved=   7.
 NSaved= 7 IEnMin= 7 EnMin= -1610.64158621990     IErMin= 7 ErrMin= 4.76D-07
 ErrMax= 4.76D-07  0.00D+00 EMaxC= 1.00D-01 BMatC= 6.57D-11 BMatP= 6.63D-10
 IDIUse=1 WtCom= 1.00D+00 WtEn= 0.00D+00
 Coeff-Com:  0.154D-03-0.742D-02-0.561D-02 0.155D-01 0.818D-01 0.299D+00
 Coeff-Com:  0.617D+00
 Coeff:      0.154D-03-0.742D-02-0.561D-02 0.155D-01 0.818D-01 0.299D+00
 Coeff:      0.617D+00
 Gap=     0.178 Goal=   None    Shift=    0.000
 RMSDP=2.07D-06 MaxDP=1.65D-04 DE=-6.57D-10 OVMax= 3.04D-06

 Cycle   8  Pass 1  IDiag  1:
 E= -1610.64158621999     Delta-E=       -0.000000000087 Rises=F Damp=F
 DIIS: error= 1.31D-07 at cycle   8 NSaved=   8.
 NSaved= 8 IEnMin= 8 EnMin= -1610.64158621999     IErMin= 8 ErrMin= 1.31D-07
 ErrMax= 1.31D-07  0.00D+00 EMaxC= 1.00D-01 BMatC= 3.38D-12 BMatP= 6.57D-11
 IDIUse=1 WtCom= 1.00D+00 WtEn= 0.00D+00
 Coeff-Com:  0.835D-04-0.242D-02-0.220D-02-0.313D-02 0.474D-02 0.601D-01
 Coeff-Com:  0.237D+00 0.706D+00
 Coeff:      0.835D-04-0.242D-02-0.220D-02-0.313D-02 0.474D-02 0.601D-01
 Coeff:      0.237D+00 0.706D+00
 Gap=     0.178 Goal=   None    Shift=    0.000
 RMSDP=4.93D-07 MaxDP=3.04D-05 DE=-8.73D-11 OVMax= 1.18D-06

 Cycle   9  Pass 1  IDiag  1:
 E= -1610.64158621997     Delta-E=        0.000000000015 Rises=F Damp=F
 DIIS: error= 8.77D-08 at cycle   9 NSaved=   9.
 NSaved= 9 IEnMin= 8 EnMin= -1610.64158621999     IErMin= 9 ErrMin= 8.77D-08
 ErrMax= 8.77D-08  0.00D+00 EMaxC= 1.00D-01 BMatC= 8.86D-13 BMatP= 3.38D-12
 IDIUse=1 WtCom= 1.00D+00 WtEn= 0.00D+00
 Coeff-Com:  0.415D-04-0.899D-03-0.897D-03-0.273D-02-0.249D-02 0.135D-01
 Coeff-Com:  0.914D-01 0.409D+00 0.493D+00
 Coeff:      0.415D-04-0.899D-03-0.897D-03-0.273D-02-0.249D-02 0.135D-01
 Coeff:      0.914D-01 0.409D+00 0.493D+00
 Gap=     0.178 Goal=   None    Shift=    0.000
 RMSDP=7.24D-08 MaxDP=3.97D-06 DE= 1.50D-11 OVMax= 5.05D-07

 Cycle  10  Pass 1  IDiag  1:
 E= -1610.64158621997     Delta-E=        0.000000000000 Rises=F Damp=F
 DIIS: error= 3.18D-08 at cycle  10 NSaved=  10.
 NSaved=10 IEnMin= 8 EnMin= -1610.64158621999     IErMin=10 ErrMin= 3.18D-08
 ErrMax= 3.18D-08  0.00D+00 EMaxC= 1.00D-01 BMatC= 8.82D-14 BMatP= 8.86D-13
 IDIUse=1 WtCom= 1.00D+00 WtEn= 0.00D+00
 Coeff-Com:  0.125D-05 0.119D-03 0.452D-04-0.799D-03-0.259D-02-0.787D-02
 Coeff-Com: -0.800D-02 0.523D-01 0.255D+00 0.712D+00
 Coeff:      0.125D-05 0.119D-03 0.452D-04-0.799D-03-0.259D-02-0.787D-02
 Coeff:     -0.800D-02 0.523D-01 0.255D+00 0.712D+00
 Gap=     0.178 Goal=   None    Shift=    0.000
 RMSDP=8.17D-08 MaxDP=5.60D-06 DE= 4.55D-13 OVMax= 1.76D-07

 Cycle  11  Pass 1  IDiag  1:
 E= -1610.64158621996     Delta-E=        0.000000000010 Rises=F Damp=F
 DIIS: error= 5.75D-09 at cycle  11 NSaved=  11.
 NSaved=11 IEnMin= 8 EnMin= -1610.64158621999     IErMin=11 ErrMin= 5.75D-09
 ErrMax= 5.75D-09  0.00D+00 EMaxC= 1.00D-01 BMatC= 6.10D-15 BMatP= 8.82D-14
 IDIUse=1 WtCom= 1.00D+00 WtEn= 0.00D+00
 Coeff-Com: -0.151D-05 0.104D-03 0.673D-04-0.186D-03-0.944D-03-0.428D-02
 Coeff-Com: -0.858D-02 0.239D-02 0.870D-01 0.329D+00 0.595D+00
 Coeff:     -0.151D-05 0.104D-03 0.673D-04-0.186D-03-0.944D-03-0.428D-02
 Coeff:     -0.858D-02 0.239D-02 0.870D-01 0.329D+00 0.595D+00
 Gap=     0.178 Goal=   None    Shift=    0.000
 RMSDP=1.16D-08 MaxDP=7.74D-07 DE= 1.02D-11 OVMax= 3.95D-08

 Cycle  12  Pass 1  IDiag  1:
 E= -1610.64158621998     Delta-E=       -0.000000000019 Rises=F Damp=F
 DIIS: error= 1.81D-09 at cycle  12 NSaved=  12.
 NSaved=12 IEnMin= 8 EnMin= -1610.64158621999     IErMin=12 ErrMin= 1.81D-09
 ErrMax= 1.81D-09  0.00D+00 EMaxC= 1.00D-01 BMatC= 1.01D-15 BMatP= 6.10D-15
 IDIUse=1 WtCom= 1.00D+00 WtEn= 0.00D+00
 Coeff-Com: -0.868D-06 0.314D-04 0.216D-04 0.133D-04-0.103D-03-0.103D-02
 Coeff-Com: -0.318D-02-0.658D-02 0.308D-02 0.576D-01 0.313D+00 0.637D+00
 Coeff:     -0.868D-06 0.314D-04 0.216D-04 0.133D-04-0.103D-03-0.103D-02
 Coeff:     -0.318D-02-0.658D-02 0.308D-02 0.576D-01 0.313D+00 0.637D+00
 Gap=     0.178 Goal=   None    Shift=    0.000
 RMSDP=1.42D-08 MaxDP=8.02D-07 DE=-1.93D-11 OVMax= 1.66D-08

 Cycle  13  Pass 1  IDiag  1:
 E= -1610.64158621998     Delta-E=        0.000000000005 Rises=F Damp=F
 DIIS: error= 3.72D-10 at cycle  13 NSaved=  13.
 NSaved=13 IEnMin= 8 EnMin= -1610.64158621999     IErMin=13 ErrMin= 3.72D-10
 ErrMax= 3.72D-10  0.00D+00 EMaxC= 1.00D-01 BMatC= 5.03D-17 BMatP= 1.01D-15
 IDIUse=1 WtCom= 1.00D+00 WtEn= 0.00D+00
 Coeff-Com: -0.202D-06 0.331D-05 0.361D-05 0.228D-04 0.436D-04-0.161D-04
 Coeff-Com: -0.390D-03-0.250D-02-0.685D-02-0.784D-02 0.675D-01 0.250D+00
 Coeff-Com:  0.700D+00
 Coeff:     -0.202D-06 0.331D-05 0.361D-05 0.228D-04 0.436D-04-0.161D-04
 Coeff:     -0.390D-03-0.250D-02-0.685D-02-0.784D-02 0.675D-01 0.250D+00
 Coeff:      0.700D+00
 Gap=     0.178 Goal=   None    Shift=    0.000
 RMSDP=1.41D-08 MaxDP=1.24D-06 DE= 4.55D-12 OVMax= 3.09D-09

 Cycle  14  Pass 1  IDiag  1:
 E= -1610.64158621998     Delta-E=       -0.000000000004 Rises=F Damp=F
 DIIS: error= 1.32D-10 at cycle  14 NSaved=  14.
 NSaved=14 IEnMin= 8 EnMin= -1610.64158621999     IErMin=14 ErrMin= 1.32D-10
 ErrMax= 1.32D-10  0.00D+00 EMaxC= 1.00D-01 BMatC= 4.76D-18 BMatP= 5.03D-17
 IDIUse=1 WtCom= 1.00D+00 WtEn= 0.00D+00
 Coeff-Com: -0.348D-07-0.859D-06 0.222D-06 0.789D-05 0.227D-04 0.683D-04
 Coeff-Com:  0.838D-04-0.560D-03-0.316D-02-0.804D-02 0.253D-02 0.572D-01
 Coeff-Com:  0.292D+00 0.660D+00
 Coeff:     -0.348D-07-0.859D-06 0.222D-06 0.789D-05 0.227D-04 0.683D-04
 Coeff:      0.838D-04-0.560D-03-0.316D-02-0.804D-02 0.253D-02 0.572D-01
 Coeff:      0.292D+00 0.660D+00
 Gap=     0.178 Goal=   None    Shift=    0.000
 RMSDP=5.18D-09 MaxDP=2.59D-07 DE=-4.09D-12 OVMax= 9.61D-10

 Error on total polarization charges =  0.03119
 SCF Done:  E(RB3LYP) =  -1610.64158622     A.U. after   14 cycles
            NFock= 14  Conv=0.52D-08     -V/T= 2.0026
 KE= 1.606390102333D+03 PE=-5.040747454257D+03 EE= 1.218489982174D+03
 SMD-CDS (non-electrostatic) energy       (kcal/mol) =       3.18
 (included in total energy above)
 Leave Link  502 at Mon Sep 28 02:46:35 2026, MaxMem=  1610612736 cpu:             109.3 elap:              14.7
 (Enter /share/software/user/restricted/gaussian/g16.B01/l701.exe)
 ... and contract with generalized density number  0.
 Compute integral first derivatives.
 D1PCM: PCM CHGder 1st derivatives, ID1Alg=3 FixD1E=F DoIter=F DoCFld=F I1PDM=0.
 GePol: Maximum number of non-zero 1st derivatives   =     374
 Leave Link  701 at Mon Sep 28 02:46:36 2026, MaxMem=  1610612736 cpu:               4.1 elap:               0.5
 (Enter /share/software/user/restricted/gaussian/g16.B01/l702.exe)
 L702 exits ... SP integral derivatives will be done elsewhere.
 Leave Link  702 at Mon Sep 28 02:46:36 2026, MaxMem=  1610612736 cpu:               0.2 elap:               0.0
 (Enter /share/software/user/restricted/gaussian/g16.B01/l703.exe)
 Integral derivatives from FoFJK, PRISM(SPDF).
 Compute integral first derivatives, UseDBF=F ICtDFT=           0.
 Calling FoFJK, ICntrl=      2127 FMM=F ISym2X=1 I1Cent= 0 IOpClX= 0 NMat=1 NMatS=1 NMatT=0.
 FoFJK:  IHMeth= 1 ICntrl=    2127 DoSepK=F KAlg= 0 I1Cent=           0 FoldK=F
 IRaf=         0 NMat=       1 IRICut=       1 DoRegI=T DoRafI=F ISym2E= 1 IDoP0=0 IntGTp=1.
 FoFCou: FMM=F IPFlag=           0 FMFlag=      100000 FMFlg1=         800
         NFxFlg=           0 DoJE=F BraDBF=F KetDBF=F FulRan=T
         wScrn=  0.000000 ICntrl=      2127 IOpCl=  0 I1Cent=           0 NGrid=           0
         NMat0=    1 NMatS0=      1 NMatT0=    0 NMatD0=    1 NMtDS0=    0 NMtDT0=    0
 Petite list used in FoFCou.
 Leave Link  703 at Mon Sep 28 02:46:38 2026, MaxMem=  1610612736 cpu:              19.7 elap:               2.5
 (Enter /share/software/user/restricted/gaussian/g16.B01/l716.exe)
 Dipole        =-2.58096594D+00-1.16600224D+00 2.39014363D-31
 ***** Axes restored to original set *****
 -------------------------------------------------------------------
 Center     Atomic                   Forces (Hartrees/Bohr)
 Number     Number              X              Y              Z
 -------------------------------------------------------------------
      1        6           0.000258843   -0.000395499    0.000000000
      2        6          -0.000837535    0.000537200   -0.000000000
      3        6           0.000902665   -0.000916861   -0.000000000
      4        6           0.000090437    0.000311708    0.000000000
      5        6          -0.000361491   -0.000229911    0.000000000
      6        6           0.000010838    0.000153375   -0.000000000
      7       17           0.000262935    0.000141127    0.000000000
      8       17          -0.000572309    0.000417242    0.000000000
      9        1           0.000007554   -0.000011380    0.000000000
     10       17           0.000236458    0.000038801   -0.000000000
     11        1           0.000001604   -0.000045802    0.000000000
 -------------------------------------------------------------------
 Cartesian Forces:  Max     0.000916861 RMS     0.000340757
 Leave Link  716 at Mon Sep 28 02:46:39 2026, MaxMem=  1610612736 cpu:               0.1 elap:               0.0
 (Enter /share/software/user/restricted/gaussian/g16.B01/l103.exe)

 GradGradGradGradGradGradGradGradGradGradGradGradGradGradGradGradGradGrad
 Berny optimization.
 Using GEDIIS/GDIIS optimizer.
 FormGI is forming the generalized inverse of G from B-inverse, IUseBI=4.
 Internal  Forces:  Max     0.000702493 RMS     0.000156463
 Search for a local minimum.
 Step number   5 out of a maximum of   57
 All quantities printed in internal units (Hartrees-Bohrs-Radians)
 RMS Force = .15646D-03 SwitMx=.10000D-02 MixMth= 2
 Mixed Optimization -- En-DIIS/RFO-DIIS
 Swapping is turned off.
 Update second derivatives using D2CorX and points    1    2    3    4    5
 DE= -1.77D-05 DEPred=-1.42D-05 R= 1.25D+00
 TightC=F SS=  1.41D+00  RLast= 1.28D-02 DXNew= 8.2823D-01 3.8382D-02
 Trust test= 1.25D+00 RLast= 1.28D-02 DXMaxT set to 4.92D-01
 ITU=  1  1  1  1  0
     Eigenvalues ---    0.02081   0.02092   0.02100   0.02118   0.02123
     Eigenvalues ---    0.02135   0.02164   0.02209   0.11237   0.15670
     Eigenvalues ---    0.16109   0.20118   0.24741   0.24968   0.25062
     Eigenvalues ---    0.26232   0.27017   0.29257   0.33194   0.33947
     Eigenvalues ---    0.35233   0.42142   0.42922   0.45922   0.46014
     Eigenvalues ---    0.48301   0.49260
 En-DIIS/RFO-DIIS/Sim-DIIS IScMMF=       -3 using points:     5    4    3
 RFO step:  Lambda=-5.12128456D-06.
 NNeg= 0 NGDIIS= 3 SimSw=  2.50D-01 Rises=F DC= -1.77D-05 SmlDif=  1.00D-05
 NRisDI= 0 DoIntr=F SqrtH=F CThrHd= 10.0 CDAdj=  3.0
 RMS Error=  0.7710767315D-03 NUsed= 3 OKEnD=T EnDIS=F
 InvSVX:  RCond= 2.45D-06 Info=           0 Equed=N FErr=  2.51D-14 BErr=  9.37D-17
 DidBck=F Rises=F RFO-DIIS coefs:    1.65470   -0.82614    0.17144
 Iteration  1 RMS(Cart)=  0.00069218 RMS(Int)=  0.00000039
 Iteration  2 RMS(Cart)=  0.00000042 RMS(Int)=  0.00000024
 ITry= 1 IFail=0 DXMaxC= 1.99D-03 DCOld= 1.00D+10 DXMaxT= 4.92D-01 DXLimC= 3.00D+00 Rises=F
 ClnCor:  largest displacement from symmetrization is 1.59D-12 for atom     8.
 Variable       Old X    -DE/DX   Delta X   Delta X   Delta X     New X
                                 (Linear)    (Quad)   (Total)
    R1        2.61318  -0.00040  -0.00206   0.00007  -0.00199   2.61119
    R2        2.66154  -0.00008  -0.00047   0.00027  -0.00021   2.66134
    R3        2.63785   0.00035  -0.00030   0.00119   0.00089   2.63874
    R4        3.43569   0.00030   0.00230   0.00064   0.00293   3.43863
    R5        2.63311  -0.00005  -0.00010   0.00015   0.00005   2.63316
    R6        3.36558  -0.00070  -0.00215  -0.00108  -0.00323   3.36234
    R7        2.62548   0.00006   0.00016   0.00021   0.00038   2.62586
    R8        2.04412   0.00001  -0.00009   0.00024   0.00016   2.04428
    R9        2.63154   0.00004  -0.00023   0.00012  -0.00010   2.63144
   R10        3.37486  -0.00023  -0.00050  -0.00030  -0.00079   3.37407
   R11        2.05662  -0.00003  -0.00030   0.00023  -0.00008   2.05654
    A1        2.01297   0.00016   0.00133  -0.00011   0.00121   2.01418
    A2        2.16459   0.00006   0.00034   0.00024   0.00058   2.16517
    A3        2.06876   0.00007   0.00057  -0.00025   0.00033   2.06908
    A4        2.04984  -0.00013  -0.00091   0.00001  -0.00091   2.04893
    A5        2.09193  -0.00025  -0.00088  -0.00077  -0.00165   2.09028
    A6        2.15439   0.00012   0.00033   0.00062   0.00094   2.15533
    A7        2.03687   0.00012   0.00056   0.00015   0.00071   2.03758
    A8        2.04764   0.00017   0.00024   0.00077   0.00101   2.04865
    A9        2.11002  -0.00006   0.00029  -0.00039  -0.00009   2.10992
   A10        2.12553  -0.00012  -0.00054  -0.00038  -0.00092   2.12461
   A11        2.13061  -0.00009   0.00040  -0.00046  -0.00006   2.13055
   A12        2.05994  -0.00002  -0.00077   0.00037  -0.00040   2.05954
   A13        2.09264   0.00010   0.00037   0.00009   0.00046   2.09310
   A14        2.11863  -0.00006  -0.00142   0.00033  -0.00109   2.11754
   A15        2.10539   0.00003  -0.00026   0.00049   0.00023   2.10563
   A16        2.05917   0.00004   0.00168  -0.00082   0.00086   2.06002
    D1       -0.00000  -0.00000   0.00000  -0.00000   0.00000   0.00000
    D2        3.14159   0.00000  -0.00000   0.00000   0.00000   3.14159
    D3        0.00000   0.00000   0.00000   0.00000  -0.00000   0.00000
    D4        3.14159   0.00000  -0.00000   0.00000   0.00000   3.14159
    D5        0.00000  -0.00000   0.00000  -0.00000   0.00000   0.00000
    D6        3.14159   0.00000  -0.00000  -0.00000   0.00000   3.14159
    D7        3.14159  -0.00000  -0.00000  -0.00000   0.00000   3.14159
    D8        0.00000  -0.00000   0.00000  -0.00000  -0.00000   0.00000
    D9       -0.00000   0.00000   0.00000   0.00000   0.00000   0.00000
   D10        3.14159   0.00000  -0.00000   0.00000   0.00000   3.14159
   D11        3.14159  -0.00000  -0.00000   0.00000   0.00000   3.14159
   D12       -0.00000  -0.00000   0.00000   0.00000   0.00000   0.00000
   D13        0.00000  -0.00000   0.00000  -0.00000   0.00000   0.00000
   D14        3.14159  -0.00000  -0.00000  -0.00000   0.00000   3.14159
   D15        3.14159  -0.00000  -0.00000   0.00000   0.00000   3.14159
   D16        0.00000  -0.00000   0.00000  -0.00000   0.00000   0.00000
   D17       -0.00000  -0.00000   0.00000  -0.00000   0.00000   0.00000
   D18        3.14159   0.00000  -0.00000  -0.00000   0.00000   3.14159
   D19        3.14159  -0.00000  -0.00000  -0.00000   0.00000   3.14159
   D20        0.00000   0.00000   0.00000   0.00000   0.00000   0.00000
         Item               Value     Threshold  Converged?
 Maximum Force            0.000702     0.000450     NO 
 RMS     Force            0.000156     0.000300     YES
 Maximum Displacement     0.001988     0.001800     NO 
 RMS     Displacement     0.000692     0.001200     YES
 Predicted change in Energy=-2.463377D-06
 Lowest energy point so far.  Saving SCF results.
 GradGradGradGradGradGradGradGradGradGradGradGradGradGradGradGradGradGrad

 Leave Link  103 at Mon Sep 28 02:46:39 2026, MaxMem=  1610612736 cpu:               0.1 elap:               0.0
 (Enter /share/software/user/restricted/gaussian/g16.B01/l202.exe)
                          Input orientation:                          
 ---------------------------------------------------------------------
 Center     Atomic      Atomic             Coordinates (Angstroms)
 Number     Number       Type             X           Y           Z
 ---------------------------------------------------------------------
      1          6           0       -0.001624    1.456465   -0.000000
      2          6           0        1.161923    0.711157   -0.000000
      3          6           0        1.196376   -0.684779    0.000000
      4          6           0        0.004229   -1.406144    0.000000
      5          6           0       -1.181272   -0.681286    0.000000
      6          6           0       -1.196542    0.711126   -0.000000
      7         17           0        2.756353    1.588021   -0.000000
      8         17           0        2.704010   -1.629693    0.000000
      9          1           0        0.009671   -2.487917    0.000000
     10         17           0       -2.718836   -1.588940    0.000000
     11          1           0       -2.162710    1.211990   -0.000000
 ---------------------------------------------------------------------
                    Distance matrix (angstroms):
                    1          2          3          4          5
     1  C    0.000000
     2  C    1.381783   0.000000
     3  C    2.453595   1.396361   0.000000
     4  C    2.862615   2.413134   1.393406   0.000000
     5  C    2.441629   2.725704   2.377650   1.389543   0.000000
     6  C    1.408318   2.358465   2.770308   2.434066   1.392496
     7  Cl   2.761112   1.819642   2.756655   4.066843   4.544738
     8  Cl   4.104245   2.803143   1.779276   2.709021   3.999361
     9  H    3.944399   3.400259   2.158605   1.081787   2.163853
    10  Cl   4.081389   4.511179   4.018257   2.729193   1.785480
    11  H    2.174871   3.362145   3.857614   3.398565   2.132537
                    6          7          8          9         10
     6  C    0.000000
     7  Cl   4.048990   0.000000
     8  Cl   4.549037   3.218140   0.000000
     9  H    3.418893   4.915032   2.827722   0.000000
    10  Cl   2.758203   6.330148   5.422999   2.872788   0.000000
    11  H    1.088276   4.933415   5.635612   4.290519   2.855606
                   11
    11  H    0.000000
 Stoichiometry    C6H2Cl3(1-)
 Framework group  CS[SG(C6H2Cl3)]
 Deg. of freedom    19
 Full point group                 CS      NOp   2
 RotChk:  IX=1 Diff= 3.60D-04
 Largest Abelian subgroup         CS      NOp   2
 Largest concise Abelian subgroup C1      NOp   1
                         Standard orientation:                         
 ---------------------------------------------------------------------
 Center     Atomic      Atomic             Coordinates (Angstroms)
 Number     Number       Type             X           Y           Z
 ---------------------------------------------------------------------
      1          6           0        1.339707    1.267306    0.000000
      2          6           0        1.220183   -0.109298    0.000000
      3          6           0        0.000000   -0.788251    0.000000
      4          6           0       -1.192591   -0.067621    0.000000
      5          6           0       -1.101377    1.318925    0.000000
      6          6           0        0.124597    1.979253    0.000000
      7         17           0        2.737348   -1.113941    0.000000
      8         17           0       -0.136450   -2.562287    0.000000
      9          1           0       -2.148040   -0.574948    0.000000
     10         17           0       -2.619392    2.258908    0.000000
     11          1           0        0.119336    3.067517    0.000000
 ---------------------------------------------------------------------
 Rotational constants (GHZ):           1.8538903           0.5864171           0.4454984
 Leave Link  202 at Mon Sep 28 02:46:39 2026, MaxMem=  1610612736 cpu:               0.3 elap:               0.1
 (Enter /share/software/user/restricted/gaussian/g16.B01/l301.exe)
 Standard basis: 6-311++G(d) (5D, 7F)
 Ernie: Thresh=  0.10000D-02 Tol=  0.10000D-05 Strict=F.
 There are   179 symmetry adapted cartesian basis functions of A'  symmetry.
 There are    60 symmetry adapted cartesian basis functions of A"  symmetry.
 There are   170 symmetry adapted basis functions of A'  symmetry.
 There are    60 symmetry adapted basis functions of A"  symmetry.
   230 basis functions,   387 primitive gaussians,   239 cartesian basis functions
    45 alpha electrons       45 beta electrons
       nuclear repulsion energy       605.2443770154 Hartrees.
 IExCor=  402 DFT=T Ex+Corr=B3LYP ExCW=0 ScaHFX=  0.200000
 ScaDFX=  0.800000  0.720000  1.000000  0.810000 ScalE2=  1.000000  1.000000
 IRadAn=      5 IRanWt=     -1 IRanGd=            0 ICorTp=0 IEmpDi=  4
 NAtoms=   11 NActive=   11 NUniq=   11 SFac= 1.00D+00 NAtFMM=   60 NAOKFM=F Big=F
 Integral buffers will be    131072 words long.
 Raffenetti 2 integral format.
 Two-electron integral symmetry is turned on.
 ------------------------------------------------------------------------------
 Polarizable Continuum Model (PCM)
 =================================
 Model                : PCM.
 Atomic radii         : SMD-Coulomb.
 Polarization charges : Total charges.
 Charge compensation  : None.
 Solution method      : On-the-fly selection.
 Cavity type          : VdW (van der Waals Surface) (Alpha=1.000).
 Cavity algorithm     : GePol (No added spheres)
                        Default sphere list used, NSphG=   11.
                        Lebedev-Laikov grids with approx.  5.0 points / Ang**2.
                        Smoothing algorithm: York/Karplus (Gamma=1.0000).
                        Polarization charges: spherical gaussians, with
                                              point-specific exponents (IZeta= 3).
                        Self-potential: point-specific (ISelfS= 7).
                        Self-field    : sphere-specific E.n sum rule (ISelfD= 2).
 1st derivatives      : Analytical E(r).r(x)/FMM algorithm (CHGder, D1EAlg=3).
                        Cavity 1st derivative terms included.
 Solvent              : Water, Eps=  78.355300 Eps(inf)=   1.777849
 ------------------------------------------------------------------------------
 Spheres list:
 ISph  on   Nord     Re0    Alpha      Xe            Ye            Ze
    1   C      1    1.8500  1.000      1.339707      1.267306      0.000000
    2   C      2    1.8500  1.000      1.220183     -0.109298     -0.000000
    3   C      3    1.8500  1.000      0.000000     -0.788251     -0.000000
    4   C      4    1.8500  1.000     -1.192591     -0.067621      0.000000
    5   C      5    1.8500  1.000     -1.101377      1.318925      0.000000
    6   C      6    1.8500  1.000      0.124597      1.979253     -0.000000
    7  Cl      7    2.3800  1.000      2.737348     -1.113941      0.000000
    8  Cl      8    2.3800  1.000     -0.136450     -2.562287     -0.000000
    9   H      9    1.2000  1.000     -2.148040     -0.574948      0.000000
   10  Cl     10    2.3800  1.000     -2.619392      2.258908      0.000000
   11   H     11    1.2000  1.000      0.119336      3.067517     -0.000000
 ------------------------------------------------------------------------------
 GePol: Number of generator spheres                  =      11
 GePol: Total number of spheres                      =      11
 GePol: Number of exposed spheres                    =      11 (100.00%)
 GePol: Number of points                             =    1491
 GePol: Average weight of points                     =       0.14
 GePol: Minimum weight of points                     =   0.46D-11
 GePol: Maximum weight of points                     =    0.18138
 GePol: Number of points with low weight             =      42
 GePol: Fraction of low-weight points (<1% of avg)   =       2.82%
 GePol: Cavity surface area                          =    206.823 Ang**2
 GePol: Cavity volume                                =    205.485 Ang**3
 ------------------------------------------------------------------------------
 Atomic radii for non-electrostatic terms: SMD-CDS.
 ------------------------------------------------------------------------------
 PCM non-electrostatic energy =         0.0050655504 Hartrees.
 Nuclear repulsion after PCM non-electrostatic terms =      605.2494425658 Hartrees.
 Leave Link  301 at Mon Sep 28 02:46:39 2026, MaxMem=  1610612736 cpu:               0.5 elap:               0.1
 (Enter /share/software/user/restricted/gaussian/g16.B01/l302.exe)
 NPDir=0 NMtPBC=     1 NCelOv=     1 NCel=       1 NClECP=     1 NCelD=      1
         NCelK=      1 NCelE2=     1 NClLst=     1 CellRange=     0.0.
 One-electron integrals computed using PRISM.
 One-electron integral symmetry used in STVInt
 NBasis=   230 RedAO= T EigKep=  1.33D-06  NBF=   170    60
 NBsUse=   230 1.00D-06 EigRej= -1.00D+00 NBFU=   170    60
 Precomputing XC quadrature grid using
 IXCGrd= 4 IRadAn=           5 IRanWt=          -1 IRanGd=           0 AccXCQ= 0.00D+00.
 Generated NRdTot=       0 NPtTot=           0 NUsed=           0 NTot=          32
 NSgBfM=   236   236   236   236   236 MxSgAt=    11 MxSgA2=    11.
 Leave Link  302 at Mon Sep 28 02:46:39 2026, MaxMem=  1610612736 cpu:               1.0 elap:               0.2
 (Enter /share/software/user/restricted/gaussian/g16.B01/l303.exe)
 DipDrv:  MaxL=1.
 Leave Link  303 at Mon Sep 28 02:46:39 2026, MaxMem=  1610612736 cpu:               0.3 elap:               0.0
 (Enter /share/software/user/restricted/gaussian/g16.B01/l401.exe)
 Initial guess from the checkpoint file:  "calcs/b3lyp_smd/chks/ClPh_235_anion.chk"
 B after Tr=     0.000000   -0.000000   -0.000000
         Rot=    1.000000   -0.000000    0.000000   -0.000165 Ang=  -0.02 deg.
 Guess basis will be translated and rotated to current coordinates.
 JPrj=2 DoOrth=T DoCkMO=T.
 Initial guess orbital symmetries:
       Occupied  (A') (A') (A') (A') (A') (A') (A') (A') (A') (A')
                 (A') (A') (A') (A') (A") (A') (A") (A') (A') (A")
                 (A') (A') (A') (A') (A') (A') (A') (A') (A') (A')
                 (A') (A') (A') (A") (A') (A") (A') (A") (A') (A')
                 (A") (A') (A") (A") (A')
       Virtual   (A") (A') (A") (A') (A') (A') (A') (A') (A") (A')
                 (A') (A") (A') (A") (A') (A') (A') (A") (A') (A")
                 (A') (A') (A') (A") (A') (A") (A') (A') (A") (A')
                 (A") (A') (A') (A") (A') (A') (A') (A') (A') (A')
                 (A') (A') (A') (A') (A') (A') (A') (A') (A') (A')
                 (A') (A') (A") (A') (A") (A') (A') (A") (A') (A')
                 (A') (A") (A') (A') (A") (A") (A") (A") (A') (A')
                 (A') (A") (A') (A') (A') (A') (A') (A") (A') (A')
                 (A") (A') (A") (A') (A") (A') (A") (A') (A') (A')
                 (A') (A') (A") (A') (A') (A') (A') (A") (A') (A')
                 (A") (A') (A') (A") (A') (A') (A') (A") (A") (A")
                 (A') (A') (A') (A') (A') (A') (A') (A") (A") (A')
                 (A') (A') (A") (A") (A") (A') (A') (A') (A') (A')
                 (A") (A") (A') (A") (A') (A") (A') (A') (A') (A')
                 (A') (A') (A') (A') (A") (A') (A") (A") (A") (A")
                 (A') (A") (A') (A') (A') (A') (A') (A') (A') (A')
                 (A') (A') (A') (A') (A') (A') (A') (A') (A') (A')
                 (A') (A') (A') (A") (A") (A") (A') (A') (A') (A')
                 (A') (A') (A') (A') (A')
 The electronic state of the initial guess is 1-A'.
 Leave Link  401 at Mon Sep 28 02:46:39 2026, MaxMem=  1610612736 cpu:               1.2 elap:               0.2
 (Enter /share/software/user/restricted/gaussian/g16.B01/l502.exe)
 Keep R1 ints in memory in symmetry-blocked form, NReq=538860879.
 FoFCou: FMM=F IPFlag=           0 FMFlag=           0 FMFlg1=           0
         NFxFlg=           0 DoJE=F BraDBF=F KetDBF=F FulRan=T
         wScrn=  0.000000 ICntrl=       600 IOpCl=  0 I1Cent=           0 NGrid=           0
         NMat0=    1 NMatS0=  26565 NMatT0=    0 NMatD0=    1 NMtDS0=    0 NMtDT0=    0
 Petite list used in FoFCou.
 Closed shell SCF:
 Using DIIS extrapolation, IDIIS=  1040.
 NGot=  1610612736 LenX=  1424497779 LenY=  1424440217
 Requested convergence on RMS density matrix=1.00D-08 within 128 cycles.
 Requested convergence on MAX density matrix=1.00D-06.
 Requested convergence on             energy=1.00D-06.
 No special actions if energy rises.

 Cycle   1  Pass 1  IDiag  1:
 Inv3:  Mode=1 IEnd=     6669243.
 Iteration    1 A*A^-1 deviation from unit magnitude is 5.22D-15 for   1482.
 Iteration    1 A*A^-1 deviation from orthogonality  is 3.04D-15 for   1477   1345.
 Iteration    1 A^-1*A deviation from unit magnitude is 5.22D-15 for   1482.
 Iteration    1 A^-1*A deviation from orthogonality  is 2.35D-15 for   1477   1345.
 E= -1610.64158467378    
 DIIS: error= 5.89D-05 at cycle   1 NSaved=   1.
 NSaved= 1 IEnMin= 1 EnMin= -1610.64158467378     IErMin= 1 ErrMin= 5.89D-05
 ErrMax= 5.89D-05  0.00D+00 EMaxC= 1.00D-01 BMatC= 3.51D-06 BMatP= 3.51D-06
 IDIUse=1 WtCom= 1.00D+00 WtEn= 0.00D+00
 Coeff-Com:  0.100D+01
 Coeff:      0.100D+01
 Gap=     0.178 Goal=   None    Shift=    0.000
 RMSDP=1.00D-03 MaxDP=5.16D-02              OVMax= 1.05D-03

 Cycle   2  Pass 1  IDiag  1:
 E= -1610.64158994607     Delta-E=       -0.000005272291 Rises=F Damp=F
 DIIS: error= 2.58D-05 at cycle   2 NSaved=   2.
 NSaved= 2 IEnMin= 2 EnMin= -1610.64158994607     IErMin= 2 ErrMin= 2.58D-05
 ErrMax= 2.58D-05  0.00D+00 EMaxC= 1.00D-01 BMatC= 2.90D-07 BMatP= 3.51D-06
 IDIUse=1 WtCom= 1.00D+00 WtEn= 0.00D+00
 Coeff-Com:  0.832D-01 0.917D+00
 Coeff:      0.832D-01 0.917D+00
 Gap=     0.178 Goal=   None    Shift=    0.000
 RMSDP=9.28D-05 MaxDP=5.87D-03 DE=-5.27D-06 OVMax= 2.18D-04

 Cycle   3  Pass 1  IDiag  1:
 E= -1610.64159003807     Delta-E=       -0.000000091999 Rises=F Damp=F
 DIIS: error= 2.48D-05 at cycle   3 NSaved=   3.
 NSaved= 3 IEnMin= 3 EnMin= -1610.64159003807     IErMin= 3 ErrMin= 2.48D-05
 ErrMax= 2.48D-05  0.00D+00 EMaxC= 1.00D-01 BMatC= 2.40D-07 BMatP= 2.90D-07
 IDIUse=1 WtCom= 1.00D+00 WtEn= 0.00D+00
 Coeff-Com: -0.166D-01 0.480D+00 0.536D+00
 Coeff:     -0.166D-01 0.480D+00 0.536D+00
 Gap=     0.178 Goal=   None    Shift=    0.000
 RMSDP=3.33D-05 MaxDP=2.82D-03 DE=-9.20D-08 OVMax= 9.96D-05

 Cycle   4  Pass 1  IDiag  1:
 E= -1610.64159025860     Delta-E=       -0.000000220530 Rises=F Damp=F
 DIIS: error= 5.45D-06 at cycle   4 NSaved=   4.
 NSaved= 4 IEnMin= 4 EnMin= -1610.64159025860     IErMin= 4 ErrMin= 5.45D-06
 ErrMax= 5.45D-06  0.00D+00 EMaxC= 1.00D-01 BMatC= 3.78D-09 BMatP= 2.40D-07
 IDIUse=1 WtCom= 1.00D+00 WtEn= 0.00D+00
 Coeff-Com: -0.745D-02 0.167D+00 0.200D+00 0.641D+00
 Coeff:     -0.745D-02 0.167D+00 0.200D+00 0.641D+00
 Gap=     0.178 Goal=   None    Shift=    0.000
 RMSDP=6.68D-06 MaxDP=3.87D-04 DE=-2.21D-07 OVMax= 4.47D-05

 Cycle   5  Pass 1  IDiag  1:
 E= -1610.64159026052     Delta-E=       -0.000000001914 Rises=F Damp=F
 DIIS: error= 4.34D-06 at cycle   5 NSaved=   5.
 NSaved= 5 IEnMin= 5 EnMin= -1610.64159026052     IErMin= 5 ErrMin= 4.34D-06
 ErrMax= 4.34D-06  0.00D+00 EMaxC= 1.00D-01 BMatC= 2.09D-09 BMatP= 3.78D-09
 IDIUse=1 WtCom= 1.00D+00 WtEn= 0.00D+00
 Coeff-Com: -0.245D-02 0.320D-01 0.423D-01 0.424D+00 0.504D+00
 Coeff:     -0.245D-02 0.320D-01 0.423D-01 0.424D+00 0.504D+00
 Gap=     0.178 Goal=   None    Shift=    0.000
 RMSDP=1.89D-06 MaxDP=1.00D-04 DE=-1.91D-09 OVMax= 2.06D-05

 Cycle   6  Pass 1  IDiag  1:
 E= -1610.64159026265     Delta-E=       -0.000000002136 Rises=F Damp=F
 DIIS: error= 8.30D-07 at cycle   6 NSaved=   6.
 NSaved= 6 IEnMin= 6 EnMin= -1610.64159026265     IErMin= 6 ErrMin= 8.30D-07
 ErrMax= 8.30D-07  0.00D+00 EMaxC= 1.00D-01 BMatC= 7.58D-11 BMatP= 2.09D-09
 IDIUse=1 WtCom= 1.00D+00 WtEn= 0.00D+00
 Coeff-Com: -0.507D-03-0.525D-03 0.217D-02 0.148D+00 0.233D+00 0.618D+00
 Coeff:     -0.507D-03-0.525D-03 0.217D-02 0.148D+00 0.233D+00 0.618D+00
 Gap=     0.178 Goal=   None    Shift=    0.000
 RMSDP=2.01D-06 MaxDP=1.64D-04 DE=-2.14D-09 OVMax= 5.17D-06

 Cycle   7  Pass 1  IDiag  1:
 E= -1610.64159026272     Delta-E=       -0.000000000068 Rises=F Damp=F
 DIIS: error= 3.59D-07 at cycle   7 NSaved=   7.
 NSaved= 7 IEnMin= 7 EnMin= -1610.64159026272     IErMin= 7 ErrMin= 3.59D-07
 ErrMax= 3.59D-07  0.00D+00 EMaxC= 1.00D-01 BMatC= 1.78D-11 BMatP= 7.58D-11
 IDIUse=1 WtCom= 1.00D+00 WtEn= 0.00D+00
 Coeff-Com:  0.119D-03-0.613D-02-0.549D-02 0.262D-01 0.607D-01 0.361D+00
 Coeff-Com:  0.564D+00
 Coeff:      0.119D-03-0.613D-02-0.549D-02 0.262D-01 0.607D-01 0.361D+00
 Coeff:      0.564D+00
 Gap=     0.178 Goal=   None    Shift=    0.000
 RMSDP=3.84D-07 MaxDP=3.53D-05 DE=-6.78D-11 OVMax= 1.75D-06

 Cycle   8  Pass 1  IDiag  1:
 E= -1610.64159026275     Delta-E=       -0.000000000031 Rises=F Damp=F
 DIIS: error= 3.72D-08 at cycle   8 NSaved=   8.
 NSaved= 8 IEnMin= 8 EnMin= -1610.64159026275     IErMin= 8 ErrMin= 3.72D-08
 ErrMax= 3.72D-08  0.00D+00 EMaxC= 1.00D-01 BMatC= 6.54D-13 BMatP= 1.78D-11
 IDIUse=1 WtCom= 1.00D+00 WtEn= 0.00D+00
 Coeff-Com:  0.814D-04-0.252D-02-0.224D-02-0.197D-02 0.281D-02 0.942D-01
 Coeff-Com:  0.227D+00 0.683D+00
 Coeff:      0.814D-04-0.252D-02-0.224D-02-0.197D-02 0.281D-02 0.942D-01
 Coeff:      0.227D+00 0.683D+00
 Gap=     0.178 Goal=   None    Shift=    0.000
 RMSDP=9.37D-08 MaxDP=5.01D-06 DE=-3.12D-11 OVMax= 3.78D-07

 Cycle   9  Pass 1  IDiag  1:
 E= -1610.64159026274     Delta-E=        0.000000000011 Rises=F Damp=F
 DIIS: error= 2.37D-08 at cycle   9 NSaved=   9.
 NSaved= 9 IEnMin= 8 EnMin= -1610.64159026275     IErMin= 9 ErrMin= 2.37D-08
 ErrMax= 2.37D-08  0.00D+00 EMaxC= 1.00D-01 BMatC= 5.06D-14 BMatP= 6.54D-13
 IDIUse=1 WtCom= 1.00D+00 WtEn= 0.00D+00
 Coeff-Com:  0.197D-04-0.443D-03-0.354D-03-0.214D-02-0.303D-02 0.947D-02
 Coeff-Com:  0.430D-01 0.263D+00 0.690D+00
 Coeff:      0.197D-04-0.443D-03-0.354D-03-0.214D-02-0.303D-02 0.947D-02
 Coeff:      0.430D-01 0.263D+00 0.690D+00
 Gap=     0.178 Goal=   None    Shift=    0.000
 RMSDP=2.44D-08 MaxDP=1.57D-06 DE= 1.14D-11 OVMax= 1.94D-07

 Cycle  10  Pass 1  IDiag  1:
 E= -1610.64159026274     Delta-E=        0.000000000000 Rises=F Damp=F
 DIIS: error= 1.32D-08 at cycle  10 NSaved=  10.
 NSaved=10 IEnMin= 8 EnMin= -1610.64159026275     IErMin=10 ErrMin= 1.32D-08
 ErrMax= 1.32D-08  0.00D+00 EMaxC= 1.00D-01 BMatC= 1.98D-14 BMatP= 5.06D-14
 IDIUse=1 WtCom= 1.00D+00 WtEn= 0.00D+00
 Coeff-Com:  0.246D-05 0.486D-04 0.476D-04-0.932D-03-0.203D-02-0.674D-02
 Coeff-Com: -0.581D-02 0.649D-01 0.422D+00 0.529D+00
 Coeff:      0.246D-05 0.486D-04 0.476D-04-0.932D-03-0.203D-02-0.674D-02
 Coeff:     -0.581D-02 0.649D-01 0.422D+00 0.529D+00
 Gap=     0.178 Goal=   None    Shift=    0.000
 RMSDP=8.87D-09 MaxDP=4.77D-07 DE= 0.00D+00 OVMax= 8.71D-08

 Error on total polarization charges =  0.03119
 SCF Done:  E(RB3LYP) =  -1610.64159026     A.U. after   10 cycles
            NFock= 10  Conv=0.89D-08     -V/T= 2.0026
 KE= 1.606391823991D+03 PE=-5.040797910592D+03 EE= 1.218515053772D+03
 SMD-CDS (non-electrostatic) energy       (kcal/mol) =       3.18
 (included in total energy above)
 Leave Link  502 at Mon Sep 28 02:46:51 2026, MaxMem=  1610612736 cpu:              88.7 elap:              11.7
 (Enter /share/software/user/restricted/gaussian/g16.B01/l701.exe)
 ... and contract with generalized density number  0.
 Compute integral first derivatives.
 D1PCM: PCM CHGder 1st derivatives, ID1Alg=3 FixD1E=F DoIter=F DoCFld=F I1PDM=0.
 GePol: Maximum number of non-zero 1st derivatives   =     374
 Leave Link  701 at Mon Sep 28 02:46:52 2026, MaxMem=  1610612736 cpu:               5.0 elap:               0.7
 (Enter /share/software/user/restricted/gaussian/g16.B01/l702.exe)
 L702 exits ... SP integral derivatives will be done elsewhere.
 Leave Link  702 at Mon Sep 28 02:46:52 2026, MaxMem=  1610612736 cpu:               0.1 elap:               0.0
 (Enter /share/software/user/restricted/gaussian/g16.B01/l703.exe)
 Integral derivatives from FoFJK, PRISM(SPDF).
 Compute integral first derivatives, UseDBF=F ICtDFT=           0.
 Calling FoFJK, ICntrl=      2127 FMM=F ISym2X=1 I1Cent= 0 IOpClX= 0 NMat=1 NMatS=1 NMatT=0.
 FoFJK:  IHMeth= 1 ICntrl=    2127 DoSepK=F KAlg= 0 I1Cent=           0 FoldK=F
 IRaf=         0 NMat=       1 IRICut=       1 DoRegI=T DoRafI=F ISym2E= 1 IDoP0=0 IntGTp=1.
 FoFCou: FMM=F IPFlag=           0 FMFlag=      100000 FMFlg1=         800
         NFxFlg=           0 DoJE=F BraDBF=F KetDBF=F FulRan=T
         wScrn=  0.000000 ICntrl=      2127 IOpCl=  0 I1Cent=           0 NGrid=           0
         NMat0=    1 NMatS0=      1 NMatT0=    0 NMatD0=    1 NMtDS0=    0 NMtDT0=    0
 Petite list used in FoFCou.
 Leave Link  703 at Mon Sep 28 02:46:55 2026, MaxMem=  1610612736 cpu:              22.7 elap:               3.1
 (Enter /share/software/user/restricted/gaussian/g16.B01/l716.exe)
 Dipole        =-2.58530004D+00-1.16542252D+00-2.46447620D-32
 ***** Axes restored to original set *****
 -------------------------------------------------------------------
 Center     Atomic                   Forces (Hartrees/Bohr)
 Number     Number              X              Y              Z
 -------------------------------------------------------------------
      1        6          -0.000013445    0.000106800    0.000000000
      2        6          -0.000223293    0.000110344   -0.000000000
      3        6           0.000305300   -0.000390701   -0.000000000
      4        6           0.000034670    0.000194691    0.000000000
      5        6          -0.000182598   -0.000200337   -0.000000000
      6        6           0.000099717    0.000010655    0.000000000
      7       17           0.000042243    0.000036204    0.000000000
      8       17          -0.000157379    0.000191615    0.000000000
      9        1           0.000043531    0.000026108    0.000000000
     10       17           0.000082988   -0.000006457   -0.000000000
     11        1          -0.000031734   -0.000078922   -0.000000000
 -------------------------------------------------------------------
 Cartesian Forces:  Max     0.000390701 RMS     0.000125944
 Leave Link  716 at Mon Sep 28 02:46:55 2026, MaxMem=  1610612736 cpu:               0.2 elap:               0.0
 (Enter /share/software/user/restricted/gaussian/g16.B01/l103.exe)

 GradGradGradGradGradGradGradGradGradGradGradGradGradGradGradGradGradGrad
 Berny optimization.
 Using GEDIIS/GDIIS optimizer.
 FormGI is forming the generalized inverse of G from B-inverse, IUseBI=4.
 Internal  Forces:  Max     0.000231058 RMS     0.000058939
 Search for a local minimum.
 Step number   6 out of a maximum of   57
 All quantities printed in internal units (Hartrees-Bohrs-Radians)
 RMS Force = .58939D-04 SwitMx=.10000D-02 MixMth= 2
 Mixed Optimization -- En-DIIS/RFO-DIIS
 Swapping is turned off.
 Update second derivatives using D2CorX and points    1    2    3    4    5
                                                      6
 DE= -4.04D-06 DEPred=-2.46D-06 R= 1.64D+00
 TightC=F SS=  1.41D+00  RLast= 5.98D-03 DXNew= 8.2823D-01 1.7939D-02
 Trust test= 1.64D+00 RLast= 5.98D-03 DXMaxT set to 4.92D-01
 ITU=  1  1  1  1  1  0
     Eigenvalues ---    0.02081   0.02092   0.02100   0.02118   0.02123
     Eigenvalues ---    0.02135   0.02163   0.02209   0.10258   0.15387
     Eigenvalues ---    0.16177   0.16566   0.24919   0.24967   0.25090
     Eigenvalues ---    0.26059   0.27373   0.28133   0.33157   0.33955
     Eigenvalues ---    0.35313   0.42503   0.43667   0.45789   0.46177
     Eigenvalues ---    0.48278   0.50259
 En-DIIS/RFO-DIIS/Sim-DIIS IScMMF=       -3 using points:     6    5    4    3
 RFO step:  Lambda=-8.14262434D-07.
 NNeg= 0 NGDIIS= 4 SimSw=  2.50D-01 Rises=F DC= -4.04D-06 SmlDif=  1.00D-05
 NRisDI= 0 DoIntr=F SqrtH=F CThrHd= 10.0 CDAdj=  3.0
 RMS Error=  0.3256924390D-03 NUsed= 4 OKEnD=F EnDIS=F
 InvSVX:  RCond= 1.63D-07 Info=           0 Equed=N FErr=  6.77D-14 BErr=  7.20D-17
 DidBck=F Rises=F RFO-DIIS coefs:    1.46470   -0.55543    0.08795    0.00278
 Iteration  1 RMS(Cart)=  0.00027254 RMS(Int)=  0.00000009
 Iteration  2 RMS(Cart)=  0.00000010 RMS(Int)=  0.00000007
 ITry= 1 IFail=0 DXMaxC= 9.84D-04 DCOld= 1.00D+10 DXMaxT= 4.92D-01 DXLimC= 3.00D+00 Rises=F
 ClnCor:  largest displacement from symmetrization is 3.51D-11 for atom     9.
 Variable       Old X    -DE/DX   Delta X   Delta X   Delta X     New X
                                 (Linear)    (Quad)   (Total)
    R1        2.61119  -0.00000  -0.00048   0.00013  -0.00035   2.61084
    R2        2.66134   0.00002  -0.00009   0.00012   0.00003   2.66137
    R3        2.63874   0.00013   0.00057  -0.00012   0.00045   2.63919
    R4        3.43863   0.00006   0.00051   0.00018   0.00069   3.43932
    R5        2.63316  -0.00006  -0.00004  -0.00007  -0.00011   2.63305
    R6        3.36234  -0.00023  -0.00133  -0.00013  -0.00147   3.36088
    R7        2.62586  -0.00002   0.00010  -0.00005   0.00005   2.62591
    R8        2.04428  -0.00003   0.00005  -0.00006  -0.00001   2.04427
    R9        2.63144   0.00005   0.00007   0.00002   0.00009   2.63152
   R10        3.37407  -0.00007  -0.00046  -0.00002  -0.00048   3.37358
   R11        2.05654  -0.00001  -0.00002   0.00001  -0.00001   2.05653
    A1        2.01418  -0.00009   0.00031  -0.00050  -0.00019   2.01399
    A2        2.16517   0.00008   0.00016   0.00036   0.00052   2.16569
    A3        2.06908   0.00003   0.00013   0.00006   0.00019   2.06927
    A4        2.04893  -0.00011  -0.00029  -0.00042  -0.00071   2.04822
    A5        2.09028  -0.00009  -0.00063  -0.00009  -0.00072   2.08956
    A6        2.15533  -0.00001   0.00033  -0.00022   0.00012   2.15545
    A7        2.03758   0.00009   0.00030   0.00030   0.00060   2.03818
    A8        2.04865   0.00009   0.00055   0.00003   0.00058   2.04923
    A9        2.10992  -0.00005  -0.00017  -0.00009  -0.00027   2.10965
   A10        2.12461  -0.00004  -0.00038   0.00006  -0.00032   2.12430
   A11        2.13055  -0.00007  -0.00024  -0.00011  -0.00035   2.13020
   A12        2.05954   0.00004  -0.00001   0.00015   0.00014   2.05968
   A13        2.09310   0.00003   0.00024  -0.00004   0.00021   2.09331
   A14        2.11754   0.00008  -0.00015   0.00031   0.00016   2.11769
   A15        2.10563   0.00000   0.00012   0.00002   0.00015   2.10577
   A16        2.06002  -0.00008   0.00003  -0.00034  -0.00031   2.05972
    D1       -0.00000  -0.00000   0.00000  -0.00000   0.00000   0.00000
    D2        3.14159   0.00000   0.00000   0.00000   0.00000   3.14159
    D3        0.00000   0.00000   0.00000  -0.00000  -0.00000   0.00000
    D4        3.14159   0.00000   0.00000   0.00000   0.00000   3.14159
    D5        0.00000   0.00000   0.00000   0.00000  -0.00000   0.00000
    D6        3.14159   0.00000   0.00000   0.00000   0.00000   3.14159
    D7        3.14159  -0.00000   0.00000  -0.00000   0.00000   3.14159
    D8       -0.00000  -0.00000   0.00000  -0.00000   0.00000   0.00000
    D9        0.00000   0.00000   0.00000   0.00000   0.00000   0.00000
   D10        3.14159   0.00000   0.00000   0.00000   0.00000   3.14159
   D11        3.14159  -0.00000   0.00000  -0.00000   0.00000   3.14159
   D12        0.00000   0.00000   0.00000   0.00000   0.00000   0.00000
   D13        0.00000  -0.00000   0.00000  -0.00000  -0.00000   0.00000
   D14        3.14159  -0.00000   0.00000   0.00000   0.00000   3.14159
   D15        3.14159  -0.00000   0.00000  -0.00000   0.00000   3.14159
   D16       -0.00000  -0.00000   0.00000  -0.00000   0.00000   0.00000
   D17       -0.00000   0.00000   0.00000   0.00000   0.00000   0.00000
   D18        3.14159   0.00000   0.00000   0.00000   0.00000   3.14159
   D19        3.14159  -0.00000   0.00000  -0.00000   0.00000   3.14159
   D20       -0.00000  -0.00000   0.00000  -0.00000   0.00000   0.00000
         Item               Value     Threshold  Converged?
 Maximum Force            0.000231     0.000450     YES
 RMS     Force            0.000059     0.000300     YES
 Maximum Displacement     0.000984     0.001800     YES
 RMS     Displacement     0.000273     0.001200     YES
 Predicted change in Energy=-3.988957D-07
 Optimization completed.
    -- Stationary point found.
                           ----------------------------
                           !   Optimized Parameters   !
                           ! (Angstroms and Degrees)  !
 --------------------------                            --------------------------
 ! Name  Definition              Value          Derivative Info.                !
 --------------------------------------------------------------------------------
 ! R1    R(1,2)                  1.3818         -DE/DX =    0.0                 !
 ! R2    R(1,6)                  1.4083         -DE/DX =    0.0                 !
 ! R3    R(2,3)                  1.3964         -DE/DX =    0.0001              !
 ! R4    R(2,7)                  1.8196         -DE/DX =    0.0001              !
 ! R5    R(3,4)                  1.3934         -DE/DX =   -0.0001              !
 ! R6    R(3,8)                  1.7793         -DE/DX =   -0.0002              !
 ! R7    R(4,5)                  1.3895         -DE/DX =    0.0                 !
 ! R8    R(4,9)                  1.0818         -DE/DX =    0.0                 !
 ! R9    R(5,6)                  1.3925         -DE/DX =    0.0001              !
 ! R10   R(5,10)                 1.7855         -DE/DX =   -0.0001              !
 ! R11   R(6,11)                 1.0883         -DE/DX =    0.0                 !
 ! A1    A(2,1,6)              115.4043         -DE/DX =   -0.0001              !
 ! A2    A(1,2,3)              124.0554         -DE/DX =    0.0001              !
 ! A3    A(1,2,7)              118.5497         -DE/DX =    0.0                 !
 ! A4    A(3,2,7)              117.395          -DE/DX =   -0.0001              !
 ! A5    A(2,3,4)              119.7642         -DE/DX =   -0.0001              !
 ! A6    A(2,3,8)              123.4914         -DE/DX =    0.0                 !
 ! A7    A(4,3,8)              116.7444         -DE/DX =    0.0001              !
 ! A8    A(3,4,5)              117.3789         -DE/DX =    0.0001              !
 ! A9    A(3,4,9)              120.8898         -DE/DX =   -0.0001              !
 ! A10   A(5,4,9)              121.7314         -DE/DX =    0.0                 !
 ! A11   A(4,5,6)              122.0714         -DE/DX =   -0.0001              !
 ! A12   A(4,5,10)             118.0027         -DE/DX =    0.0                 !
 ! A13   A(6,5,10)             119.9259         -DE/DX =    0.0                 !
 ! A14   A(1,6,5)              121.3259         -DE/DX =    0.0001              !
 ! A15   A(1,6,11)             120.6435         -DE/DX =    0.0                 !
 ! A16   A(5,6,11)             118.0306         -DE/DX =   -0.0001              !
 ! D1    D(6,1,2,3)              0.0            -DE/DX =    0.0                 !
 ! D2    D(6,1,2,7)            180.0            -DE/DX =    0.0                 !
 ! D3    D(2,1,6,5)              0.0            -DE/DX =    0.0                 !
 ! D4    D(2,1,6,11)           180.0            -DE/DX =    0.0                 !
 ! D5    D(1,2,3,4)              0.0            -DE/DX =    0.0                 !
 ! D6    D(1,2,3,8)            180.0            -DE/DX =    0.0                 !
 ! D7    D(7,2,3,4)            180.0            -DE/DX =    0.0                 !
 ! D8    D(7,2,3,8)              0.0            -DE/DX =    0.0                 !
 ! D9    D(2,3,4,5)              0.0            -DE/DX =    0.0                 !
 ! D10   D(2,3,4,9)            180.0            -DE/DX =    0.0                 !
 ! D11   D(8,3,4,5)            180.0            -DE/DX =    0.0                 !
 ! D12   D(8,3,4,9)              0.0            -DE/DX =    0.0                 !
 ! D13   D(3,4,5,6)              0.0            -DE/DX =    0.0                 !
 ! D14   D(3,4,5,10)           180.0            -DE/DX =    0.0                 !
 ! D15   D(9,4,5,6)            180.0            -DE/DX =    0.0                 !
 ! D16   D(9,4,5,10)             0.0            -DE/DX =    0.0                 !
 ! D17   D(4,5,6,1)              0.0            -DE/DX =    0.0                 !
 ! D18   D(4,5,6,11)           180.0            -DE/DX =    0.0                 !
 ! D19   D(10,5,6,1)           180.0            -DE/DX =    0.0                 !
 ! D20   D(10,5,6,11)            0.0            -DE/DX =    0.0                 !
 --------------------------------------------------------------------------------
 Lowest energy point so far.  Saving SCF results.
 Largest change from initial coordinates is atom    7       0.052 Angstoms.
 GradGradGradGradGradGradGradGradGradGradGradGradGradGradGradGradGradGrad

 Leave Link  103 at Mon Sep 28 02:46:56 2026, MaxMem=  1610612736 cpu:               4.8 elap:               0.7
 (Enter /share/software/user/restricted/gaussian/g16.B01/l202.exe)
                          Input orientation:                          
 ---------------------------------------------------------------------
 Center     Atomic      Atomic             Coordinates (Angstroms)
 Number     Number       Type             X           Y           Z
 ---------------------------------------------------------------------
      1          6           0       -0.001624    1.456465   -0.000000
      2          6           0        1.161923    0.711157   -0.000000
      3          6           0        1.196376   -0.684779   -0.000000
      4          6           0        0.004229   -1.406144    0.000000
      5          6           0       -1.181272   -0.681286    0.000000
      6          6           0       -1.196542    0.711126   -0.000000
      7         17           0        2.756353    1.588021   -0.000000
      8         17           0        2.704010   -1.629693    0.000000
      9          1           0        0.009671   -2.487917    0.000000
     10         17           0       -2.718836   -1.588940    0.000000
     11          1           0       -2.162710    1.211990   -0.000000
 ---------------------------------------------------------------------
                    Distance matrix (angstroms):
                    1          2          3          4          5
     1  C    0.000000
     2  C    1.381783   0.000000
     3  C    2.453595   1.396361   0.000000
     4  C    2.862615   2.413134   1.393406   0.000000
     5  C    2.441629   2.725704   2.377650   1.389543   0.000000
     6  C    1.408318   2.358465   2.770308   2.434066   1.392496
     7  Cl   2.761112   1.819642   2.756655   4.066843   4.544738
     8  Cl   4.104245   2.803143   1.779276   2.709021   3.999361
     9  H    3.944399   3.400259   2.158605   1.081787   2.163853
    10  Cl   4.081389   4.511179   4.018257   2.729193   1.785480
    11  H    2.174871   3.362145   3.857614   3.398565   2.132537
                    6          7          8          9         10
     6  C    0.000000
     7  Cl   4.048990   0.000000
     8  Cl   4.549037   3.218140   0.000000
     9  H    3.418893   4.915032   2.827722   0.000000
    10  Cl   2.758203   6.330148   5.422999   2.872788   0.000000
    11  H    1.088276   4.933415   5.635612   4.290519   2.855606
                   11
    11  H    0.000000
 Stoichiometry    C6H2Cl3(1-)
 Framework group  CS[SG(C6H2Cl3)]
 Deg. of freedom    19
 Full point group                 CS      NOp   2
 RotChk:  IX=1 Diff= 7.85D-17
 Largest Abelian subgroup         CS      NOp   2
 Largest concise Abelian subgroup C1      NOp   1
                         Standard orientation:                         
 ---------------------------------------------------------------------
 Center     Atomic      Atomic             Coordinates (Angstroms)
 Number     Number       Type             X           Y           Z
 ---------------------------------------------------------------------
      1          6           0        1.339707    1.267306   -0.000000
      2          6           0        1.220183   -0.109298    0.000000
      3          6           0        0.000000   -0.788251    0.000000
      4          6           0       -1.192591   -0.067621    0.000000
      5          6           0       -1.101377    1.318925   -0.000000
      6          6           0        0.124597    1.979253   -0.000000
      7         17           0        2.737348   -1.113941    0.000000
      8         17           0       -0.136450   -2.562287    0.000000
      9          1           0       -2.148040   -0.574948    0.000000
     10         17           0       -2.619392    2.258908   -0.000000
     11          1           0        0.119336    3.067517   -0.000000
 ---------------------------------------------------------------------
 Rotational constants (GHZ):           1.8538903           0.5864171           0.4454984
 Leave Link  202 at Mon Sep 28 02:46:56 2026, MaxMem=  1610612736 cpu:               0.3 elap:               0.1
 (Enter /share/software/user/restricted/gaussian/g16.B01/l601.exe)
 Copying SCF densities to generalized density rwf, IOpCl= 0 IROHF=0.

 **********************************************************************

            Population analysis using the SCF Density.

 **********************************************************************

 Orbital symmetries:
       Occupied  (A') (A') (A') (A') (A') (A') (A') (A') (A') (A')
                 (A') (A') (A') (A') (A") (A') (A") (A') (A') (A")
                 (A') (A') (A') (A') (A') (A') (A') (A') (A') (A')
                 (A') (A') (A') (A") (A') (A") (A') (A") (A') (A')
                 (A") (A') (A") (A") (A')
       Virtual   (A") (A') (A") (A') (A') (A') (A') (A') (A") (A')
                 (A') (A") (A') (A") (A') (A') (A') (A") (A') (A")
                 (A') (A') (A') (A") (A') (A") (A') (A') (A") (A')
                 (A") (A') (A') (A") (A') (A') (A') (A') (A') (A')
                 (A') (A') (A') (A') (A') (A') (A') (A') (A') (A')
                 (A') (A') (A") (A') (A") (A') (A') (A") (A') (A')
                 (A') (A") (A') (A') (A") (A") (A") (A") (A') (A')
                 (A') (A") (A') (A') (A') (A') (A') (A") (A') (A')
                 (A") (A') (A") (A') (A") (A') (A") (A') (A') (A')
                 (A') (A') (A") (A') (A') (A') (A') (A") (A') (A')
                 (A") (A') (A') (A") (A') (A') (A') (A") (A") (A")
                 (A') (A') (A') (A') (A') (A') (A') (A") (A") (A')
                 (A') (A') (A") (A") (A") (A') (A') (A') (A') (A')
                 (A") (A") (A') (A") (A') (A") (A') (A') (A') (A')
                 (A') (A') (A') (A') (A") (A') (A") (A") (A") (A")
                 (A') (A") (A') (A') (A') (A') (A') (A') (A') (A')
                 (A') (A') (A') (A') (A') (A') (A') (A') (A') (A')
                 (A') (A') (A') (A") (A") (A") (A') (A') (A') (A')
                 (A') (A') (A') (A') (A')
 The electronic state is 1-A'.
 Alpha  occ. eigenvalues -- -101.55304-101.55048-101.53407 -10.24003 -10.23093
 Alpha  occ. eigenvalues --  -10.22214 -10.18489 -10.17020 -10.13082  -9.46759
 Alpha  occ. eigenvalues --   -9.46499  -9.44876  -7.23199  -7.22921  -7.22264
 Alpha  occ. eigenvalues --   -7.22211  -7.22003  -7.21973  -7.21269  -7.20409
 Alpha  occ. eigenvalues --   -7.20350  -0.90080  -0.86670  -0.83482  -0.80300
 Alpha  occ. eigenvalues --   -0.73137  -0.70618  -0.59618  -0.57812  -0.49988
 Alpha  occ. eigenvalues --   -0.47351  -0.44505  -0.42365  -0.40929  -0.40107
 Alpha  occ. eigenvalues --   -0.36291  -0.36061  -0.33464  -0.32956  -0.31530
 Alpha  occ. eigenvalues --   -0.30559  -0.29690  -0.24471  -0.23526  -0.19428
 Alpha virt. eigenvalues --   -0.01674  -0.01177  -0.01027   0.00192   0.00900
 Alpha virt. eigenvalues --    0.02086   0.03136   0.03683   0.05474   0.05563
 Alpha virt. eigenvalues --    0.06458   0.06818   0.07068   0.07817   0.08611
 Alpha virt. eigenvalues --    0.09121   0.10067   0.10723   0.11220   0.11667
 Alpha virt. eigenvalues --    0.11773   0.12801   0.13412   0.13435   0.13759
 Alpha virt. eigenvalues --    0.14471   0.14916   0.15630   0.16108   0.17452
 Alpha virt. eigenvalues --    0.18240   0.18383   0.20489   0.20571   0.20836
 Alpha virt. eigenvalues --    0.22374   0.23286   0.23570   0.24292   0.25129
 Alpha virt. eigenvalues --    0.26372   0.27093   0.27640   0.28755   0.28915
 Alpha virt. eigenvalues --    0.30097   0.31012   0.33105   0.33838   0.35561
 Alpha virt. eigenvalues --    0.41676   0.43619   0.44580   0.45370   0.46202
 Alpha virt. eigenvalues --    0.46446   0.48075   0.48632   0.49452   0.51441
 Alpha virt. eigenvalues --    0.53384   0.54254   0.55724   0.58520   0.58599
 Alpha virt. eigenvalues --    0.59394   0.60971   0.61576   0.63307   0.63567
 Alpha virt. eigenvalues --    0.66305   0.66706   0.67160   0.70316   0.72464
 Alpha virt. eigenvalues --    0.74009   0.78707   0.79820   0.84971   0.85327
 Alpha virt. eigenvalues --    0.86172   0.86536   0.86759   0.87117   0.87164
 Alpha virt. eigenvalues --    0.87814   0.88574   0.90169   0.91028   0.92977
 Alpha virt. eigenvalues --    0.94377   0.94907   0.95212   0.95994   0.96904
 Alpha virt. eigenvalues --    0.98032   0.98730   1.00909   1.05225   1.07668
 Alpha virt. eigenvalues --    1.15192   1.15719   1.18833   1.21412   1.23393
 Alpha virt. eigenvalues --    1.24583   1.27054   1.28855   1.31859   1.32652
 Alpha virt. eigenvalues --    1.32906   1.47540   1.52532   1.54576   1.57154
 Alpha virt. eigenvalues --    1.66894   1.76364   1.78220   1.80921   1.83783
 Alpha virt. eigenvalues --    1.85270   1.87455   1.91236   1.92965   1.99974
 Alpha virt. eigenvalues --    2.04639   2.06782   2.13131   2.23174   2.24996
 Alpha virt. eigenvalues --    2.25186   2.27016   2.27198   2.30243   2.33367
 Alpha virt. eigenvalues --    2.34178   2.40792   2.41506   2.44763   2.50993
 Alpha virt. eigenvalues --    2.51900   2.55649   2.59032   2.62699   2.64105
 Alpha virt. eigenvalues --    2.71589   2.77534   2.78631   2.87951   2.89461
 Alpha virt. eigenvalues --    3.03464   3.07246   3.10050   3.13596   3.17162
 Alpha virt. eigenvalues --    3.24541   3.29441   3.33458   3.51446   3.57450
 Alpha virt. eigenvalues --    3.72259   3.95725   3.97525   4.78611   9.73639
 Alpha virt. eigenvalues --    9.78467   9.80386  23.25489  23.82072  23.87157
 Alpha virt. eigenvalues --   24.00863  24.04530  24.11708  25.79231  25.82764
 Alpha virt. eigenvalues --   25.87955  26.07437  26.09659  26.18855  26.47183
 Alpha virt. eigenvalues --   26.59322  26.68456 215.72453 215.77868 215.79977
          Condensed to atoms (all electrons):
               1          2          3          4          5          6
     1  C   21.660818  -2.535096  -5.010642  -8.198213   2.593809  -0.960450
     2  C   -2.535096  26.457561  -9.184767  -2.217150  -6.297717  -0.272463
     3  C   -5.010642  -9.184767  28.435712  -6.411777   1.147532  -2.331625
     4  C   -8.198213  -2.217150  -6.411777  33.885703  -5.163217  -5.588690
     5  C    2.593809  -6.297717   1.147532  -5.163217  20.421570  -4.800604
     6  C   -0.960450  -0.272463  -2.331625  -5.588690  -4.800604  19.636179
     7  Cl  -0.883324  -1.272350   0.983831   0.624850   0.042546   0.033982
     8  Cl   0.740027   0.586591  -1.366138  -0.477626  -0.355197   0.152116
     9  H   -0.043084   0.027538  -0.058182   0.498114  -0.135662  -0.033490
    10  Cl   0.129470   0.087825  -0.044967   0.441901  -1.454385   0.141871
    11  H   -0.276203   0.057666  -0.046939   0.033691  -0.490956   0.831827
               7          8          9         10         11
     1  C   -0.883324   0.740027  -0.043084   0.129470  -0.276203
     2  C   -1.272350   0.586591   0.027538   0.087825   0.057666
     3  C    0.983831  -1.366138  -0.058182  -0.044967  -0.046939
     4  C    0.624850  -0.477626   0.498114   0.441901   0.033691
     5  C    0.042546  -0.355197  -0.135662  -1.454385  -0.490956
     6  C    0.033982   0.152116  -0.033490   0.141871   0.831827
     7  Cl  17.556772  -0.298779  -0.004670  -0.017096  -0.010577
     8  Cl  -0.298779  17.615736   0.000297  -0.016037   0.007804
     9  H   -0.004670   0.000297   0.404763   0.013992   0.001200
    10  Cl  -0.017096  -0.016037   0.013992  17.431807   0.045089
    11  H   -0.010577   0.007804   0.001200   0.045089   0.562391
 Mulliken charges:
               1
     1  C   -1.217112
     2  C    0.562361
     3  C   -0.112038
     4  C   -1.427585
     5  C    0.492281
     6  C   -0.808653
     7  Cl   0.244817
     8  Cl   0.411206
     9  H    0.329185
    10  Cl   0.240531
    11  H    0.285007
 Sum of Mulliken charges =  -1.00000
 Mulliken charges with hydrogens summed into heavy atoms:
               1
     1  C   -1.217112
     2  C    0.562361
     3  C   -0.112038
     4  C   -1.098400
     5  C    0.492281
     6  C   -0.523646
     7  Cl   0.244817
     8  Cl   0.411206
    10  Cl   0.240531
 Electronic spatial extent (au):  <R**2>=           2203.1715
 Charge=             -1.0000 electrons
 Dipole moment (field-independent basis, Debye):
    X=             -6.5712    Y=             -2.9622    Z=              0.0000  Tot=              7.2080
 Quadrupole moment (field-independent basis, Debye-Ang):
   XX=            -98.7143   YY=            -90.6394   ZZ=            -78.5690
   XY=             -0.3315   XZ=              0.0000   YZ=             -0.0000
 Traceless Quadrupole moment (field-independent basis, Debye-Ang):
   XX=             -9.4068   YY=             -1.3318   ZZ=             10.7386
   XY=             -0.3315   XZ=              0.0000   YZ=             -0.0000
 Octapole moment (field-independent basis, Debye-Ang**2):
  XXX=            -50.7318  YYY=            -19.3746  ZZZ=             -0.0000  XYY=            -11.9135
  XXY=            -29.4545  XXZ=             -0.0000  XZZ=             -4.8794  YZZ=             -7.3041
  YYZ=             -0.0000  XYZ=              0.0000
 Hexadecapole moment (field-independent basis, Debye-Ang**3):
 XXXX=          -1598.9750 YYYY=          -1447.6550 ZZZZ=            -99.4682 XXXY=            309.5586
 XXXZ=              0.0000 YYYX=            318.0082 YYYZ=             -0.0000 ZZZX=              0.0000
 ZZZY=             -0.0000 XXYY=           -544.3448 XXZZ=           -274.4587 YYZZ=           -266.2488
 XXYZ=             -0.0000 YYXZ=              0.0000 ZZXY=            106.4899
 N-N= 6.052494425658D+02 E-N=-5.040797911519D+03  KE= 1.606391823991D+03
 Symmetry A'   KE= 1.462696700708D+03
 Symmetry A"   KE= 1.436951232828D+02
 No NMR shielding tensors so no spin-rotation constants.
 Leave Link  601 at Mon Sep 28 02:46:56 2026, MaxMem=  1610612736 cpu:               0.6 elap:               0.1
 (Enter /share/software/user/restricted/gaussian/g16.B01/l9999.exe)
 1\1\GINC-SH04-14N17\FOpt\RB3LYP\6-311++G(d)\C6H2Cl3(1-)\JLAPIER\28-Sep
 -2026\0\\#p Opt Freq B3LYP/6-311++G(d) SCRF=(SMD,Solvent=Water) Int=Ul
 traFine Geom=Check\\ClPh_235_anion b3lyp_smd\\-1,1\C,-0.0016235226,1.4
 564652263,0.\C,1.1619228757,0.7111568919,0.\C,1.1963756,-0.684778973,0
 .\C,0.0042285354,-1.4061435272,0.\C,-1.181272086,-0.6812862134,0.\C,-1
 .196541877,0.7111259318,0.\Cl,2.7563530017,1.5880209244,0.\Cl,2.704009
 7609,-1.6296929792,0.\H,0.0096708999,-2.4879172804,0.\Cl,-2.7188363553
 ,-1.5889398789,0.\H,-2.1627100728,1.2119898778,0.\\Version=ES64L-G16Re
 vB.01\State=1-A'\HF=-1610.6415903\RMSD=8.874e-09\RMSF=1.259e-04\Dipole
 =-0.1688755,-2.8308068,0.\Quadrupole=-2.0828687,-5.9009951,7.9838638,-
 2.3295565,0.,0.\PG=CS [SG(C6H2Cl3)]\\@


 QUHEN THE CAUSS IS TAKEN AWAY THE EFFECT WANISHETH.
 -- PROVERBS AND REASONS OF THE YEAR 1585
           AS REPRINTED IN PAISLEY MAGAZINE 1828.
 Leave Link 9999 at Mon Sep 28 02:46:56 2026, MaxMem=  1610612736 cpu:               0.4 elap:               0.1
 Job cpu time:       0 days  0 hours 14 minutes 19.5 seconds.
 Elapsed time:       0 days  0 hours  1 minutes 55.7 seconds.
 File lengths (MBytes):  RWF=    100 Int=      0 D2E=      0 Chk=     67 Scr=      1
 Normal termination of Gaussian 16 at Mon Sep 28 02:46:56 2026.
 (Enter /share/software/user/restricted/gaussian/g16.B01/l1.exe)
 Link1:  Proceeding to internal job step number  2.
 ----------------------------------------------------------------------
 #P Geom=AllCheck Guess=TCheck SCRF=Check GenChk RB3LYP/6-311++G(d) Fre
 q
 ----------------------------------------------------------------------
 1/10=4,29=7,30=1,38=1,40=1/1,3;
 2/12=2,40=1/2;
 3/5=4,6=6,7=1011,11=2,14=-4,25=1,30=1,70=2,71=2,74=-5,75=-5,116=1,140=1/1,2,3;
 4/5=101/1;
 5/5=2,38=6,98=1/2;
 8/6=4,10=90,11=11/1;
 11/6=1,8=1,9=11,15=111,16=1/1,2,10;
 10/6=1/2;
 6/7=2,8=2,9=2,10=2,28=1/1;
 7/8=1,10=1,25=1/1,2,3,16;
 1/10=4,30=1/3;
 99//99;
 Leave Link    1 at Mon Sep 28 02:46:56 2026, MaxMem=  1610612736 cpu:               0.2 elap:               0.0
 (Enter /share/software/user/restricted/gaussian/g16.B01/l101.exe)
 Structure from the checkpoint file:  "calcs/b3lyp_smd/chks/ClPh_235_anion.chk"
 ------------------------
 ClPh_235_anion b3lyp_smd
 ------------------------
 Charge = -1 Multiplicity = 1
 Redundant internal coordinates found in file.  (old form).
 C,0,-0.0016235226,1.4564652263,0.
 C,0,1.1619228757,0.7111568919,0.
 C,0,1.1963756,-0.684778973,0.
 C,0,0.0042285354,-1.4061435272,0.
 C,0,-1.181272086,-0.6812862134,0.
 C,0,-1.196541877,0.7111259318,0.
 Cl,0,2.7563530017,1.5880209244,0.
 Cl,0,2.7040097609,-1.6296929792,0.
 H,0,0.0096708999,-2.4879172804,0.
 Cl,0,-2.7188363553,-1.5889398789,0.
 H,0,-2.1627100728,1.2119898778,0.
 Recover connectivity data from disk.
 ITRead=  0  0  0  0  0  0  0  0  0  0  0
 MicOpt= -1 -1 -1 -1 -1 -1 -1 -1 -1 -1 -1
 NAtoms=     11 NQM=       11 NQMF=       0 NMMI=      0 NMMIF=      0
                NMic=       0 NMicF=      0.
                    Isotopes and Nuclear Properties:
 (Nuclear quadrupole moments (NQMom) in fm**2, nuclear magnetic moments (NMagM)
  in nuclear magnetons)

  Atom         1           2           3           4           5           6           7           8           9          10
 IAtWgt=          12          12          12          12          12          12          35          35           1          35
 AtmWgt=  12.0000000  12.0000000  12.0000000  12.0000000  12.0000000  12.0000000  34.9688527  34.9688527   1.0078250  34.9688527
 NucSpn=           0           0           0           0           0           0           3           3           1           3
 AtZEff=   3.6000000   3.6000000   3.6000000   3.6000000   3.6000000   3.6000000  14.2400000  14.2400000   1.0000000  14.2400000
 NQMom=    0.0000000   0.0000000   0.0000000   0.0000000   0.0000000   0.0000000  -8.1650000  -8.1650000   0.0000000  -8.1650000
 NMagM=    0.0000000   0.0000000   0.0000000   0.0000000   0.0000000   0.0000000   0.8218740   0.8218740   2.7928460   0.8218740
 AtZNuc=   6.0000000   6.0000000   6.0000000   6.0000000   6.0000000   6.0000000  17.0000000  17.0000000   1.0000000  17.0000000

  Atom        11
 IAtWgt=           1
 AtmWgt=   1.0078250
 NucSpn=           1
 AtZEff=   1.0000000
 NQMom=    0.0000000
 NMagM=    2.7928460
 AtZNuc=   1.0000000
 Leave Link  101 at Mon Sep 28 02:46:57 2026, MaxMem=  1610612736 cpu:               2.0 elap:               0.3
 (Enter /share/software/user/restricted/gaussian/g16.B01/l103.exe)

 GradGradGradGradGradGradGradGradGradGradGradGradGradGradGradGradGradGrad
 Berny optimization.
 Initialization pass.
                           ----------------------------
                           !    Initial Parameters    !
                           ! (Angstroms and Degrees)  !
 --------------------------                            --------------------------
 ! Name  Definition              Value          Derivative Info.                !
 --------------------------------------------------------------------------------
 ! R1    R(1,2)                  1.3818         calculate D2E/DX2 analytically  !
 ! R2    R(1,6)                  1.4083         calculate D2E/DX2 analytically  !
 ! R3    R(2,3)                  1.3964         calculate D2E/DX2 analytically  !
 ! R4    R(2,7)                  1.8196         calculate D2E/DX2 analytically  !
 ! R5    R(3,4)                  1.3934         calculate D2E/DX2 analytically  !
 ! R6    R(3,8)                  1.7793         calculate D2E/DX2 analytically  !
 ! R7    R(4,5)                  1.3895         calculate D2E/DX2 analytically  !
 ! R8    R(4,9)                  1.0818         calculate D2E/DX2 analytically  !
 ! R9    R(5,6)                  1.3925         calculate D2E/DX2 analytically  !
 ! R10   R(5,10)                 1.7855         calculate D2E/DX2 analytically  !
 ! R11   R(6,11)                 1.0883         calculate D2E/DX2 analytically  !
 ! A1    A(2,1,6)              115.4043         calculate D2E/DX2 analytically  !
 ! A2    A(1,2,3)              124.0554         calculate D2E/DX2 analytically  !
 ! A3    A(1,2,7)              118.5497         calculate D2E/DX2 analytically  !
 ! A4    A(3,2,7)              117.395          calculate D2E/DX2 analytically  !
 ! A5    A(2,3,4)              119.7642         calculate D2E/DX2 analytically  !
 ! A6    A(2,3,8)              123.4914         calculate D2E/DX2 analytically  !
 ! A7    A(4,3,8)              116.7444         calculate D2E/DX2 analytically  !
 ! A8    A(3,4,5)              117.3789         calculate D2E/DX2 analytically  !
 ! A9    A(3,4,9)              120.8898         calculate D2E/DX2 analytically  !
 ! A10   A(5,4,9)              121.7314         calculate D2E/DX2 analytically  !
 ! A11   A(4,5,6)              122.0714         calculate D2E/DX2 analytically  !
 ! A12   A(4,5,10)             118.0027         calculate D2E/DX2 analytically  !
 ! A13   A(6,5,10)             119.9259         calculate D2E/DX2 analytically  !
 ! A14   A(1,6,5)              121.3259         calculate D2E/DX2 analytically  !
 ! A15   A(1,6,11)             120.6435         calculate D2E/DX2 analytically  !
 ! A16   A(5,6,11)             118.0306         calculate D2E/DX2 analytically  !
 ! D1    D(6,1,2,3)              0.0            calculate D2E/DX2 analytically  !
 ! D2    D(6,1,2,7)            180.0            calculate D2E/DX2 analytically  !
 ! D3    D(2,1,6,5)              0.0            calculate D2E/DX2 analytically  !
 ! D4    D(2,1,6,11)           180.0            calculate D2E/DX2 analytically  !
 ! D5    D(1,2,3,4)              0.0            calculate D2E/DX2 analytically  !
 ! D6    D(1,2,3,8)            180.0            calculate D2E/DX2 analytically  !
 ! D7    D(7,2,3,4)            180.0            calculate D2E/DX2 analytically  !
 ! D8    D(7,2,3,8)              0.0            calculate D2E/DX2 analytically  !
 ! D9    D(2,3,4,5)              0.0            calculate D2E/DX2 analytically  !
 ! D10   D(2,3,4,9)            180.0            calculate D2E/DX2 analytically  !
 ! D11   D(8,3,4,5)            180.0            calculate D2E/DX2 analytically  !
 ! D12   D(8,3,4,9)              0.0            calculate D2E/DX2 analytically  !
 ! D13   D(3,4,5,6)              0.0            calculate D2E/DX2 analytically  !
 ! D14   D(3,4,5,10)           180.0            calculate D2E/DX2 analytically  !
 ! D15   D(9,4,5,6)            180.0            calculate D2E/DX2 analytically  !
 ! D16   D(9,4,5,10)             0.0            calculate D2E/DX2 analytically  !
 ! D17   D(4,5,6,1)              0.0            calculate D2E/DX2 analytically  !
 ! D18   D(4,5,6,11)           180.0            calculate D2E/DX2 analytically  !
 ! D19   D(10,5,6,1)           180.0            calculate D2E/DX2 analytically  !
 ! D20   D(10,5,6,11)            0.0            calculate D2E/DX2 analytically  !
 --------------------------------------------------------------------------------
 Trust Radius=3.00D-01 FncErr=1.00D-07 GrdErr=1.00D-07 EigMax=2.50D+02 EigMin=1.00D-04
 Number of steps in this run=      2 maximum allowed number of steps=      2.
 GradGradGradGradGradGradGradGradGradGradGradGradGradGradGradGradGradGrad

 Leave Link  103 at Mon Sep 28 02:46:57 2026, MaxMem=  1610612736 cpu:               0.0 elap:               0.0
 (Enter /share/software/user/restricted/gaussian/g16.B01/l202.exe)
                          Input orientation:                          
 ---------------------------------------------------------------------
 Center     Atomic      Atomic             Coordinates (Angstroms)
 Number     Number       Type             X           Y           Z
 ---------------------------------------------------------------------
      1          6           0       -0.001624    1.456465   -0.000000
      2          6           0        1.161923    0.711157   -0.000000
      3          6           0        1.196376   -0.684779   -0.000000
      4          6           0        0.004229   -1.406144    0.000000
      5          6           0       -1.181272   -0.681286    0.000000
      6          6           0       -1.196542    0.711126   -0.000000
      7         17           0        2.756353    1.588021   -0.000000
      8         17           0        2.704010   -1.629693    0.000000
      9          1           0        0.009671   -2.487917    0.000000
     10         17           0       -2.718836   -1.588940    0.000000
     11          1           0       -2.162710    1.211990   -0.000000
 ---------------------------------------------------------------------
                    Distance matrix (angstroms):
                    1          2          3          4          5
     1  C    0.000000
     2  C    1.381783   0.000000
     3  C    2.453595   1.396361   0.000000
     4  C    2.862615   2.413134   1.393406   0.000000
     5  C    2.441629   2.725704   2.377650   1.389543   0.000000
     6  C    1.408318   2.358465   2.770308   2.434066   1.392496
     7  Cl   2.761112   1.819642   2.756655   4.066843   4.544738
     8  Cl   4.104245   2.803143   1.779276   2.709021   3.999361
     9  H    3.944399   3.400259   2.158605   1.081787   2.163853
    10  Cl   4.081389   4.511179   4.018257   2.729193   1.785480
    11  H    2.174871   3.362145   3.857614   3.398565   2.132537
                    6          7          8          9         10
     6  C    0.000000
     7  Cl   4.048990   0.000000
     8  Cl   4.549037   3.218140   0.000000
     9  H    3.418893   4.915032   2.827722   0.000000
    10  Cl   2.758203   6.330148   5.422999   2.872788   0.000000
    11  H    1.088276   4.933415   5.635612   4.290519   2.855606
                   11
    11  H    0.000000
 Stoichiometry    C6H2Cl3(1-)
 Framework group  CS[SG(C6H2Cl3)]
 Deg. of freedom    19
 Full point group                 CS      NOp   2
 RotChk:  IX=1 Diff= 2.22D-16
 Largest Abelian subgroup         CS      NOp   2
 Largest concise Abelian subgroup C1      NOp   1
                         Standard orientation:                         
 ---------------------------------------------------------------------
 Center     Atomic      Atomic             Coordinates (Angstroms)
 Number     Number       Type             X           Y           Z
 ---------------------------------------------------------------------
      1          6           0        1.339707    1.267306   -0.000000
      2          6           0        1.220183   -0.109298   -0.000000
      3          6           0        0.000000   -0.788251   -0.000000
      4          6           0       -1.192591   -0.067621    0.000000
      5          6           0       -1.101377    1.318925    0.000000
      6          6           0        0.124597    1.979253   -0.000000
      7         17           0        2.737348   -1.113941   -0.000000
      8         17           0       -0.136450   -2.562287   -0.000000
      9          1           0       -2.148040   -0.574948    0.000000
     10         17           0       -2.619392    2.258908    0.000000
     11          1           0        0.119336    3.067517    0.000000
 ---------------------------------------------------------------------
 Rotational constants (GHZ):           1.8538903           0.5864171           0.4454984
 Leave Link  202 at Mon Sep 28 02:46:57 2026, MaxMem=  1610612736 cpu:               0.0 elap:               0.0
 (Enter /share/software/user/restricted/gaussian/g16.B01/l301.exe)
 Standard basis: 6-311++G(d) (5D, 7F)
 Ernie: Thresh=  0.10000D-02 Tol=  0.10000D-05 Strict=F.
 There are   179 symmetry adapted cartesian basis functions of A'  symmetry.
 There are    60 symmetry adapted cartesian basis functions of A"  symmetry.
 There are   170 symmetry adapted basis functions of A'  symmetry.
 There are    60 symmetry adapted basis functions of A"  symmetry.
   230 basis functions,   387 primitive gaussians,   239 cartesian basis functions
    45 alpha electrons       45 beta electrons
       nuclear repulsion energy       605.2443770154 Hartrees.
 IExCor=  402 DFT=T Ex+Corr=B3LYP ExCW=0 ScaHFX=  0.200000
 ScaDFX=  0.800000  0.720000  1.000000  0.810000 ScalE2=  1.000000  1.000000
 IRadAn=      5 IRanWt=     -1 IRanGd=            0 ICorTp=0 IEmpDi=  4
 NAtoms=   11 NActive=   11 NUniq=   11 SFac= 1.00D+00 NAtFMM=   60 NAOKFM=F Big=F
 Integral buffers will be    131072 words long.
 Raffenetti 2 integral format.
 Two-electron integral symmetry is turned on.
 Force inversion solution in PCM.
 ------------------------------------------------------------------------------
 Polarizable Continuum Model (PCM)
 =================================
 Model                : PCM.
 Atomic radii         : SMD-Coulomb.
 Polarization charges : Total charges.
 Charge compensation  : None.
 Solution method      : Matrix inversion.
 Cavity type          : VdW (van der Waals Surface) (Alpha=1.000).
 Cavity algorithm     : GePol (No added spheres)
                        Default sphere list used, NSphG=   11.
                        Lebedev-Laikov grids with approx.  5.0 points / Ang**2.
                        Smoothing algorithm: York/Karplus (Gamma=1.0000).
                        Polarization charges: spherical gaussians, with
                                              point-specific exponents (IZeta= 3).
                        Self-potential: point-specific (ISelfS= 7).
                        Self-field    : sphere-specific E.n sum rule (ISelfD= 2).
 1st derivatives      : Analytical E(r).r(x)/FMM algorithm (CHGder, D1EAlg=3).
                        Cavity 1st derivative terms included.
 2nd derivatives      : Analytical E(r).r(xy)/FMM algorithm (CHGder, D2EAlg=3).
                        Cavity 2nd derivative terms included.
 Solvent              : Water, Eps=  78.355300 Eps(inf)=   1.777849
 ------------------------------------------------------------------------------
 Spheres list:
 ISph  on   Nord     Re0    Alpha      Xe            Ye            Ze
    1   C      1    1.8500  1.000      1.339707      1.267306     -0.000000
    2   C      2    1.8500  1.000      1.220183     -0.109298     -0.000000
    3   C      3    1.8500  1.000      0.000000     -0.788251     -0.000000
    4   C      4    1.8500  1.000     -1.192591     -0.067621      0.000000
    5   C      5    1.8500  1.000     -1.101377      1.318925      0.000000
    6   C      6    1.8500  1.000      0.124597      1.979253      0.000000
    7  Cl      7    2.3800  1.000      2.737348     -1.113941     -0.000000
    8  Cl      8    2.3800  1.000     -0.136450     -2.562287      0.000000
    9   H      9    1.2000  1.000     -2.148040     -0.574948      0.000000
   10  Cl     10    2.3800  1.000     -2.619392      2.258908      0.000000
   11   H     11    1.2000  1.000      0.119336      3.067517     -0.000000
 ------------------------------------------------------------------------------
 GePol: Number of generator spheres                  =      11
 GePol: Total number of spheres                      =      11
 GePol: Number of exposed spheres                    =      11 (100.00%)
 GePol: Number of points                             =    1491
 GePol: Average weight of points                     =       0.14
 GePol: Minimum weight of points                     =   0.46D-11
 GePol: Maximum weight of points                     =    0.18138
 GePol: Number of points with low weight             =      42
 GePol: Fraction of low-weight points (<1% of avg)   =       2.82%
 GePol: Cavity surface area                          =    206.823 Ang**2
 GePol: Cavity volume                                =    205.485 Ang**3
 ------------------------------------------------------------------------------
 Atomic radii for non-electrostatic terms: SMD-CDS.
 ------------------------------------------------------------------------------
 PCM non-electrostatic energy =         0.0050655504 Hartrees.
 Nuclear repulsion after PCM non-electrostatic terms =      605.2494425658 Hartrees.
 Leave Link  301 at Mon Sep 28 02:46:57 2026, MaxMem=  1610612736 cpu:               0.4 elap:               0.1
 (Enter /share/software/user/restricted/gaussian/g16.B01/l302.exe)
 NPDir=0 NMtPBC=     1 NCelOv=     1 NCel=       1 NClECP=     1 NCelD=      1
         NCelK=      1 NCelE2=     1 NClLst=     1 CellRange=     0.0.
 One-electron integrals computed using PRISM.
 One-electron integral symmetry used in STVInt
 NBasis=   230 RedAO= T EigKep=  1.33D-06  NBF=   170    60
 NBsUse=   230 1.00D-06 EigRej= -1.00D+00 NBFU=   170    60
 Precomputing XC quadrature grid using
 IXCGrd= 4 IRadAn=           5 IRanWt=          -1 IRanGd=           0 AccXCQ= 0.00D+00.
 Generated NRdTot=       0 NPtTot=           0 NUsed=           0 NTot=          32
 NSgBfM=   236   236   236   236   236 MxSgAt=    11 MxSgA2=    11.
 Leave Link  302 at Mon Sep 28 02:46:57 2026, MaxMem=  1610612736 cpu:               0.8 elap:               0.1
 (Enter /share/software/user/restricted/gaussian/g16.B01/l303.exe)
 DipDrv:  MaxL=1.
 Leave Link  303 at Mon Sep 28 02:46:57 2026, MaxMem=  1610612736 cpu:               0.6 elap:               0.1
 (Enter /share/software/user/restricted/gaussian/g16.B01/l401.exe)
 Initial guess from the checkpoint file:  "calcs/b3lyp_smd/chks/ClPh_235_anion.chk"
 B after Tr=    -0.000000    0.000000   -0.000000
         Rot=    1.000000    0.000000    0.000000   -0.000000 Ang=   0.00 deg.
 Guess basis will be translated and rotated to current coordinates.
 JPrj=2 DoOrth=T DoCkMO=T.
 Initial guess orbital symmetries:
       Occupied  (A') (A') (A') (A') (A') (A') (A') (A') (A') (A')
                 (A') (A') (A') (A') (A") (A') (A") (A') (A') (A")
                 (A') (A') (A') (A') (A') (A') (A') (A') (A') (A')
                 (A') (A') (A') (A") (A') (A") (A') (A") (A') (A')
                 (A") (A') (A") (A") (A')
       Virtual   (A") (A') (A") (A') (A') (A') (A') (A') (A") (A')
                 (A') (A") (A') (A") (A') (A') (A') (A") (A') (A")
                 (A') (A') (A') (A") (A') (A") (A') (A') (A") (A')
                 (A") (A') (A') (A") (A') (A') (A') (A') (A') (A')
                 (A') (A') (A') (A') (A') (A') (A') (A') (A') (A')
                 (A') (A') (A") (A') (A") (A') (A') (A") (A') (A')
                 (A') (A") (A') (A') (A") (A") (A") (A") (A') (A')
                 (A') (A") (A') (A') (A') (A') (A') (A") (A') (A')
                 (A") (A') (A") (A') (A") (A') (A") (A') (A') (A')
                 (A') (A') (A") (A') (A') (A') (A') (A") (A') (A')
                 (A") (A') (A') (A") (A') (A') (A') (A") (A") (A")
                 (A') (A') (A') (A') (A') (A') (A') (A") (A") (A')
                 (A') (A') (A") (A") (A") (A') (A') (A') (A') (A')
                 (A") (A") (A') (A") (A') (A") (A') (A') (A') (A')
                 (A') (A') (A') (A') (A") (A') (A") (A") (A") (A")
                 (A') (A") (A') (A') (A') (A') (A') (A') (A') (A')
                 (A') (A') (A') (A') (A') (A') (A') (A') (A') (A')
                 (A') (A') (A') (A") (A") (A") (A') (A') (A') (A')
                 (A') (A') (A') (A') (A')
 The electronic state of the initial guess is 1-A'.
 Leave Link  401 at Mon Sep 28 02:46:57 2026, MaxMem=  1610612736 cpu:               0.8 elap:               0.1
 (Enter /share/software/user/restricted/gaussian/g16.B01/l502.exe)
 Keep R1 ints in memory in symmetry-blocked form, NReq=538860879.
 FoFCou: FMM=F IPFlag=           0 FMFlag=           0 FMFlg1=           0
         NFxFlg=           0 DoJE=F BraDBF=F KetDBF=F FulRan=T
         wScrn=  0.000000 ICntrl=       600 IOpCl=  0 I1Cent=           0 NGrid=           0
         NMat0=    1 NMatS0=  26565 NMatT0=    0 NMatD0=    1 NMtDS0=    0 NMtDT0=    0
 Petite list used in FoFCou.
 Closed shell SCF:
 Using DIIS extrapolation, IDIIS=  1040.
 NGot=  1610612736 LenX=  1424497779 LenY=  1424440217
 Requested convergence on RMS density matrix=1.00D-08 within 128 cycles.
 Requested convergence on MAX density matrix=1.00D-06.
 Requested convergence on             energy=1.00D-06.
 No special actions if energy rises.

 Cycle   1  Pass 1  IDiag  1:
 Inv3:  Mode=1 IEnd=     6669243.
 Iteration    1 A*A^-1 deviation from unit magnitude is 5.00D-15 for   1482.
 Iteration    1 A*A^-1 deviation from orthogonality  is 3.11D-15 for   1477   1345.
 Iteration    1 A^-1*A deviation from unit magnitude is 5.44D-15 for   1482.
 Iteration    1 A^-1*A deviation from orthogonality  is 2.62D-15 for   1477   1345.
 E= -1610.64159026274    
 DIIS: error= 3.90D-09 at cycle   1 NSaved=   1.
 NSaved= 1 IEnMin= 1 EnMin= -1610.64159026274     IErMin= 1 ErrMin= 3.90D-09
 ErrMax= 3.90D-09  0.00D+00 EMaxC= 1.00D-01 BMatC= 1.39D-15 BMatP= 1.39D-15
 IDIUse=1 WtCom= 1.00D+00 WtEn= 0.00D+00
 Coeff-Com:  0.100D+01
 Coeff:      0.100D+01
 Gap=     0.178 Goal=   None    Shift=    0.000
 RMSDP=1.38D-08 MaxDP=6.80D-07              OVMax= 4.28D-08

 Cycle   2  Pass 1  IDiag  1:
 E= -1610.64159026275     Delta-E=       -0.000000000010 Rises=F Damp=F
 DIIS: error= 5.89D-09 at cycle   2 NSaved=   2.
 NSaved= 2 IEnMin= 2 EnMin= -1610.64159026275     IErMin= 1 ErrMin= 3.90D-09
 ErrMax= 5.89D-09  0.00D+00 EMaxC= 1.00D-01 BMatC= 3.96D-15 BMatP= 1.39D-15
 IDIUse=1 WtCom= 1.00D+00 WtEn= 0.00D+00
 Coeff-Com:  0.632D+00 0.368D+00
 Coeff:      0.632D+00 0.368D+00
 Gap=     0.178 Goal=   None    Shift=    0.000
 RMSDP=8.12D-09 MaxDP=4.16D-07 DE=-1.05D-11 OVMax= 2.59D-08

 Error on total polarization charges =  0.03119
 SCF Done:  E(RB3LYP) =  -1610.64159026     A.U. after    2 cycles
            NFock=  2  Conv=0.81D-08     -V/T= 2.0026
 KE= 1.606391823637D+03 PE=-5.040797910022D+03 EE= 1.218515053557D+03
 SMD-CDS (non-electrostatic) energy       (kcal/mol) =       3.18
 (included in total energy above)
 Leave Link  502 at Mon Sep 28 02:47:04 2026, MaxMem=  1610612736 cpu:              51.4 elap:               6.6
 (Enter /share/software/user/restricted/gaussian/g16.B01/l801.exe)
 DoSCS=F DFT=T ScalE2(SS,OS)=  1.000000  1.000000
 Range of M.O.s used for correlation:     1   230
 NBasis=   230 NAE=    45 NBE=    45 NFC=     0 NFV=     0
 NROrb=    230 NOA=    45 NOB=    45 NVA=   185 NVB=   185

 **** Warning!!: The largest alpha MO coefficient is  0.37718749D+03

 Leave Link  801 at Mon Sep 28 02:47:04 2026, MaxMem=  1610612736 cpu:               0.3 elap:               0.1
 (Enter /share/software/user/restricted/gaussian/g16.B01/l1101.exe)
 Using compressed storage, NAtomX=    11.
 Will process     12 centers per pass.
 Leave Link 1101 at Mon Sep 28 02:47:04 2026, MaxMem=  1610612736 cpu:               0.7 elap:               0.1
 (Enter /share/software/user/restricted/gaussian/g16.B01/l1102.exe)
 Symmetrizing basis deriv contribution to polar:
 IMax=3 JMax=2 DiffMx= 0.00D+00
 Leave Link 1102 at Mon Sep 28 02:47:05 2026, MaxMem=  1610612736 cpu:               0.6 elap:               0.1
 (Enter /share/software/user/restricted/gaussian/g16.B01/l1110.exe)
 Forming Gx(P) for the SCF density, NAtomX=    11.
 Integral derivatives from FoFJK, PRISM(SPDF).
 Do as many integral derivatives as possible in FoFJK.
 G2DrvN: MDV=    1610611742.
 G2DrvN: will do    12 centers at a time, making    1 passes.
 Calling FoFCou, ICntrl=  3107 FMM=F I1Cent=   0 AccDes= 0.00D+00.
 FoFJK:  IHMeth= 1 ICntrl=    3107 DoSepK=F KAlg= 0 I1Cent=           0 FoldK=F
 IRaf=         0 NMat=       1 IRICut=       1 DoRegI=T DoRafI=F ISym2E= 1 IDoP0=0 IntGTp=1.
 FoFCou: FMM=F IPFlag=           0 FMFlag=      100000 FMFlg1=           0
         NFxFlg=           0 DoJE=F BraDBF=F KetDBF=F FulRan=T
         wScrn=  0.000000 ICntrl=      3107 IOpCl=  0 I1Cent=           0 NGrid=           0
         NMat0=    1 NMatS0=      1 NMatT0=    0 NMatD0=    1 NMtDS0=    0 NMtDT0=    0
 Petite list used in FoFCou.
 NEqPCM:  Using equilibrium solvation (IEInf=0, Eps=  78.3553, EpsInf=   1.7778)
 G2PCM: DoFxE=T DoFxN=T DoGrad=T DoDP/DQ/DG/TGxP=FFFF NFrqRd=   0 IEInf=0 SqF1=F DoCFld=F IF1Alg=4.
 GePol: Maximum number of non-zero 1st derivatives   =     374
 End of G2Drv F.D. properties file   721 does not exist.
 End of G2Drv F.D. properties file   722 does not exist.
 End of G2Drv F.D. properties file   788 does not exist.
 Leave Link 1110 at Mon Sep 28 02:47:19 2026, MaxMem=  1610612736 cpu:             117.6 elap:              14.7
 (Enter /share/software/user/restricted/gaussian/g16.B01/l1002.exe)
 Minotr:  Closed shell wavefunction.
          IDoAtm=11111111111
 NEqPCM:  Using equilibrium solvation (IEInf=0, Eps=  78.3553, EpsInf=   1.7778)
          Direct CPHF calculation.
          Differentiating once with respect to electric field.
                with respect to dipole field.
          Differentiating once with respect to nuclear coordinates.
          Using symmetry in CPHF.
          Requested convergence is 1.0D-08 RMS, and 1.0D-07 maximum.
          Secondary convergence is 1.0D-12 RMS, and 1.0D-12 maximum.
          NewPWx=T KeepS1=F KeepF1=F KeepIn=T MapXYZ=F SortEE=F KeepMc=T.
         3356 words used for storage of precomputed grid.
 Keep R1 ints in memory in symmetry-blocked form, NReq=538866064.
 FoFCou: FMM=F IPFlag=           0 FMFlag=           0 FMFlg1=           0
         NFxFlg=           0 DoJE=F BraDBF=F KetDBF=F FulRan=T
         wScrn=  0.000000 ICntrl=       600 IOpCl=  0 I1Cent=           0 NGrid=           0
         NMat0=    1 NMatS0=  26565 NMatT0=    0 NMatD0=    1 NMtDS0=    0 NMtDT0=    0
 Petite list used in FoFCou.
          MDV=    1610612736 using IRadAn=       1.
          Solving linear equations simultaneously, MaxMat=       0.
          There are    36 degrees of freedom in the 1st order CPHF.  IDoFFX=6 NUNeed=     3.
     33 vectors produced by pass  0 Test12= 2.31D-14 2.78D-09 XBig12= 1.95D+02 6.83D+00.
 AX will form    33 AO Fock derivatives at one time.
     33 vectors produced by pass  1 Test12= 2.31D-14 2.78D-09 XBig12= 4.09D+01 1.50D+00.
     33 vectors produced by pass  2 Test12= 2.31D-14 2.78D-09 XBig12= 6.73D-01 1.06D-01.
     33 vectors produced by pass  3 Test12= 2.31D-14 2.78D-09 XBig12= 6.73D-03 1.01D-02.
     33 vectors produced by pass  4 Test12= 2.31D-14 2.78D-09 XBig12= 3.34D-05 7.50D-04.
     33 vectors produced by pass  5 Test12= 2.31D-14 2.78D-09 XBig12= 9.27D-08 3.48D-05.
     25 vectors produced by pass  6 Test12= 2.31D-14 2.78D-09 XBig12= 1.77D-10 2.11D-06.
      3 vectors produced by pass  7 Test12= 2.31D-14 2.78D-09 XBig12= 2.87D-13 6.88D-08.
 InvSVY:  IOpt=1 It=  1 EMax= 1.07D-14
 Solved reduced A of dimension   226 with    36 vectors.
 FullF1:  Do perturbations      1 to       3.
 Isotropic polarizability for W=    0.000000      174.98 Bohr**3.
 End of Minotr F.D. properties file   721 does not exist.
 End of Minotr F.D. properties file   722 does not exist.
 End of Minotr F.D. properties file   788 does not exist.
 Leave Link 1002 at Mon Sep 28 02:48:01 2026, MaxMem=  1610612736 cpu:             336.1 elap:              42.1
 (Enter /share/software/user/restricted/gaussian/g16.B01/l601.exe)
 Copying SCF densities to generalized density rwf, IOpCl= 0 IROHF=0.

 **********************************************************************

            Population analysis using the SCF Density.

 **********************************************************************

 Orbital symmetries:
       Occupied  (A') (A') (A') (A') (A') (A') (A') (A') (A') (A')
                 (A') (A') (A') (A') (A") (A') (A") (A') (A') (A")
                 (A') (A') (A') (A') (A') (A') (A') (A') (A') (A')
                 (A') (A') (A') (A") (A') (A") (A') (A") (A') (A')
                 (A") (A') (A") (A") (A')
       Virtual   (A") (A') (A") (A') (A') (A') (A') (A') (A") (A')
                 (A') (A") (A') (A") (A') (A') (A') (A") (A') (A")
                 (A') (A') (A') (A") (A') (A") (A') (A') (A") (A')
                 (A") (A') (A') (A") (A') (A') (A') (A') (A') (A')
                 (A') (A') (A') (A') (A') (A') (A') (A') (A') (A')
                 (A') (A') (A") (A') (A") (A') (A') (A") (A') (A')
                 (A') (A") (A') (A') (A") (A") (A") (A") (A') (A')
                 (A') (A") (A') (A') (A') (A') (A') (A") (A') (A')
                 (A") (A') (A") (A') (A") (A') (A") (A') (A') (A')
                 (A') (A') (A") (A') (A') (A') (A') (A") (A') (A')
                 (A") (A') (A') (A") (A') (A') (A') (A") (A") (A")
                 (A') (A') (A') (A') (A') (A') (A') (A") (A") (A')
                 (A') (A') (A") (A") (A") (A') (A') (A') (A') (A')
                 (A") (A") (A') (A") (A') (A") (A') (A') (A') (A')
                 (A') (A') (A') (A') (A") (A') (A") (A") (A") (A")
                 (A') (A") (A') (A') (A') (A') (A') (A') (A') (A')
                 (A') (A') (A') (A') (A') (A') (A') (A') (A') (A')
                 (A') (A') (A') (A") (A") (A") (A') (A') (A') (A')
                 (A') (A') (A') (A') (A')
 The electronic state is 1-A'.
 Alpha  occ. eigenvalues -- -101.55304-101.55048-101.53407 -10.24003 -10.23093
 Alpha  occ. eigenvalues --  -10.22214 -10.18489 -10.17020 -10.13082  -9.46759
 Alpha  occ. eigenvalues --   -9.46499  -9.44876  -7.23199  -7.22921  -7.22264
 Alpha  occ. eigenvalues --   -7.22211  -7.22003  -7.21973  -7.21269  -7.20409
 Alpha  occ. eigenvalues --   -7.20350  -0.90080  -0.86670  -0.83482  -0.80300
 Alpha  occ. eigenvalues --   -0.73137  -0.70618  -0.59618  -0.57812  -0.49988
 Alpha  occ. eigenvalues --   -0.47351  -0.44505  -0.42365  -0.40929  -0.40107
 Alpha  occ. eigenvalues --   -0.36291  -0.36061  -0.33464  -0.32956  -0.31530
 Alpha  occ. eigenvalues --   -0.30559  -0.29690  -0.24471  -0.23526  -0.19428
 Alpha virt. eigenvalues --   -0.01674  -0.01177  -0.01027   0.00192   0.00900
 Alpha virt. eigenvalues --    0.02086   0.03136   0.03683   0.05474   0.05563
 Alpha virt. eigenvalues --    0.06458   0.06818   0.07068   0.07817   0.08611
 Alpha virt. eigenvalues --    0.09121   0.10067   0.10723   0.11220   0.11667
 Alpha virt. eigenvalues --    0.11773   0.12801   0.13412   0.13435   0.13759
 Alpha virt. eigenvalues --    0.14471   0.14916   0.15630   0.16108   0.17452
 Alpha virt. eigenvalues --    0.18240   0.18383   0.20489   0.20571   0.20836
 Alpha virt. eigenvalues --    0.22374   0.23286   0.23570   0.24292   0.25129
 Alpha virt. eigenvalues --    0.26372   0.27093   0.27640   0.28755   0.28915
 Alpha virt. eigenvalues --    0.30097   0.31012   0.33105   0.33838   0.35561
 Alpha virt. eigenvalues --    0.41676   0.43619   0.44580   0.45370   0.46202
 Alpha virt. eigenvalues --    0.46446   0.48075   0.48632   0.49452   0.51441
 Alpha virt. eigenvalues --    0.53384   0.54254   0.55724   0.58520   0.58599
 Alpha virt. eigenvalues --    0.59394   0.60971   0.61576   0.63307   0.63567
 Alpha virt. eigenvalues --    0.66305   0.66706   0.67160   0.70316   0.72464
 Alpha virt. eigenvalues --    0.74009   0.78707   0.79820   0.84971   0.85327
 Alpha virt. eigenvalues --    0.86172   0.86536   0.86759   0.87117   0.87164
 Alpha virt. eigenvalues --    0.87814   0.88574   0.90169   0.91028   0.92977
 Alpha virt. eigenvalues --    0.94377   0.94907   0.95212   0.95994   0.96904
 Alpha virt. eigenvalues --    0.98032   0.98730   1.00909   1.05225   1.07668
 Alpha virt. eigenvalues --    1.15192   1.15719   1.18833   1.21412   1.23393
 Alpha virt. eigenvalues --    1.24583   1.27054   1.28855   1.31859   1.32652
 Alpha virt. eigenvalues --    1.32906   1.47540   1.52532   1.54576   1.57154
 Alpha virt. eigenvalues --    1.66894   1.76364   1.78220   1.80921   1.83783
 Alpha virt. eigenvalues --    1.85270   1.87455   1.91236   1.92965   1.99974
 Alpha virt. eigenvalues --    2.04639   2.06782   2.13131   2.23174   2.24996
 Alpha virt. eigenvalues --    2.25186   2.27016   2.27198   2.30243   2.33367
 Alpha virt. eigenvalues --    2.34178   2.40792   2.41506   2.44763   2.50993
 Alpha virt. eigenvalues --    2.51900   2.55649   2.59032   2.62699   2.64105
 Alpha virt. eigenvalues --    2.71589   2.77534   2.78631   2.87951   2.89461
 Alpha virt. eigenvalues --    3.03464   3.07246   3.10050   3.13596   3.17162
 Alpha virt. eigenvalues --    3.24541   3.29441   3.33458   3.51446   3.57450
 Alpha virt. eigenvalues --    3.72259   3.95725   3.97525   4.78611   9.73639
 Alpha virt. eigenvalues --    9.78467   9.80386  23.25489  23.82072  23.87157
 Alpha virt. eigenvalues --   24.00863  24.04530  24.11708  25.79231  25.82764
 Alpha virt. eigenvalues --   25.87955  26.07437  26.09659  26.18855  26.47183
 Alpha virt. eigenvalues --   26.59322  26.68456 215.72453 215.77868 215.79977
          Condensed to atoms (all electrons):
               1          2          3          4          5          6
     1  C   21.660817  -2.535095  -5.010643  -8.198213   2.593808  -0.960449
     2  C   -2.535095  26.457560  -9.184766  -2.217150  -6.297716  -0.272463
     3  C   -5.010643  -9.184766  28.435712  -6.411777   1.147532  -2.331624
     4  C   -8.198213  -2.217150  -6.411777  33.885703  -5.163217  -5.588691
     5  C    2.593808  -6.297716   1.147532  -5.163217  20.421570  -4.800603
     6  C   -0.960449  -0.272463  -2.331624  -5.588691  -4.800603  19.636179
     7  Cl  -0.883324  -1.272350   0.983831   0.624850   0.042546   0.033982
     8  Cl   0.740027   0.586591  -1.366139  -0.477626  -0.355197   0.152116
     9  H   -0.043084   0.027538  -0.058182   0.498114  -0.135662  -0.033490
    10  Cl   0.129470   0.087825  -0.044967   0.441901  -1.454385   0.141871
    11  H   -0.276203   0.057666  -0.046939   0.033691  -0.490956   0.831827
               7          8          9         10         11
     1  C   -0.883324   0.740027  -0.043084   0.129470  -0.276203
     2  C   -1.272350   0.586591   0.027538   0.087825   0.057666
     3  C    0.983831  -1.366139  -0.058182  -0.044967  -0.046939
     4  C    0.624850  -0.477626   0.498114   0.441901   0.033691
     5  C    0.042546  -0.355197  -0.135662  -1.454385  -0.490956
     6  C    0.033982   0.152116  -0.033490   0.141871   0.831827
     7  Cl  17.556772  -0.298779  -0.004670  -0.017096  -0.010577
     8  Cl  -0.298779  17.615736   0.000297  -0.016037   0.007804
     9  H   -0.004670   0.000297   0.404763   0.013992   0.001200
    10  Cl  -0.017096  -0.016037   0.013992  17.431807   0.045089
    11  H   -0.010577   0.007804   0.001200   0.045089   0.562391
 Mulliken charges:
               1
     1  C   -1.217112
     2  C    0.562361
     3  C   -0.112038
     4  C   -1.427585
     5  C    0.492281
     6  C   -0.808653
     7  Cl   0.244817
     8  Cl   0.411206
     9  H    0.329185
    10  Cl   0.240531
    11  H    0.285007
 Sum of Mulliken charges =  -1.00000
 Mulliken charges with hydrogens summed into heavy atoms:
               1
     1  C   -1.217112
     2  C    0.562361
     3  C   -0.112038
     4  C   -1.098400
     5  C    0.492281
     6  C   -0.523646
     7  Cl   0.244817
     8  Cl   0.411206
    10  Cl   0.240531
 APT charges:
               1
     1  C   -0.920015
     2  C    0.674919
     3  C    0.705141
     4  C   -0.407911
     5  C    0.776642
     6  C   -0.041630
     7  Cl  -0.646177
     8  Cl  -0.623874
     9  H    0.109489
    10  Cl  -0.631608
    11  H    0.005023
 Sum of APT charges =  -1.00000
 APT charges with hydrogens summed into heavy atoms:
               1
     1  C   -0.920015
     2  C    0.674919
     3  C    0.705141
     4  C   -0.298423
     5  C    0.776642
     6  C   -0.036607
     7  Cl  -0.646177
     8  Cl  -0.623874
    10  Cl  -0.631608
 Electronic spatial extent (au):  <R**2>=           2203.1715
 Charge=             -1.0000 electrons
 Dipole moment (field-independent basis, Debye):
    X=             -6.5712    Y=             -2.9622    Z=              0.0000  Tot=              7.2080
 Quadrupole moment (field-independent basis, Debye-Ang):
   XX=            -98.7143   YY=            -90.6394   ZZ=            -78.5690
   XY=             -0.3315   XZ=              0.0000   YZ=             -0.0000
 Traceless Quadrupole moment (field-independent basis, Debye-Ang):
   XX=             -9.4068   YY=             -1.3318   ZZ=             10.7386
   XY=             -0.3315   XZ=              0.0000   YZ=             -0.0000
 Octapole moment (field-independent basis, Debye-Ang**2):
  XXX=            -50.7318  YYY=            -19.3746  ZZZ=             -0.0000  XYY=            -11.9135
  XXY=            -29.4545  XXZ=              0.0000  XZZ=             -4.8794  YZZ=             -7.3041
  YYZ=             -0.0000  XYZ=              0.0000
 Hexadecapole moment (field-independent basis, Debye-Ang**3):
 XXXX=          -1598.9750 YYYY=          -1447.6550 ZZZZ=            -99.4682 XXXY=            309.5586
 XXXZ=              0.0000 YYYX=            318.0082 YYYZ=             -0.0000 ZZZX=              0.0000
 ZZZY=             -0.0000 XXYY=           -544.3448 XXZZ=           -274.4587 YYZZ=           -266.2488
 XXYZ=             -0.0000 YYXZ=              0.0000 ZZXY=            106.4899
 N-N= 6.052494425658D+02 E-N=-5.040797910527D+03  KE= 1.606391823637D+03
 Symmetry A'   KE= 1.462696700471D+03
 Symmetry A"   KE= 1.436951231661D+02
  Exact polarizability: 212.063 -13.699 216.024  -0.000  -0.000  96.838
 Approx polarizability: 224.407 -16.879 236.241  -0.000   0.000 101.958
 No NMR shielding tensors so no spin-rotation constants.
 Leave Link  601 at Mon Sep 28 02:48:02 2026, MaxMem=  1610612736 cpu:               0.6 elap:               0.1
 (Enter /share/software/user/restricted/gaussian/g16.B01/l701.exe)
 ... and contract with generalized density number  0.
 Compute integral second derivatives.
 D2PCM: PCM CHGder 2nd derivatives, FixD1E=F FixD2E=F DoIter=F DoCFld=F I1PDM=0
 GePol: Maximum number of non-zero 2nd derivatives   =     374
 Leave Link  701 at Mon Sep 28 02:48:05 2026, MaxMem=  1610612736 cpu:              27.0 elap:               3.4
 (Enter /share/software/user/restricted/gaussian/g16.B01/l702.exe)
 L702 exits ... SP integral derivatives will be done elsewhere.
 Leave Link  702 at Mon Sep 28 02:48:05 2026, MaxMem=  1610612736 cpu:               0.2 elap:               0.0
 (Enter /share/software/user/restricted/gaussian/g16.B01/l703.exe)
 Integral derivatives from FoFJK, PRISM(SPDF).
 Compute integral second derivatives, UseDBF=F ICtDFT=           0.
 Calling FoFJK, ICntrl=    100127 FMM=F ISym2X=1 I1Cent= 0 IOpClX= 0 NMat=1 NMatS=1 NMatT=0.
 FoFJK:  IHMeth= 1 ICntrl=  100127 DoSepK=F KAlg= 0 I1Cent=           0 FoldK=F
 IRaf=         0 NMat=       1 IRICut=       1 DoRegI=T DoRafI=F ISym2E= 1 IDoP0=0 IntGTp=1.
 FoFCou: FMM=F IPFlag=           0 FMFlag=      100000 FMFlg1=         800
         NFxFlg=           0 DoJE=F BraDBF=F KetDBF=F FulRan=T
         wScrn=  0.000000 ICntrl=    100127 IOpCl=  0 I1Cent=           0 NGrid=           0
         NMat0=    1 NMatS0=      1 NMatT0=    0 NMatD0=    1 NMtDS0=    0 NMtDT0=    0
 Petite list used in FoFCou.
 Leave Link  703 at Mon Sep 28 02:48:25 2026, MaxMem=  1610612736 cpu:             153.6 elap:              19.3
 (Enter /share/software/user/restricted/gaussian/g16.B01/l716.exe)
 Dipole        =-2.58530004D+00-1.16542266D+00 1.72566467D-31
 Polarizability= 2.12063234D+02-1.36986422D+01 2.16024427D+02
                -1.99365287D-12-2.60427571D-13 9.68379538D+01
 Full mass-weighted force constant matrix:
 Low frequencies ---   -9.4729    0.0028    0.0040    0.0041    9.7541   13.3798
 Low frequencies ---   78.7227  162.6616  192.7374
 Diagonal vibrational polarizability:
       23.7738005      32.4633286      21.0346503
 Harmonic frequencies (cm**-1), IR intensities (KM/Mole), Raman scattering
 activities (A**4/AMU), depolarization ratios for plane and unpolarized
 incident light, reduced masses (AMU), force constants (mDyne/A),
 and normal coordinates:
                      1                      2                      3
                     A"                     A"                     A'
 Frequencies --     78.6843               162.6594               192.7369
 Red. masses --     11.4806                 6.9084                25.4638
 Frc consts  --      0.0419                 0.1077                 0.5573
 IR Inten    --      2.9087                 2.8313                 0.9974
  Atom  AN      X      Y      Z        X      Y      Z        X      Y      Z
     1   6    -0.00   0.00  -0.41     0.00   0.00  -0.10    -0.15  -0.02   0.00
     2   6    -0.00   0.00  -0.15    -0.00   0.00   0.10    -0.19  -0.01   0.00
     3   6    -0.00   0.00  -0.09    -0.00   0.00   0.29    -0.15  -0.06  -0.00
     4   6    -0.00   0.00  -0.02    -0.00   0.00   0.49    -0.22  -0.12  -0.00
     5   6    -0.00   0.00  -0.12    -0.00   0.00   0.21    -0.18  -0.09  -0.00
     6   6    -0.00   0.00  -0.43    -0.00   0.00  -0.10    -0.18  -0.10   0.00
     7  17    -0.00  -0.00   0.31    -0.00  -0.00  -0.01    -0.31  -0.13  -0.00
     8  17     0.00   0.00  -0.13     0.00   0.00  -0.17     0.61  -0.12   0.00
     9   1    -0.00   0.00   0.12    -0.00   0.00   0.63    -0.22  -0.13  -0.00
    10  17    -0.00   0.00   0.25    -0.00   0.00  -0.13     0.08   0.38  -0.00
    11   1    -0.00   0.00  -0.64    -0.00   0.00  -0.40    -0.22  -0.10   0.00
                      4                      5                      6
                     A'                     A'                     A"
 Frequencies --    207.0366               304.0611               317.3250
 Red. masses --     22.8197                30.5284                 7.6569
 Frc consts  --      0.5763                 1.6629                 0.4543
 IR Inten    --      0.8154                 9.4906                 5.7195
  Atom  AN      X      Y      Z        X      Y      Z        X      Y      Z
     1   6    -0.18  -0.17  -0.00    -0.14  -0.14  -0.00    -0.00  -0.00   0.27
     2   6    -0.11  -0.18  -0.00     0.13  -0.09  -0.00     0.00   0.00   0.45
     3   6    -0.10  -0.24   0.00     0.05   0.05  -0.00     0.00   0.00   0.24
     4   6    -0.13  -0.21   0.00    -0.03   0.07   0.00    -0.00  -0.00  -0.10
     5   6    -0.12  -0.19   0.00    -0.26   0.12   0.00    -0.00   0.00  -0.33
     6   6    -0.14  -0.20  -0.00    -0.15  -0.03   0.00    -0.00  -0.00  -0.31
     7  17     0.27   0.43   0.00     0.57  -0.38   0.00     0.00  -0.00  -0.10
     8  17    -0.19  -0.32  -0.00     0.04   0.06   0.00    -0.00   0.00  -0.03
     9   1    -0.13  -0.21   0.00     0.05  -0.08  -0.00    -0.00  -0.00  -0.17
    10  17     0.19   0.31   0.00    -0.47   0.33  -0.00    -0.00   0.00   0.08
    11   1    -0.15  -0.20  -0.00     0.01  -0.03   0.00    -0.00  -0.00  -0.64
                      7                      8                      9
                     A'                     A'                     A"
 Frequencies --    380.4959               449.3024               465.0343
 Red. masses --     11.4165                 8.2228                 5.0780
 Frc consts  --      0.9738                 0.9780                 0.6470
 IR Inten    --     25.2216                 2.9582                 5.4301
  Atom  AN      X      Y      Z        X      Y      Z        X      Y      Z
     1   6    -0.11   0.01  -0.00    -0.08   0.38   0.00    -0.00  -0.00   0.38
     2   6    -0.01   0.03  -0.00     0.17   0.30  -0.00    -0.00  -0.00  -0.20
     3   6    -0.00   0.05  -0.00     0.28   0.05  -0.00    -0.00  -0.00  -0.30
     4   6    -0.15  -0.25  -0.00     0.18  -0.14   0.00    -0.00   0.00   0.25
     5   6    -0.20  -0.30   0.00    -0.09  -0.11  -0.00     0.00  -0.00  -0.13
     6   6    -0.25  -0.26   0.00    -0.24   0.13  -0.00     0.00   0.00  -0.14
     7  17     0.08  -0.06  -0.00    -0.04  -0.10   0.00     0.00   0.00   0.01
     8  17    -0.03   0.37   0.00    -0.09  -0.16  -0.00     0.00   0.00   0.02
     9   1    -0.05  -0.43  -0.00     0.28  -0.32   0.00    -0.00   0.00   0.76
    10  17     0.21  -0.04  -0.00     0.05   0.05  -0.00     0.00  -0.00   0.00
    11   1    -0.44  -0.26   0.00    -0.50   0.13   0.00     0.00   0.00  -0.22
                     10                     11                     12
                     A'                     A"                     A'
 Frequencies --    489.3613               565.7623               652.3714
 Red. masses --     10.6262                 5.0927                 9.6909
 Frc consts  --      1.4993                 0.9604                 2.4300
 IR Inten    --    160.3346                 2.5427                26.2516
  Atom  AN      X      Y      Z        X      Y      Z        X      Y      Z
     1   6    -0.30   0.08  -0.00    -0.00   0.00   0.02     0.52   0.28  -0.00
     2   6    -0.30   0.13  -0.00    -0.00   0.00   0.24    -0.04   0.25  -0.00
     3   6    -0.27   0.03   0.00    -0.00  -0.00  -0.32    -0.21   0.21  -0.00
     4   6    -0.18   0.20   0.00    -0.00   0.00  -0.08    -0.42  -0.07   0.00
     5   6    -0.02   0.20  -0.00     0.00   0.00   0.42    -0.01  -0.10  -0.00
     6   6    -0.13   0.31   0.00    -0.00   0.00  -0.17     0.15  -0.18   0.00
     7  17     0.18  -0.11   0.00     0.00  -0.00  -0.02     0.07  -0.02   0.00
     8  17     0.04  -0.09  -0.00    -0.00  -0.00   0.03    -0.01  -0.10  -0.00
     9   1    -0.30   0.42  -0.00    -0.00   0.00  -0.27    -0.44  -0.03   0.00
    10  17     0.21  -0.15  -0.00     0.00  -0.00  -0.02    -0.03  -0.01  -0.00
    11   1    -0.10   0.31   0.00    -0.00   0.00  -0.75    -0.11  -0.18  -0.00
                     13                     14                     15
                     A"                     A'                     A"
 Frequencies --    724.6464               736.3179               848.7908
 Red. masses --      3.7764                11.5127                 1.5342
 Frc consts  --      1.1684                 3.6776                 0.6512
 IR Inten    --     20.5576                70.8440                38.2126
  Atom  AN      X      Y      Z        X      Y      Z        X      Y      Z
     1   6    -0.00  -0.00  -0.21    -0.03  -0.13   0.00     0.00   0.00   0.02
     2   6     0.00  -0.00   0.30     0.38  -0.16  -0.00     0.00  -0.00  -0.03
     3   6     0.00   0.00  -0.24     0.08   0.47   0.00     0.00  -0.00   0.08
     4   6    -0.00   0.00   0.09    -0.07   0.32   0.00    -0.00   0.00  -0.19
     5   6    -0.00   0.00  -0.18    -0.42   0.27   0.00    -0.00   0.00   0.07
     6   6    -0.00  -0.00   0.14    -0.14  -0.29  -0.00    -0.00  -0.00  -0.01
     7  17    -0.00   0.00  -0.01    -0.04   0.02   0.00     0.00  -0.00   0.00
     8  17     0.00  -0.00   0.00     0.01  -0.11   0.00     0.00  -0.00  -0.00
     9   1     0.00  -0.00   0.79     0.10   0.01  -0.00    -0.00   0.00   0.97
    10  17     0.00  -0.00   0.00     0.09  -0.07   0.00     0.00  -0.00  -0.00
    11   1     0.00  -0.00   0.36     0.11  -0.28  -0.00    -0.00  -0.00  -0.09
                     16                     17                     18
                     A"                     A'                     A'
 Frequencies --    894.9778               959.4806              1039.0535
 Red. masses --      1.3922                 9.3310                 8.5946
 Frc consts  --      0.6570                 5.0612                 5.4671
 IR Inten    --     18.2312               295.1184               255.5576
  Atom  AN      X      Y      Z        X      Y      Z        X      Y      Z
     1   6    -0.00  -0.00   0.02    -0.26  -0.12  -0.00    -0.25  -0.20  -0.00
     2   6    -0.00   0.00   0.03     0.32  -0.14  -0.00    -0.30   0.38  -0.00
     3   6    -0.00   0.00  -0.00     0.03   0.37   0.00     0.07   0.35   0.00
     4   6     0.00  -0.00  -0.00    -0.34  -0.20  -0.00     0.17   0.05  -0.00
     5   6     0.00  -0.00   0.06     0.33  -0.21   0.00     0.21  -0.11   0.00
     6   6     0.00  -0.00  -0.17     0.08   0.30   0.00     0.13  -0.33   0.00
     7  17    -0.00   0.00  -0.00    -0.02   0.01  -0.00     0.01  -0.01   0.00
     8  17    -0.00   0.00  -0.00    -0.00  -0.02  -0.00    -0.01  -0.04  -0.00
     9   1     0.00  -0.00   0.02    -0.36  -0.18   0.00     0.29  -0.11   0.00
    10  17    -0.00   0.00  -0.00    -0.02   0.01  -0.00    -0.03   0.01  -0.00
    11   1     0.00  -0.00   0.98     0.01   0.30  -0.00     0.31  -0.35  -0.00
                     19                     20                     21
                     A'                     A'                     A'
 Frequencies --   1104.6395              1212.8339              1289.7658
 Red. masses --      1.9377                 2.1049                10.9625
 Frc consts  --      1.3931                 1.8242                10.7444
 IR Inten    --    148.5925                 3.7568                73.2530
  Atom  AN      X      Y      Z        X      Y      Z        X      Y      Z
     1   6    -0.02   0.06  -0.00    -0.12   0.05  -0.00     0.15  -0.40  -0.00
     2   6     0.07  -0.04   0.00     0.09   0.11   0.00     0.30   0.41  -0.00
     3   6    -0.04  -0.03   0.00     0.11  -0.14  -0.00    -0.29  -0.09   0.00
     4   6     0.03   0.13   0.00    -0.11  -0.02   0.00     0.08  -0.31  -0.00
     5   6     0.15  -0.08  -0.00    -0.06   0.02  -0.00     0.17   0.33   0.00
     6   6    -0.10  -0.11  -0.00     0.09  -0.07  -0.00    -0.36   0.00   0.00
     7  17     0.00  -0.00  -0.00    -0.01  -0.00  -0.00    -0.01   0.01   0.00
     8  17     0.00   0.00   0.00    -0.00   0.01   0.00    -0.00   0.01  -0.00
     9   1    -0.28   0.74  -0.00    -0.41   0.51  -0.00    -0.20   0.19   0.00
    10  17    -0.01   0.01   0.00     0.00  -0.00   0.00     0.00  -0.00  -0.00
    11   1    -0.52  -0.12   0.00     0.68  -0.07   0.00     0.13  -0.01  -0.00
                     22                     23                     24
                     A'                     A'                     A'
 Frequencies --   1365.2484              1384.1470              1535.8292
 Red. masses --      2.5684                 1.8501                 6.9669
 Frc consts  --      2.8206                 2.0884                 9.6823
 IR Inten    --    180.9760                73.0869                18.9995
  Atom  AN      X      Y      Z        X      Y      Z        X      Y      Z
     1   6     0.14  -0.13   0.00    -0.00   0.13  -0.00     0.15  -0.04   0.00
     2   6    -0.12  -0.02  -0.00     0.02  -0.08   0.00    -0.20  -0.07   0.00
     3   6     0.10   0.12   0.00    -0.14   0.05  -0.00     0.40  -0.05   0.00
     4   6     0.08  -0.07  -0.00     0.09  -0.00  -0.00    -0.27   0.12  -0.00
     5   6    -0.13  -0.13   0.00     0.04  -0.07  -0.00     0.26   0.13   0.00
     6   6    -0.07   0.13   0.00    -0.12  -0.02   0.00    -0.37  -0.04  -0.00
     7  17     0.00   0.00  -0.00     0.00  -0.00   0.00    -0.00   0.00  -0.00
     8  17    -0.00  -0.01  -0.00     0.00  -0.00  -0.00    -0.00  -0.00   0.00
     9   1    -0.38   0.81   0.00     0.12  -0.03   0.00     0.01  -0.44  -0.00
    10  17     0.00   0.00  -0.00    -0.00   0.00   0.00    -0.00  -0.00   0.00
    11   1     0.19   0.14  -0.00     0.95  -0.04  -0.00     0.51  -0.08   0.00
                     25                     26                     27
                     A'                     A'                     A'
 Frequencies --   1557.2876              3127.6670              3218.7098
 Red. masses --      6.8099                 1.0890                 1.0931
 Frc consts  --      9.7303                 6.2765                 6.6724
 IR Inten    --     39.4533                51.1339                 0.2600
  Atom  AN      X      Y      Z        X      Y      Z        X      Y      Z
     1   6     0.07  -0.22  -0.00    -0.00   0.00   0.00     0.00   0.00   0.00
     2   6     0.15   0.23   0.00    -0.00   0.00   0.00     0.00   0.00  -0.00
     3   6    -0.06  -0.17   0.00     0.00   0.00   0.00     0.00  -0.00   0.00
     4   6    -0.09   0.42   0.00    -0.00   0.00   0.00    -0.08  -0.04   0.00
     5   6    -0.08  -0.39  -0.00     0.00  -0.00   0.00    -0.00   0.00  -0.00
     6   6    -0.04   0.15  -0.00    -0.00  -0.09  -0.00     0.00   0.00  -0.00
     7  17    -0.01   0.00   0.00     0.00  -0.00   0.00    -0.00   0.00   0.00
     8  17     0.00  -0.00  -0.00    -0.00  -0.00  -0.00     0.00   0.00  -0.00
     9   1     0.40  -0.46  -0.00     0.00   0.00  -0.00     0.88   0.47  -0.00
    10  17     0.00   0.00   0.00    -0.00   0.00   0.00     0.00  -0.00   0.00
    11   1     0.27   0.15  -0.00     0.01   1.00  -0.00    -0.00  -0.00  -0.00

 -------------------
 - Thermochemistry -
 -------------------
 Temperature   298.150 Kelvin.  Pressure   1.00000 Atm.
 Atom     1 has atomic number  6 and mass  12.00000
 Atom     2 has atomic number  6 and mass  12.00000
 Atom     3 has atomic number  6 and mass  12.00000
 Atom     4 has atomic number  6 and mass  12.00000
 Atom     5 has atomic number  6 and mass  12.00000
 Atom     6 has atomic number  6 and mass  12.00000
 Atom     7 has atomic number 17 and mass  34.96885
 Atom     8 has atomic number 17 and mass  34.96885
 Atom     9 has atomic number  1 and mass   1.00783
 Atom    10 has atomic number 17 and mass  34.96885
 Atom    11 has atomic number  1 and mass   1.00783
 Molecular mass:   178.92221 amu.
 Principal axes and moments of inertia in atomic units:
                           1         2         3
     Eigenvalues --   973.488693077.572714051.06141
           X            0.72049   0.69347   0.00000
           Y           -0.69347   0.72049   0.00000
           Z           -0.00000   0.00000   1.00000
 This molecule is an asymmetric top.
 Rotational symmetry number  1.
 Warning -- assumption of classical behavior for rotation
           may cause significant error
 Rotational temperatures (Kelvin)      0.08897     0.02814     0.02138
 Rotational constants (GHZ):           1.85389     0.58642     0.44550
 Zero-point vibrational energy     151113.6 (Joules/Mol)
                                   36.11702 (Kcal/Mol)
 Warning -- explicit consideration of  11 degrees of freedom as
           vibrations may cause significant error
 Vibrational temperatures:    113.21   234.03   277.31   297.88   437.48
          (Kelvin)            456.56   547.45   646.45   669.08   704.08
                              814.01   938.62  1042.60  1059.40  1221.22
                             1287.67  1380.48  1494.97  1589.33  1745.00
                             1855.69  1964.29  1991.48  2209.72  2240.59
                             4500.02  4631.01
 
 Zero-point correction=                           0.057556 (Hartree/Particle)
 Thermal correction to Energy=                    0.065586
 Thermal correction to Enthalpy=                  0.066530
 Thermal correction to Gibbs Free Energy=         0.023224
 Sum of electronic and zero-point Energies=          -1610.584034
 Sum of electronic and thermal Energies=             -1610.576004
 Sum of electronic and thermal Enthalpies=           -1610.575060
 Sum of electronic and thermal Free Energies=        -1610.618366
 
                     E (Thermal)             CV                S
                      KCal/Mol        Cal/Mol-Kelvin    Cal/Mol-Kelvin
 Total                   41.156             28.672             91.145
 Electronic               0.000              0.000              0.000
 Translational            0.889              2.981             41.452
 Rotational               0.889              2.981             30.874
 Vibrational             39.379             22.711             18.819
 Vibration     1          0.600              1.963              3.923
 Vibration     2          0.623              1.888              2.519
 Vibration     3          0.635              1.850              2.201
 Vibration     4          0.641              1.830              2.070
 Vibration     5          0.695              1.666              1.394
 Vibration     6          0.704              1.641              1.324
 Vibration     7          0.750              1.512              1.037
 Vibration     8          0.808              1.362              0.798
 Vibration     9          0.822              1.328              0.752
 Vibration    10          0.845              1.274              0.685
 Vibration    11          0.922              1.105              0.512
                       Q            Log10(Q)             Ln(Q)
 Total Bot       0.207764D-10        -10.682429        -24.597202
 Total V=0       0.618778D+16         15.791535         36.361353
 Vib (Bot)       0.177101D-24        -24.751779        -56.993077
 Vib (Bot)    1  0.261787D+01          0.417948          0.962360
 Vib (Bot)    2  0.124185D+01          0.094070          0.216603
 Vib (Bot)    3  0.103737D+01          0.015934          0.036690
 Vib (Bot)    4  0.960460D+00         -0.017521         -0.040343
 Vib (Bot)    5  0.624018D+00         -0.204803         -0.471576
 Vib (Bot)    6  0.593341D+00         -0.226696         -0.521986
 Vib (Bot)    7  0.475019D+00         -0.323289         -0.744401
 Vib (Bot)    8  0.381890D+00         -0.418062         -0.962623
 Vib (Bot)    9  0.364227D+00         -0.438628         -1.009979
 Vib (Bot)   10  0.339009D+00         -0.469788         -1.081727
 Vib (Bot)   11  0.273169D+00         -0.563568         -1.297664
 Vib (V=0)       0.527455D+02          1.722185          3.965478
 Vib (V=0)    1  0.316519D+01          0.500400          1.152213
 Vib (V=0)    2  0.183873D+01          0.264518          0.609074
 Vib (V=0)    3  0.165158D+01          0.217900          0.501733
 Vib (V=0)    4  0.158281D+01          0.199430          0.459203
 Vib (V=0)    5  0.129962D+01          0.113818          0.262075
 Vib (V=0)    6  0.127592D+01          0.105824          0.243668
 Vib (V=0)    7  0.118967D+01          0.075426          0.173675
 Vib (V=0)    8  0.112916D+01          0.052755          0.121472
 Vib (V=0)    9  0.111860D+01          0.048673          0.112074
 Vib (V=0)   10  0.110409D+01          0.043005          0.099023
 Vib (V=0)   11  0.106976D+01          0.029285          0.067430
 Electronic      0.100000D+01          0.000000          0.000000
 Translational   0.940698D+08          7.973450         18.359548
 Rotational      0.124710D+07          6.095900         14.036328
 
                                                       ClPh_235_anion b3lyp_smd
                                                             IR Spectrum
 
     3   3                                                             11     11  1  1   1  1                                        
     2   1                                                             55     33  2  2   1  0  9 8 8   77  6  5  444 3  33  211      
     1   2                                                             53     86  9  1   0  3  5 9 4   32  5  6  864 8  10  096  7   
     9   8                                                             76     45  0  3   5  9  9 5 9   65  2  6  959 0  74  733  9   
 
     X   X                                                             XX     XX  X  X   X  X  X X X   XX  X  X  XXX X  XX  XXX  X   
         X                                                             X      XX  X      X  X  X   X   X   X     X   X               
         X                                                             X      XX  X      X  X  X   X   X         X                   
                                                                              XX  X      X  X  X       X         X                   
                                                                              XX  X      X  X  X       X         X                   
                                                                               X         X  X  X                 X                   
                                                                               X         X  X  X                 X                   
                                                                               X         X  X  X                 X                   
                                                                               X         X  X  X                 X                   
                                                                               X         X  X  X                 X                   
                                                                               X            X  X                 X                   
                                                                               X            X  X                                     
                                                                                            X  X                                     
                                                                                            X  X                                     
                                                                                            X  X                                     
                                                                                            X  X                                     
                                                                                            X  X                                     
                                                                                               X                                     
                                                                                               X                                     
                                                                                               X                                     
 
 ***** Axes restored to original set *****
 -------------------------------------------------------------------
 Center     Atomic                   Forces (Hartrees/Bohr)
 Number     Number              X              Y              Z
 -------------------------------------------------------------------
      1        6          -0.000013441    0.000106805    0.000000000
      2        6          -0.000223289    0.000110338   -0.000000000
      3        6           0.000305286   -0.000390700    0.000000000
      4        6           0.000034681    0.000194693    0.000000000
      5        6          -0.000182596   -0.000200340    0.000000000
      6        6           0.000099715    0.000010651   -0.000000000
      7       17           0.000042241    0.000036205   -0.000000000
      8       17          -0.000157382    0.000191618   -0.000000000
      9        1           0.000043530    0.000026108   -0.000000000
     10       17           0.000082988   -0.000006456   -0.000000000
     11        1          -0.000031734   -0.000078921    0.000000000
 -------------------------------------------------------------------
 Cartesian Forces:  Max     0.000390700 RMS     0.000125943
 Force constants in Cartesian coordinates: 
                1             2             3             4             5 
      1  0.554715D+00
      2  0.102517D-01  0.299328D+00
      3  0.000000D+00  0.000000D+00  0.736086D-01
      4 -0.215611D+00  0.752448D-01  0.000000D+00  0.399329D+00
      5  0.977972D-01 -0.152860D+00  0.000000D+00 -0.697531D-01  0.552077D+00
      6  0.000000D+00  0.000000D+00 -0.543678D-01  0.000000D+00  0.000000D+00
      7  0.233168D-01  0.143459D-01  0.000000D+00 -0.791380D-01  0.336330D-01
      8  0.740114D-01 -0.913789D-02  0.000000D+00 -0.314074D-01 -0.298207D+00
      9  0.000000D+00  0.000000D+00  0.176578D-01  0.000000D+00  0.000000D+00
     10 -0.591805D-01  0.294432D-02  0.000000D+00  0.278871D-01 -0.750313D-01
     11  0.408439D-03  0.229949D-02  0.000000D+00 -0.182835D-01 -0.283221D-01
     12  0.000000D+00  0.000000D+00 -0.681395D-02  0.000000D+00  0.000000D+00
     13  0.250538D-01 -0.194256D-01  0.000000D+00 -0.174862D-01  0.306636D-01
     14 -0.811539D-01 -0.223329D-01  0.000000D+00  0.245159D-01 -0.549868D-01
     15  0.000000D+00  0.000000D+00  0.204521D-01  0.000000D+00  0.000000D+00
     16 -0.245115D+00 -0.100387D+00  0.000000D+00 -0.593946D-01  0.142522D-01
     17 -0.790216D-01 -0.129495D+00  0.000000D+00 -0.348427D-02  0.459025D-01
     18  0.000000D+00  0.000000D+00 -0.523821D-01  0.000000D+00  0.000000D+00
     19 -0.643420D-01  0.107024D-01  0.000000D+00 -0.321969D-01 -0.367399D-01
     20 -0.675529D-02  0.191743D-01  0.000000D+00 -0.530932D-02 -0.552375D-01
     21  0.000000D+00  0.000000D+00 -0.824538D-03  0.000000D+00  0.000000D+00
     22  0.189849D-02  0.103019D-01  0.000000D+00 -0.187699D-01  0.548841D-02
     23 -0.226767D-02 -0.107186D-01  0.000000D+00  0.325706D-01 -0.123310D-01
     24  0.000000D+00  0.000000D+00  0.320817D-02  0.000000D+00  0.000000D+00
     25 -0.769482D-03 -0.590824D-03  0.000000D+00 -0.304993D-02 -0.129894D-02
     26  0.000000D+00  0.531514D-03  0.000000D+00 -0.175575D-02  0.532177D-03
     27  0.000000D+00  0.000000D+00 -0.561109D-03  0.000000D+00  0.000000D+00
     28  0.253051D-02 -0.610345D-02  0.000000D+00  0.221244D-02  0.538930D-03
     29  0.341638D-02 -0.634621D-02  0.000000D+00  0.195491D-02  0.177991D-02
     30  0.000000D+00  0.000000D+00  0.338703D-02  0.000000D+00  0.000000D+00
     31 -0.224971D-01  0.271623D-02  0.000000D+00 -0.378278D-02  0.450074D-03
     32 -0.166857D-01  0.955692D-02  0.000000D+00 -0.429275D-02  0.165344D-02
     33  0.000000D+00  0.000000D+00 -0.336422D-02  0.000000D+00  0.000000D+00
                6             7             8             9            10 
      6  0.118680D+00
      7  0.000000D+00  0.496002D+00
      8  0.000000D+00  0.850564D-01  0.565242D+00
      9 -0.642831D-01  0.000000D+00  0.000000D+00  0.118767D+00
     10  0.000000D+00 -0.249880D+00 -0.716069D-01  0.000000D+00  0.641288D+00
     11  0.000000D+00 -0.134840D+00 -0.173670D+00  0.000000D+00 -0.812199D-02
     12  0.125253D-01  0.000000D+00  0.000000D+00 -0.596945D-01  0.000000D+00
     13  0.000000D+00 -0.651926D-01 -0.303565D-01  0.000000D+00 -0.254627D+00
     14  0.000000D+00  0.298287D-01  0.619279D-01  0.000000D+00  0.752081D-01
     15 -0.950681D-02  0.000000D+00  0.000000D+00  0.573757D-02  0.000000D+00
     16  0.000000D+00 -0.133432D-01 -0.213101D-01  0.000000D+00  0.253412D-01
     17  0.000000D+00 -0.293168D-01 -0.560156D-01  0.000000D+00  0.699707D-01
     18  0.179773D-03  0.000000D+00  0.000000D+00 -0.566043D-02  0.000000D+00
     19  0.000000D+00 -0.209503D-01 -0.117788D-01  0.000000D+00  0.968808D-03
     20  0.000000D+00 -0.318711D-01 -0.205315D-01  0.000000D+00  0.279764D-02
     21 -0.202851D-01  0.000000D+00  0.000000D+00  0.198087D-02  0.000000D+00
     22  0.000000D+00 -0.928479D-01  0.318241D-01  0.000000D+00 -0.421212D-01
     23  0.000000D+00  0.311362D-01 -0.561967D-01  0.000000D+00  0.946411D-03
     24  0.231957D-02  0.000000D+00  0.000000D+00 -0.217225D-01  0.000000D+00
     25  0.000000D+00  0.169345D-02 -0.261324D-01  0.000000D+00 -0.543907D-01
     26  0.000000D+00  0.291103D-02 -0.106993D-01  0.000000D+00  0.145655D-02
     27  0.446817D-02  0.000000D+00  0.000000D+00  0.212095D-02  0.000000D+00
     28  0.000000D+00  0.136070D-03  0.310327D-02  0.000000D+00 -0.368142D-01
     29  0.000000D+00  0.308227D-03 -0.213558D-02  0.000000D+00  0.257176D-02
     30  0.110361D-02  0.000000D+00  0.000000D+00  0.502528D-02  0.000000D+00
     31  0.000000D+00  0.203300D-03 -0.140306D-02  0.000000D+00  0.152805D-02
     32  0.000000D+00 -0.119119D-02 -0.576737D-03  0.000000D+00 -0.113530D-02
     33  0.916591D-02  0.000000D+00  0.000000D+00  0.711339D-04  0.000000D+00
               11            12            13            14            15 
     11  0.757243D+00
     12  0.000000D+00  0.118066D+00
     13  0.137708D+00  0.000000D+00  0.501168D+00
     14 -0.179190D+00  0.000000D+00 -0.101329D+00  0.581806D+00
     15  0.000000D+00 -0.616577D-01  0.000000D+00  0.000000D+00  0.121288D+00
     16  0.244519D-01  0.000000D+00 -0.101107D+00  0.633199D-01  0.000000D+00
     17 -0.288755D-01  0.000000D+00 -0.106098D-01 -0.306220D+00  0.000000D+00
     18  0.000000D+00  0.122252D-01  0.000000D+00  0.000000D+00 -0.656348D-01
     19 -0.280394D-02  0.000000D+00  0.113016D-02  0.270387D-03  0.000000D+00
     20 -0.426403D-02  0.000000D+00  0.592295D-03  0.434601D-03  0.000000D+00
     21  0.000000D+00  0.307724D-02  0.000000D+00  0.000000D+00 -0.120444D-03
     22  0.236558D-01  0.000000D+00  0.190003D-02 -0.510551D-02  0.000000D+00
     23  0.354945D-02  0.000000D+00 -0.189295D-02  0.000000D+00  0.000000D+00
     24  0.000000D+00  0.358989D-02  0.000000D+00  0.000000D+00  0.628118D-02
     25  0.207563D-02  0.000000D+00  0.316530D-02  0.263646D-01  0.000000D+00
     26 -0.346864D+00  0.000000D+00 -0.322241D-02 -0.103552D-01  0.000000D+00
     27  0.000000D+00 -0.299290D-01  0.000000D+00  0.000000D+00  0.204159D-02
     28 -0.242539D-01  0.000000D+00 -0.929444D-01 -0.296722D-01  0.000000D+00
     29  0.339965D-02  0.000000D+00 -0.309190D-01 -0.561313D-01  0.000000D+00
     30  0.000000D+00  0.303090D-02  0.000000D+00  0.000000D+00 -0.218885D-01
     31  0.420312D-05  0.000000D+00 -0.106048D-02 -0.224759D-02  0.000000D+00
     32 -0.530631D-02  0.000000D+00  0.287912D-01 -0.149543D-01  0.000000D+00
     33  0.000000D+00  0.558077D-02  0.000000D+00  0.000000D+00  0.300744D-02
               16            17            18            19            20 
     16  0.674103D+00
     17 -0.567303D-01  0.604045D+00
     18  0.000000D+00  0.000000D+00  0.132187D+00
     19  0.174642D-02 -0.351591D-02  0.000000D+00  0.116307D+00
     20  0.274963D-02 -0.114650D-02  0.000000D+00  0.445732D-01  0.691796D-01
     21  0.000000D+00  0.000000D+00  0.674173D-02  0.000000D+00  0.000000D+00
     22 -0.532481D-03 -0.619006D-03  0.000000D+00  0.204170D-02 -0.413646D-02
     23  0.414995D-04  0.198254D-02  0.000000D+00  0.265099D-02 -0.670477D-02
     24  0.000000D+00  0.000000D+00  0.771545D-04  0.000000D+00  0.000000D+00
     25 -0.453894D-02  0.201631D-02  0.000000D+00 -0.792447D-03 -0.140648D-02
     26  0.232410D-02  0.492340D-03  0.000000D+00 -0.297618D-03 -0.304051D-03
     27  0.000000D+00  0.000000D+00  0.417579D-02  0.000000D+00  0.000000D+00
     28 -0.209054D-01 -0.784225D-02  0.000000D+00 -0.324622D-02 -0.128917D-02
     29 -0.400145D-01 -0.139226D-01  0.000000D+00 -0.281200D-02 -0.753615D-03
     30  0.000000D+00  0.000000D+00  0.391984D-02  0.000000D+00  0.000000D+00
     31 -0.256254D+00  0.119153D+00  0.000000D+00 -0.666185D-03  0.550784D-04
     32  0.111303D+00 -0.116748D+00  0.000000D+00 -0.248798D-03  0.153460D-03
     33  0.000000D+00  0.000000D+00 -0.358288D-01  0.000000D+00  0.000000D+00
               21            22            23            24            25 
     21  0.976943D-02
     22  0.000000D+00  0.149281D+00
     23  0.000000D+00 -0.627678D-01  0.784252D-01
     24  0.106806D-03  0.000000D+00  0.000000D+00  0.100465D-01
     25  0.000000D+00  0.115423D-02 -0.109019D-02  0.000000D+00  0.569351D-01
     26  0.000000D+00  0.112088D-02  0.149374D-02  0.000000D+00 -0.225522D-02
     27  0.427221D-03  0.000000D+00  0.000000D+00 -0.238506D-02  0.000000D+00
     28  0.000000D+00 -0.152359D-02  0.142691D-03  0.000000D+00  0.487497D-03
     29  0.000000D+00  0.162277D-03  0.259814D-03  0.000000D+00  0.100178D-02
     30 -0.130626D-02  0.000000D+00  0.000000D+00  0.171041D-03  0.000000D+00
     31  0.000000D+00 -0.480774D-03  0.530348D-03  0.000000D+00  0.105942D-03
     32  0.000000D+00  0.754300D-04  0.239437D-03  0.000000D+00  0.131572D-02
     33  0.433067D-03  0.000000D+00  0.000000D+00 -0.169277D-02  0.000000D+00
               26            27            28            29            30 
     26  0.364503D+00
     27  0.000000D+00  0.215742D-01
     28 -0.269167D-03  0.000000D+00  0.148494D+00
     29  0.110463D-02  0.000000D+00  0.648658D-01  0.718375D-01
     30  0.000000D+00 -0.248402D-02  0.000000D+00  0.000000D+00  0.107875D-01
     31 -0.115608D-04  0.000000D+00  0.157370D-02 -0.535659D-03  0.000000D+00
     32 -0.435061D-03  0.000000D+00  0.779456D-03  0.907753D-03  0.000000D+00
     33  0.000000D+00  0.551317D-03  0.000000D+00  0.000000D+00 -0.174641D-02
               31            32            33 
     31  0.281330D+00
     32 -0.118711D+00  0.125509D+00
     33  0.000000D+00  0.000000D+00  0.238225D-01
 FormGI is forming the generalized inverse of G from B-inverse, IUseBI=4.
 Leave Link  716 at Mon Sep 28 02:48:25 2026, MaxMem=  1610612736 cpu:               0.2 elap:               0.0
 (Enter /share/software/user/restricted/gaussian/g16.B01/l103.exe)

 GradGradGradGradGradGradGradGradGradGradGradGradGradGradGradGradGradGrad
 Berny optimization.
 Red2BG is reusing G-inverse.
 Internal  Forces:  Max     0.000231062 RMS     0.000058939
 Search for a local minimum.
 Step number   1 out of a maximum of    2
 All quantities printed in internal units (Hartrees-Bohrs-Radians)
 Second derivative matrix not updated -- analytic derivatives used.
 ITU=  0
     Eigenvalues ---    0.01101   0.01617   0.02260   0.02786   0.02922
     Eigenvalues ---    0.03194   0.03373   0.04088   0.09836   0.11311
     Eigenvalues ---    0.12292   0.13291   0.14604   0.17041   0.18656
     Eigenvalues ---    0.19849   0.22967   0.23862   0.25457   0.31392
     Eigenvalues ---    0.34479   0.36558   0.39913   0.42067   0.44753
     Eigenvalues ---    0.46443   0.49561
 Angle between quadratic step and forces=  17.66 degrees.
 Linear search not attempted -- first point.
 Iteration  1 RMS(Cart)=  0.00031364 RMS(Int)=  0.00000008
 Iteration  2 RMS(Cart)=  0.00000013 RMS(Int)=  0.00000002
 ITry= 1 IFail=0 DXMaxC= 9.89D-04 DCOld= 1.00D+10 DXMaxT= 3.00D-01 DXLimC= 3.00D+00 Rises=F
 ClnCor:  largest displacement from symmetrization is 6.77D-12 for atom     7.
 Variable       Old X    -DE/DX   Delta X   Delta X   Delta X     New X
                                 (Linear)    (Quad)   (Total)
    R1        2.61119  -0.00000   0.00000  -0.00016  -0.00016   2.61103
    R2        2.66134   0.00002   0.00000   0.00011   0.00011   2.66144
    R3        2.63874   0.00013   0.00000   0.00055   0.00055   2.63929
    R4        3.43863   0.00006   0.00000   0.00084   0.00084   3.43947
    R5        2.63316  -0.00006   0.00000  -0.00011  -0.00011   2.63304
    R6        3.36234  -0.00023   0.00000  -0.00175  -0.00175   3.36060
    R7        2.62586  -0.00002   0.00000   0.00000   0.00000   2.62586
    R8        2.04428  -0.00003   0.00000  -0.00002  -0.00002   2.04427
    R9        2.63144   0.00005   0.00000   0.00016   0.00016   2.63160
   R10        3.37407  -0.00007   0.00000  -0.00069  -0.00069   3.37338
   R11        2.05654  -0.00001   0.00000   0.00001   0.00001   2.05655
    A1        2.01418  -0.00009   0.00000  -0.00057  -0.00057   2.01362
    A2        2.16517   0.00008   0.00000   0.00076   0.00076   2.16593
    A3        2.06908   0.00003   0.00000  -0.00001  -0.00001   2.06908
    A4        2.04893  -0.00011   0.00000  -0.00075  -0.00075   2.04817
    A5        2.09028  -0.00009   0.00000  -0.00085  -0.00085   2.08943
    A6        2.15533  -0.00001   0.00000   0.00017   0.00017   2.15551
    A7        2.03758   0.00009   0.00000   0.00067   0.00067   2.03825
    A8        2.04865   0.00009   0.00000   0.00068   0.00068   2.04933
    A9        2.10992  -0.00005   0.00000  -0.00039  -0.00039   2.10953
   A10        2.12461  -0.00004   0.00000  -0.00029  -0.00029   2.12432
   A11        2.13055  -0.00007   0.00000  -0.00047  -0.00047   2.13008
   A12        2.05954   0.00004   0.00000   0.00028   0.00028   2.05982
   A13        2.09310   0.00003   0.00000   0.00019   0.00019   2.09329
   A14        2.11754   0.00008   0.00000   0.00044   0.00044   2.11798
   A15        2.10563   0.00000   0.00000   0.00012   0.00012   2.10574
   A16        2.06002  -0.00008   0.00000  -0.00056  -0.00056   2.05947
    D1        0.00000  -0.00000   0.00000  -0.00000   0.00000   0.00000
    D2        3.14159  -0.00000   0.00000  -0.00000   0.00000   3.14159
    D3       -0.00000   0.00000   0.00000   0.00000   0.00000   0.00000
    D4        3.14159   0.00000   0.00000   0.00000   0.00000   3.14159
    D5       -0.00000   0.00000   0.00000   0.00000   0.00000   0.00000
    D6        3.14159  -0.00000   0.00000  -0.00000   0.00000   3.14159
    D7        3.14159   0.00000   0.00000   0.00000   0.00000   3.14159
    D8        0.00000  -0.00000   0.00000  -0.00000   0.00000   0.00000
    D9        0.00000   0.00000   0.00000   0.00000   0.00000   0.00000
   D10        3.14159  -0.00000   0.00000  -0.00000   0.00000   3.14159
   D11        3.14159   0.00000   0.00000   0.00000   0.00000   3.14159
   D12       -0.00000   0.00000   0.00000   0.00000   0.00000   0.00000
   D13        0.00000  -0.00000   0.00000  -0.00000  -0.00000   0.00000
   D14        3.14159  -0.00000   0.00000  -0.00000   0.00000   3.14159
   D15        3.14159   0.00000   0.00000  -0.00000   0.00000   3.14159
   D16        0.00000  -0.00000   0.00000  -0.00000   0.00000   0.00000
   D17        0.00000   0.00000   0.00000   0.00000   0.00000   0.00000
   D18        3.14159   0.00000   0.00000   0.00000   0.00000   3.14159
   D19        3.14159   0.00000   0.00000   0.00000   0.00000   3.14159
   D20       -0.00000   0.00000   0.00000   0.00000   0.00000   0.00000
         Item               Value     Threshold  Converged?
 Maximum Force            0.000231     0.000450     YES
 RMS     Force            0.000059     0.000300     YES
 Maximum Displacement     0.000989     0.001800     YES
 RMS     Displacement     0.000314     0.001200     YES
 Predicted change in Energy=-5.725742D-07
 Optimization completed.
    -- Stationary point found.
                           ----------------------------
                           !   Optimized Parameters   !
                           ! (Angstroms and Degrees)  !
 --------------------------                            --------------------------
 ! Name  Definition              Value          Derivative Info.                !
 --------------------------------------------------------------------------------
 ! R1    R(1,2)                  1.3818         -DE/DX =    0.0                 !
 ! R2    R(1,6)                  1.4083         -DE/DX =    0.0                 !
 ! R3    R(2,3)                  1.3964         -DE/DX =    0.0001              !
 ! R4    R(2,7)                  1.8196         -DE/DX =    0.0001              !
 ! R5    R(3,4)                  1.3934         -DE/DX =   -0.0001              !
 ! R6    R(3,8)                  1.7793         -DE/DX =   -0.0002              !
 ! R7    R(4,5)                  1.3895         -DE/DX =    0.0                 !
 ! R8    R(4,9)                  1.0818         -DE/DX =    0.0                 !
 ! R9    R(5,6)                  1.3925         -DE/DX =    0.0001              !
 ! R10   R(5,10)                 1.7855         -DE/DX =   -0.0001              !
 ! R11   R(6,11)                 1.0883         -DE/DX =    0.0                 !
 ! A1    A(2,1,6)              115.4043         -DE/DX =   -0.0001              !
 ! A2    A(1,2,3)              124.0554         -DE/DX =    0.0001              !
 ! A3    A(1,2,7)              118.5497         -DE/DX =    0.0                 !
 ! A4    A(3,2,7)              117.395          -DE/DX =   -0.0001              !
 ! A5    A(2,3,4)              119.7642         -DE/DX =   -0.0001              !
 ! A6    A(2,3,8)              123.4914         -DE/DX =    0.0                 !
 ! A7    A(4,3,8)              116.7444         -DE/DX =    0.0001              !
 ! A8    A(3,4,5)              117.3789         -DE/DX =    0.0001              !
 ! A9    A(3,4,9)              120.8898         -DE/DX =   -0.0001              !
 ! A10   A(5,4,9)              121.7314         -DE/DX =    0.0                 !
 ! A11   A(4,5,6)              122.0714         -DE/DX =   -0.0001              !
 ! A12   A(4,5,10)             118.0027         -DE/DX =    0.0                 !
 ! A13   A(6,5,10)             119.9259         -DE/DX =    0.0                 !
 ! A14   A(1,6,5)              121.3259         -DE/DX =    0.0001              !
 ! A15   A(1,6,11)             120.6435         -DE/DX =    0.0                 !
 ! A16   A(5,6,11)             118.0306         -DE/DX =   -0.0001              !
 ! D1    D(6,1,2,3)              0.0            -DE/DX =    0.0                 !
 ! D2    D(6,1,2,7)            180.0            -DE/DX =    0.0                 !
 ! D3    D(2,1,6,5)              0.0            -DE/DX =    0.0                 !
 ! D4    D(2,1,6,11)           180.0            -DE/DX =    0.0                 !
 ! D5    D(1,2,3,4)              0.0            -DE/DX =    0.0                 !
 ! D6    D(1,2,3,8)            180.0            -DE/DX =    0.0                 !
 ! D7    D(7,2,3,4)            180.0            -DE/DX =    0.0                 !
 ! D8    D(7,2,3,8)              0.0            -DE/DX =    0.0                 !
 ! D9    D(2,3,4,5)              0.0            -DE/DX =    0.0                 !
 ! D10   D(2,3,4,9)            180.0            -DE/DX =    0.0                 !
 ! D11   D(8,3,4,5)            180.0            -DE/DX =    0.0                 !
 ! D12   D(8,3,4,9)              0.0            -DE/DX =    0.0                 !
 ! D13   D(3,4,5,6)              0.0            -DE/DX =    0.0                 !
 ! D14   D(3,4,5,10)           180.0            -DE/DX =    0.0                 !
 ! D15   D(9,4,5,6)            180.0            -DE/DX =    0.0                 !
 ! D16   D(9,4,5,10)             0.0            -DE/DX =    0.0                 !
 ! D17   D(4,5,6,1)              0.0            -DE/DX =    0.0                 !
 ! D18   D(4,5,6,11)           180.0            -DE/DX =    0.0                 !
 ! D19   D(10,5,6,1)           180.0            -DE/DX =    0.0                 !
 ! D20   D(10,5,6,11)            0.0            -DE/DX =    0.0                 !
 --------------------------------------------------------------------------------
 GradGradGradGradGradGradGradGradGradGradGradGradGradGradGradGradGradGrad

 Leave Link  103 at Mon Sep 28 02:48:25 2026, MaxMem=  1610612736 cpu:               0.6 elap:               0.1
 (Enter /share/software/user/restricted/gaussian/g16.B01/l9999.exe)

 ----------------------------------------------------------------------

 Electric dipole moment (input orientation):
 (Debye = 10**-18 statcoulomb cm , SI units = C m)
                  (au)            (Debye)         (10**-30 SI)
   Tot        0.283584D+01      0.720799D+01      0.240433D+02
   x         -0.168875D+00     -0.429238D+00     -0.143178D+01
   y         -0.283081D+01     -0.719519D+01     -0.240006D+02
   z          0.000000D+00      0.000000D+00      0.000000D+00

 Dipole polarizability, Alpha (input orientation).
 (esu units = cm**3 , SI units = C**2 m**2 J**-1)
 Alpha(0;0):
               (au)            (10**-24 esu)      (10**-40 SI)
   iso        0.174975D+03      0.259287D+02      0.288495D+02
   aniso      0.119633D+03      0.177277D+02      0.197247D+02
   xx         0.226440D+03      0.335549D+02      0.373349D+02
   yx         0.615735D+01      0.912425D+00      0.101521D+01
   yy         0.201648D+03      0.298811D+02      0.332472D+02
   zx         0.000000D+00      0.000000D+00      0.000000D+00
   zy         0.000000D+00      0.000000D+00      0.000000D+00
   zz         0.968380D+02      0.143499D+02      0.159664D+02

 ----------------------------------------------------------------------

 Dipole orientation:
     6         -0.16666800          0.00994279         -2.74725315
     6          2.10804221         -0.12575791         -1.47226249
     6          2.32972889         -0.13898291          1.15711534
     6          0.16592045         -0.00989819          2.65203453
     6         -2.14783275          0.12813166          1.41809271
     6         -2.33300166          0.13917815         -1.20679680
    17          5.01189168         -0.29899070         -3.30578209
    17          5.27478740         -0.31467407          2.76991509
     1          0.29768875         -0.01775900          4.69205026
    17         -4.94114368          0.29477014          3.30329369
     1         -4.20858438          0.25106839         -2.04288605

 Electric dipole moment (dipole orientation):
 (Debye = 10**-18 statcoulomb cm , SI units = C m)
                  (au)            (Debye)         (10**-30 SI)
   Tot        0.283584D+01      0.720799D+01      0.240433D+02
   x          0.000000D+00      0.000000D+00      0.000000D+00
   y          0.000000D+00      0.000000D+00      0.000000D+00
   z          0.283584D+01      0.720799D+01      0.240433D+02

 Dipole polarizability, Alpha (dipole orientation).
 (esu units = cm**3 , SI units = C**2 m**2 J**-1)
 Alpha(0;0):
               (au)            (10**-24 esu)      (10**-40 SI)
   iso        0.174975D+03      0.259287D+02      0.288495D+02
   aniso      0.119633D+03      0.177277D+02      0.197247D+02
   xx         0.225163D+03      0.333658D+02      0.371244D+02
   yx        -0.765541D+01     -0.113441D+01     -0.126221D+01
   yy         0.972946D+02      0.144176D+02      0.160417D+02
   zx        -0.757397D+01     -0.112235D+01     -0.124878D+01
   zy         0.451835D+00      0.669550D-01      0.744975D-01
   zz         0.202468D+03      0.300026D+02      0.333824D+02

 ----------------------------------------------------------------------
 1\1\GINC-SH04-14N17\Freq\RB3LYP\6-311++G(d)\C6H2Cl3(1-)\JLAPIER\28-Sep
 -2026\0\\#P Geom=AllCheck Guess=TCheck SCRF=Check GenChk RB3LYP/6-311+
 +G(d) Freq\\ClPh_235_anion b3lyp_smd\\-1,1\C,-0.0016235226,1.456465226
 3,0.\C,1.1619228757,0.7111568919,0.\C,1.1963756,-0.684778973,0.\C,0.00
 42285354,-1.4061435272,0.\C,-1.181272086,-0.6812862134,0.\C,-1.1965418
 77,0.7111259318,0.\Cl,2.7563530017,1.5880209244,0.\Cl,2.7040097609,-1.
 6296929792,0.\H,0.0096708999,-2.4879172804,0.\Cl,-2.7188363553,-1.5889
 398789,0.\H,-2.1627100728,1.2119898778,0.\\Version=ES64L-G16RevB.01\St
 ate=1-A'\HF=-1610.6415903\RMSD=8.117e-09\RMSF=1.259e-04\ZeroPoint=0.05
 75561\Thermal=0.0655862\Dipole=-0.1688753,-2.8308068,0.\DipoleDeriv=-1
 .2138232,0.0453088,0.,0.4501129,-0.9000279,0.,0.,0.,-0.6461945,1.86766
 82,0.5758785,0.,0.5075987,0.1564822,0.,0.,0.,0.0006069,1.1539756,-0.92
 44239,0.,-0.7470086,0.8877817,0.,0.,0.,0.073667,-0.6821584,0.0586864,0
 .,-0.0784932,-0.3222494,0.,0.,0.,-0.2193264,1.4574536,0.7379069,0.,0.5
 208894,0.7931171,0.,0.,0.,0.0793567,0.1160542,-0.242281,0.,-0.1744812,
 -0.0626854,0.,0.,0.,-0.1782573,-1.4085295,-0.3303333,0.,-0.6599971,-0.
 3193814,0.,0.,0.,-0.210619,-1.067628,0.7307911,0.,0.6879583,-0.6880795
 ,0.,0.,0.,-0.1159142,0.1126022,-0.0215346,0.,-0.0039972,-0.0072037,0.,
 0.,0.,0.2230681,-1.1359519,-0.6628048,0.,-0.5944633,-0.6178679,0.,0.,0
 .,-0.141004,-0.1996628,0.032806,0.,0.0918814,0.0801142,0.,0.,0.,0.1346
 168\Polar=226.4399031,6.1573487,201.6477577,0.,0.,96.8379538\Quadrupol
 e=-2.082869,-5.9009951,7.9838641,-2.3295563,0.,0.\PG=CS [SG(C6H2Cl3)]\
 NImag=0\\0.55471512,0.01025173,0.29932829,0.,0.,0.07360864,-0.21561074
 ,0.07524477,0.,0.39932936,0.09779716,-0.15286029,0.,-0.06975309,0.5520
 7661,0.,0.,-0.05436776,0.,0.,0.11868047,0.02331685,0.01434594,0.,-0.07
 913795,0.03363296,0.,0.49600249,0.07401136,-0.00913789,0.,-0.03140745,
 -0.29820697,0.,0.08505639,0.56524229,0.,0.,0.01765775,0.,0.,-0.0642831
 4,0.,0.,0.11876700,-0.05918049,0.00294432,0.,0.02788714,-0.07503134,0.
 ,-0.24988032,-0.07160688,0.,0.64128829,0.00040844,0.00229949,0.,-0.018
 28355,-0.02832205,0.,-0.13484027,-0.17366993,0.,-0.00812199,0.75724298
 ,0.,0.,-0.00681395,0.,0.,0.01252533,0.,0.,-0.05969450,0.,0.,0.11806593
 ,0.02505381,-0.01942560,0.,-0.01748616,0.03066360,0.,-0.06519257,-0.03
 035649,0.,-0.25462661,0.13770771,0.,0.50116770,-0.08115387,-0.02233287
 ,0.,0.02451594,-0.05498679,0.,0.02982872,0.06192792,0.,0.07520811,-0.1
 7918955,0.,-0.10132854,0.58180633,0.,0.,0.02045210,0.,0.,-0.00950681,0
 .,0.,0.00573757,0.,0.,-0.06165772,0.,0.,0.12128841,-0.24511497,-0.1003
 8742,0.,-0.05939462,0.01425216,0.,-0.01334318,-0.02131012,0.,0.0253412
 2,0.02445191,0.,-0.10110680,0.06331991,0.,0.67410258,-0.07902165,-0.12
 949466,0.,-0.00348427,0.04590248,0.,-0.02931685,-0.05601560,0.,0.06997
 070,-0.02887552,0.,-0.01060978,-0.30621973,0.,-0.05673028,0.60404484,0
 .,0.,-0.05238211,0.,0.,0.00017977,0.,0.,-0.00566043,0.,0.,0.01222515,0
 .,0.,-0.06563479,0.,0.,0.13218665,-0.06434198,0.01070238,0.,-0.0321968
 6,-0.03673992,0.,-0.02095025,-0.01177876,0.,0.00096881,-0.00280394,0.,
 0.00113016,0.00027039,0.,0.00174642,-0.00351591,0.,0.11630686,-0.00675
 529,0.01917429,0.,-0.00530932,-0.05523751,0.,-0.03187112,-0.02053151,0
 .,0.00279764,-0.00426403,0.,0.00059229,0.00043460,0.,0.00274963,-0.001
 14650,0.,0.04457319,0.06917964,0.,0.,-0.00082454,0.,0.,-0.02028512,0.,
 0.,0.00198087,0.,0.,0.00307724,0.,0.,-0.00012044,0.,0.,0.00674173,0.,0
 .,0.00976943,0.00189849,0.01030193,0.,-0.01876989,0.00548841,0.,-0.092
 84789,0.03182413,0.,-0.04212118,0.02365576,0.,0.00190003,-0.00510551,0
 .,-0.00053248,-0.00061901,0.,0.00204170,-0.00413646,0.,0.14928136,-0.0
 0226767,-0.01071858,0.,0.03257056,-0.01233100,0.,0.03113615,-0.0561966
 6,0.,0.00094641,0.00354945,0.,-0.00189295,0.00000086,0.,0.00004150,0.0
 0198254,0.,0.00265099,-0.00670477,0.,-0.06276783,0.07842518,0.,0.,0.00
 320817,0.,0.,0.00231957,0.,0.,-0.02172249,0.,0.,0.00358989,0.,0.,0.006
 28118,0.,0.,0.00007715,0.,0.,0.00010681,0.,0.,0.01004652,-0.00076948,-
 0.00059082,0.,-0.00304993,-0.00129894,0.,0.00169345,-0.02613240,0.,-0.
 05439069,0.00207563,0.,0.00316530,0.02636461,0.,-0.00453894,0.00201631
 ,0.,-0.00079245,-0.00140648,0.,0.00115423,-0.00109019,0.,0.05693508,-0
 .00000084,0.00053151,0.,-0.00175575,0.00053218,0.,0.00291103,-0.010699
 33,0.,0.00145655,-0.34686418,0.,-0.00322241,-0.01035517,0.,0.00232410,
 0.00049234,0.,-0.00029762,-0.00030405,0.,0.00112088,0.00149374,0.,-0.0
 0225522,0.36450339,0.,0.,-0.00056111,0.,0.,0.00446817,0.,0.,0.00212095
 ,0.,0.,-0.02992902,0.,0.,0.00204159,0.,0.,0.00417579,0.,0.,0.00042722,
 0.,0.,-0.00238506,0.,0.,0.02157417,0.00253051,-0.00610345,0.,0.0022124
 4,0.00053893,0.,0.00013607,0.00310327,0.,-0.03681422,-0.02425390,0.,-0
 .09294438,-0.02967217,0.,-0.02090542,-0.00784225,0.,-0.00324622,-0.001
 28917,0.,-0.00152359,0.00014269,0.,0.00048750,-0.00026917,0.,0.1484936
 1,0.00341638,-0.00634621,0.,0.00195491,0.00177991,0.,0.00030823,-0.002
 13558,0.,0.00257176,0.00339965,0.,-0.03091898,-0.05613126,0.,-0.040014
 46,-0.01392259,0.,-0.00281200,-0.00075361,0.,0.00016228,0.00025981,0.,
 0.00100178,0.00110463,0.,0.06486576,0.07183749,0.,0.,0.00338703,0.,0.,
 0.00110361,0.,0.,0.00502528,0.,0.,0.00303090,0.,0.,-0.02188851,0.,0.,0
 .00391984,0.,0.,-0.00130626,0.,0.,0.00017104,0.,0.,-0.00248402,0.,0.,0
 .01078749,-0.02249713,0.00271623,0.,-0.00378278,0.00045007,0.,0.000203
 30,-0.00140306,0.,0.00152805,0.00000420,0.,-0.00106048,-0.00224759,0.,
 -0.25625379,0.11915298,0.,-0.00066618,0.00005508,0.,-0.00048077,0.0005
 3035,0.,0.00010594,-0.00001156,0.,0.00157370,-0.00053566,0.,0.28133015
 ,-0.01668575,0.00955692,0.,-0.00429275,0.00165344,0.,-0.00119119,-0.00
 057674,0.,-0.00113530,-0.00530631,0.,0.02879116,-0.01495434,0.,0.11130
 306,-0.11674759,0.,-0.00024880,0.00015346,0.,0.00007543,0.00023944,0.,
 0.00131572,-0.00043506,0.,0.00077946,0.00090775,0.,-0.11871104,0.12550
 904,0.,0.,-0.00336422,0.,0.,0.00916591,0.,0.,0.00007113,0.,0.,0.005580
 77,0.,0.,0.00300744,0.,0.,-0.03582876,0.,0.,0.00043307,0.,0.,-0.001692
 77,0.,0.,0.00055132,0.,0.,-0.00174641,0.,0.,0.02382252\\0.00001344,-0.
 00010680,0.,0.00022329,-0.00011034,0.,-0.00030529,0.00039070,0.,-0.000
 03468,-0.00019469,0.,0.00018260,0.00020034,0.,-0.00009972,-0.00001065,
 0.,-0.00004224,-0.00003620,0.,0.00015738,-0.00019162,0.,-0.00004353,-0
 .00002611,0.,-0.00008299,0.00000646,0.,0.00003173,0.00007892,0.\\\@


 SUPPORT THE RIGHT TO ARM BEARS!
 (ADD A CLAWS TO THE BILL OF RIGHTS)
 Job cpu time:       0 days  0 hours 11 minutes 35.2 seconds.
 Elapsed time:       0 days  0 hours  1 minutes 27.4 seconds.
 File lengths (MBytes):  RWF=    116 Int=      0 D2E=      0 Chk=     67 Scr=      1
 Normal termination of Gaussian 16 at Mon Sep 28 02:48:25 2026.
