 Entering Gaussian System, Link 0=g16
 Initial command:
 /share/software/user/restricted/gaussian/g16.B01/l1.exe "/lscratch/jlapier/g16_45757337_1/Gau-15876.inp" -scrdir="/lscratch/jlapier/g16_45757337_1/"
 Entering Link 1 = /share/software/user/restricted/gaussian/g16.B01/l1.exe PID=     15877.
  
 Copyright (c) 1988-2017, Gaussian, Inc.  All Rights Reserved.
  
 This is part of the Gaussian(R) 16 program.  It is based on
 the Gaussian(R) 09 system (copyright 2009, Gaussian, Inc.),
 the Gaussian(R) 03 system (copyright 2003, Gaussian, Inc.),
 the Gaussian(R) 98 system (copyright 1998, Gaussian, Inc.),
 the Gaussian(R) 94 system (copyright 1995, Gaussian, Inc.),
 the Gaussian 92(TM) system (copyright 1992, Gaussian, Inc.),
 the Gaussian 90(TM) system (copyright 1990, Gaussian, Inc.),
 the Gaussian 88(TM) system (copyright 1988, Gaussian, Inc.),
 the Gaussian 86(TM) system (copyright 1986, Carnegie Mellon
 University), and the Gaussian 82(TM) system (copyright 1983,
 Carnegie Mellon University). Gaussian is a federally registered
 trademark of Gaussian, Inc.
  
 This software contains proprietary and confidential information,
 including trade secrets, belonging to Gaussian, Inc.
  
 This software is provided under written license and may be
 used, copied, transmitted, or stored only in accord with that
 written license.
  
 The following legend is applicable only to US Government
 contracts under FAR:
  
                    RESTRICTED RIGHTS LEGEND
  
 Use, reproduction and disclosure by the US Government is
 subject to restrictions as set forth in subparagraphs (a)
 and (c) of the Commercial Computer Software - Restricted
 Rights clause in FAR 52.227-19.
  
 Gaussian, Inc.
 340 Quinnipiac St., Bldg. 40, Wallingford CT 06492
  
  
 ---------------------------------------------------------------
 Warning -- This program may not be used in any manner that
 competes with the business of Gaussian, Inc. or will provide
 assistance to any competitor of Gaussian, Inc.  The licensee
 of this program is prohibited from giving any competitor of
 Gaussian, Inc. access to this program.  By using this program,
 the user acknowledges that Gaussian, Inc. is engaged in the
 business of creating and licensing software in the field of
 computational chemistry and represents and warrants to the
 licensee that it is not a competitor of Gaussian, Inc. and that
 it will not use this program in any manner prohibited above.
 ---------------------------------------------------------------
  

 Cite this work as:
 Gaussian 16, Revision B.01,
 M. J. Frisch, G. W. Trucks, H. B. Schlegel, G. E. Scuseria, 
 M. A. Robb, J. R. Cheeseman, G. Scalmani, V. Barone, 
 G. A. Petersson, H. Nakatsuji, X. Li, M. Caricato, A. V. Marenich, 
 J. Bloino, B. G. Janesko, R. Gomperts, B. Mennucci, H. P. Hratchian, 
 J. V. Ortiz, A. F. Izmaylov, J. L. Sonnenberg, D. Williams-Young, 
 F. Ding, F. Lipparini, F. Egidi, J. Goings, B. Peng, A. Petrone, 
 T. Henderson, D. Ranasinghe, V. G. Zakrzewski, J. Gao, N. Rega, 
 G. Zheng, W. Liang, M. Hada, M. Ehara, K. Toyota, R. Fukuda, 
 J. Hasegawa, M. Ishida, T. Nakajima, Y. Honda, O. Kitao, H. Nakai, 
 T. Vreven, K. Throssell, J. A. Montgomery, Jr., J. E. Peralta, 
 F. Ogliaro, M. J. Bearpark, J. J. Heyd, E. N. Brothers, K. N. Kudin, 
 V. N. Staroverov, T. A. Keith, R. Kobayashi, J. Normand, 
 K. Raghavachari, A. P. Rendell, J. C. Burant, S. S. Iyengar, 
 J. Tomasi, M. Cossi, J. M. Millam, M. Klene, C. Adamo, R. Cammi, 
 J. W. Ochterski, R. L. Martin, K. Morokuma, O. Farkas, 
 J. B. Foresman, and D. J. Fox, Gaussian, Inc., Wallingford CT, 2016.
 
 ******************************************
 Gaussian 16:  ES64L-G16RevB.01 20-Dec-2017
                28-Sep-2026 
 ******************************************
 %nprocshared=8
 Will use up to    8 processors via shared memory.
 %mem=12GB
 %chk=calcs/m062x_gas/chks/Cl_rad.chk
 ---------------------------------------
 #p Freq M062X/6-311++G(d) Int=UltraFine
 ---------------------------------------
 1/10=4,30=1,38=1/1,3;
 2/12=2,17=6,18=5,40=1/2;
 3/5=4,6=6,7=1011,11=2,25=1,30=1,71=2,74=-55,75=-5,140=1/1,2,3;
 4//1;
 5/5=2,38=5,98=1/2;
 8/6=4,10=90,11=11/1;
 11/6=1,8=1,9=11,15=111,16=1/1,2,10;
 10/6=1/2;
 6/7=2,8=2,9=2,10=2,28=1/1;
 7/8=1,10=1,25=1/1,2,3,16;
 1/10=4,30=1/3;
 99//99;
 Leave Link    1 at Mon Sep 28 13:22:56 2026, MaxMem=  1610612736 cpu:               0.3 elap:               0.0
 (Enter /share/software/user/restricted/gaussian/g16.B01/l101.exe)
 ----------------
 Cl_rad m062x_gas
 ----------------
 Symbolic Z-matrix:
 Charge =  0 Multiplicity = 2
 Cl                    0.        0.        0. 
 
 ITRead=  0
 MicOpt= -1
 NAtoms=      1 NQM=        1 NQMF=       0 NMMI=      0 NMMIF=      0
                NMic=       0 NMicF=      0.
                    Isotopes and Nuclear Properties:
 (Nuclear quadrupole moments (NQMom) in fm**2, nuclear magnetic moments (NMagM)
  in nuclear magnetons)

  Atom         1
 IAtWgt=          35
 AtmWgt=  34.9688527
 NucSpn=           3
 AtZEff=  -0.0000000
 NQMom=   -8.1650000
 NMagM=    0.8218740
 AtZNuc=  17.0000000
 Leave Link  101 at Mon Sep 28 13:22:56 2026, MaxMem=  1610612736 cpu:               1.4 elap:               0.2
 (Enter /share/software/user/restricted/gaussian/g16.B01/l103.exe)

 GradGradGradGradGradGradGradGradGradGradGradGradGradGradGradGradGradGrad
 Berny optimization.
 Initialization pass.
 Trust Radius=3.00D-01 FncErr=1.00D-07 GrdErr=1.00D-07 EigMax=2.50D+02 EigMin=1.00D-04
 Number of steps in this run=      2 maximum allowed number of steps=      2.
 GradGradGradGradGradGradGradGradGradGradGradGradGradGradGradGradGradGrad

 Leave Link  103 at Mon Sep 28 13:22:56 2026, MaxMem=  1610612736 cpu:               0.2 elap:               0.0
 (Enter /share/software/user/restricted/gaussian/g16.B01/l202.exe)
                          Input orientation:                          
 ---------------------------------------------------------------------
 Center     Atomic      Atomic             Coordinates (Angstroms)
 Number     Number       Type             X           Y           Z
 ---------------------------------------------------------------------
      1         17           0        0.000000    0.000000    0.000000
 ---------------------------------------------------------------------
 Stoichiometry    Cl(2)
 Framework group  OH[O(Cl)]
 Deg. of freedom     0
 Full point group                 OH      NOp  48
 Largest Abelian subgroup         D2H     NOp   8
 Largest concise Abelian subgroup C1      NOp   1
                         Standard orientation:                         
 ---------------------------------------------------------------------
 Center     Atomic      Atomic             Coordinates (Angstroms)
 Number     Number       Type             X           Y           Z
 ---------------------------------------------------------------------
      1         17           0        0.000000    0.000000    0.000000
 ---------------------------------------------------------------------
 Leave Link  202 at Mon Sep 28 13:22:57 2026, MaxMem=  1610612736 cpu:               0.8 elap:               0.1
 (Enter /share/software/user/restricted/gaussian/g16.B01/l301.exe)
 Standard basis: 6-311++G(d) (5D, 7F)
 Ernie: Thresh=  0.10000D-02 Tol=  0.10000D-05 Strict=F.
 There are    10 symmetry adapted cartesian basis functions of AG  symmetry.
 There are     1 symmetry adapted cartesian basis functions of B1G symmetry.
 There are     1 symmetry adapted cartesian basis functions of B2G symmetry.
 There are     1 symmetry adapted cartesian basis functions of B3G symmetry.
 There are     0 symmetry adapted cartesian basis functions of AU  symmetry.
 There are     6 symmetry adapted cartesian basis functions of B1U symmetry.
 There are     6 symmetry adapted cartesian basis functions of B2U symmetry.
 There are     6 symmetry adapted cartesian basis functions of B3U symmetry.
 There are     9 symmetry adapted basis functions of AG  symmetry.
 There are     1 symmetry adapted basis functions of B1G symmetry.
 There are     1 symmetry adapted basis functions of B2G symmetry.
 There are     1 symmetry adapted basis functions of B3G symmetry.
 There are     0 symmetry adapted basis functions of AU  symmetry.
 There are     6 symmetry adapted basis functions of B1U symmetry.
 There are     6 symmetry adapted basis functions of B2U symmetry.
 There are     6 symmetry adapted basis functions of B3U symmetry.
    30 basis functions,    53 primitive gaussians,    31 cartesian basis functions
     9 alpha electrons        8 beta electrons
       nuclear repulsion energy         0.0000000000 Hartrees.
 IExCor= 4336 DFT=T Ex+Corr=M062X ExCW=0 ScaHFX=  0.540000
 ScaDFX=  1.000000  1.000000  1.000000  1.000000 ScalE2=  1.000000  1.000000
 IRadAn=      5 IRanWt=     -1 IRanGd=            0 ICorTp=0 IEmpDi=  4
 NAtoms=    1 NActive=    1 NUniq=    1 SFac= 1.00D+00 NAtFMM=   60 NAOKFM=F Big=F
 Integral buffers will be    131072 words long.
 Raffenetti 2 integral format.
 Two-electron integral symmetry is turned on.
 Leave Link  301 at Mon Sep 28 13:22:57 2026, MaxMem=  1610612736 cpu:               0.5 elap:               0.1
 (Enter /share/software/user/restricted/gaussian/g16.B01/l302.exe)
 NPDir=0 NMtPBC=     1 NCelOv=     1 NCel=       1 NClECP=     1 NCelD=      1
         NCelK=      1 NCelE2=     1 NClLst=     1 CellRange=     0.0.
 One-electron integrals computed using PRISM.
 One-electron integral symmetry used in STVInt
 NBasis=    30 RedAO= T EigKep=  3.40D-02  NBF=     9     1     1     1     0     6     6     6
 NBsUse=    30 1.00D-06 EigRej= -1.00D+00 NBFU=     9     1     1     1     0     6     6     6
 Precomputing XC quadrature grid using
 IXCGrd= 4 IRadAn=           5 IRanWt=          -1 IRanGd=           0 AccXCQ= 0.00D+00.
 Generated NRdTot=       0 NPtTot=           0 NUsed=           0 NTot=          32
 NSgBfM=    31    31    31    31    31 MxSgAt=     1 MxSgA2=     1.
 Leave Link  302 at Mon Sep 28 13:22:57 2026, MaxMem=  1610612736 cpu:               1.4 elap:               0.2
 (Enter /share/software/user/restricted/gaussian/g16.B01/l303.exe)
 DipDrv:  MaxL=1.
 Leave Link  303 at Mon Sep 28 13:22:57 2026, MaxMem=  1610612736 cpu:               0.6 elap:               0.1
 (Enter /share/software/user/restricted/gaussian/g16.B01/l401.exe)
 ExpMin= 4.83D-02 ExpMax= 1.06D+05 ExpMxC= 3.62D+03 IAcc=3 IRadAn=         5 AccDes= 0.00D+00
 Harris functional with IExCor= 1009 and IRadAn=       5 diagonalized for initial guess.
 HarFok:  IExCor= 1009 AccDes= 0.00D+00 IRadAn=         5 IDoV= 1 UseB2=F ITyADJ=14
 ICtDFT=  3500011 ScaDFX=  1.000000  1.000000  1.000000  1.000000
 FoFCou: FMM=F IPFlag=           0 FMFlag=      100000 FMFlg1=           0
         NFxFlg=           0 DoJE=T BraDBF=F KetDBF=T FulRan=T
         wScrn=  0.000000 ICntrl=       500 IOpCl=  0 I1Cent=   200000004 NGrid=           0
         NMat0=    1 NMatS0=      1 NMatT0=    0 NMatD0=    1 NMtDS0=    0 NMtDT0=    0
 Petite list used in FoFCou.
 Harris En= -459.878998870915    
 JPrj=0 DoOrth=F DoCkMO=F.
 Initial guess orbital symmetries:
 Alpha Orbitals:
       Occupied  (A1G) (A1G) (T1U) (T1U) (T1U) (A1G) (T1U) (T1U)
                 (T1U)
       Virtual   (A1G) (T1U) (T1U) (T1U) (T1U) (T1U) (T1U) (A1G)
                 (T2G) (T2G) (T2G) (EG) (EG) (T1U) (T1U) (T1U)
                 (A1G) (T1U) (T1U) (T1U) (A1G)
 Beta  Orbitals:
       Occupied  (A1G) (A1G) (T1U) (T1U) (T1U) (A1G) (T1U) (T1U)
       Virtual   (T1U) (A1G) (T1U) (T1U) (T1U) (T1U) (T1U) (T1U)
                 (A1G) (T2G) (T2G) (T2G) (EG) (EG) (T1U) (T1U)
                 (T1U) (A1G) (T1U) (T1U) (T1U) (A1G)
 Initial guess <Sx>= 0.0000 <Sy>= 0.0000 <Sz>= 0.5000 <S**2>= 0.7500 S= 0.5000
 Leave Link  401 at Mon Sep 28 13:22:57 2026, MaxMem=  1610612736 cpu:               2.1 elap:               0.3
 (Enter /share/software/user/restricted/gaussian/g16.B01/l502.exe)
 Keep R1 and R2 ints in memory in symmetry-blocked form, NReq=7029333.
 FoFCou: FMM=F IPFlag=           0 FMFlag=           0 FMFlg1=           0
         NFxFlg=           0 DoJE=F BraDBF=F KetDBF=F FulRan=T
         wScrn=  0.000000 ICntrl=       600 IOpCl=  0 I1Cent=           0 NGrid=           0
         NMat0=    1 NMatS0=    465 NMatT0=    0 NMatD0=    1 NMtDS0=    0 NMtDT0=    0
 Petite list used in FoFCou.
 UHF open shell SCF:
 Using DIIS extrapolation, IDIIS=  1040.
 NGot=  1610612736 LenX=  1610572534 LenY=  1610571132
 Requested convergence on RMS density matrix=1.00D-08 within 128 cycles.
 Requested convergence on MAX density matrix=1.00D-06.
 Requested convergence on             energy=1.00D-06.
 No special actions if energy rises.

 Cycle   1  Pass 1  IDiag  1:
 Density matrix breaks symmetry, PCut= 1.00D-04
 Density has only Abelian symmetry.
 E= -460.117717065850    
 DIIS: error= 3.68D-02 at cycle   1 NSaved=   1.
 NSaved= 1 IEnMin= 1 EnMin= -460.117717065850     IErMin= 1 ErrMin= 3.68D-02
 ErrMax= 3.68D-02  0.00D+00 EMaxC= 1.00D-01 BMatC= 1.92D-01 BMatP= 1.92D-01
 IDIUse=3 WtCom= 6.32D-01 WtEn= 3.68D-01
 Coeff-Com:  0.100D+01
 Coeff-En:   0.100D+01
 Coeff:      0.100D+01
 Gap=     0.510 Goal=   None    Shift=    0.000
 Gap=     0.210 Goal=   None    Shift=    0.000
 GapD=    0.210 DampG=1.000 DampE=0.500 DampFc=0.5000 IDamp=-1.
 Damping current iteration by 5.00D-01
 RMSDP=5.15D-03 MaxDP=7.60D-02              OVMax= 6.61D-02

 Cycle   2  Pass 1  IDiag  1:
 Density matrix breaks symmetry, PCut= 1.00D-04
 Density has only Abelian symmetry.
 E= -460.125588207090     Delta-E=       -0.007871141240 Rises=F Damp=T
 DIIS: error= 1.39D-02 at cycle   2 NSaved=   2.
 NSaved= 2 IEnMin= 2 EnMin= -460.125588207090     IErMin= 2 ErrMin= 1.39D-02
 ErrMax= 1.39D-02  0.00D+00 EMaxC= 1.00D-01 BMatC= 3.14D-02 BMatP= 1.92D-01
 IDIUse=3 WtCom= 8.61D-01 WtEn= 1.39D-01
 Coeff-Com: -0.578D+00 0.158D+01
 Coeff-En:   0.000D+00 0.100D+01
 Coeff:     -0.497D+00 0.150D+01
 Gap=     0.479 Goal=   None    Shift=    0.000
 Gap=     0.211 Goal=   None    Shift=    0.000
 RMSDP=1.33D-03 MaxDP=1.99D-02 DE=-7.87D-03 OVMax= 1.90D-02

 Cycle   3  Pass 1  IDiag  1:
 Density matrix breaks symmetry, PCut= 1.00D-04
 Density has only Abelian symmetry.
 E= -460.132595977234     Delta-E=       -0.007007770144 Rises=F Damp=F
 DIIS: error= 1.92D-03 at cycle   3 NSaved=   3.
 NSaved= 3 IEnMin= 3 EnMin= -460.132595977234     IErMin= 3 ErrMin= 1.92D-03
 ErrMax= 1.92D-03  0.00D+00 EMaxC= 1.00D-01 BMatC= 2.65D-04 BMatP= 3.14D-02
 IDIUse=3 WtCom= 9.81D-01 WtEn= 1.92D-02
 Coeff-Com: -0.879D-01 0.175D+00 0.913D+00
 Coeff-En:   0.000D+00 0.000D+00 0.100D+01
 Coeff:     -0.862D-01 0.172D+00 0.914D+00
 Gap=     0.482 Goal=   None    Shift=    0.000
 Gap=     0.212 Goal=   None    Shift=    0.000
 RMSDP=2.96D-04 MaxDP=4.35D-03 DE=-7.01D-03 OVMax= 5.55D-03

 Cycle   4  Pass 1  IDiag  1:
 Density matrix breaks symmetry, PCut= 1.00D-04
 Density has only Abelian symmetry.
 E= -460.132667255808     Delta-E=       -0.000071278573 Rises=F Damp=F
 DIIS: error= 3.12D-04 at cycle   4 NSaved=   4.
 NSaved= 4 IEnMin= 4 EnMin= -460.132667255808     IErMin= 4 ErrMin= 3.12D-04
 ErrMax= 3.12D-04  0.00D+00 EMaxC= 1.00D-01 BMatC= 1.04D-05 BMatP= 2.65D-04
 IDIUse=3 WtCom= 9.97D-01 WtEn= 3.12D-03
 Coeff-Com:  0.259D-01-0.571D-01-0.407D-01 0.107D+01
 Coeff-En:   0.000D+00 0.000D+00 0.000D+00 0.100D+01
 Coeff:      0.259D-01-0.569D-01-0.405D-01 0.107D+01
 Gap=     0.481 Goal=   None    Shift=    0.000
 Gap=     0.212 Goal=   None    Shift=    0.000
 RMSDP=8.25D-05 MaxDP=1.61D-03 DE=-7.13D-05 OVMax= 8.58D-04

 Cycle   5  Pass 1  IDiag  1:
 Density matrix breaks symmetry, PCut= 1.00D-04
 Density has only Abelian symmetry.
 E= -460.132670609753     Delta-E=       -0.000003353945 Rises=F Damp=F
 DIIS: error= 8.41D-05 at cycle   5 NSaved=   5.
 NSaved= 5 IEnMin= 5 EnMin= -460.132670609753     IErMin= 5 ErrMin= 8.41D-05
 ErrMax= 8.41D-05  0.00D+00 EMaxC= 1.00D-01 BMatC= 2.60D-07 BMatP= 1.04D-05
 IDIUse=1 WtCom= 1.00D+00 WtEn= 0.00D+00
 Coeff-Com: -0.505D-03 0.165D-02-0.365D-01-0.696D-01 0.110D+01
 Coeff:     -0.505D-03 0.165D-02-0.365D-01-0.696D-01 0.110D+01
 Gap=     0.481 Goal=   None    Shift=    0.000
 Gap=     0.212 Goal=   None    Shift=    0.000
 RMSDP=1.35D-05 MaxDP=1.96D-04 DE=-3.35D-06 OVMax= 2.94D-04

 Cycle   6  Pass 1  IDiag  1:
 Density matrix breaks symmetry, PCut= 1.00D-04
 Density has only Abelian symmetry.
 E= -460.132670718428     Delta-E=       -0.000000108675 Rises=F Damp=F
 DIIS: error= 4.23D-06 at cycle   6 NSaved=   6.
 NSaved= 6 IEnMin= 6 EnMin= -460.132670718428     IErMin= 6 ErrMin= 4.23D-06
 ErrMax= 4.23D-06  0.00D+00 EMaxC= 1.00D-01 BMatC= 1.35D-09 BMatP= 2.60D-07
 IDIUse=1 WtCom= 1.00D+00 WtEn= 0.00D+00
 Coeff-Com: -0.357D-04 0.336D-04 0.467D-02 0.535D-02-0.170D+00 0.116D+01
 Coeff:     -0.357D-04 0.336D-04 0.467D-02 0.535D-02-0.170D+00 0.116D+01
 Gap=     0.481 Goal=   None    Shift=    0.000
 Gap=     0.212 Goal=   None    Shift=    0.000
 RMSDP=1.35D-06 MaxDP=2.40D-05 DE=-1.09D-07 OVMax= 1.53D-05

 Cycle   7  Pass 1  IDiag  1:
 Density matrix breaks symmetry, PCut= 1.00D-04
 Density has only Abelian symmetry.
 E= -460.132670719125     Delta-E=       -0.000000000697 Rises=F Damp=F
 DIIS: error= 5.52D-07 at cycle   7 NSaved=   7.
 NSaved= 7 IEnMin= 7 EnMin= -460.132670719125     IErMin= 7 ErrMin= 5.52D-07
 ErrMax= 5.52D-07  0.00D+00 EMaxC= 1.00D-01 BMatC= 2.19D-11 BMatP= 1.35D-09
 IDIUse=1 WtCom= 1.00D+00 WtEn= 0.00D+00
 Coeff-Com: -0.821D-05 0.134D-04-0.140D-03-0.585D-03 0.132D-01-0.184D+00
 Coeff-Com:  0.117D+01
 Coeff:     -0.821D-05 0.134D-04-0.140D-03-0.585D-03 0.132D-01-0.184D+00
 Coeff:      0.117D+01
 Gap=     0.481 Goal=   None    Shift=    0.000
 Gap=     0.212 Goal=   None    Shift=    0.000
 RMSDP=1.37D-07 MaxDP=1.77D-06 DE=-6.97D-10 OVMax= 1.90D-06

 Cycle   8  Pass 1  IDiag  1:
 Density matrix breaks symmetry, PCut= 1.00D-04
 Density has only Abelian symmetry.
 E= -460.132670719137     Delta-E=       -0.000000000011 Rises=F Damp=F
 DIIS: error= 6.23D-08 at cycle   8 NSaved=   8.
 NSaved= 8 IEnMin= 8 EnMin= -460.132670719137     IErMin= 8 ErrMin= 6.23D-08
 ErrMax= 6.23D-08  0.00D+00 EMaxC= 1.00D-01 BMatC= 3.10D-13 BMatP= 2.19D-11
 IDIUse=1 WtCom= 1.00D+00 WtEn= 0.00D+00
 Coeff-Com:  0.287D-05-0.489D-05-0.241D-04 0.454D-04-0.375D-03 0.168D-01
 Coeff-Com: -0.213D+00 0.120D+01
 Coeff:      0.287D-05-0.489D-05-0.241D-04 0.454D-04-0.375D-03 0.168D-01
 Coeff:     -0.213D+00 0.120D+01
 Gap=     0.481 Goal=   None    Shift=    0.000
 Gap=     0.212 Goal=   None    Shift=    0.000
 RMSDP=1.96D-08 MaxDP=2.13D-07 DE=-1.11D-11 OVMax= 2.89D-07

 Cycle   9  Pass 1  IDiag  1:
 Density matrix breaks symmetry, PCut= 1.00D-04
 Density has only Abelian symmetry.
 E= -460.132670719137     Delta-E=       -0.000000000000 Rises=F Damp=F
 DIIS: error= 7.03D-09 at cycle   9 NSaved=   9.
 NSaved= 9 IEnMin= 9 EnMin= -460.132670719137     IErMin= 9 ErrMin= 7.03D-09
 ErrMax= 7.03D-09  0.00D+00 EMaxC= 1.00D-01 BMatC= 1.83D-15 BMatP= 3.10D-13
 IDIUse=1 WtCom= 1.00D+00 WtEn= 0.00D+00
 Coeff-Com: -0.433D-06 0.757D-06 0.427D-05-0.469D-05 0.247D-05-0.149D-02
 Coeff-Com:  0.261D-01-0.200D+00 0.118D+01
 Coeff:     -0.433D-06 0.757D-06 0.427D-05-0.469D-05 0.247D-05-0.149D-02
 Coeff:      0.261D-01-0.200D+00 0.118D+01
 Gap=     0.481 Goal=   None    Shift=    0.000
 Gap=     0.212 Goal=   None    Shift=    0.000
 RMSDP=1.52D-09 MaxDP=2.27D-08 DE=-2.27D-13 OVMax= 3.30D-08

 Density matrix breaks symmetry, PCut= 1.00D-04
 Density has only Abelian symmetry.
 SCF Done:  E(UM062X) =  -460.132670719     A.U. after    9 cycles
            NFock=  9  Conv=0.15D-08     -V/T= 2.0021
 <Sx>= 0.0000 <Sy>= 0.0000 <Sz>= 0.5000 <S**2>= 0.7521 S= 0.5010
 <L.S>=  0.00000000000    
 KE= 4.591797908586D+02 PE=-1.094106999384D+03 EE= 1.747945378061D+02
 Annihilation of the first spin contaminant:
 S**2 before annihilation     0.7521,   after     0.7500
 Leave Link  502 at Mon Sep 28 13:23:00 2026, MaxMem=  1610612736 cpu:              15.0 elap:               2.3
 (Enter /share/software/user/restricted/gaussian/g16.B01/l801.exe)
 DoSCS=F DFT=T ScalE2(SS,OS)=  1.000000  1.000000
 Range of M.O.s used for correlation:     1    30
 NBasis=    30 NAE=     9 NBE=     8 NFC=     0 NFV=     0
 NROrb=     30 NOA=     9 NOB=     8 NVA=    21 NVB=    22
 Leave Link  801 at Mon Sep 28 13:23:00 2026, MaxMem=  1610612736 cpu:               0.3 elap:               0.1
 (Enter /share/software/user/restricted/gaussian/g16.B01/l1101.exe)
 Using compressed storage, NAtomX=     1.
 Will process      2 centers per pass.
 Leave Link 1101 at Mon Sep 28 13:23:00 2026, MaxMem=  1610612736 cpu:               0.9 elap:               0.2
 (Enter /share/software/user/restricted/gaussian/g16.B01/l1102.exe)
 Symmetrizing basis deriv contribution to polar:
 IMax=3 JMax=2 DiffMx= 0.00D+00
 Leave Link 1102 at Mon Sep 28 13:23:01 2026, MaxMem=  1610612736 cpu:               0.4 elap:               0.1
 (Enter /share/software/user/restricted/gaussian/g16.B01/l1110.exe)
 Forming Gx(P) for the SCF density, NAtomX=     1.
 Integral derivatives from FoFJK, PRISM(SPDF).
 Do as many integral derivatives as possible in FoFJK.
 G2DrvN: MDV=    1610612526.
 Density matrix has lower than full symmetry, NOpUse=  8 NOpAll= 48.
 G2DrvN: will do     2 centers at a time, making    1 passes.
 Calling FoFCou, ICntrl=  3107 FMM=F I1Cent=   0 AccDes= 0.00D+00.
 FoFJK:  IHMeth= 1 ICntrl=    3107 DoSepK=F KAlg= 0 I1Cent=           0 FoldK=F
 IRaf=         0 NMat=       1 IRICut=       1 DoRegI=T DoRafI=F ISym2E= 1 IDoP0=0 IntGTp=1.
 FoFCou: FMM=F IPFlag=           0 FMFlag=      100000 FMFlg1=           0
         NFxFlg=           0 DoJE=F BraDBF=F KetDBF=F FulRan=T
         wScrn=  0.000000 ICntrl=      3107 IOpCl=  1 I1Cent=           0 NGrid=           0
         NMat0=    1 NMatS0=      1 NMatT0=    0 NMatD0=    1 NMtDS0=    0 NMtDT0=    0
 Petite list used in FoFCou.
 End of G2Drv F.D. properties file   721 does not exist.
 End of G2Drv F.D. properties file   722 does not exist.
 End of G2Drv F.D. properties file   788 does not exist.
 Leave Link 1110 at Mon Sep 28 13:23:01 2026, MaxMem=  1610612736 cpu:               2.3 elap:               0.4
 (Enter /share/software/user/restricted/gaussian/g16.B01/l1002.exe)
 Minotr:  UHF open shell wavefunction.
          IDoAtm=1
          Direct CPHF calculation.
          Differentiating once with respect to electric field.
                with respect to dipole field.
          Differentiating once with respect to nuclear coordinates.
 Density matrix has lower than full symmetry, NOpUse=  8 NOpAll= 48.
          Using symmetry in CPHF.
          Requested convergence is 1.0D-08 RMS, and 1.0D-07 maximum.
          Secondary convergence is 1.0D-12 RMS, and 1.0D-12 maximum.
          NewPWx=T KeepS1=F KeepF1=F KeepIn=T MapXYZ=F SortEE=F KeepMc=T.
          292 words used for storage of precomputed grid.
 Keep R1 and R2 ints in memory in symmetry-blocked form, NReq=7002656.
 FoFCou: FMM=F IPFlag=           0 FMFlag=           0 FMFlg1=           0
         NFxFlg=           0 DoJE=F BraDBF=F KetDBF=F FulRan=T
         wScrn=  0.000000 ICntrl=       600 IOpCl=  0 I1Cent=           0 NGrid=           0
         NMat0=    1 NMatS0=    465 NMatT0=    0 NMatD0=    1 NMtDS0=    0 NMtDT0=    0
 Petite list used in FoFCou.
          MDV=    1610612736 using IRadAn=       1.
          Solving linear equations simultaneously, MaxMat=       0.
 FoF2E skips out because all densities are zero.
 CalDSu exits because no D1Ps are significant.
          There are     6 degrees of freedom in the 1st order CPHF.  IDoFFX=6 NUNeed=     3.
      3 vectors produced by pass  0 Test12= 6.08D-15 1.67D-08 XBig12= 4.64D+00 1.37D+00.
 AX will form     3 AO Fock derivatives at one time.
      3 vectors produced by pass  1 Test12= 6.08D-15 1.67D-08 XBig12= 4.56D-01 4.31D-01.
      3 vectors produced by pass  2 Test12= 6.08D-15 1.67D-08 XBig12= 9.99D-03 5.89D-02.
      3 vectors produced by pass  3 Test12= 6.08D-15 1.67D-08 XBig12= 2.33D-04 7.46D-03.
      3 vectors produced by pass  4 Test12= 6.08D-15 1.67D-08 XBig12= 3.67D-07 3.06D-04.
      3 vectors produced by pass  5 Test12= 6.08D-15 1.67D-08 XBig12= 1.03D-09 1.49D-05.
      3 vectors produced by pass  6 Test12= 6.08D-15 1.67D-08 XBig12= 5.25D-12 1.12D-06.
      3 vectors produced by pass  7 Test12= 6.08D-15 1.67D-08 XBig12= 1.57D-14 6.21D-08.
 InvSVY:  IOpt=1 It=  1 EMax= 1.11D-16
 Solved reduced A of dimension    24 with     3 vectors.
 FullF1:  Do perturbations      1 to       3.
 Isotropic polarizability for W=    0.000000        7.04 Bohr**3.
 End of Minotr F.D. properties file   721 does not exist.
 End of Minotr F.D. properties file   722 does not exist.
 End of Minotr F.D. properties file   788 does not exist.
 Leave Link 1002 at Mon Sep 28 13:23:03 2026, MaxMem=  1610612736 cpu:               7.1 elap:               1.1
 (Enter /share/software/user/restricted/gaussian/g16.B01/l601.exe)
 Copying SCF densities to generalized density rwf, IOpCl= 1 IROHF=0.
 SCF density gives NOpUse=  8 NOpAll= 48.
 Marking SCF density as not fully symmetric.

 **********************************************************************

            Population analysis using the SCF Density.

 **********************************************************************

 Orbital symmetries:
 Alpha Orbitals:
       Occupied  (A1G) (A1G) (T1U) (T1U) (T1U) (?A) (?B) (?B) (?B)
       Virtual   (?A) (?B) (?B) (?B) (?B) (?B) (?B) (?A) (?A) (T2G)
                 (T2G) (T2G) (?A) (?B) (?B) (?B) (A1G) (T1U) (T1U)
                 (T1U) (A1G)
 Beta  Orbitals:
       Occupied  (A1G) (A1G) (T1U) (T1U) (T1U) (?A) (?B) (?B)
       Virtual   (?B) (A1G) (?B) (?B) (?B) (?B) (?B) (?B) (?A)
                 (T2G) (T2G) (T2G) (?A) (?A) (?B) (?B) (?B) (A1G)
                 (T1U) (T1U) (T1U) (A1G)
 Unable to determine electronic state:  an orbital has unidentified symmetry.
 Alpha  occ. eigenvalues -- -102.72538  -9.86107  -7.60051  -7.57798  -7.57798
 Alpha  occ. eigenvalues --   -0.94538  -0.47183  -0.42279  -0.42279
 Alpha virt. eigenvalues --    0.05817   0.07272   0.07721   0.07721   0.46290
 Alpha virt. eigenvalues --    0.47767   0.47767   0.81156   0.85153   0.86306
 Alpha virt. eigenvalues --    0.86306   0.90383   0.90383   2.19944   2.24344
 Alpha virt. eigenvalues --    2.24344   9.61916  25.74212  25.80933  25.80933
 Alpha virt. eigenvalues --  215.65956
  Beta  occ. eigenvalues -- -102.71473  -9.85793  -7.57456  -7.57456  -7.57205
  Beta  occ. eigenvalues --   -0.87849  -0.40151  -0.40151
  Beta virt. eigenvalues --   -0.18965   0.04465   0.07457   0.07663   0.07663
  Beta virt. eigenvalues --    0.45373   0.47533   0.47533   0.83662   0.91638
  Beta virt. eigenvalues --    0.91638   0.92358   0.92358   0.94749   2.26002
  Beta virt. eigenvalues --    2.26002   2.28098   9.62854  25.82997  25.83258
  Beta virt. eigenvalues --   25.83258 215.67689
          Condensed to atoms (all electrons):
               1
     1  Cl  17.000000
          Atomic-Atomic Spin Densities.
               1
     1  Cl   1.000000
 Mulliken charges and spin densities:
               1          2
     1  Cl   0.000000   1.000000
 Sum of Mulliken charges =   0.00000   1.00000
 Mulliken charges and spin densities with hydrogens summed into heavy atoms:
               1          2
     1  Cl   0.000000   1.000000
 APT charges:
               1
     1  Cl  -0.000000
 Sum of APT charges =  -0.00000
 APT charges with hydrogens summed into heavy atoms:
               1
     1  Cl  -0.000000
 Electronic spatial extent (au):  <R**2>=             27.8120
 Charge=             -0.0000 electrons
 Dipole moment (field-independent basis, Debye):
    X=              0.0000    Y=              0.0000    Z=              0.0000  Tot=              0.0000
 Quadrupole moment (field-independent basis, Debye-Ang):
   XX=            -13.2428   YY=            -10.9226   ZZ=            -13.2428
   XY=             -0.0000   XZ=             -0.0000   YZ=              0.0000
 Traceless Quadrupole moment (field-independent basis, Debye-Ang):
   XX=             -0.7734   YY=              1.5468   ZZ=             -0.7734
   XY=             -0.0000   XZ=             -0.0000   YZ=              0.0000
 Octapole moment (field-independent basis, Debye-Ang**2):
  XXX=              0.0000  YYY=              0.0000  ZZZ=              0.0000  XYY=              0.0000
  XXY=              0.0000  XXZ=              0.0000  XZZ=              0.0000  YZZ=              0.0000
  YYZ=              0.0000  XYZ=              0.0000
 Hexadecapole moment (field-independent basis, Debye-Ang**3):
 XXXX=            -15.9803 YYYY=            -11.1112 ZZZZ=            -15.9803 XXXY=             -0.0000
 XXXZ=             -0.0000 YYYX=             -0.0000 YYYZ=              0.0000 ZZZX=             -0.0000
 ZZZY=              0.0000 XXYY=             -4.5152 XXZZ=             -5.3268 YYZZ=             -4.5152
 XXYZ=              0.0000 YYXZ=             -0.0000 ZZXY=             -0.0000
 N-N= 0.000000000000D+00 E-N=-1.094106999344D+03  KE= 4.591797908586D+02
 Symmetry AG   KE= 3.234510095895D+02
 Symmetry B1G  KE= 1.069947337930D-35
 Symmetry B2G  KE=-2.821548172539D-52
 Symmetry B3G  KE= 1.069947337930D-35
 Symmetry AU   KE= 0.000000000000D+00
 Symmetry B1U  KE= 4.601319264405D+01
 Symmetry B2U  KE= 4.370239598101D+01
 Symmetry B3U  KE= 4.601319264405D+01
 Symmetry AG   SP=-1.002252751278D-14
 Symmetry B1G  SP= 2.961131819311D-36
 Symmetry B2G  SP=-1.381982778384D-52
 Symmetry B3G  SP= 2.961131819311D-36
 Symmetry AU   SP= 0.000000000000D+00
 Symmetry B1U  SP= 6.847841250209D-15
 Symmetry B2U  SP= 1.000000000000D+00
 Symmetry B3U  SP= 1.608081885967D-15
  Exact polarizability:   7.356   0.000   6.409   0.000   0.000   7.356
 Approx polarizability:   6.789  -0.000   6.984  -0.000  -0.000   6.789
                          Isotropic Fermi Contact Couplings
        Atom                 a.u.       MegaHertz       Gauss      10(-4) cm-1
     1  Cl(35)            -0.18908     -82.90464     -29.58244     -27.65401
 --------------------------------------------------------
       Center         ----  Spin Dipole Couplings  ----
                      3XX-RR        3YY-RR        3ZZ-RR
 --------------------------------------------------------
     1   Atom       -2.942453      5.884907     -2.942453
 --------------------------------------------------------
                        XY            XZ            YZ
 --------------------------------------------------------
     1   Atom        0.000000      0.000000      0.000000
 --------------------------------------------------------


 ---------------------------------------------------------------------------------
              Anisotropic Spin Dipole Couplings in Principal Axis System
 ---------------------------------------------------------------------------------

       Atom             a.u.   MegaHertz   Gauss  10(-4) cm-1        Axes

              Baa    -2.9425  -154.001   -54.951   -51.369  0.0000  0.0000  1.0000
     1 Cl(35) Bbb    -2.9425  -154.001   -54.951   -51.369  1.0000  0.0000  0.0000
              Bcc     5.8849   308.002   109.903   102.738 -0.0000  1.0000  0.0000
 

 ---------------------------------------------------------------------------------

 No NMR shielding tensors so no spin-rotation constants.
 Leave Link  601 at Mon Sep 28 13:23:03 2026, MaxMem=  1610612736 cpu:               1.2 elap:               0.2
 (Enter /share/software/user/restricted/gaussian/g16.B01/l701.exe)
 ... and contract with generalized density number  0.
 Compute integral second derivatives.
 Density matrix has only Abelian symmetry.
 Leave Link  701 at Mon Sep 28 13:23:03 2026, MaxMem=  1610612736 cpu:               1.2 elap:               0.2
 (Enter /share/software/user/restricted/gaussian/g16.B01/l702.exe)
 L702 exits ... SP integral derivatives will be done elsewhere.
 Leave Link  702 at Mon Sep 28 13:23:04 2026, MaxMem=  1610612736 cpu:               0.5 elap:               0.1
 (Enter /share/software/user/restricted/gaussian/g16.B01/l703.exe)
 Integral derivatives from FoFJK, PRISM(SPDF).
 Compute integral second derivatives, UseDBF=F ICtDFT=           0.
 Density matrix has only Abelian symmetry.
 Calling FoFJK, ICntrl=    100127 FMM=F ISym2X=1 I1Cent= 0 IOpClX= 1 NMat=1 NMatS=1 NMatT=0.
 FoFJK:  IHMeth= 1 ICntrl=  100127 DoSepK=F KAlg= 0 I1Cent=           0 FoldK=F
 IRaf=         0 NMat=       1 IRICut=       1 DoRegI=T DoRafI=F ISym2E= 1 IDoP0=0 IntGTp=1.
 FoFCou: FMM=F IPFlag=           0 FMFlag=      100000 FMFlg1=         800
         NFxFlg=           0 DoJE=F BraDBF=F KetDBF=F FulRan=T
         wScrn=  0.000000 ICntrl=    100127 IOpCl=  1 I1Cent=           0 NGrid=           0
         NMat0=    1 NMatS0=      1 NMatT0=    0 NMatD0=    1 NMtDS0=    0 NMtDT0=    0
 Petite list used in FoFCou.
 Leave Link  703 at Mon Sep 28 13:23:04 2026, MaxMem=  1610612736 cpu:               2.6 elap:               0.4
 (Enter /share/software/user/restricted/gaussian/g16.B01/l716.exe)
 Dipole        = 0.00000000D+00 0.00000000D+00 0.00000000D+00
 Polarizability= 7.35625957D+00 0.00000000D+00 6.40932704D+00
                 0.00000000D+00 0.00000000D+00 7.35625957D+00
 Full mass-weighted force constant matrix:
 Low frequencies ---   -0.0047   -0.0047   -0.0047
 Diagonal vibrational polarizability:
        0.0000000       0.0000000       0.0000000
 Harmonic frequencies (cm**-1), IR intensities (KM/Mole), Raman scattering
 activities (A**4/AMU), depolarization ratios for plane and unpolarized
 incident light, reduced masses (AMU), force constants (mDyne/A),
 and normal coordinates:

 -------------------
 - Thermochemistry -
 -------------------
 Temperature   298.150 Kelvin.  Pressure   1.00000 Atm.
 Atom     1 has atomic number 17 and mass  34.96885
 Molecular mass:    34.96885 amu.
 Zero-point vibrational energy          0.0 (Joules/Mol)
                                    0.00000 (Kcal/Mol)
 Vibrational temperatures: 
          (Kelvin)
 
 Zero-point correction=                           0.000000 (Hartree/Particle)
 Thermal correction to Energy=                    0.001416
 Thermal correction to Enthalpy=                  0.002360
 Thermal correction to Gibbs Free Energy=        -0.015677
 Sum of electronic and zero-point Energies=           -460.132671
 Sum of electronic and thermal Energies=              -460.131254
 Sum of electronic and thermal Enthalpies=            -460.130310
 Sum of electronic and thermal Free Energies=         -460.148348
 
                     E (Thermal)             CV                S
                      KCal/Mol        Cal/Mol-Kelvin    Cal/Mol-Kelvin
 Total                    0.889              2.981             37.963
 Electronic               0.000              0.000              1.377
 Translational            0.889              2.981             36.586
 Rotational               0.000              0.000              0.000
 Vibrational              0.000              0.000              0.000
                       Q            Log10(Q)             Ln(Q)
 Total Bot       0.162557D+08          7.211006         16.603955
 Total V=0       0.162557D+08          7.211006         16.603955
 Vib (Bot)       0.100000D+01          0.000000          0.000000
 Vib (V=0)       0.100000D+01          0.000000          0.000000
 Electronic      0.200000D+01          0.301030          0.693147
 Translational   0.812786D+07          6.909976         15.910808
 Rotational      0.100000D+01          0.000000          0.000000
 ***** Axes restored to original set *****
 -------------------------------------------------------------------
 Center     Atomic                   Forces (Hartrees/Bohr)
 Number     Number              X              Y              Z
 -------------------------------------------------------------------
      1       17          -0.000000000   -0.000000000   -0.000000000
 -------------------------------------------------------------------
 Cartesian Forces:  Max     0.000000000 RMS     0.000000000
 Z-matrix is all fixed cartesians, so copy forces.
 Force constants in Cartesian coordinates: 
                1             2             3 
      1  0.000000D+00
      2  0.000000D+00  0.000000D+00
      3  0.000000D+00  0.000000D+00  0.000000D+00
 Leave Link  716 at Mon Sep 28 13:23:04 2026, MaxMem=  1610612736 cpu:               0.3 elap:               0.1
 (Enter /share/software/user/restricted/gaussian/g16.B01/l103.exe)

 GradGradGradGradGradGradGradGradGradGradGradGradGradGradGradGradGradGrad
 Berny optimization.
 Search for a local minimum.
 Step number   1 out of a maximum of    2
 All quantities printed in internal units (Hartrees-Bohrs-Radians)
 Second derivative matrix not updated -- analytic derivatives used.
 The second derivative matrix:
                          X1        Y1        Z1
           X1          -0.00000
           Y1           0.00000  -0.00000
           Z1          -0.00000   0.00000  -0.00000
 ITU=  0
     Eigenvalues --- 
 Angle between quadratic step and forces=  90.00 degrees.
 Linear search not attempted -- first point.
 B after Tr=     0.000000    0.000000    0.000000
         Rot=    1.000000    0.000000    0.000000    0.000000 Ang=   0.00 deg.
 Variable       Old X    -DE/DX   Delta X   Delta X   Delta X     New X
                                 (Linear)    (Quad)   (Total)
    X1        0.00000  -0.00000   0.00000   0.00000   0.00000   0.00000
    Y1        0.00000  -0.00000   0.00000   0.00000   0.00000   0.00000
    Z1        0.00000  -0.00000   0.00000   0.00000   0.00000   0.00000
         Item               Value     Threshold  Converged?
 Maximum Force            0.000000     0.000450     YES
 RMS     Force            0.000000     0.000300     YES
 Maximum Displacement     0.000000     0.001800     YES
 RMS     Displacement     0.000000     0.001200     YES
 Predicted change in Energy=-0.000000D+00
 Optimization completed.
    -- Stationary point found.
 GradGradGradGradGradGradGradGradGradGradGradGradGradGradGradGradGradGrad

 Leave Link  103 at Mon Sep 28 13:23:04 2026, MaxMem=  1610612736 cpu:               0.2 elap:               0.0
 (Enter /share/software/user/restricted/gaussian/g16.B01/l9999.exe)
 Dipole is zero, so no output in dipole orientation.

 ----------------------------------------------------------------------

 Electric dipole moment (input orientation):
 (Debye = 10**-18 statcoulomb cm , SI units = C m)
                  (au)            (Debye)         (10**-30 SI)
   Tot        0.000000D+00      0.000000D+00      0.000000D+00
   x          0.000000D+00      0.000000D+00      0.000000D+00
   y          0.000000D+00      0.000000D+00      0.000000D+00
   z          0.000000D+00      0.000000D+00      0.000000D+00

 Dipole polarizability, Alpha (input orientation).
 (esu units = cm**3 , SI units = C**2 m**2 J**-1)
 Alpha(0;0):
               (au)            (10**-24 esu)      (10**-40 SI)
   iso        0.704062D+01      0.104331D+01      0.116084D+01
   aniso      0.946933D+00      0.140321D+00      0.156128D+00
   xx         0.735626D+01      0.109009D+01      0.121288D+01
   yx         0.000000D+00      0.000000D+00      0.000000D+00
   yy         0.640933D+01      0.949764D+00      0.105676D+01
   zx         0.000000D+00      0.000000D+00      0.000000D+00
   zy         0.000000D+00      0.000000D+00      0.000000D+00
   zz         0.735626D+01      0.109009D+01      0.121288D+01

 ----------------------------------------------------------------------
 1\1\GINC-SH04-17N32\Freq\UM062X\6-311++G(d)\Cl1(2)\JLAPIER\28-Sep-2026
 \0\\#p Freq M062X/6-311++G(d) Int=UltraFine\\Cl_rad m062x_gas\\0,2\Cl,
 0.,0.,0.\\Version=ES64L-G16RevB.01\HF=-460.1326707\S2=0.752071\S2-1=0.
 \S2A=0.750003\RMSD=1.524e-09\RMSF=0.000e+00\Thermal=0.0014163\Dipole=0
 .,0.,0.\DipoleDeriv=0.,0.,0.,0.,0.,0.,0.,0.,0.\Polar=7.3562596,0.,6.40
 9327,0.,0.,7.3562596\Quadrupole=-0.5750018,1.1500036,-0.5750018,0.,0.,
 0.\PG=OH [O(Cl1)]\NImag=0\\0.,0.,0.,0.,0.,0.\\0.,0.,0.\\\@


 A FOOL CAN ASK MORE QUESTIONS THAN
 A WISE MAN CAN ANSWER.
 Job cpu time:       0 days  0 hours  0 minutes 39.8 seconds.
 Elapsed time:       0 days  0 hours  0 minutes  6.2 seconds.
 File lengths (MBytes):  RWF=      6 Int=      0 D2E=      0 Chk=      2 Scr=      1
 Normal termination of Gaussian 16 at Mon Sep 28 13:23:05 2026.
