%nprocshared=8
%mem=12GB
%chk=calcs/m062x_gas/chks/BrBz_1245_RA.chk
#p Opt=(CalcFC,Tight) Freq M062X/6-311++G(d) Int=UltraFine

BrBz_1245_RA m062x_gas

-1 2
C     -0.00000000     1.31042008     0.75070604
C      0.00000000     1.31042008    -0.75070604
C      0.00000000     0.06126554    -1.41368600
C      0.00000000    -1.03956192    -0.62172596
C      0.00000000    -1.03956192     0.62172596
C     -0.00000000     0.06126554     1.41368600
Br     0.00000000     2.87401499     1.72238999
Br     0.00000000     2.87401499    -1.72238999
H      0.00000000     0.04191852    -2.50523200
Br    -0.00000000    -2.92560701    -1.76108401
Br     0.00000000    -2.92560701     1.76108401
H     -0.00000000     0.04191852     2.50523200

