%nprocshared=8
%mem=12GB
%chk=calcs/m062x_gas/chks/BrBz_1234_RA.chk
#p Opt=(CalcFC,Tight) Freq M062X/6-311++G(d) Int=UltraFine

BrBz_1234_RA m062x_gas

-1 2
C      0.00000000     1.28386786    -1.12995046
C      0.00000000     0.59907632     0.03070965
C     -0.00000000    -0.74943568     0.09962435
C     -0.00000000    -1.45302214    -1.11115554
C      0.00000000    -0.76001722    -2.32646005
C      0.00000000     0.62845278    -2.35151995
Br     0.00000000     3.27609116    -1.21973800
Br     0.00000000     1.84223319     2.02666544
Br     0.00000000    -1.69813881     1.76353656
Br     0.00000000    -3.35127084    -1.21973800
H      0.00000000    -1.32949465    -3.24953159
H      0.00000000     1.16660535    -3.29338641

