%nprocshared=8
%mem=12GB
%chk=calcs/m062x_gas/chks/BrBz_1235_RA.chk
#p Opt=(CalcFC,Tight) Freq M062X/6-311++G(d) Int=UltraFine

BrBz_1235_RA m062x_gas

-1 2
C     -0.05655738     1.16942800     0.04062200
C     -0.07868852     0.00000000    -0.67524500
C     -0.05655738    -1.16942800     0.04062200
C     -0.01229508    -1.21445700     1.43350700
C      0.00983607     0.00000000     2.10503500
C     -0.01229508     1.21445700     1.43350700
Br    -0.09836066     2.88704300    -0.85699100
Br     0.15000000    -0.00000000    -3.16673500
Br    -0.09836066    -2.88704300    -0.85699100
H      0.00000000    -2.15354100     1.97260300
Br     0.07622951     0.00000000     4.01747500
H      0.00000000     2.15354100     1.97260300

