%nprocshared=8
%mem=12GB
%chk=calcs/m062x_gas/chks/ClBz_124_RA.chk
#p Opt=(CalcFC,Tight) Freq M062X/6-311++G(d) Int=UltraFine

ClBz_124_RA m062x_gas

-1 2
C      1.19515000    -0.16643300     0.00914634
C      0.00000000    -0.83233100     0.01097561
C     -1.25118100    -0.12745300    -0.00914634
C     -1.14858600     1.28383000     0.00182927
C      0.02925200     1.97262500    -0.00365854
C      1.26995300     1.24966400    -0.00731707
Cl     2.71965000    -1.04716800    -0.00182927
Cl    -0.08444100    -2.58504100    -0.00365854
H     -2.19580100    -0.64775300     0.15000000
Cl    -2.67194300     2.19473900    -0.00182927
H      0.02519800     3.05624200    -0.02926829
H      2.22756500     1.74908700     0.09878049

