%nprocshared=8
%mem=12GB
%chk=calcs/m062x_gas/chks/ClBz_12_RA.chk
#p Opt=(CalcFC,Tight) Freq M062X/6-311++G(d) Int=UltraFine

ClBz_12_RA m062x_gas

-1 2
C      0.01956522    -0.68355800    -0.02288300
C      0.01956522     0.68355800    -0.02288300
C     -0.01086957     1.43476400     1.19124700
C     -0.00652174     0.68588200     2.40989300
C     -0.00652174    -0.68588200     2.40989300
C     -0.01086957    -1.43476400     1.19124700
Cl    -0.00434783    -1.59923500    -1.52873700
Cl    -0.00434783     1.59923500    -1.52873700
H      0.15000000     2.51497600     1.16376200
H     -0.02391304     1.22268000     3.35522000
H     -0.02391304    -1.22268000     3.35522000
H      0.15000000    -2.51497600     1.16376200

