%nprocshared=8
%mem=12GB
%chk=calcs/m062x_gas/chks/ClBz_1245_RA.chk
#p Opt=(CalcFC,Tight) Freq M062X/6-311++G(d) Int=UltraFine

ClBz_1245_RA m062x_gas

-1 2
C      0.00642857     1.21294800     0.68304000
C      0.00642857     1.21294800    -0.68304000
C     -0.00857143     0.00000000    -1.43206800
C      0.00642857    -1.21294800    -0.68304000
C      0.00642857    -1.21294800     0.68304000
C     -0.00857143    -0.00000000     1.43206800
Cl    -0.00214286     2.70723800     1.60138300
Cl    -0.00214286     2.70723800    -1.60138300
H      0.15000000     0.00000000    -2.51027800
Cl    -0.00214286    -2.70723800    -1.60138300
Cl    -0.00214286    -2.70723800     1.60138300
H      0.15000000     0.00000000     2.51027800

