%nprocshared=8
%mem=12GB
%chk=calcs/m062x_gas/chks/ClBz_123_RA.chk
#p Opt=(CalcFC,Tight) Freq M062X/6-311++G(d) Int=UltraFine

ClBz_123_RA m062x_gas

-1 2
C     -0.02112676     1.21374600    -0.44852600
C      0.15000000     0.00000000     0.31910000
C     -0.02112676    -1.21374600    -0.44852600
C     -0.03591549    -1.22133500    -1.81348900
C      0.02112676     0.00000000    -2.55270300
C     -0.03591549     1.22133500    -1.81348900
Cl     0.00845070     2.75799000     0.40536900
Cl    -0.03380282     0.00000000     2.06183200
Cl     0.00845070    -2.75799000     0.40536900
H     -0.02112676    -2.17696600    -2.32680800
H     -0.12676056     0.00000000    -3.63427500
H     -0.02112676     2.17696600    -2.32680800

