%nprocshared=8
%mem=12GB
%chk=calcs/m062x_gas/chks/ClBz_12345_RA.chk
#p Opt=(CalcFC,Tight) Freq M062X/6-311++G(d) Int=UltraFine

ClBz_12345_RA m062x_gas

-1 2
C     -0.01436170     1.20963900    -1.08873500
C     -0.00957447     1.23051000     0.27841300
C      0.04627660    -0.00000000     1.02092600
C     -0.00957447    -1.23051000     0.27841300
C     -0.01436170    -1.20963900    -1.08873500
C      0.01117021     0.00000000    -1.83613900
Cl     0.00159574     2.69589600    -2.01715700
Cl     0.00478723     2.74029100     1.15224700
Cl    -0.01276596     0.00000000     2.76094600
Cl     0.00478723    -2.74029100     1.15224700
Cl     0.00159574    -2.69589600    -2.01715700
H     -0.15000000     0.00000000    -2.91398400

