%nprocshared=8
%mem=12GB
%chk=calcs/m062x_gas/chks/ClBz_123456_RA.chk
#p Opt=(CalcFC,MaxCycles=300,Tight) Freq M062X/6-311++G(d) Int=UltraFine NoSymm

ClBz_123456_RA m062x_gas

-1 2
C     -0.00956089     1.38719698    -0.05920931
C      1.20067073     0.68370887     0.06711443
C      1.20038198    -0.68888006     0.02432526
C      0.00471046    -1.40278289    -0.07041474
C     -1.21073162    -0.67645418     0.06227669
C     -1.21475722     0.69157744     0.04252953
Cl     0.01663593     3.03507661    -0.72130990
Cl     2.66970546     1.59155482     0.50186815
Cl     2.71995830    -1.60410470     0.20640567
Cl    -0.00877135    -3.04352847    -0.72920300
Cl    -2.67599453    -1.58693750     0.50703085
Cl    -2.73581842     1.58765257     0.20435521

