%nprocshared=1
%mem=1GB
%chk=calcs/am1/chks/BDE_24_24r_anion.chk
#p Opt AM1 SCF=XQC

BDE_24_24r_anion am1

-1 1
C     -1.20377531    -0.69500000     0.00000000
C     -2.26673566    -0.24389867     0.77377185
C     -3.47051097    -0.93889867     0.77377185
C     -3.61132593    -2.08500000     0.00000000
C     -2.54836558    -2.53610133    -0.77377185
C     -1.34459027    -1.84110133    -0.77377185
C      1.20377531    -0.69500000     0.00000000
C      1.34459027    -1.84110133     0.77377185
C      2.54836558    -2.53610133     0.77377185
C      3.61132593    -2.08500000     0.00000000
C      3.47051097    -0.93889867    -0.77377185
C      2.26673566    -0.24389867    -0.77377185
O      0.00000000     0.00000000     0.00000000
Br    -2.07425478     1.32271466     1.83144561
H     -4.29640822    -0.58840267     1.37497589
Br    -5.25677420    -3.03500000     0.00000000
H     -2.65777577    -3.42659733    -1.37497589
H     -0.51869302    -2.19159733    -1.37497589
Br    -0.10837711    -2.45771466     1.83144561
H      2.65777577    -3.42659733     1.37497589
H      4.29640822    -0.58840267    -1.37497589
H      2.15732547     0.64659733    -1.37497589

