%nprocshared=1
%mem=1GB
%chk=calcs/am1/chks/BrBz_124_RA.chk
#p Opt AM1 SCF=(XQC,VShift=400,MaxCycle=512) NoSymm

BrBz_124_RA am1

-1 2
C      1.21887500     0.06448400     0.00000000
C      0.00000000    -0.62796300     0.00000000
C     -1.20489900     0.08125400     0.00000000
C     -1.19753100     1.47804000     0.00000000
C      0.01755000     2.16869000     0.00000000
C      1.21806400     1.46260000     0.00000000
Br     2.84535400    -0.85470100     0.00000000
Br    -0.04144400    -2.49627000     0.00000000
H     -2.16274900    -0.46634600     0.00000000
Br    -2.81410500     2.41999900     0.00000000
H      0.03674600     3.27040200     0.00000000
H      2.17047800     2.01733800     0.00000000

