%nprocshared=1
%mem=1GB
%chk=calcs/am1/chks/ClBz_135.chk
# Opt AM1 SCF=XQC

ClBz_135 am1

0 1
C      0.00000000     1.39000000     0.00000000
C      1.20377531     0.69500000     0.00000000
C      1.20377531    -0.69500000     0.00000000
C      0.00000000    -1.39000000     0.00000000
C     -1.20377531    -0.69500000     0.00000000
C     -1.20377531     0.69500000     0.00000000
Cl     0.00000000     3.13000000     0.00000000
H      2.13908275     1.23500000     0.00000000
Cl     2.71065951    -1.56500000     0.00000000
H      0.00000000    -2.47000000     0.00000000
Cl    -2.71065951    -1.56500000     0.00000000
H     -2.13908275     1.23500000     0.00000000

