 Entering Gaussian System, Link 0=g16
 Initial command:
 /share/software/user/restricted/gaussian/g16.B01/l1.exe "/lscratch/jlapier/g16_45755722_65/Gau-29818.inp" -scrdir="/lscratch/jlapier/g16_45755722_65/"
 Entering Link 1 = /share/software/user/restricted/gaussian/g16.B01/l1.exe PID=     29844.
  
 Copyright (c) 1988-2017, Gaussian, Inc.  All Rights Reserved.
  
 This is part of the Gaussian(R) 16 program.  It is based on
 the Gaussian(R) 09 system (copyright 2009, Gaussian, Inc.),
 the Gaussian(R) 03 system (copyright 2003, Gaussian, Inc.),
 the Gaussian(R) 98 system (copyright 1998, Gaussian, Inc.),
 the Gaussian(R) 94 system (copyright 1995, Gaussian, Inc.),
 the Gaussian 92(TM) system (copyright 1992, Gaussian, Inc.),
 the Gaussian 90(TM) system (copyright 1990, Gaussian, Inc.),
 the Gaussian 88(TM) system (copyright 1988, Gaussian, Inc.),
 the Gaussian 86(TM) system (copyright 1986, Carnegie Mellon
 University), and the Gaussian 82(TM) system (copyright 1983,
 Carnegie Mellon University). Gaussian is a federally registered
 trademark of Gaussian, Inc.
  
 This software contains proprietary and confidential information,
 including trade secrets, belonging to Gaussian, Inc.
  
 This software is provided under written license and may be
 used, copied, transmitted, or stored only in accord with that
 written license.
  
 The following legend is applicable only to US Government
 contracts under FAR:
  
                    RESTRICTED RIGHTS LEGEND
  
 Use, reproduction and disclosure by the US Government is
 subject to restrictions as set forth in subparagraphs (a)
 and (c) of the Commercial Computer Software - Restricted
 Rights clause in FAR 52.227-19.
  
 Gaussian, Inc.
 340 Quinnipiac St., Bldg. 40, Wallingford CT 06492
  
  
 ---------------------------------------------------------------
 Warning -- This program may not be used in any manner that
 competes with the business of Gaussian, Inc. or will provide
 assistance to any competitor of Gaussian, Inc.  The licensee
 of this program is prohibited from giving any competitor of
 Gaussian, Inc. access to this program.  By using this program,
 the user acknowledges that Gaussian, Inc. is engaged in the
 business of creating and licensing software in the field of
 computational chemistry and represents and warrants to the
 licensee that it is not a competitor of Gaussian, Inc. and that
 it will not use this program in any manner prohibited above.
 ---------------------------------------------------------------
  

 Cite this work as:
 Gaussian 16, Revision B.01,
 M. J. Frisch, G. W. Trucks, H. B. Schlegel, G. E. Scuseria, 
 M. A. Robb, J. R. Cheeseman, G. Scalmani, V. Barone, 
 G. A. Petersson, H. Nakatsuji, X. Li, M. Caricato, A. V. Marenich, 
 J. Bloino, B. G. Janesko, R. Gomperts, B. Mennucci, H. P. Hratchian, 
 J. V. Ortiz, A. F. Izmaylov, J. L. Sonnenberg, D. Williams-Young, 
 F. Ding, F. Lipparini, F. Egidi, J. Goings, B. Peng, A. Petrone, 
 T. Henderson, D. Ranasinghe, V. G. Zakrzewski, J. Gao, N. Rega, 
 G. Zheng, W. Liang, M. Hada, M. Ehara, K. Toyota, R. Fukuda, 
 J. Hasegawa, M. Ishida, T. Nakajima, Y. Honda, O. Kitao, H. Nakai, 
 T. Vreven, K. Throssell, J. A. Montgomery, Jr., J. E. Peralta, 
 F. Ogliaro, M. J. Bearpark, J. J. Heyd, E. N. Brothers, K. N. Kudin, 
 V. N. Staroverov, T. A. Keith, R. Kobayashi, J. Normand, 
 K. Raghavachari, A. P. Rendell, J. C. Burant, S. S. Iyengar, 
 J. Tomasi, M. Cossi, J. M. Millam, M. Klene, C. Adamo, R. Cammi, 
 J. W. Ochterski, R. L. Martin, K. Morokuma, O. Farkas, 
 J. B. Foresman, and D. J. Fox, Gaussian, Inc., Wallingford CT, 2016.
 
 ******************************************
 Gaussian 16:  ES64L-G16RevB.01 20-Dec-2017
                28-Sep-2026 
 ******************************************
 %nprocshared=8
 Will use up to    8 processors via shared memory.
 %mem=12GB
 %oldchk=calcs/m062x_smd/chks/BrBz_14_RA.chk
 %chk=calcs/sp_m062x_smd/chks/BrBz_14_RA__vN.chk
 Copying data from "calcs/m062x_smd/chks/BrBz_14_RA.chk" to current chk file "calcs/sp_m062x_smd/chks/BrBz_14_RA__vN.chk"
 IOpt=  2 FromEx=T IUOpen= 4 IOptOp= 5 NList=   0 IFRang= 0 IUIn= 4 IUOut= 2.
 ----------------------------------------------------------------------
 #p SP M062X/6-311++G(d) SCRF=(SMD,Solvent=Water) Int=UltraFine Pop=(Hi
 rshfeld,NBORead) NoSymm SCF=XQC Geom=Check
 ----------------------------------------------------------------------
 1/29=2,38=1,172=1/1;
 2/12=2,15=1,40=1/2;
 3/5=4,6=6,7=1011,11=2,14=-4,25=1,30=1,70=32201,72=1,74=-55,75=-5/1,2,3;
 4//1;
 5/5=2,8=3,13=1,38=5,53=1/2,8;
 6/7=2,8=2,9=2,10=2,28=1,40=2,79=1/1,7;
 99/5=1,9=1/99;
 Leave Link    1 at Mon Sep 28 13:10:56 2026, MaxMem=  1610612736 cpu:               5.3 elap:               0.8
 (Enter /share/software/user/restricted/gaussian/g16.B01/l101.exe)
 ---------------------------
 BrBz_14_RA__vN sp_m062x_smd
 ---------------------------
 Structure from the checkpoint file:  "calcs/sp_m062x_smd/chks/BrBz_14_RA__vN.chk"
 Charge =  0 Multiplicity = 1
 Redundant internal coordinates found in file.  (old form).
 C,0,0.0000004993,-0.0193451947,1.363516697
 C,0,0.0820055133,1.2138876488,0.7373084565
 C,0,-0.0820022195,1.2343159771,-0.7025752726
 C,0,0.0000004992,0.0193451949,-1.3635166971
 C,0,0.0820055134,-1.2138876486,-0.7373084565
 C,0,-0.0820022193,-1.234315977,0.7025752725
 Br,0,-0.0000044347,-0.0469628629,3.3101693799
 H,0,0.2462906422,2.125237138,1.2990693338
 H,0,-0.2462899994,2.1612352055,-1.2382555493
 Br,0,-0.000004435,0.0469628631,-3.31016938
 H,0,0.2462906423,-2.1252371378,-1.2990693338
 H,0,-0.246289999,-2.1612352054,1.2382555493
 Recover connectivity data from disk.
 ITRead=  0  0  0  0  0  0  0  0  0  0  0  0
 MicOpt= -1 -1 -1 -1 -1 -1 -1 -1 -1 -1 -1 -1
                           ----------------------------
                           !    Current Parameters    !
                           ! (Angstroms and Degrees)  !
 --------------------------                            --------------------------
 ! Name  Definition              Value                                          !
 --------------------------------------------------------------------------------
 ! R1    R(1,2)                  1.3855                                         !
 ! R2    R(1,6)                  1.3855                                         !
 ! R3    R(1,7)                  1.9468                                         !
 ! R4    R(2,3)                  1.4493                                         !
 ! R5    R(2,8)                  1.0831                                         !
 ! R6    R(3,4)                  1.3855                                         !
 ! R7    R(3,9)                  1.0831                                         !
 ! R8    R(4,5)                  1.3855                                         !
 ! R9    R(4,10)                 1.9468                                         !
 ! R10   R(5,6)                  1.4493                                         !
 ! R11   R(5,11)                 1.0831                                         !
 ! R12   R(6,12)                 1.0831                                         !
 ! A1    A(2,1,6)              124.639                                          !
 ! A2    A(2,1,7)              117.6805                                         !
 ! A3    A(6,1,7)              117.6805                                         !
 ! A4    A(1,2,3)              117.0559                                         !
 ! A5    A(1,2,8)              121.5668                                         !
 ! A6    A(3,2,8)              121.371                                          !
 ! A7    A(2,3,4)              117.0559                                         !
 ! A8    A(2,3,9)              121.371                                          !
 ! A9    A(4,3,9)              121.5668                                         !
 ! A10   A(3,4,5)              124.639                                          !
 ! A11   A(3,4,10)             117.6805                                         !
 ! A12   A(5,4,10)             117.6805                                         !
 ! A13   A(4,5,6)              117.0559                                         !
 ! A14   A(4,5,11)             121.5668                                         !
 ! A15   A(6,5,11)             121.371                                          !
 ! A16   A(1,6,5)              117.0559                                         !
 ! A17   A(1,6,12)             121.5668                                         !
 ! A18   A(5,6,12)             121.371                                          !
 ! D1    D(6,1,2,3)              7.2838                                         !
 ! D2    D(6,1,2,8)           -173.6241                                         !
 ! D3    D(7,1,2,3)           -172.7162                                         !
 ! D4    D(7,1,2,8)              6.376                                          !
 ! D5    D(2,1,6,5)              7.2836                                         !
 ! D6    D(2,1,6,12)          -173.624                                          !
 ! D7    D(7,1,6,5)           -172.7165                                         !
 ! D8    D(7,1,6,12)             6.3759                                         !
 ! D9    D(1,2,3,4)            -14.3683                                         !
 ! D10   D(1,2,3,9)            166.5374                                         !
 ! D11   D(8,2,3,4)            166.5377                                         !
 ! D12   D(8,2,3,9)            -12.5566                                         !
 ! D13   D(2,3,4,5)              7.2836                                         !
 ! D14   D(2,3,4,10)          -172.7165                                         !
 ! D15   D(9,3,4,5)           -173.624                                          !
 ! D16   D(9,3,4,10)             6.3759                                         !
 ! D17   D(3,4,5,6)              7.2838                                         !
 ! D18   D(3,4,5,11)          -173.6241                                         !
 ! D19   D(10,4,5,6)          -172.7162                                         !
 ! D20   D(10,4,5,11)            6.376                                          !
 ! D21   D(4,5,6,1)            -14.3683                                         !
 ! D22   D(4,5,6,12)           166.5374                                         !
 ! D23   D(11,5,6,1)           166.5377                                         !
 ! D24   D(11,5,6,12)          -12.5566                                         !
 --------------------------------------------------------------------------------
 NAtoms=     12 NQM=       12 NQMF=       0 NMMI=      0 NMMIF=      0
                NMic=       0 NMicF=      0.
                    Isotopes and Nuclear Properties:
 (Nuclear quadrupole moments (NQMom) in fm**2, nuclear magnetic moments (NMagM)
  in nuclear magnetons)

  Atom         1           2           3           4           5           6           7           8           9          10
 IAtWgt=          12          12          12          12          12          12          79           1           1          79
 AtmWgt=  12.0000000  12.0000000  12.0000000  12.0000000  12.0000000  12.0000000  78.9183361   1.0078250   1.0078250  78.9183361
 NucSpn=           0           0           0           0           0           0           3           1           1           3
 AtZEff=   3.6000000   3.6000000   3.6000000   3.6000000   3.6000000   3.6000000  24.5000000   1.0000000   1.0000000  24.5000000
 NQMom=    0.0000000   0.0000000   0.0000000   0.0000000   0.0000000   0.0000000  31.3000000   0.0000000   0.0000000  31.3000000
 NMagM=    0.0000000   0.0000000   0.0000000   0.0000000   0.0000000   0.0000000   2.1063990   2.7928460   2.7928460   2.1063990
 AtZNuc=   6.0000000   6.0000000   6.0000000   6.0000000   6.0000000   6.0000000  35.0000000   1.0000000   1.0000000  35.0000000

  Atom        11          12
 IAtWgt=           1           1
 AtmWgt=   1.0078250   1.0078250
 NucSpn=           1           1
 AtZEff=   1.0000000   1.0000000
 NQMom=    0.0000000   0.0000000
 NMagM=    2.7928460   2.7928460
 AtZNuc=   1.0000000   1.0000000
 Leave Link  101 at Mon Sep 28 13:10:56 2026, MaxMem=  1610612736 cpu:               1.9 elap:               0.3
 (Enter /share/software/user/restricted/gaussian/g16.B01/l202.exe)
                          Input orientation:                          
 ---------------------------------------------------------------------
 Center     Atomic      Atomic             Coordinates (Angstroms)
 Number     Number       Type             X           Y           Z
 ---------------------------------------------------------------------
      1          6           0        0.000000   -0.019345    1.363517
      2          6           0        0.082006    1.213888    0.737308
      3          6           0       -0.082002    1.234316   -0.702575
      4          6           0        0.000000    0.019345   -1.363517
      5          6           0        0.082006   -1.213888   -0.737308
      6          6           0       -0.082002   -1.234316    0.702575
      7         35           0       -0.000004   -0.046963    3.310169
      8          1           0        0.246291    2.125237    1.299069
      9          1           0       -0.246290    2.161235   -1.238256
     10         35           0       -0.000004    0.046963   -3.310169
     11          1           0        0.246291   -2.125237   -1.299069
     12          1           0       -0.246290   -2.161235    1.238256
 ---------------------------------------------------------------------
                    Distance matrix (angstroms):
                    1          2          3          4          5
     1  C    0.000000
     2  C    1.385541   0.000000
     3  C    2.418083   1.449338   0.000000
     4  C    2.727308   2.418082   1.385540   0.000000
     5  C    2.418082   2.840526   2.453937   1.385541   0.000000
     6  C    1.385540   2.453937   2.840527   2.418083   1.449338
     7  Br   1.946849   2.866371   4.213136   4.674156   4.213136
     8  H    2.159640   1.083108   2.215423   3.403646   3.914534
     9  H    3.403646   2.215423   1.083108   2.159639   3.427854
    10  Br   4.674156   4.213136   2.866370   1.946849   2.866371
    11  H    3.403646   3.914534   3.427853   2.159640   1.083108
    12  H    2.159639   3.427854   3.914535   3.403646   2.215423
                    6          7          8          9         10
     6  C    0.000000
     7  Br   2.866370   0.000000
     8  H    3.427853   2.970461   0.000000
     9  H    3.914535   5.062111   2.584947   0.000000
    10  Br   4.213136   6.621005   5.062111   2.970460   0.000000
    11  H    2.215423   5.062111   4.981652   4.315111   2.970461
    12  H    1.083108   2.970460   4.315111   4.981652   5.062111
                   11         12
    11  H    0.000000
    12  H    2.584947   0.000000
 Symmetry turned off by external request.
 Stoichiometry    C6H4Br2
 Framework group  C2[X(C6H4Br2)]
 Deg. of freedom    16
 Full point group                 C2      NOp   2
 Rotational constants (GHZ):           5.5519344           0.2797760           0.2665132
 Leave Link  202 at Mon Sep 28 13:10:57 2026, MaxMem=  1610612736 cpu:               0.0 elap:               0.0
 (Enter /share/software/user/restricted/gaussian/g16.B01/l301.exe)
 Standard basis: 6-311++G(d) (5D, 7F)
 Ernie: Thresh=  0.10000D-02 Tol=  0.10000D-05 Strict=F.
   244 basis functions,   428 primitive gaussians,   256 cartesian basis functions
    55 alpha electrons       55 beta electrons
       nuclear repulsion energy       743.3870404565 Hartrees.
 IExCor= 4336 DFT=T Ex+Corr=M062X ExCW=0 ScaHFX=  0.540000
 ScaDFX=  1.000000  1.000000  1.000000  1.000000 ScalE2=  1.000000  1.000000
 IRadAn=      5 IRanWt=     -1 IRanGd=            0 ICorTp=0 IEmpDi=  4
 NAtoms=   12 NActive=   12 NUniq=   12 SFac= 1.00D+00 NAtFMM=   60 NAOKFM=F Big=F
 Integral buffers will be    131072 words long.
 Raffenetti 2 integral format.
 Two-electron integral symmetry is turned off.
 ------------------------------------------------------------------------------
 Polarizable Continuum Model (PCM)
 =================================
 Model                : PCM.
 Atomic radii         : SMD-Coulomb.
 Polarization charges : Total charges.
 Charge compensation  : None.
 Solution method      : On-the-fly selection.
 Cavity type          : VdW (van der Waals Surface) (Alpha=1.000).
 Cavity algorithm     : GePol (No added spheres)
                        Default sphere list used, NSphG=   12.
                        Lebedev-Laikov grids with approx.  5.0 points / Ang**2.
                        Smoothing algorithm: York/Karplus (Gamma=1.0000).
                        Polarization charges: spherical gaussians, with
                                              point-specific exponents (IZeta= 3).
                        Self-potential: point-specific (ISelfS= 7).
                        Self-field    : sphere-specific E.n sum rule (ISelfD= 2).
 Solvent              : Water, Eps=  78.355300 Eps(inf)=   1.777849
 ------------------------------------------------------------------------------
 Spheres list:
 ISph  on   Nord     Re0    Alpha      Xe            Ye            Ze
    1   C      1    1.8500  1.000      0.000000     -0.019345      1.363517
    2   C      2    1.8500  1.000      0.082006      1.213888      0.737308
    3   C      3    1.8500  1.000     -0.082002      1.234316     -0.702575
    4   C      4    1.8500  1.000      0.000000      0.019345     -1.363517
    5   C      5    1.8500  1.000      0.082006     -1.213888     -0.737308
    6   C      6    1.8500  1.000     -0.082002     -1.234316      0.702575
    7  Br      7    3.0600  1.000     -0.000004     -0.046963      3.310169
    8   H      8    1.2000  1.000      0.246291      2.125237      1.299069
    9   H      9    1.2000  1.000     -0.246290      2.161235     -1.238256
   10  Br     10    3.0600  1.000     -0.000004      0.046963     -3.310169
   11   H     11    1.2000  1.000      0.246291     -2.125237     -1.299069
   12   H     12    1.2000  1.000     -0.246290     -2.161235      1.238256
 ------------------------------------------------------------------------------
 GePol: Number of generator spheres                  =      12
 GePol: Total number of spheres                      =      12
 GePol: Number of exposed spheres                    =      12 (100.00%)
 GePol: Number of points                             =    1510
 GePol: Average weight of points                     =       0.16
 GePol: Minimum weight of points                     =   0.61D-07
 GePol: Maximum weight of points                     =    0.22025
 GePol: Number of points with low weight             =      50
 GePol: Fraction of low-weight points (<1% of avg)   =       3.31%
 GePol: Cavity surface area                          =    244.394 Ang**2
 GePol: Cavity volume                                =    276.116 Ang**3
 ------------------------------------------------------------------------------
 Atomic radii for non-electrostatic terms: SMD-CDS.
 ------------------------------------------------------------------------------
 PCM non-electrostatic energy =         0.0022492975 Hartrees.
 Nuclear repulsion after PCM non-electrostatic terms =      743.3892897541 Hartrees.
 Leave Link  301 at Mon Sep 28 13:10:57 2026, MaxMem=  1610612736 cpu:               0.4 elap:               0.1
 (Enter /share/software/user/restricted/gaussian/g16.B01/l302.exe)
 NPDir=0 NMtPBC=     1 NCelOv=     1 NCel=       1 NClECP=     1 NCelD=      1
         NCelK=      1 NCelE2=     1 NClLst=     1 CellRange=     0.0.
 One-electron integrals computed using PRISM.
 NBasis=   244 RedAO= T EigKep=  1.46D-06  NBF=   244
 NBsUse=   244 1.00D-06 EigRej= -1.00D+00 NBFU=   244
 Precomputing XC quadrature grid using
 IXCGrd= 4 IRadAn=           5 IRanWt=          -1 IRanGd=           0 AccXCQ= 0.00D+00.
 Generated NRdTot=       0 NPtTot=           0 NUsed=           0 NTot=          32
 NSgBfM=   245   245   245   245   245 MxSgAt=    12 MxSgA2=    12.
 Leave Link  302 at Mon Sep 28 13:10:57 2026, MaxMem=  1610612736 cpu:               1.4 elap:               0.2
 (Enter /share/software/user/restricted/gaussian/g16.B01/l303.exe)
 DipDrv:  MaxL=1.
 Leave Link  303 at Mon Sep 28 13:10:57 2026, MaxMem=  1610612736 cpu:               0.4 elap:               0.1
 (Enter /share/software/user/restricted/gaussian/g16.B01/l401.exe)
 ExpMin= 3.50D-02 ExpMax= 4.40D+05 ExpMxC= 1.51D+04 IAcc=3 IRadAn=         5 AccDes= 0.00D+00
 Harris functional with IExCor= 1009 and IRadAn=       5 diagonalized for initial guess.
 HarFok:  IExCor= 1009 AccDes= 0.00D+00 IRadAn=         5 IDoV= 1 UseB2=F ITyADJ=14
 ICtDFT=  3500011 ScaDFX=  1.000000  1.000000  1.000000  1.000000
 FoFCou: FMM=F IPFlag=           0 FMFlag=      100000 FMFlg1=           0
         NFxFlg=           0 DoJE=T BraDBF=F KetDBF=T FulRan=T
         wScrn=  0.000000 ICntrl=       500 IOpCl=  0 I1Cent=   200000004 NGrid=           0
         NMat0=    1 NMatS0=      1 NMatT0=    0 NMatD0=    1 NMtDS0=    0 NMtDT0=    0
 Symmetry not used in FoFCou.
 Harris En= -5378.33093068154    
 JPrj=0 DoOrth=F DoCkMO=F.
 Leave Link  401 at Mon Sep 28 13:10:58 2026, MaxMem=  1610612736 cpu:               5.9 elap:               0.8
 (Enter /share/software/user/restricted/gaussian/g16.B01/l502.exe)
 Keep R1 ints in memory in canonical form, NReq=455434959.
 FoFCou: FMM=F IPFlag=           0 FMFlag=           0 FMFlg1=           0
         NFxFlg=           0 DoJE=F BraDBF=F KetDBF=F FulRan=T
         wScrn=  0.000000 ICntrl=       600 IOpCl=  0 I1Cent=           0 NGrid=           0
         NMat0=    1 NMatS0=  29890 NMatT0=    0 NMatD0=    1 NMtDS0=    0 NMtDT0=    0
 Symmetry not used in FoFCou.
 Two-electron integral symmetry not used.
 Closed shell SCF:
 Using DIIS extrapolation, IDIIS=  1040.
 NGot=  1610612736 LenX=  1163756827 LenY=  1163690850
 Requested convergence on RMS density matrix=1.00D-08 within  32 cycles.
 Requested convergence on MAX density matrix=1.00D-06.
 Requested convergence on             energy=1.00D-06.
 No special actions if energy rises.

 Cycle   1  Pass 1  IDiag  1:
 Inv3:  Mode=1 IEnd=     6840300.
 Iteration    1 A*A^-1 deviation from unit magnitude is 4.66D-15 for   1501.
 Iteration    1 A*A^-1 deviation from orthogonality  is 1.19D-15 for   1474   1248.
 Iteration    1 A^-1*A deviation from unit magnitude is 4.66D-15 for   1500.
 Iteration    1 A^-1*A deviation from orthogonality  is 1.37D-15 for    499     70.
 E= -5379.10512888468    
 DIIS: error= 1.67D-01 at cycle   1 NSaved=   1.
 NSaved= 1 IEnMin= 1 EnMin= -5379.10512888468     IErMin= 1 ErrMin= 1.67D-01
 ErrMax= 1.67D-01  0.00D+00 EMaxC= 1.00D-01 BMatC= 3.42D+00 BMatP= 3.42D+00
 IDIUse=3 WtCom= 0.00D+00 WtEn= 1.00D+00
 Coeff-Com:  0.100D+01
 Coeff-En:   0.100D+01
 Coeff:      0.100D+01
 Gap=     0.341 Goal=   None    Shift=    0.000
 GapD=    0.341 DampG=1.000 DampE=0.250 DampFc=0.2500 IDamp=-1.
 Damping current iteration by 2.50D-01
 RMSDP=1.63D-02 MaxDP=8.28D-01              OVMax= 1.33D-01

 Cycle   2  Pass 1  IDiag  1:
 E= -5379.18116054042     Delta-E=       -0.076031655737 Rises=F Damp=T
 DIIS: error= 1.19D-01 at cycle   2 NSaved=   2.
 NSaved= 2 IEnMin= 2 EnMin= -5379.18116054042     IErMin= 2 ErrMin= 1.19D-01
 ErrMax= 1.19D-01  0.00D+00 EMaxC= 1.00D-01 BMatC= 1.62D+00 BMatP= 3.42D+00
 IDIUse=3 WtCom= 0.00D+00 WtEn= 1.00D+00
 Coeff-Com: -0.201D+01 0.301D+01
 Coeff-En:   0.000D+00 0.100D+01
 Coeff:      0.000D+00 0.100D+01
 Gap=     0.281 Goal=   None    Shift=    0.000
 RMSDP=2.08D-02 MaxDP=1.11D+00 DE=-7.60D-02 OVMax= 4.20D-02

 Cycle   3  Pass 1  IDiag  1:
 E= -5379.28897137793     Delta-E=       -0.107810837517 Rises=F Damp=F
 DIIS: error= 2.43D-02 at cycle   3 NSaved=   3.
 NSaved= 3 IEnMin= 3 EnMin= -5379.28897137793     IErMin= 3 ErrMin= 2.43D-02
 ErrMax= 2.43D-02  0.00D+00 EMaxC= 1.00D-01 BMatC= 1.50D-01 BMatP= 1.62D+00
 IDIUse=3 WtCom= 7.57D-01 WtEn= 2.43D-01
 Coeff-Com:  0.303D+01-0.401D+01 0.198D+01
 Coeff-En:   0.000D+00 0.000D+00 0.100D+01
 Coeff:      0.229D+01-0.304D+01 0.174D+01
 Gap=     0.293 Goal=   None    Shift=    0.000
 RMSDP=7.92D-03 MaxDP=4.28D-01 DE=-1.08D-01 OVMax= 4.53D-02

 Cycle   4  Pass 1  IDiag  1:
 E= -5379.32624617025     Delta-E=       -0.037274792318 Rises=F Damp=F
 DIIS: error= 5.69D-03 at cycle   4 NSaved=   4.
 NSaved= 4 IEnMin= 4 EnMin= -5379.32624617025     IErMin= 4 ErrMin= 5.69D-03
 ErrMax= 5.69D-03  0.00D+00 EMaxC= 1.00D-01 BMatC= 6.72D-03 BMatP= 1.50D-01
 IDIUse=3 WtCom= 9.43D-01 WtEn= 5.69D-02
 Coeff-Com:  0.359D+00-0.472D+00 0.389D+00 0.724D+00
 Coeff-En:   0.000D+00 0.000D+00 0.000D+00 0.100D+01
 Coeff:      0.339D+00-0.445D+00 0.367D+00 0.740D+00
 Gap=     0.277 Goal=   None    Shift=    0.000
 RMSDP=1.44D-03 MaxDP=7.66D-02 DE=-3.73D-02 OVMax= 5.79D-03

 Cycle   5  Pass 1  IDiag  1:
 E= -5379.32771738167     Delta-E=       -0.001471211418 Rises=F Damp=F
 DIIS: error= 8.27D-04 at cycle   5 NSaved=   5.
 NSaved= 5 IEnMin= 5 EnMin= -5379.32771738167     IErMin= 5 ErrMin= 8.27D-04
 ErrMax= 8.27D-04  0.00D+00 EMaxC= 1.00D-01 BMatC= 1.00D-04 BMatP= 6.72D-03
 IDIUse=3 WtCom= 9.92D-01 WtEn= 8.27D-03
 Coeff-Com: -0.468D-01 0.634D-01 0.310D-01 0.312D+00 0.640D+00
 Coeff-En:   0.000D+00 0.000D+00 0.000D+00 0.000D+00 0.100D+01
 Coeff:     -0.464D-01 0.628D-01 0.307D-01 0.310D+00 0.643D+00
 Gap=     0.276 Goal=   None    Shift=    0.000
 RMSDP=7.26D-04 MaxDP=3.05D-02 DE=-1.47D-03 OVMax= 2.46D-03

 Cycle   6  Pass 1  IDiag  1:
 E= -5379.32779152142     Delta-E=       -0.000074139751 Rises=F Damp=F
 DIIS: error= 1.90D-04 at cycle   6 NSaved=   6.
 NSaved= 6 IEnMin= 6 EnMin= -5379.32779152142     IErMin= 6 ErrMin= 1.90D-04
 ErrMax= 1.90D-04  0.00D+00 EMaxC= 1.00D-01 BMatC= 4.02D-06 BMatP= 1.00D-04
 IDIUse=3 WtCom= 9.98D-01 WtEn= 1.90D-03
 Coeff-Com: -0.268D-01 0.356D-01-0.105D-01 0.439D-01 0.216D+00 0.742D+00
 Coeff-En:   0.000D+00 0.000D+00 0.000D+00 0.000D+00 0.000D+00 0.100D+01
 Coeff:     -0.268D-01 0.356D-01-0.105D-01 0.438D-01 0.216D+00 0.742D+00
 Gap=     0.276 Goal=   None    Shift=    0.000
 RMSDP=7.61D-05 MaxDP=4.12D-03 DE=-7.41D-05 OVMax= 4.96D-04

 Cycle   7  Pass 1  IDiag  1:
 E= -5379.32779483479     Delta-E=       -0.000003313369 Rises=F Damp=F
 DIIS: error= 5.35D-05 at cycle   7 NSaved=   7.
 NSaved= 7 IEnMin= 7 EnMin= -5379.32779483479     IErMin= 7 ErrMin= 5.35D-05
 ErrMax= 5.35D-05  0.00D+00 EMaxC= 1.00D-01 BMatC= 3.50D-07 BMatP= 4.02D-06
 IDIUse=1 WtCom= 1.00D+00 WtEn= 0.00D+00
 Coeff-Com: -0.160D-02 0.201D-02-0.271D-02-0.263D-02 0.444D-01 0.279D+00
 Coeff-Com:  0.681D+00
 Coeff:     -0.160D-02 0.201D-02-0.271D-02-0.263D-02 0.444D-01 0.279D+00
 Coeff:      0.681D+00
 Gap=     0.276 Goal=   None    Shift=    0.000
 RMSDP=4.80D-05 MaxDP=2.52D-03 DE=-3.31D-06 OVMax= 1.30D-04

 Cycle   8  Pass 1  IDiag  1:
 E= -5379.32779519203     Delta-E=       -0.000000357239 Rises=F Damp=F
 DIIS: error= 5.86D-06 at cycle   8 NSaved=   8.
 NSaved= 8 IEnMin= 8 EnMin= -5379.32779519203     IErMin= 8 ErrMin= 5.86D-06
 ErrMax= 5.86D-06  0.00D+00 EMaxC= 1.00D-01 BMatC= 3.33D-09 BMatP= 3.50D-07
 IDIUse=1 WtCom= 1.00D+00 WtEn= 0.00D+00
 Coeff-Com:  0.873D-03-0.117D-02 0.152D-03-0.139D-02-0.352D-03 0.563D-02
 Coeff-Com:  0.626D-01 0.934D+00
 Coeff:      0.873D-03-0.117D-02 0.152D-03-0.139D-02-0.352D-03 0.563D-02
 Coeff:      0.626D-01 0.934D+00
 Gap=     0.276 Goal=   None    Shift=    0.000
 RMSDP=9.63D-06 MaxDP=5.59D-04 DE=-3.57D-07 OVMax= 1.89D-05

 Cycle   9  Pass 1  IDiag  1:
 E= -5379.32779519547     Delta-E=       -0.000000003442 Rises=F Damp=F
 DIIS: error= 1.01D-06 at cycle   9 NSaved=   9.
 NSaved= 9 IEnMin= 9 EnMin= -5379.32779519547     IErMin= 9 ErrMin= 1.01D-06
 ErrMax= 1.01D-06  0.00D+00 EMaxC= 1.00D-01 BMatC= 3.05D-10 BMatP= 3.33D-09
 IDIUse=1 WtCom= 1.00D+00 WtEn= 0.00D+00
 Coeff-Com:  0.142D-03-0.184D-03 0.104D-03-0.214D-03-0.251D-02-0.160D-01
 Coeff-Com: -0.352D-01 0.187D+00 0.867D+00
 Coeff:      0.142D-03-0.184D-03 0.104D-03-0.214D-03-0.251D-02-0.160D-01
 Coeff:     -0.352D-01 0.187D+00 0.867D+00
 Gap=     0.276 Goal=   None    Shift=    0.000
 RMSDP=2.46D-06 MaxDP=1.53D-04 DE=-3.44D-09 OVMax= 5.82D-06

 Cycle  10  Pass 1  IDiag  1:
 E= -5379.32779519578     Delta-E=       -0.000000000314 Rises=F Damp=F
 DIIS: error= 1.60D-07 at cycle  10 NSaved=  10.
 NSaved=10 IEnMin=10 EnMin= -5379.32779519578     IErMin=10 ErrMin= 1.60D-07
 ErrMax= 1.60D-07  0.00D+00 EMaxC= 1.00D-01 BMatC= 9.21D-12 BMatP= 3.05D-10
 IDIUse=1 WtCom= 1.00D+00 WtEn= 0.00D+00
 Coeff-Com: -0.304D-04 0.416D-04-0.715D-05-0.250D-04-0.416D-03-0.266D-02
 Coeff-Com: -0.776D-02 0.408D-02 0.151D+00 0.856D+00
 Coeff:     -0.304D-04 0.416D-04-0.715D-05-0.250D-04-0.416D-03-0.266D-02
 Coeff:     -0.776D-02 0.408D-02 0.151D+00 0.856D+00
 Gap=     0.276 Goal=   None    Shift=    0.000
 RMSDP=2.15D-07 MaxDP=1.33D-05 DE=-3.14D-10 OVMax= 1.17D-06

 Cycle  11  Pass 1  IDiag  1:
 E= -5379.32779519580     Delta-E=       -0.000000000015 Rises=F Damp=F
 DIIS: error= 2.89D-08 at cycle  11 NSaved=  11.
 NSaved=11 IEnMin=11 EnMin= -5379.32779519580     IErMin=11 ErrMin= 2.89D-08
 ErrMax= 2.89D-08  0.00D+00 EMaxC= 1.00D-01 BMatC= 2.30D-13 BMatP= 9.21D-12
 IDIUse=1 WtCom= 1.00D+00 WtEn= 0.00D+00
 Coeff-Com:  0.239D-05-0.332D-05 0.138D-05 0.120D-04 0.919D-04 0.547D-03
 Coeff-Com:  0.126D-02-0.872D-02-0.315D-01 0.138D-01 0.102D+01
 Coeff:      0.239D-05-0.332D-05 0.138D-05 0.120D-04 0.919D-04 0.547D-03
 Coeff:      0.126D-02-0.872D-02-0.315D-01 0.138D-01 0.102D+01
 Gap=     0.276 Goal=   None    Shift=    0.000
 RMSDP=1.25D-07 MaxDP=7.20D-06 DE=-1.46D-11 OVMax= 3.11D-07

 Cycle  12  Pass 1  IDiag  1:
 E= -5379.32779519584     Delta-E=       -0.000000000038 Rises=F Damp=F
 DIIS: error= 5.92D-09 at cycle  12 NSaved=  12.
 NSaved=12 IEnMin=12 EnMin= -5379.32779519584     IErMin=12 ErrMin= 5.92D-09
 ErrMax= 5.92D-09  0.00D+00 EMaxC= 1.00D-01 BMatC= 3.78D-15 BMatP= 2.30D-13
 IDIUse=1 WtCom= 1.00D+00 WtEn= 0.00D+00
 Coeff-Com: -0.292D-06 0.373D-06-0.448D-06-0.685D-06 0.460D-05 0.257D-04
 Coeff-Com:  0.584D-04 0.295D-03-0.135D-02-0.136D-01-0.329D-01 0.105D+01
 Coeff:     -0.292D-06 0.373D-06-0.448D-06-0.685D-06 0.460D-05 0.257D-04
 Coeff:      0.584D-04 0.295D-03-0.135D-02-0.136D-01-0.329D-01 0.105D+01
 Gap=     0.276 Goal=   None    Shift=    0.000
 RMSDP=1.46D-08 MaxDP=8.25D-07 DE=-3.82D-11 OVMax= 5.79D-08

 Cycle  13  Pass 1  IDiag  1:
 E= -5379.32779519583     Delta-E=        0.000000000012 Rises=F Damp=F
 DIIS: error= 1.51D-09 at cycle  13 NSaved=  13.
 NSaved=13 IEnMin=12 EnMin= -5379.32779519584     IErMin=13 ErrMin= 1.51D-09
 ErrMax= 1.51D-09  0.00D+00 EMaxC= 1.00D-01 BMatC= 5.55D-16 BMatP= 3.78D-15
 IDIUse=1 WtCom= 1.00D+00 WtEn= 0.00D+00
 Coeff-Com: -0.356D-08 0.100D-07-0.367D-07-0.708D-06-0.481D-05-0.296D-04
 Coeff-Com: -0.651D-04 0.603D-03 0.169D-02-0.410D-02-0.699D-01 0.235D+00
 Coeff-Com:  0.837D+00
 Coeff:     -0.356D-08 0.100D-07-0.367D-07-0.708D-06-0.481D-05-0.296D-04
 Coeff:     -0.651D-04 0.603D-03 0.169D-02-0.410D-02-0.699D-01 0.235D+00
 Coeff:      0.837D+00
 Gap=     0.276 Goal=   None    Shift=    0.000
 RMSDP=2.07D-09 MaxDP=1.05D-07 DE= 1.18D-11 OVMax= 1.39D-08

 Error on total polarization charges =  0.01045
 SCF Done:  E(RM062X) =  -5379.32779520     A.U. after   13 cycles
            NFock= 13  Conv=0.21D-08     -V/T= 2.0014
 KE= 5.371991507215D+03 PE=-1.432887312195D+04 EE= 2.834164529784D+03
 SMD-CDS (non-electrostatic) energy       (kcal/mol) =       1.41
 (included in total energy above)
 Leave Link  502 at Mon Sep 28 13:11:33 2026, MaxMem=  1610612736 cpu:             240.4 elap:              35.2
 (Enter /share/software/user/restricted/gaussian/g16.B01/l508.exe)
 QCSCF skips out because SCF is already converged.
 Leave Link  508 at Mon Sep 28 13:11:33 2026, MaxMem=  1610612736 cpu:               0.1 elap:               0.0
 (Enter /share/software/user/restricted/gaussian/g16.B01/l601.exe)
 Copying SCF densities to generalized density rwf, IOpCl= 0 IROHF=0.

 **********************************************************************

            Population analysis using the SCF Density.

 **********************************************************************

 Alpha  occ. eigenvalues -- -485.34027-485.34027 -63.33203 -63.33203 -57.15954
 Alpha  occ. eigenvalues --  -57.15954 -57.15694 -57.15694 -57.15687 -57.15687
 Alpha  occ. eigenvalues --  -10.61783 -10.61781 -10.57717 -10.57712 -10.57656
 Alpha  occ. eigenvalues --  -10.57656  -9.01897  -9.01897  -6.84691  -6.84691
 Alpha  occ. eigenvalues --   -6.83663  -6.83663  -6.83644  -6.83644  -2.87841
 Alpha  occ. eigenvalues --   -2.87841  -2.87490  -2.87490  -2.87472  -2.87471
 Alpha  occ. eigenvalues --   -2.86558  -2.86558  -2.86558  -2.86558  -0.99663
 Alpha  occ. eigenvalues --   -0.92728  -0.86982  -0.86291  -0.80613  -0.72739
 Alpha  occ. eigenvalues --   -0.67265  -0.58681  -0.55088  -0.55076  -0.51141
 Alpha  occ. eigenvalues --   -0.48285  -0.47193  -0.44456  -0.40741  -0.40696
 Alpha  occ. eigenvalues --   -0.35946  -0.35540  -0.35262  -0.32155  -0.30130
 Alpha virt. eigenvalues --   -0.02550  -0.00029   0.00261   0.00949   0.01543
 Alpha virt. eigenvalues --    0.01696   0.02512   0.03582   0.04956   0.05051
 Alpha virt. eigenvalues --    0.05196   0.05317   0.06679   0.06906   0.07782
 Alpha virt. eigenvalues --    0.08525   0.09682   0.10377   0.11993   0.12664
 Alpha virt. eigenvalues --    0.12700   0.13694   0.13828   0.14356   0.14739
 Alpha virt. eigenvalues --    0.14928   0.15872   0.16106   0.16384   0.16640
 Alpha virt. eigenvalues --    0.17177   0.19233   0.19973   0.20440   0.21031
 Alpha virt. eigenvalues --    0.21871   0.23657   0.23811   0.24388   0.24688
 Alpha virt. eigenvalues --    0.26703   0.27707   0.28236   0.30201   0.31615
 Alpha virt. eigenvalues --    0.33359   0.34108   0.35029   0.37303   0.43524
 Alpha virt. eigenvalues --    0.44168   0.44399   0.44929   0.46672   0.47361
 Alpha virt. eigenvalues --    0.51448   0.51984   0.53992   0.55639   0.56156
 Alpha virt. eigenvalues --    0.57901   0.59628   0.59693   0.60517   0.62137
 Alpha virt. eigenvalues --    0.63230   0.63421   0.64037   0.64513   0.66879
 Alpha virt. eigenvalues --    0.68713   0.69528   0.73104   0.74822   0.74885
 Alpha virt. eigenvalues --    0.75133   0.75451   0.76323   0.76868   0.78529
 Alpha virt. eigenvalues --    0.82230   0.84793   0.85658   0.89069   0.89366
 Alpha virt. eigenvalues --    0.89464   0.90096   0.92635   0.94323   0.95066
 Alpha virt. eigenvalues --    0.97199   0.97835   1.03501   1.05718   1.06654
 Alpha virt. eigenvalues --    1.11064   1.11856   1.14017   1.19493   1.27792
 Alpha virt. eigenvalues --    1.29917   1.30285   1.35967   1.43354   1.50994
 Alpha virt. eigenvalues --    1.54799   1.54973   1.62691   1.70957   1.77496
 Alpha virt. eigenvalues --    1.79426   1.79773   1.82317   1.83119   1.92033
 Alpha virt. eigenvalues --    1.95958   1.99419   2.00480   2.02124   2.04371
 Alpha virt. eigenvalues --    2.04546   2.06294   2.12031   2.13847   2.20024
 Alpha virt. eigenvalues --    2.24930   2.27474   2.29678   2.29726   2.33501
 Alpha virt. eigenvalues --    2.34821   2.45817   2.48997   2.60149   2.68176
 Alpha virt. eigenvalues --    2.69696   2.80113   2.81435   2.89657   2.91558
 Alpha virt. eigenvalues --    2.92248   2.98225   3.08913   3.13543   3.19067
 Alpha virt. eigenvalues --    3.26822   3.32008   3.33664   3.43949   3.51620
 Alpha virt. eigenvalues --    3.67589   3.67592   3.97634   3.99945   4.28347
 Alpha virt. eigenvalues --    4.28490   4.31255   4.33082   4.35780   4.36482
 Alpha virt. eigenvalues --    4.48135   4.52164   4.68040   4.69495   4.69736
 Alpha virt. eigenvalues --    6.85054   6.91335   7.63598   7.64134   7.72903
 Alpha virt. eigenvalues --    7.75760   7.78378   7.79835  23.34023  23.77525
 Alpha virt. eigenvalues --   23.94841  23.98615  24.11324  24.14231  48.37955
 Alpha virt. eigenvalues --   48.43128 290.78135 290.78693 290.88173 290.91263
 Alpha virt. eigenvalues --  290.96796 290.982041020.940701021.00557
          Condensed to atoms (all electrons):
               1          2          3          4          5          6
     1  C    9.990846  -3.262475   2.792134  -3.074102   2.792305  -3.262782
     2  C   -3.262475  10.414144  -2.993490   2.792305  -2.953381   1.941259
     3  C    2.792134  -2.993490  10.415178  -3.262782   1.941259  -2.954325
     4  C   -3.074102   2.792305  -3.262782   9.990846  -3.262475   2.792134
     5  C    2.792305  -2.953381   1.941259  -3.262475  10.414144  -2.993490
     6  C   -3.262782   1.941259  -2.954325   2.792134  -2.993490  10.415178
     7  Br   0.038500  -0.068299   0.141387  -0.034300   0.141371  -0.068441
     8  H   -0.049653   0.332925  -0.056598   0.043901  -0.055927   0.072403
     9  H    0.043863  -0.056553   0.332800  -0.049591   0.072409  -0.055941
    10  Br  -0.034300   0.141371  -0.068441   0.038500  -0.068299   0.141387
    11  H    0.043901  -0.055927   0.072403  -0.049653   0.332925  -0.056598
    12  H   -0.049591   0.072409  -0.055941   0.043863  -0.056553   0.332800
               7          8          9         10         11         12
     1  C    0.038500  -0.049653   0.043863  -0.034300   0.043901  -0.049591
     2  C   -0.068299   0.332925  -0.056553   0.141371  -0.055927   0.072409
     3  C    0.141387  -0.056598   0.332800  -0.068441   0.072403  -0.055941
     4  C   -0.034300   0.043901  -0.049591   0.038500  -0.049653   0.043863
     5  C    0.141371  -0.055927   0.072409  -0.068299   0.332925  -0.056553
     6  C   -0.068441   0.072403  -0.055941   0.141387  -0.056598   0.332800
     7  Br  35.151777  -0.034147   0.005334  -0.003287   0.005334  -0.034137
     8  H   -0.034147   0.342403  -0.008890   0.005334  -0.000125  -0.000292
     9  H    0.005334  -0.008890   0.342180  -0.034137  -0.000292  -0.000127
    10  Br  -0.003287   0.005334  -0.034137  35.151777  -0.034147   0.005334
    11  H    0.005334  -0.000125  -0.000292  -0.034147   0.342403  -0.008890
    12  H   -0.034137  -0.000292  -0.000127   0.005334  -0.008890   0.342180
 Mulliken charges:
               1
     1  C    0.031353
     2  C   -0.304287
     3  C   -0.303584
     4  C    0.031353
     5  C   -0.304287
     6  C   -0.303584
     7  Br  -0.241093
     8  H    0.408665
     9  H    0.408945
    10  Br  -0.241093
    11  H    0.408665
    12  H    0.408945
 Sum of Mulliken charges =  -0.00000
 Mulliken charges with hydrogens summed into heavy atoms:
               1
     1  C    0.031353
     2  C    0.104379
     3  C    0.105361
     4  C    0.031353
     5  C    0.104379
     6  C    0.105361
     7  Br  -0.241093
    10  Br  -0.241093
 Electronic spatial extent (au):  <R**2>=           3245.1112
 Charge=             -0.0000 electrons
 Dipole moment (field-independent basis, Debye):
    X=             -0.0001    Y=              0.0000    Z=              0.0000  Tot=              0.0001
 Quadrupole moment (field-independent basis, Debye-Ang):
   XX=            -76.0960   YY=            -62.6371   ZZ=            -80.3736
   XY=             -0.0000   XZ=              0.0000   YZ=              0.2495
 Traceless Quadrupole moment (field-independent basis, Debye-Ang):
   XX=             -3.0605   YY=             10.3985   ZZ=             -7.3380
   XY=             -0.0000   XZ=              0.0000   YZ=              0.2495
 Octapole moment (field-independent basis, Debye-Ang**2):
  XXX=             -0.0000  YYY=             -0.0000  ZZZ=              0.0000  XYY=             -0.0891
  XXY=             -0.0000  XXZ=              0.0000  XZZ=              0.0863  YZZ=             -0.0000
  YYZ=              0.0000  XYZ=              3.1443
 Hexadecapole moment (field-independent basis, Debye-Ang**3):
 XXXX=            -94.8388 YYYY=           -286.8962 ZZZZ=          -2705.7383 XXXY=              0.0000
 XXXZ=             -0.0000 YYYX=              0.0000 YYYZ=             17.5934 ZZZX=             -0.0000
 ZZZY=             16.7033 XXYY=            -77.9964 XXZZ=           -490.8262 YYZZ=           -509.1563
 XXYZ=              5.8573 YYXZ=             -0.0000 ZZXY=              0.0000
 N-N= 7.433892897541D+02 E-N=-1.432887312138D+04  KE= 5.371991507215D+03
 There are a total of      293856 grid points.
 ElSum from          density=      110.0000029000
 ElSum from atomic densities=      109.9999689323

 Hirshfeld populations at iteration   1 (CX, CA, CB, DipXYZ):
               1          2          3          4          5          6
     1  C    0.000001   3.001193   3.001193   0.000001  -0.000876   0.061435
     2  C    0.000000   3.017301   3.017301   0.018245   0.077348   0.003019
     3  C    0.000000   3.017300   3.017300  -0.018215   0.077402  -0.000836
     4  C    0.000001   3.001193   3.001193   0.000001   0.000876  -0.061435
     5  C    0.000000   3.017301   3.017301   0.018245  -0.077348  -0.003019
     6  C    0.000000   3.017300   3.017300  -0.018215  -0.077402   0.000836
     7  Br   0.000035  17.534618  17.534618  -0.000042   0.001147  -0.083654
     8  H    0.000007   0.464803   0.464803   0.031270   0.155837   0.064414
     9  H    0.000007   0.464786   0.464786  -0.031259   0.157620  -0.059989
    10  Br   0.000035  17.534618  17.534618  -0.000042  -0.001147   0.083654
    11  H    0.000007   0.464803   0.464803   0.031270  -0.155837  -0.064414
    12  H    0.000007   0.464786   0.464786  -0.031259  -0.157620   0.059989
       Tot   0.000102  55.000001  55.000001  -0.000001   0.000000  -0.000000

 Dip from Atomic Chgs             -0.000031   0.000000   0.000000
         Total Dipole             -0.000032   0.000000   0.000000

 Hirshfeld charges, spin densities, dipoles, and CM5 charges using IRadAn=      5:
              Q-H        S-H        Dx         Dy         Dz        Q-CM5   
     1  C   -0.002386   0.000000   0.000001  -0.000876   0.061435  -0.021934
     2  C   -0.034601   0.000000   0.018245   0.077348   0.003019  -0.087667
     3  C   -0.034601   0.000000  -0.018215   0.077402  -0.000836  -0.087666
     4  C   -0.002386   0.000000   0.000001   0.000876  -0.061435  -0.021934
     5  C   -0.034601   0.000000   0.018245  -0.077348  -0.003019  -0.087667
     6  C   -0.034601   0.000000  -0.018215  -0.077402   0.000836  -0.087666
     7  Br  -0.069235   0.000000  -0.000042   0.001147  -0.083654  -0.056030
     8  H    0.070394   0.000000   0.031270   0.155837   0.064414   0.126631
     9  H    0.070428   0.000000  -0.031259   0.157620  -0.059989   0.126665
    10  Br  -0.069235   0.000000  -0.000042  -0.001147   0.083654  -0.056030
    11  H    0.070394   0.000000   0.031270  -0.155837  -0.064414   0.126631
    12  H    0.070428   0.000000  -0.031259  -0.157620   0.059989   0.126665
       Tot  -0.000003   0.000000  -0.000001   0.000000  -0.000000  -0.000003
 Hirshfeld charges with hydrogens summed into heavy atoms:
              Q-H       Q-CM5   
     1  C   -0.002386  -0.021934
     2  C    0.035793   0.038964
     3  C    0.035827   0.038998
     4  C   -0.002386  -0.021934
     5  C    0.035793   0.038964
     6  C    0.035827   0.038998
     7  Br  -0.069235  -0.056030
    10  Br  -0.069235  -0.056030
 
 EQQ=  0.00000000000     EQD=  0.00000000000     EDD= 0.671560917563E-02
 EQQ+QD+DD= 0.671560917563E-02
 
 No NMR shielding tensors so no spin-rotation constants.
 Leave Link  601 at Mon Sep 28 13:11:34 2026, MaxMem=  1610612736 cpu:               5.4 elap:               0.8
 (Enter /share/software/user/restricted/gaussian/g16.B01/l607.exe)
 ******************************Gaussian NBO Version 3.1******************************
             N A T U R A L   A T O M I C   O R B I T A L   A N D
          N A T U R A L   B O N D   O R B I T A L   A N A L Y S I S
 ******************************Gaussian NBO Version 3.1******************************

       /RESON  / : Allow strongly delocalized NBO set
       /BNDIDX / : Print bond indices based on the NAO density matrix

 Analyzing the SCF density

 Job title: BrBz_14_RA__vN sp_m062x_smd                                     

 Storage needed:    179908 in NPA,    239068 in NBO (1610611920 available)
 GSVD:  LWork=       20344 too small for GESVD, short by       56798 words or       56798 for optimal perf.


 NATURAL POPULATIONS:  Natural atomic orbital occupancies 
                                                          
   NAO  Atom  No  lang   Type(AO)    Occupancy      Energy
 ----------------------------------------------------------
     1    C    1  S      Cor( 1S)     1.99862     -10.48042
     2    C    1  S      Val( 2S)     0.95403      -0.25836
     3    C    1  S      Ryd( 4S)     0.00164       0.89532
     4    C    1  S      Ryd( 3S)     0.00012       0.43963
     5    C    1  S      Ryd( 5S)     0.00001      23.38797
     6    C    1  px     Val( 2p)     1.08504      -0.16789
     7    C    1  px     Ryd( 4p)     0.00125       0.62584
     8    C    1  px     Ryd( 3p)     0.00037       0.48763
     9    C    1  px     Ryd( 5p)     0.00001       2.51928
    10    C    1  py     Val( 2p)     1.09516      -0.10915
    11    C    1  py     Ryd( 4p)     0.00768       0.75124
    12    C    1  py     Ryd( 3p)     0.00019       0.58371
    13    C    1  py     Ryd( 5p)     0.00007       3.17721
    14    C    1  pz     Val( 2p)     0.96206      -0.18734
    15    C    1  pz     Ryd( 3p)     0.00720       0.93598
    16    C    1  pz     Ryd( 4p)     0.00015       1.08461
    17    C    1  pz     Ryd( 5p)     0.00025       2.89620
    18    C    1  dxy    Ryd( 3d)     0.00073       1.70122
    19    C    1  dxz    Ryd( 3d)     0.00106       1.51264
    20    C    1  dyz    Ryd( 3d)     0.00086       2.38933
    21    C    1  dx2y2  Ryd( 3d)     0.00047       2.15484
    22    C    1  dz2    Ryd( 3d)     0.00142       1.97085
 
    23    C    2  S      Cor( 1S)     1.99900     -10.42570
    24    C    2  S      Val( 2S)     0.96513      -0.21240
    25    C    2  S      Ryd( 3S)     0.00179       0.83339
    26    C    2  S      Ryd( 4S)     0.00018       0.86912
    27    C    2  S      Ryd( 5S)     0.00000      23.01206
    28    C    2  px     Val( 2p)     0.98061      -0.13346
    29    C    2  px     Ryd( 4p)     0.00127       0.56028
    30    C    2  px     Ryd( 3p)     0.00035       0.28359
    31    C    2  px     Ryd( 5p)     0.00001       2.74350
    32    C    2  py     Val( 2p)     1.16894      -0.10617
    33    C    2  py     Ryd( 4p)     0.00570       0.92190
    34    C    2  py     Ryd( 3p)     0.00018       0.36528
    35    C    2  py     Ryd( 5p)     0.00007       3.15964
    36    C    2  pz     Val( 2p)     1.07797      -0.08566
    37    C    2  pz     Ryd( 4p)     0.00688       0.84396
    38    C    2  pz     Ryd( 3p)     0.00026       0.37109
    39    C    2  pz     Ryd( 5p)     0.00012       3.15125
    40    C    2  dxy    Ryd( 3d)     0.00060       1.59791
    41    C    2  dxz    Ryd( 3d)     0.00050       1.64175
    42    C    2  dyz    Ryd( 3d)     0.00089       2.23491
    43    C    2  dx2y2  Ryd( 3d)     0.00054       2.03432
    44    C    2  dz2    Ryd( 3d)     0.00050       2.27315
 
    45    C    3  S      Cor( 1S)     1.99900     -10.42569
    46    C    3  S      Val( 2S)     0.96514      -0.21240
    47    C    3  S      Ryd( 3S)     0.00179       0.83341
    48    C    3  S      Ryd( 4S)     0.00018       0.86902
    49    C    3  S      Ryd( 5S)     0.00000      23.01216
    50    C    3  px     Val( 2p)     0.98060      -0.13345
    51    C    3  px     Ryd( 4p)     0.00127       0.56028
    52    C    3  px     Ryd( 3p)     0.00035       0.28358
    53    C    3  px     Ryd( 5p)     0.00001       2.74350
    54    C    3  py     Val( 2p)     1.17229      -0.10619
    55    C    3  py     Ryd( 4p)     0.00577       0.92924
    56    C    3  py     Ryd( 3p)     0.00018       0.36506
    57    C    3  py     Ryd( 5p)     0.00007       3.15822
    58    C    3  pz     Val( 2p)     1.07465      -0.08563
    59    C    3  pz     Ryd( 4p)     0.00681       0.83667
    60    C    3  pz     Ryd( 3p)     0.00026       0.37130
    61    C    3  pz     Ryd( 5p)     0.00012       3.15266
    62    C    3  dxy    Ryd( 3d)     0.00060       1.59396
    63    C    3  dxz    Ryd( 3d)     0.00050       1.64570
    64    C    3  dyz    Ryd( 3d)     0.00088       2.24648
    65    C    3  dx2y2  Ryd( 3d)     0.00055       2.02534
    66    C    3  dz2    Ryd( 3d)     0.00050       2.27059
 
    67    C    4  S      Cor( 1S)     1.99862     -10.48042
    68    C    4  S      Val( 2S)     0.95403      -0.25836
    69    C    4  S      Ryd( 4S)     0.00164       0.89532
    70    C    4  S      Ryd( 3S)     0.00012       0.43963
    71    C    4  S      Ryd( 5S)     0.00001      23.38797
    72    C    4  px     Val( 2p)     1.08504      -0.16789
    73    C    4  px     Ryd( 4p)     0.00125       0.62584
    74    C    4  px     Ryd( 3p)     0.00037       0.48763
    75    C    4  px     Ryd( 5p)     0.00001       2.51928
    76    C    4  py     Val( 2p)     1.09516      -0.10915
    77    C    4  py     Ryd( 4p)     0.00768       0.75124
    78    C    4  py     Ryd( 3p)     0.00019       0.58371
    79    C    4  py     Ryd( 5p)     0.00007       3.17721
    80    C    4  pz     Val( 2p)     0.96206      -0.18734
    81    C    4  pz     Ryd( 3p)     0.00720       0.93598
    82    C    4  pz     Ryd( 4p)     0.00015       1.08461
    83    C    4  pz     Ryd( 5p)     0.00025       2.89620
    84    C    4  dxy    Ryd( 3d)     0.00073       1.70122
    85    C    4  dxz    Ryd( 3d)     0.00106       1.51264
    86    C    4  dyz    Ryd( 3d)     0.00086       2.38933
    87    C    4  dx2y2  Ryd( 3d)     0.00047       2.15484
    88    C    4  dz2    Ryd( 3d)     0.00142       1.97085
 
    89    C    5  S      Cor( 1S)     1.99900     -10.42570
    90    C    5  S      Val( 2S)     0.96513      -0.21240
    91    C    5  S      Ryd( 3S)     0.00179       0.83339
    92    C    5  S      Ryd( 4S)     0.00018       0.86912
    93    C    5  S      Ryd( 5S)     0.00000      23.01206
    94    C    5  px     Val( 2p)     0.98061      -0.13346
    95    C    5  px     Ryd( 4p)     0.00127       0.56028
    96    C    5  px     Ryd( 3p)     0.00035       0.28359
    97    C    5  px     Ryd( 5p)     0.00001       2.74350
    98    C    5  py     Val( 2p)     1.16894      -0.10617
    99    C    5  py     Ryd( 4p)     0.00570       0.92190
   100    C    5  py     Ryd( 3p)     0.00018       0.36528
   101    C    5  py     Ryd( 5p)     0.00007       3.15964
   102    C    5  pz     Val( 2p)     1.07797      -0.08566
   103    C    5  pz     Ryd( 4p)     0.00688       0.84396
   104    C    5  pz     Ryd( 3p)     0.00026       0.37109
   105    C    5  pz     Ryd( 5p)     0.00012       3.15125
   106    C    5  dxy    Ryd( 3d)     0.00060       1.59791
   107    C    5  dxz    Ryd( 3d)     0.00050       1.64175
   108    C    5  dyz    Ryd( 3d)     0.00089       2.23491
   109    C    5  dx2y2  Ryd( 3d)     0.00054       2.03432
   110    C    5  dz2    Ryd( 3d)     0.00050       2.27315
 
   111    C    6  S      Cor( 1S)     1.99900     -10.42569
   112    C    6  S      Val( 2S)     0.96514      -0.21240
   113    C    6  S      Ryd( 3S)     0.00179       0.83341
   114    C    6  S      Ryd( 4S)     0.00018       0.86902
   115    C    6  S      Ryd( 5S)     0.00000      23.01216
   116    C    6  px     Val( 2p)     0.98060      -0.13345
   117    C    6  px     Ryd( 4p)     0.00127       0.56028
   118    C    6  px     Ryd( 3p)     0.00035       0.28358
   119    C    6  px     Ryd( 5p)     0.00001       2.74350
   120    C    6  py     Val( 2p)     1.17229      -0.10619
   121    C    6  py     Ryd( 4p)     0.00577       0.92924
   122    C    6  py     Ryd( 3p)     0.00018       0.36506
   123    C    6  py     Ryd( 5p)     0.00007       3.15822
   124    C    6  pz     Val( 2p)     1.07465      -0.08563
   125    C    6  pz     Ryd( 4p)     0.00681       0.83667
   126    C    6  pz     Ryd( 3p)     0.00026       0.37130
   127    C    6  pz     Ryd( 5p)     0.00012       3.15266
   128    C    6  dxy    Ryd( 3d)     0.00060       1.59396
   129    C    6  dxz    Ryd( 3d)     0.00050       1.64570
   130    C    6  dyz    Ryd( 3d)     0.00088       2.24648
   131    C    6  dx2y2  Ryd( 3d)     0.00055       2.02534
   132    C    6  dz2    Ryd( 3d)     0.00050       2.27059
 
   133   Br    7  S      Cor( 1S)     2.00000    -482.68136
   134   Br    7  S      Cor( 2S)     2.00000     -62.62647
   135   Br    7  S      Cor( 3S)     1.99979     -12.00591
   136   Br    7  S      Val( 4S)     1.86394      -1.10872
   137   Br    7  S      Ryd( 6S)     0.00297       0.78707
   138   Br    7  S      Ryd( 5S)     0.00016       0.26793
   139   Br    7  S      Ryd( 7S)     0.00000      15.64628
   140   Br    7  S      Ryd( 8S)     0.00000      72.92878
   141   Br    7  S      Ryd( 9S)     0.00000     986.94034
   142   Br    7  px     Cor( 2p)     2.00000     -56.91097
   143   Br    7  px     Cor( 3p)     1.99999      -7.07508
   144   Br    7  px     Val( 4p)     1.94995      -0.35721
   145   Br    7  px     Ryd( 5p)     0.00164       0.41682
   146   Br    7  px     Ryd( 6p)     0.00004       0.54143
   147   Br    7  px     Ryd( 7p)     0.00000       3.14586
   148   Br    7  px     Ryd( 8p)     0.00000      11.58704
   149   Br    7  px     Ryd( 9p)     0.00000     285.25554
   150   Br    7  py     Cor( 2p)     2.00000     -56.91092
   151   Br    7  py     Cor( 3p)     1.99999      -7.07496
   152   Br    7  py     Val( 4p)     1.97753      -0.35957
   153   Br    7  py     Ryd( 5p)     0.00143       0.42381
   154   Br    7  py     Ryd( 6p)     0.00003       0.59198
   155   Br    7  py     Ryd( 7p)     0.00001       3.28690
   156   Br    7  py     Ryd( 8p)     0.00000      11.55297
   157   Br    7  py     Ryd( 9p)     0.00000     285.26036
   158   Br    7  pz     Cor( 2p)     2.00000     -56.91332
   159   Br    7  pz     Cor( 3p)     1.99987      -7.08222
   160   Br    7  pz     Val( 4p)     1.15680      -0.26568
   161   Br    7  pz     Ryd( 5p)     0.00463       0.39127
   162   Br    7  pz     Ryd( 6p)     0.00004       0.48662
   163   Br    7  pz     Ryd( 7p)     0.00002       3.71209
   164   Br    7  pz     Ryd( 8p)     0.00000      11.44164
   165   Br    7  pz     Ryd( 9p)     0.00000     285.26363
   166   Br    7  dxy    Cor( 3d)     2.00000      -2.86558
   167   Br    7  dxy    Ryd( 4d)     0.00005       0.73465
   168   Br    7  dxy    Ryd( 5d)     0.00000       4.22913
   169   Br    7  dxz    Cor( 3d)     1.99995      -2.87474
   170   Br    7  dxz    Ryd( 4d)     0.00191       0.80341
   171   Br    7  dxz    Ryd( 5d)     0.00002       4.31771
   172   Br    7  dyz    Cor( 3d)     1.99996      -2.87460
   173   Br    7  dyz    Ryd( 4d)     0.00069       1.03264
   174   Br    7  dyz    Ryd( 5d)     0.00001       4.47507
   175   Br    7  dx2y2  Cor( 3d)     2.00000      -2.86558
   176   Br    7  dx2y2  Ryd( 4d)     0.00006       0.76592
   177   Br    7  dx2y2  Ryd( 5d)     0.00000       4.26005
   178   Br    7  dz2    Cor( 3d)     1.99978      -2.87787
   179   Br    7  dz2    Ryd( 4d)     0.00355       1.19466
   180   Br    7  dz2    Ryd( 5d)     0.00002       4.63297
 
   181    H    8  S      Val( 1S)     0.74608       0.07796
   182    H    8  S      Ryd( 3S)     0.00056       1.06875
   183    H    8  S      Ryd( 4S)     0.00019       1.72922
   184    H    8  S      Ryd( 2S)     0.00008       0.19273
 
   185    H    9  S      Val( 1S)     0.74602       0.07802
   186    H    9  S      Ryd( 3S)     0.00056       1.06909
   187    H    9  S      Ryd( 4S)     0.00019       1.72894
   188    H    9  S      Ryd( 2S)     0.00008       0.19269
 
   189   Br   10  S      Cor( 1S)     2.00000    -482.68137
   190   Br   10  S      Cor( 2S)     2.00000     -62.62647
   191   Br   10  S      Cor( 3S)     1.99979     -12.00591
   192   Br   10  S      Val( 4S)     1.86394      -1.10872
   193   Br   10  S      Ryd( 6S)     0.00297       0.78707
   194   Br   10  S      Ryd( 5S)     0.00016       0.26793
   195   Br   10  S      Ryd( 7S)     0.00000      15.64628
   196   Br   10  S      Ryd( 8S)     0.00000      72.92880
   197   Br   10  S      Ryd( 9S)     0.00000     986.94032
   198   Br   10  px     Cor( 2p)     2.00000     -56.91097
   199   Br   10  px     Cor( 3p)     1.99999      -7.07508
   200   Br   10  px     Val( 4p)     1.94995      -0.35721
   201   Br   10  px     Ryd( 5p)     0.00164       0.41682
   202   Br   10  px     Ryd( 6p)     0.00004       0.54143
   203   Br   10  px     Ryd( 7p)     0.00000       3.14586
   204   Br   10  px     Ryd( 8p)     0.00000      11.58704
   205   Br   10  px     Ryd( 9p)     0.00000     285.25554
   206   Br   10  py     Cor( 2p)     2.00000     -56.91092
   207   Br   10  py     Cor( 3p)     1.99999      -7.07496
   208   Br   10  py     Val( 4p)     1.97753      -0.35957
   209   Br   10  py     Ryd( 5p)     0.00143       0.42381
   210   Br   10  py     Ryd( 6p)     0.00003       0.59198
   211   Br   10  py     Ryd( 7p)     0.00001       3.28690
   212   Br   10  py     Ryd( 8p)     0.00000      11.55297
   213   Br   10  py     Ryd( 9p)     0.00000     285.26036
   214   Br   10  pz     Cor( 2p)     2.00000     -56.91332
   215   Br   10  pz     Cor( 3p)     1.99987      -7.08222
   216   Br   10  pz     Val( 4p)     1.15680      -0.26568
   217   Br   10  pz     Ryd( 5p)     0.00463       0.39127
   218   Br   10  pz     Ryd( 6p)     0.00004       0.48662
   219   Br   10  pz     Ryd( 7p)     0.00002       3.71209
   220   Br   10  pz     Ryd( 8p)     0.00000      11.44164
   221   Br   10  pz     Ryd( 9p)     0.00000     285.26363
   222   Br   10  dxy    Cor( 3d)     2.00000      -2.86558
   223   Br   10  dxy    Ryd( 4d)     0.00005       0.73465
   224   Br   10  dxy    Ryd( 5d)     0.00000       4.22913
   225   Br   10  dxz    Cor( 3d)     1.99995      -2.87474
   226   Br   10  dxz    Ryd( 4d)     0.00191       0.80341
   227   Br   10  dxz    Ryd( 5d)     0.00002       4.31771
   228   Br   10  dyz    Cor( 3d)     1.99996      -2.87460
   229   Br   10  dyz    Ryd( 4d)     0.00069       1.03264
   230   Br   10  dyz    Ryd( 5d)     0.00001       4.47507
   231   Br   10  dx2y2  Cor( 3d)     2.00000      -2.86558
   232   Br   10  dx2y2  Ryd( 4d)     0.00006       0.76592
   233   Br   10  dx2y2  Ryd( 5d)     0.00000       4.26005
   234   Br   10  dz2    Cor( 3d)     1.99978      -2.87787
   235   Br   10  dz2    Ryd( 4d)     0.00355       1.19466
   236   Br   10  dz2    Ryd( 5d)     0.00002       4.63297
 
   237    H   11  S      Val( 1S)     0.74608       0.07796
   238    H   11  S      Ryd( 3S)     0.00056       1.06875
   239    H   11  S      Ryd( 4S)     0.00019       1.72922
   240    H   11  S      Ryd( 2S)     0.00008       0.19273
 
   241    H   12  S      Val( 1S)     0.74602       0.07802
   242    H   12  S      Ryd( 3S)     0.00056       1.06909
   243    H   12  S      Ryd( 4S)     0.00019       1.72894
   244    H   12  S      Ryd( 2S)     0.00008       0.19269

 WARNING:  1 low occupancy (<1.9990e) core orbital  found on  C    1
           1 low occupancy (<1.9990e) core orbital  found on  C    2
           1 low occupancy (<1.9990e) core orbital  found on  C    3
           1 low occupancy (<1.9990e) core orbital  found on  C    4
           1 low occupancy (<1.9990e) core orbital  found on  C    5
           1 low occupancy (<1.9990e) core orbital  found on  C    6

 WARNING:  Population inversion found on atom  C    1
           Population inversion found on atom  C    2
           Population inversion found on atom  C    3
           Population inversion found on atom  C    4
           Population inversion found on atom  C    5
           Population inversion found on atom  C    6
           Population inversion found on atom Br    7
           Population inversion found on atom  H    8
           Population inversion found on atom  H    9
           Population inversion found on atom Br   10
           Population inversion found on atom  H   11
           Population inversion found on atom  H   12


 Summary of Natural Population Analysis:                  
                                                          
                                       Natural Population 
                Natural  -----------------------------------------------
    Atom  No    Charge         Core      Valence    Rydberg      Total
 -----------------------------------------------------------------------
      C    1   -0.11838      1.99862     4.09629    0.02346     6.11838
      C    2   -0.21150      1.99900     4.19266    0.01985     6.21150
      C    3   -0.21153      1.99900     4.19268    0.01985     6.21153
      C    4   -0.11838      1.99862     4.09629    0.02346     6.11838
      C    5   -0.21150      1.99900     4.19266    0.01985     6.21150
      C    6   -0.21153      1.99900     4.19268    0.01985     6.21153
     Br    7    0.03516     27.99934     6.94822    0.01729    34.96484
      H    8    0.25309      0.00000     0.74608    0.00083     0.74691
      H    9    0.25315      0.00000     0.74602    0.00083     0.74685
     Br   10    0.03516     27.99934     6.94822    0.01729    34.96484
      H   11    0.25309      0.00000     0.74608    0.00083     0.74691
      H   12    0.25315      0.00000     0.74602    0.00083     0.74685
 =======================================================================
   * Total *   -0.00000     67.99191    41.84391    0.16419   110.00000

                                 Natural Population      
 --------------------------------------------------------
   Core                      67.99191 ( 99.9881% of  68)
   Valence                   41.84391 ( 99.6283% of  42)
   Natural Minimal Basis    109.83581 ( 99.8507% of 110)
   Natural Rydberg Basis      0.16419 (  0.1493% of 110)
 --------------------------------------------------------

    Atom  No          Natural Electron Configuration
 ----------------------------------------------------------------------------
      C    1      [core]2S( 0.95)2p( 3.14)3p( 0.01)4p( 0.01)
      C    2      [core]2S( 0.97)2p( 3.23)4p( 0.01)
      C    3      [core]2S( 0.97)2p( 3.23)4p( 0.01)
      C    4      [core]2S( 0.95)2p( 3.14)3p( 0.01)4p( 0.01)
      C    5      [core]2S( 0.97)2p( 3.23)4p( 0.01)
      C    6      [core]2S( 0.97)2p( 3.23)4p( 0.01)
     Br    7      [core]4S( 1.86)4p( 5.08)4d( 0.01)5p( 0.01)
      H    8            1S( 0.75)
      H    9            1S( 0.75)
     Br   10      [core]4S( 1.86)4p( 5.08)4d( 0.01)5p( 0.01)
      H   11            1S( 0.75)
      H   12            1S( 0.75)


 Wiberg bond index matrix in the NAO basis:                                    

     Atom    1       2       3       4       5       6       7       8       9
     ---- ------  ------  ------  ------  ------  ------  ------  ------  ------
   1.  C  0.0000  1.4325  0.0146  0.0776  0.0146  1.4325  1.0151  0.0039  0.0055
   2.  C  1.4325  0.0000  1.3843  0.0146  0.1240  0.0160  0.0376  0.9069  0.0030
   3.  C  0.0146  1.3843  0.0000  1.4325  0.0160  0.1240  0.0211  0.0030  0.9069
   4.  C  0.0776  0.0146  1.4325  0.0000  1.4325  0.0146  0.0100  0.0055  0.0039
   5.  C  0.0146  0.1240  0.0160  1.4325  0.0000  1.3843  0.0211  0.0004  0.0084
   6.  C  1.4325  0.0160  0.1240  0.0146  1.3843  0.0000  0.0376  0.0084  0.0004
   7. Br  1.0151  0.0376  0.0211  0.0100  0.0211  0.0376  0.0000  0.0052  0.0012
   8.  H  0.0039  0.9069  0.0030  0.0055  0.0004  0.0084  0.0052  0.0000  0.0021
   9.  H  0.0055  0.0030  0.9069  0.0039  0.0084  0.0004  0.0012  0.0021  0.0000
  10. Br  0.0100  0.0211  0.0376  1.0151  0.0376  0.0211  0.0028  0.0012  0.0052
  11.  H  0.0055  0.0004  0.0084  0.0039  0.9069  0.0030  0.0012  0.0002  0.0003
  12.  H  0.0039  0.0084  0.0004  0.0055  0.0030  0.9069  0.0052  0.0003  0.0002

     Atom   10      11      12
     ---- ------  ------  ------
   1.  C  0.0100  0.0055  0.0039
   2.  C  0.0211  0.0004  0.0084
   3.  C  0.0376  0.0084  0.0004
   4.  C  1.0151  0.0039  0.0055
   5.  C  0.0376  0.9069  0.0030
   6.  C  0.0211  0.0030  0.9069
   7. Br  0.0028  0.0012  0.0052
   8.  H  0.0012  0.0002  0.0003
   9.  H  0.0052  0.0003  0.0002
  10. Br  0.0000  0.0052  0.0012
  11.  H  0.0052  0.0000  0.0021
  12.  H  0.0012  0.0021  0.0000


 Wiberg bond index, Totals by atom:                                            

     Atom    1
     ---- ------
   1.  C  4.0157
   2.  C  3.9487
   3.  C  3.9487
   4.  C  4.0157
   5.  C  3.9487
   6.  C  3.9487
   7. Br  1.1580
   8.  H  0.9372
   9.  H  0.9371
  10. Br  1.1580
  11.  H  0.9372
  12.  H  0.9371


 Atom-atom overlap-weighted NAO bond order:                                    

     Atom    1       2       3       4       5       6       7       8       9
     ---- ------  ------  ------  ------  ------  ------  ------  ------  ------
   1.  C  0.0000  1.2037  0.0361 -0.0420  0.0362  1.2037  0.7741  0.0198  0.0016
   2.  C  1.2037  0.0000  1.0958  0.0362 -0.0357  0.0187 -0.0175  0.7796  0.0107
   3.  C  0.0361  1.0958  0.0000  1.2037  0.0187 -0.0357  0.0072  0.0107  0.7796
   4.  C -0.0420  0.0362  1.2037  0.0000  1.2037  0.0361  0.0010  0.0016  0.0198
   5.  C  0.0362 -0.0357  0.0187  1.2037  0.0000  1.0958  0.0072  0.0010  0.0020
   6.  C  1.2037  0.0187 -0.0357  0.0361  1.0958  0.0000 -0.0175  0.0020  0.0010
   7. Br  0.7741 -0.0175  0.0072  0.0010  0.0072 -0.0175  0.0000 -0.0019 -0.0002
   8.  H  0.0198  0.7796  0.0107  0.0016  0.0010  0.0020 -0.0019  0.0000 -0.0011
   9.  H  0.0016  0.0107  0.7796  0.0198  0.0020  0.0010 -0.0002 -0.0011  0.0000
  10. Br  0.0010  0.0072 -0.0175  0.7741 -0.0175  0.0072 -0.0002 -0.0002 -0.0019
  11.  H  0.0016  0.0010  0.0020  0.0198  0.7796  0.0107 -0.0002 -0.0002  0.0004
  12.  H  0.0198  0.0020  0.0010  0.0016  0.0107  0.7796 -0.0019  0.0004 -0.0002

     Atom   10      11      12
     ---- ------  ------  ------
   1.  C  0.0010  0.0016  0.0198
   2.  C  0.0072  0.0010  0.0020
   3.  C -0.0175  0.0020  0.0010
   4.  C  0.7741  0.0198  0.0016
   5.  C -0.0175  0.7796  0.0107
   6.  C  0.0072  0.0107  0.7796
   7. Br -0.0002 -0.0002 -0.0019
   8.  H -0.0002 -0.0002  0.0004
   9.  H -0.0019  0.0004 -0.0002
  10. Br  0.0000 -0.0019 -0.0002
  11.  H -0.0019  0.0000 -0.0011
  12.  H -0.0002 -0.0011  0.0000


 Atom-atom overlap-weighted NAO bond order, Totals by atom:                    

     Atom    1
     ---- ------
   1.  C  3.2555
   2.  C  3.1016
   3.  C  3.1016
   4.  C  3.2555
   5.  C  3.1016
   6.  C  3.1016
   7. Br  0.7501
   8.  H  0.8117
   9.  H  0.8117
  10. Br  0.7501
  11.  H  0.8117
  12.  H  0.8117


 MO bond order:                                                                

     Atom    1       2       3       4       5       6       7       8       9
     ---- ------  ------  ------  ------  ------  ------  ------  ------  ------
   1.  C  0.0000  0.7685  0.2674 -0.2081 -0.1409 -0.1430 -0.1782  0.0327  0.0930
   2.  C  0.7685  0.0000  0.2625  0.0851 -0.3054  0.2441 -0.0550  1.7553 -0.0721
   3.  C  0.2674  0.2625  0.0000  0.0897 -0.1510 -0.3932 -0.0942  0.0584  0.6978
   4.  C -0.2081  0.0851  0.0897  0.0000  1.1612 -0.0653  0.0795  0.0935  0.0853
   5.  C -0.1409 -0.3054 -0.1510  1.1612  0.0000  0.6732 -0.2406  0.0385  0.0818
   6.  C -0.1430  0.2441 -0.3932 -0.0653  0.6732  0.0000  0.1167  0.1398  0.0177
   7. Br -0.1782 -0.0550 -0.0942  0.0795 -0.2406  0.1167  0.0000  0.0299  0.0087
   8.  H  0.0327  1.7553  0.0584  0.0935  0.0385  0.1398  0.0299  0.0000 -0.0467
   9.  H  0.0930 -0.0721  0.6978  0.0853  0.0818  0.0177  0.0087 -0.0467  0.0000
  10. Br  0.0738 -0.1832 -0.1245 -0.2352  0.0779 -0.0542 -0.0520 -0.0306 -0.0723
  11.  H -0.0449  0.0122 -0.0282 -0.0154 -0.4926  0.0115  0.0421  0.0090 -0.0190
  12.  H -0.0506 -0.0113  0.0212  0.0323  0.0815  0.1074  0.0667 -0.0190  0.0090

     Atom   10      11      12
     ---- ------  ------  ------
   1.  C  0.0738 -0.0449 -0.0506
   2.  C -0.1832  0.0122 -0.0113
   3.  C -0.1245 -0.0282  0.0212
   4.  C -0.2352 -0.0154  0.0323
   5.  C  0.0779 -0.4926  0.0815
   6.  C -0.0542  0.0115  0.1074
   7. Br -0.0520  0.0421  0.0667
   8.  H -0.0306  0.0090 -0.0190
   9.  H -0.0723 -0.0190  0.0090
  10. Br  0.0000 -0.0289 -0.0280
  11.  H -0.0289  0.0000 -0.0467
  12.  H -0.0280 -0.0467  0.0000


 MO atomic valencies:                                                          

     Atom    1
     ---- ------
   1.  C  0.4697
   2.  C  2.5006
   3.  C  0.6059
   4.  C  1.1024
   5.  C  0.7834
   6.  C  0.6546
   7. Br -0.2765
   8.  H  2.0606
   9.  H  0.7831
  10. Br -0.6570
  11.  H -0.6011
  12.  H  0.1624


 NATURAL BOND ORBITAL ANALYSIS:

                       Occupancies       Lewis Structure    Low   High
           Occ.    -------------------  -----------------   occ   occ
  Cycle   Thresh.   Lewis   Non-Lewis     CR  BD  3C  LP    (L)   (NL)   Dev
 =============================================================================
   1(1)    1.90   106.71375   3.28625     34  12   0   9     3      3    0.43
   2(2)    1.90   106.71375   3.28625     34  12   0   9     3      3    0.43
   3(1)    1.80   106.71375   3.28625     34  12   0   9     3      3    0.43
   4(2)    1.80   106.71375   3.28625     34  12   0   9     3      3    0.43
   5(1)    1.70   106.71375   3.28625     34  12   0   9     3      3    0.43
   6(2)    1.70   106.71375   3.28625     34  12   0   9     3      3    0.43
   7(1)    1.60   107.92460   2.07540     34  14   0   7     1      3    0.43
   8(2)    1.60   108.57443   1.42557     34  15   0   6     0      3    0.43
   9(3)    1.60   107.92460   2.07540     34  14   0   7     1      3    0.43
  10(4)    1.60   108.57443   1.42557     34  15   0   6     0      3    0.43
  11(1)    1.50   108.57443   1.42557     34  15   0   6     0      3    0.43
  12(2)    1.50   107.92460   2.07540     34  14   0   7     1      3    0.43
  13(3)    1.50   108.57443   1.42557     34  15   0   6     0      3    0.43
  14(1)    1.60   108.57443   1.42557     34  15   0   6     0      3    0.43
 -----------------------------------------------------------------------------

 Structure accepted: RESONANCE keyword permits strongly delocalized structure

 WARNING:  1 low occupancy (<1.9990e) core orbital  found on  C    1
           1 low occupancy (<1.9990e) core orbital  found on  C    4

 --------------------------------------------------------
   Core                     67.99193 ( 99.988% of  68)
   Valence Lewis            40.58250 ( 96.625% of  42)
  ==================       ============================
   Total Lewis             108.57443 ( 98.704% of 110)
  -----------------------------------------------------
   Valence non-Lewis         1.32874 (  1.208% of 110)
   Rydberg non-Lewis         0.09683 (  0.088% of 110)
  ==================       ============================
   Total non-Lewis           1.42557 (  1.296% of 110)
 --------------------------------------------------------


       (Occupancy)   Bond orbital/ Coefficients/ Hybrids
 ---------------------------------------------------------------------------------
     1. (1.98244) BD ( 1) C   1 - C   2  
                ( 50.65%)   0.7117* C   1 s( 39.92%)p 1.50( 60.04%)d 0.00(  0.04%)
                                           -0.0000  0.6317 -0.0125  0.0012 -0.0000
                                            0.0823 -0.0025 -0.0001  0.0004  0.7060
                                           -0.0280  0.0061  0.0039 -0.3069 -0.0120
                                           -0.0039 -0.0051  0.0031 -0.0015 -0.0127
                                           -0.0141  0.0012
                ( 49.35%)   0.7025* C   2 s( 35.81%)p 1.79( 64.15%)d 0.00(  0.04%)
                                            0.0000  0.5979 -0.0232  0.0042  0.0001
                                           -0.0054 -0.0024  0.0016 -0.0001 -0.6993
                                            0.0014  0.0104 -0.0009  0.3876 -0.0465
                                           -0.0012  0.0005  0.0015  0.0004 -0.0116
                                           -0.0164 -0.0040
     2. (1.69082) BD ( 2) C   1 - C   2  
                ( 54.07%)   0.7353* C   1 s(  0.00%)p 1.00( 99.97%)d 0.00(  0.02%)
                                           -0.0005 -0.0062  0.0007 -0.0003  0.0002
                                            0.9927 -0.0025 -0.0185  0.0009 -0.1167
                                            0.0002  0.0015 -0.0000 -0.0148  0.0005
                                            0.0009  0.0004  0.0104 -0.0118 -0.0003
                                            0.0013  0.0005
                ( 45.93%)   0.6777* C   2 s(  0.01%)p 1.00( 99.92%)d 0.00(  0.07%)
                                           -0.0001 -0.0075  0.0008 -0.0013  0.0000
                                            0.9906  0.0019  0.0159 -0.0015 -0.0750
                                           -0.0023 -0.0025 -0.0009 -0.1101 -0.0015
                                           -0.0014 -0.0008 -0.0257  0.0002 -0.0003
                                           -0.0054  0.0021
     3. (1.98244) BD ( 1) C   1 - C   6  
                ( 50.65%)   0.7117* C   1 s( 39.92%)p 1.50( 60.04%)d 0.00(  0.04%)
                                           -0.0000  0.6317 -0.0125  0.0012 -0.0000
                                           -0.0828  0.0025  0.0001 -0.0004 -0.6969
                                            0.0283 -0.0060 -0.0038 -0.3268 -0.0112
                                           -0.0040 -0.0052  0.0031  0.0016  0.0130
                                           -0.0137  0.0018
                ( 49.35%)   0.7025* C   6 s( 35.81%)p 1.79( 64.15%)d 0.00(  0.04%)
                                            0.0000  0.5979 -0.0232  0.0042  0.0001
                                            0.0019  0.0023 -0.0017  0.0001  0.6882
                                           -0.0001 -0.0103  0.0009  0.4069 -0.0466
                                           -0.0015  0.0006  0.0014 -0.0003  0.0123
                                           -0.0160 -0.0034
     4. (1.98158) BD ( 1) C   1 -Br   7  
                ( 48.68%)   0.6977* C   1 s( 20.21%)p 3.94( 79.69%)d 0.01(  0.10%)
                                           -0.0002  0.4485  0.0315 -0.0034 -0.0000
                                            0.0143 -0.0000 -0.0003  0.0000 -0.0143
                                           -0.0005 -0.0001  0.0001  0.8915  0.0377
                                            0.0105 -0.0096 -0.0000 -0.0002 -0.0008
                                           -0.0010  0.0319
                ( 51.32%)   0.7164*Br   7 s( 13.88%)p 6.18( 85.78%)d 0.02(  0.34%)
                                            0.0000  0.0000  0.0002  0.3691 -0.0509
                                            0.0011  0.0000  0.0000  0.0000 -0.0000
                                            0.0000  0.0000 -0.0000  0.0000  0.0000
                                            0.0000  0.0000 -0.0000  0.0000  0.0131
                                           -0.0009  0.0000  0.0000 -0.0000 -0.0000
                                            0.0000 -0.0002 -0.9240  0.0627 -0.0019
                                            0.0000  0.0005  0.0001 -0.0000 -0.0000
                                           -0.0001 -0.0000  0.0000 -0.0000 -0.0000
                                           -0.0014 -0.0001  0.0000 -0.0001  0.0005
                                            0.0000  0.0580  0.0028
     5. (1.95803) BD ( 1) C   2 - C   3  
                ( 50.00%)   0.7071* C   2 s( 33.57%)p 1.98( 66.40%)d 0.00(  0.04%)
                                           -0.0002  0.5793 -0.0076 -0.0064  0.0001
                                           -0.0819 -0.0019  0.0022 -0.0002  0.0476
                                           -0.0457  0.0047  0.0003 -0.8079  0.0087
                                            0.0126 -0.0010  0.0013  0.0049  0.0053
                                           -0.0028  0.0173
                ( 50.00%)   0.7071* C   3 s( 33.57%)p 1.98( 66.40%)d 0.00(  0.04%)
                                           -0.0002  0.5793 -0.0076 -0.0064  0.0001
                                            0.0819  0.0019 -0.0022  0.0002  0.0247
                                           -0.0455  0.0051  0.0003  0.8089 -0.0099
                                           -0.0124  0.0010 -0.0014  0.0048 -0.0061
                                           -0.0030  0.0170
     6. (1.97899) BD ( 1) C   2 - H   8  
                ( 62.65%)   0.7915* C   2 s( 30.61%)p 2.26( 69.33%)d 0.00(  0.06%)
                                           -0.0004  0.5528  0.0224  0.0018 -0.0002
                                            0.1053 -0.0002 -0.0000  0.0000  0.7067
                                            0.0088  0.0018  0.0000  0.4270  0.0184
                                            0.0006  0.0004  0.0053  0.0028  0.0193
                                           -0.0125 -0.0021
                ( 37.35%)   0.6112* H   8 s(100.00%)
                                            1.0000  0.0018  0.0009  0.0001
     7. (1.98244) BD ( 1) C   3 - C   4  
                ( 49.35%)   0.7025* C   3 s( 35.80%)p 1.79( 64.15%)d 0.00(  0.04%)
                                            0.0000  0.5979 -0.0232  0.0042  0.0001
                                            0.0054  0.0024 -0.0016  0.0001 -0.6880
                                            0.0001  0.0104 -0.0009 -0.4073  0.0466
                                            0.0015 -0.0006 -0.0015  0.0003  0.0123
                                           -0.0160 -0.0034
                ( 50.65%)   0.7117* C   4 s( 39.92%)p 1.50( 60.04%)d 0.00(  0.04%)
                                           -0.0000  0.6317 -0.0125  0.0012 -0.0000
                                           -0.0823  0.0025  0.0001 -0.0004  0.6970
                                           -0.0283  0.0060  0.0038  0.3268  0.0112
                                            0.0040  0.0052 -0.0030 -0.0016  0.0130
                                           -0.0137  0.0018
     8. (1.69081) BD ( 2) C   3 - C   4  
                ( 45.93%)   0.6777* C   3 s(  0.01%)p 1.00( 99.92%)d 0.00(  0.07%)
                                            0.0001  0.0075 -0.0008  0.0013 -0.0000
                                            0.9906  0.0019  0.0159 -0.0015  0.0781
                                            0.0023  0.0025  0.0009 -0.1079 -0.0014
                                           -0.0013 -0.0008 -0.0257 -0.0009 -0.0003
                                            0.0054 -0.0021
                ( 54.07%)   0.7353* C   4 s(  0.00%)p 1.00( 99.97%)d 0.00(  0.02%)
                                            0.0005  0.0062 -0.0007  0.0003 -0.0002
                                            0.9927 -0.0025 -0.0185  0.0009  0.1171
                                           -0.0002 -0.0015  0.0000 -0.0115  0.0005
                                            0.0008  0.0004  0.0100  0.0121 -0.0002
                                           -0.0013 -0.0005
     9. (1.97899) BD ( 1) C   3 - H   9  
                ( 62.65%)   0.7915* C   3 s( 30.61%)p 2.26( 69.33%)d 0.00(  0.06%)
                                           -0.0004  0.5528  0.0224  0.0018 -0.0002
                                           -0.1053  0.0002  0.0000 -0.0000  0.7185
                                            0.0093  0.0018  0.0000 -0.4068 -0.0182
                                           -0.0005 -0.0004 -0.0054  0.0027 -0.0188
                                           -0.0130 -0.0030
                ( 37.35%)   0.6111* H   9 s(100.00%)
                                            1.0000  0.0018  0.0009  0.0001
    10. (1.98244) BD ( 1) C   4 - C   5  
                ( 50.65%)   0.7117* C   4 s( 39.92%)p 1.50( 60.04%)d 0.00(  0.04%)
                                           -0.0000  0.6317 -0.0125  0.0012 -0.0000
                                            0.0828 -0.0025 -0.0001  0.0004 -0.7059
                                            0.0280 -0.0061 -0.0039  0.3069  0.0120
                                            0.0039  0.0051 -0.0031  0.0015 -0.0127
                                           -0.0141  0.0012
                ( 49.35%)   0.7025* C   5 s( 35.81%)p 1.79( 64.15%)d 0.00(  0.04%)
                                            0.0000  0.5979 -0.0232  0.0042  0.0001
                                           -0.0019 -0.0023  0.0017 -0.0001  0.6995
                                           -0.0014 -0.0104  0.0009 -0.3873  0.0465
                                            0.0012 -0.0005 -0.0014 -0.0003 -0.0116
                                           -0.0164 -0.0040
    11. (1.98158) BD ( 1) C   4 -Br  10  
                ( 48.68%)   0.6977* C   4 s( 20.21%)p 3.94( 79.69%)d 0.01(  0.10%)
                                            0.0002 -0.4485 -0.0315  0.0034  0.0000
                                            0.0143 -0.0000 -0.0003  0.0000 -0.0110
                                           -0.0005 -0.0002  0.0001  0.8916  0.0377
                                            0.0105 -0.0096 -0.0000  0.0002  0.0008
                                            0.0010 -0.0319
                ( 51.32%)   0.7164*Br  10 s( 13.88%)p 6.18( 85.78%)d 0.02(  0.34%)
                                           -0.0000 -0.0000 -0.0002 -0.3691  0.0509
                                           -0.0011 -0.0000 -0.0000 -0.0000  0.0000
                                           -0.0000 -0.0000  0.0000 -0.0000 -0.0000
                                           -0.0000 -0.0000 -0.0000  0.0000  0.0131
                                           -0.0009  0.0000  0.0000 -0.0000 -0.0000
                                            0.0000 -0.0002 -0.9240  0.0627 -0.0019
                                            0.0000  0.0005  0.0001 -0.0000 -0.0000
                                           -0.0001 -0.0000  0.0000 -0.0000  0.0000
                                            0.0014  0.0001 -0.0000  0.0001 -0.0005
                                           -0.0000 -0.0580 -0.0028
    12. (1.95802) BD ( 1) C   5 - C   6  
                ( 50.00%)   0.7071* C   5 s( 33.57%)p 1.98( 66.40%)d 0.00(  0.04%)
                                           -0.0002  0.5793 -0.0076 -0.0064  0.0001
                                           -0.0829 -0.0020  0.0022 -0.0002 -0.0477
                                            0.0457 -0.0047 -0.0003  0.8078 -0.0087
                                           -0.0126  0.0010 -0.0013 -0.0049  0.0053
                                           -0.0028  0.0173
                ( 50.00%)   0.7071* C   6 s( 33.57%)p 1.98( 66.40%)d 0.00(  0.04%)
                                           -0.0002  0.5793 -0.0076 -0.0064  0.0001
                                            0.0829  0.0020 -0.0022  0.0002 -0.0247
                                            0.0455 -0.0051 -0.0003 -0.8088  0.0100
                                            0.0124 -0.0010  0.0014 -0.0049 -0.0061
                                           -0.0030  0.0170
    13. (1.62864) BD ( 2) C   5 - C   6  
                ( 50.00%)   0.7071* C   5 s(  0.00%)p 1.00( 99.94%)d 0.00(  0.06%)
                                            0.0003  0.0052 -0.0017 -0.0013 -0.0001
                                            0.9927  0.0191  0.0177 -0.0011  0.0540
                                            0.0016  0.0014  0.0013  0.1013  0.0038
                                            0.0032  0.0006  0.0160  0.0170  0.0006
                                           -0.0054  0.0040
                ( 50.00%)   0.7071* C   6 s(  0.00%)p 1.00( 99.94%)d 0.00(  0.06%)
                                           -0.0003 -0.0052  0.0017  0.0013  0.0000
                                            0.9927  0.0191  0.0177 -0.0011 -0.0568
                                           -0.0017 -0.0015 -0.0014  0.0998  0.0037
                                            0.0032  0.0005  0.0165 -0.0165  0.0007
                                            0.0054 -0.0040
    14. (1.97863) BD ( 1) C   5 - H  11  
                ( 62.64%)   0.7915* C   5 s( 30.62%)p 2.26( 69.33%)d 0.00(  0.06%)
                                            0.0004 -0.5529 -0.0224 -0.0019  0.0002
                                           -0.0797  0.0007  0.0005 -0.0000  0.7084
                                            0.0088  0.0018  0.0000  0.4298  0.0185
                                            0.0006  0.0005  0.0058  0.0032 -0.0193
                                            0.0124  0.0022
                ( 37.36%)   0.6112* H  11 s(100.00%)
                                           -1.0000 -0.0018 -0.0009 -0.0001
    15. (1.97863) BD ( 1) C   6 - H  12  
                ( 62.65%)   0.7915* C   6 s( 30.62%)p 2.26( 69.33%)d 0.00(  0.06%)
                                            0.0004 -0.5529 -0.0224 -0.0019  0.0002
                                            0.0797 -0.0006 -0.0005  0.0000  0.7203
                                            0.0093  0.0018  0.0001 -0.4095 -0.0183
                                           -0.0006 -0.0005 -0.0059  0.0031  0.0188
                                            0.0129  0.0031
                ( 37.35%)   0.6112* H  12 s(100.00%)
                                           -1.0000 -0.0018 -0.0009 -0.0001
    16. (1.99863) CR ( 1) C   1           s(100.00%)p 0.00(  0.00%)
                                            1.0000  0.0001  0.0000 -0.0000  0.0000
                                            0.0005 -0.0000 -0.0000  0.0000 -0.0001
                                           -0.0000  0.0000  0.0000  0.0002  0.0000
                                            0.0000 -0.0000  0.0000 -0.0000 -0.0000
                                            0.0000  0.0000
    17. (1.99900) CR ( 1) C   2           s(100.00%)p 0.00(  0.00%)
                                            1.0000  0.0003  0.0000 -0.0000 -0.0000
                                            0.0001 -0.0000  0.0000 -0.0000  0.0003
                                           -0.0000  0.0000 -0.0000 -0.0000  0.0000
                                            0.0000 -0.0000 -0.0000  0.0000  0.0000
                                           -0.0000  0.0000
    18. (1.99900) CR ( 1) C   3           s(100.00%)p 0.00(  0.00%)
                                            1.0000  0.0003  0.0000 -0.0000 -0.0000
                                           -0.0001  0.0000 -0.0000  0.0000  0.0003
                                           -0.0000  0.0000 -0.0000  0.0000 -0.0000
                                           -0.0000  0.0000  0.0000  0.0000 -0.0000
                                           -0.0000  0.0000
    19. (1.99863) CR ( 1) C   4           s(100.00%)p 0.00(  0.00%)
                                            1.0000  0.0001  0.0000 -0.0000  0.0000
                                           -0.0005  0.0000  0.0000 -0.0000 -0.0001
                                            0.0000  0.0000 -0.0000 -0.0002 -0.0000
                                           -0.0000  0.0000 -0.0000 -0.0000 -0.0000
                                            0.0000  0.0000
    20. (1.99900) CR ( 1) C   5           s(100.00%)p 0.00(  0.00%)
                                            1.0000  0.0003  0.0000 -0.0000 -0.0000
                                           -0.0003 -0.0000 -0.0000  0.0000 -0.0003
                                            0.0000 -0.0000 -0.0000 -0.0000 -0.0000
                                           -0.0000 -0.0000 -0.0000 -0.0000  0.0000
                                           -0.0000  0.0000
    21. (1.99900) CR ( 1) C   6           s(100.00%)p 0.00(  0.00%)
                                            1.0000  0.0003  0.0000 -0.0000 -0.0000
                                            0.0003  0.0000  0.0000 -0.0000 -0.0003
                                            0.0000 -0.0000 -0.0000  0.0000  0.0000
                                            0.0000  0.0000  0.0000 -0.0000 -0.0000
                                           -0.0000  0.0000
    22. (2.00000) CR ( 1)Br   7           s(100.00%)
                                            1.0000 -0.0000 -0.0000 -0.0000  0.0000
                                           -0.0000 -0.0000 -0.0000 -0.0000 -0.0000
                                            0.0000 -0.0000  0.0000  0.0000  0.0000
                                            0.0000 -0.0000  0.0000 -0.0000 -0.0000
                                            0.0000 -0.0000  0.0000  0.0000  0.0000
                                           -0.0000  0.0000  0.0000 -0.0000  0.0000
                                           -0.0000 -0.0000 -0.0000  0.0000  0.0000
                                            0.0000 -0.0000  0.0000  0.0000  0.0000
                                            0.0000  0.0000 -0.0000 -0.0000 -0.0000
                                           -0.0000 -0.0000 -0.0000
    23. (2.00000) CR ( 2)Br   7           s(100.00%)
                                           -0.0000  1.0000 -0.0000 -0.0000  0.0000
                                           -0.0000 -0.0000 -0.0000 -0.0000  0.0000
                                            0.0000 -0.0000  0.0000  0.0000  0.0000
                                            0.0000 -0.0000  0.0000 -0.0000 -0.0000
                                            0.0000 -0.0000  0.0000  0.0000  0.0000
                                           -0.0000  0.0000  0.0000 -0.0000  0.0000
                                           -0.0000 -0.0000 -0.0000  0.0000  0.0000
                                            0.0000  0.0000  0.0000  0.0000  0.0000
                                            0.0000  0.0000 -0.0000 -0.0000 -0.0000
                                           -0.0000 -0.0000 -0.0000
    24. (1.99979) CR ( 3)Br   7           s(100.00%)p 0.00(  0.00%)
                                           -0.0000 -0.0000  1.0000  0.0001  0.0000
                                           -0.0000 -0.0000 -0.0000 -0.0000  0.0000
                                            0.0000  0.0000  0.0000  0.0000  0.0000
                                            0.0000 -0.0000 -0.0000 -0.0000 -0.0000
                                            0.0000 -0.0000  0.0000 -0.0000  0.0000
                                            0.0000  0.0000  0.0003 -0.0000  0.0000
                                           -0.0000  0.0000 -0.0000  0.0000  0.0000
                                           -0.0000  0.0000  0.0000  0.0000  0.0000
                                            0.0000  0.0000 -0.0000 -0.0000 -0.0000
                                           -0.0000 -0.0000 -0.0000
    25. (2.00000) CR ( 4)Br   7           s(  0.00%)p 1.00(100.00%)
                                           -0.0000  0.0000  0.0000  0.0000 -0.0000
                                           -0.0000 -0.0000 -0.0000 -0.0000  1.0000
                                            0.0000 -0.0000 -0.0000  0.0000 -0.0000
                                            0.0000 -0.0000 -0.0000 -0.0000 -0.0000
                                            0.0000  0.0000 -0.0000 -0.0000  0.0000
                                           -0.0000 -0.0000 -0.0000  0.0000  0.0000
                                           -0.0000 -0.0000  0.0000  0.0000 -0.0000
                                            0.0000 -0.0000  0.0000 -0.0000  0.0000
                                           -0.0000  0.0000  0.0000 -0.0000  0.0000
                                            0.0000 -0.0000  0.0000
    26. (1.99999) CR ( 5)Br   7           s(  0.00%)p 1.00(100.00%)
                                            0.0000  0.0000  0.0000 -0.0000  0.0000
                                            0.0000  0.0000 -0.0000  0.0000  0.0000
                                            1.0000  0.0000  0.0000 -0.0000  0.0000
                                           -0.0000  0.0000 -0.0000 -0.0000  0.0000
                                            0.0000 -0.0000  0.0000  0.0000 -0.0000
                                           -0.0000 -0.0000  0.0000  0.0000 -0.0000
                                            0.0000  0.0000 -0.0000 -0.0000  0.0000
                                           -0.0000  0.0000 -0.0000  0.0000  0.0000
                                           -0.0000  0.0000  0.0000 -0.0000  0.0000
                                            0.0000 -0.0000  0.0000
    27. (2.00000) CR ( 6)Br   7           s(  0.00%)p 1.00(100.00%)
                                            0.0000  0.0000 -0.0000  0.0000 -0.0000
                                            0.0000 -0.0000 -0.0000  0.0000 -0.0000
                                           -0.0000 -0.0000 -0.0000  0.0000 -0.0000
                                            0.0000 -0.0000  1.0000 -0.0000  0.0000
                                            0.0000 -0.0000  0.0000  0.0000 -0.0000
                                           -0.0000 -0.0000  0.0000  0.0000 -0.0000
                                           -0.0000  0.0000  0.0000  0.0000 -0.0000
                                            0.0000 -0.0000  0.0000 -0.0000  0.0000
                                           -0.0000  0.0000  0.0000 -0.0000  0.0000
                                            0.0000 -0.0000  0.0000
    28. (1.99999) CR ( 7)Br   7           s(  0.00%)p 1.00(100.00%)
                                           -0.0000 -0.0000 -0.0000  0.0000  0.0000
                                           -0.0000 -0.0000 -0.0000 -0.0000 -0.0000
                                           -0.0000 -0.0000 -0.0000  0.0000 -0.0000
                                            0.0000 -0.0000 -0.0000  1.0000  0.0001
                                            0.0000 -0.0000  0.0000  0.0000 -0.0000
                                           -0.0000  0.0000  0.0000 -0.0000  0.0000
                                           -0.0000  0.0000 -0.0000  0.0000 -0.0000
                                            0.0000 -0.0000  0.0000 -0.0000  0.0000
                                           -0.0000  0.0000  0.0000 -0.0000  0.0000
                                            0.0000 -0.0000 -0.0000
    29. (2.00000) CR ( 8)Br   7           s(  0.00%)p 1.00(100.00%)
                                           -0.0000 -0.0000  0.0000 -0.0000  0.0000
                                           -0.0000  0.0000  0.0000 -0.0000 -0.0000
                                           -0.0000 -0.0000 -0.0000  0.0000 -0.0000
                                            0.0000 -0.0000 -0.0000 -0.0000  0.0000
                                            0.0000 -0.0000 -0.0000  0.0000  0.0000
                                            1.0000 -0.0000 -0.0000 -0.0000 -0.0000
                                            0.0000 -0.0000 -0.0000  0.0000 -0.0000
                                            0.0000 -0.0000  0.0000 -0.0000  0.0000
                                            0.0000  0.0000 -0.0000  0.0000 -0.0000
                                            0.0000 -0.0000  0.0000
    30. (1.99987) CR ( 9)Br   7           s(  0.00%)p 1.00(100.00%)
                                           -0.0000 -0.0000 -0.0000  0.0001  0.0000
                                           -0.0000 -0.0000 -0.0000 -0.0000  0.0000
                                            0.0000  0.0000  0.0000  0.0000  0.0000
                                            0.0000 -0.0000  0.0000 -0.0000 -0.0000
                                            0.0000 -0.0000  0.0000 -0.0000  0.0000
                                            0.0000 -1.0000  0.0003 -0.0000  0.0000
                                           -0.0000  0.0000 -0.0000  0.0000  0.0000
                                           -0.0000  0.0000 -0.0000  0.0000  0.0000
                                            0.0000  0.0000 -0.0000 -0.0000 -0.0000
                                           -0.0000 -0.0000 -0.0000
    31. (2.00000) CR (10)Br   7           s(  0.00%)p 0.00(  0.00%)d 1.00(100.00%)
                                            0.0000  0.0000  0.0000  0.0000 -0.0000
                                            0.0000  0.0000  0.0000  0.0000  0.0000
                                           -0.0000  0.0000  0.0000 -0.0000  0.0000
                                           -0.0000  0.0000  0.0000  0.0000  0.0000
                                           -0.0000 -0.0000  0.0000  0.0000 -0.0000
                                            0.0000 -0.0000 -0.0000  0.0000 -0.0000
                                           -0.0000  0.0000  0.0000  1.0000  0.0000
                                           -0.0000  0.0000 -0.0000  0.0000  0.0000
                                           -0.0000 -0.0000  0.0000 -0.0000  0.0000
                                           -0.0000  0.0000  0.0000
    32. (1.99995) CR (11)Br   7           s(  0.00%)p 0.00(  0.00%)d 1.00(100.00%)
                                           -0.0000  0.0000  0.0000  0.0000 -0.0000
                                           -0.0000 -0.0000 -0.0000 -0.0000 -0.0000
                                            0.0000 -0.0004 -0.0000  0.0000 -0.0000
                                            0.0000 -0.0000 -0.0000 -0.0000 -0.0000
                                           -0.0000  0.0000 -0.0000 -0.0000  0.0000
                                           -0.0000 -0.0000 -0.0000  0.0000  0.0000
                                           -0.0000 -0.0000  0.0000  0.0000 -0.0000
                                            0.0000  1.0000  0.0000 -0.0000 -0.0000
                                            0.0000  0.0000 -0.0000  0.0000  0.0000
                                           -0.0000  0.0000  0.0000
    33. (1.99996) CR (12)Br   7           s(  0.00%)p 0.00(  0.00%)d 1.00(100.00%)
                                            0.0000  0.0000  0.0000 -0.0000 -0.0000
                                            0.0000  0.0000  0.0000 -0.0000  0.0000
                                            0.0000  0.0000  0.0000 -0.0000  0.0000
                                           -0.0000  0.0000  0.0000  0.0000 -0.0002
                                           -0.0000  0.0000 -0.0000 -0.0000  0.0000
                                            0.0000 -0.0000 -0.0000  0.0000 -0.0000
                                            0.0000 -0.0000 -0.0000  0.0000 -0.0000
                                           -0.0000 -0.0000  0.0000  0.0000  1.0000
                                            0.0000 -0.0000 -0.0000  0.0000 -0.0000
                                           -0.0000  0.0000  0.0000
    34. (2.00000) CR (13)Br   7           s(  0.00%)p 0.00(  0.00%)d 1.00(100.00%)
                                           -0.0000 -0.0000 -0.0000 -0.0000  0.0000
                                           -0.0000 -0.0000 -0.0000 -0.0000  0.0000
                                            0.0000  0.0000  0.0000 -0.0000  0.0000
                                           -0.0000  0.0000  0.0000  0.0000 -0.0000
                                           -0.0000  0.0000 -0.0000 -0.0000  0.0000
                                           -0.0000  0.0000  0.0000 -0.0000  0.0000
                                           -0.0000 -0.0000 -0.0000  0.0000  0.0000
                                            0.0000 -0.0000  0.0000  0.0000 -0.0000
                                            0.0000  0.0000  1.0000  0.0000 -0.0000
                                           -0.0000 -0.0000 -0.0000
    35. (1.99978) CR (14)Br   7           s(  0.00%)p 0.00(  0.00%)d 1.00(100.00%)
                                           -0.0000 -0.0000 -0.0000  0.0000  0.0000
                                           -0.0000 -0.0000 -0.0000 -0.0000  0.0000
                                            0.0000  0.0000  0.0000 -0.0000  0.0000
                                           -0.0000 -0.0000  0.0000  0.0000 -0.0000
                                           -0.0000  0.0000 -0.0000 -0.0000 -0.0000
                                            0.0000  0.0000  0.0000 -0.0000  0.0000
                                           -0.0000  0.0000  0.0000 -0.0000  0.0000
                                           -0.0000 -0.0000  0.0000  0.0000 -0.0000
                                            0.0000 -0.0000 -0.0000 -0.0000  0.0000
                                            1.0000 -0.0000 -0.0000
    36. (2.00000) CR ( 1)Br  10           s(100.00%)
                                            1.0000 -0.0000 -0.0000 -0.0000  0.0000
                                           -0.0000 -0.0000 -0.0000 -0.0000 -0.0000
                                            0.0000 -0.0000  0.0000  0.0000  0.0000
                                            0.0000 -0.0000 -0.0000  0.0000  0.0000
                                           -0.0000  0.0000 -0.0000 -0.0000 -0.0000
                                            0.0000 -0.0000 -0.0000  0.0000 -0.0000
                                            0.0000  0.0000  0.0000 -0.0000 -0.0000
                                           -0.0000  0.0000 -0.0000 -0.0000  0.0000
                                            0.0000  0.0000 -0.0000 -0.0000 -0.0000
                                           -0.0000 -0.0000 -0.0000
    37. (2.00000) CR ( 2)Br  10           s(100.00%)
                                           -0.0000  1.0000 -0.0000 -0.0000  0.0000
                                           -0.0000 -0.0000 -0.0000 -0.0000 -0.0000
                                            0.0000 -0.0000  0.0000  0.0000  0.0000
                                            0.0000 -0.0000 -0.0000  0.0000  0.0000
                                           -0.0000  0.0000 -0.0000 -0.0000 -0.0000
                                            0.0000 -0.0000 -0.0000  0.0000 -0.0000
                                            0.0000  0.0000  0.0000 -0.0000 -0.0000
                                           -0.0000 -0.0000 -0.0000 -0.0000  0.0000
                                            0.0000  0.0000 -0.0000 -0.0000 -0.0000
                                           -0.0000 -0.0000 -0.0000
    38. (1.99979) CR ( 3)Br  10           s(100.00%)p 0.00(  0.00%)
                                           -0.0000 -0.0000  1.0000  0.0001  0.0000
                                           -0.0000 -0.0000 -0.0000 -0.0000  0.0000
                                            0.0000  0.0000  0.0000  0.0000  0.0000
                                            0.0000 -0.0000  0.0000  0.0000  0.0000
                                           -0.0000  0.0000 -0.0000  0.0000 -0.0000
                                           -0.0000 -0.0000 -0.0003  0.0000 -0.0000
                                            0.0000 -0.0000  0.0000 -0.0000 -0.0000
                                            0.0000 -0.0000 -0.0000 -0.0000  0.0000
                                            0.0000  0.0000 -0.0000 -0.0000 -0.0000
                                           -0.0000 -0.0000 -0.0000
    39. (2.00000) CR ( 4)Br  10           s(  0.00%)p 1.00(100.00%)
                                           -0.0000 -0.0000  0.0000  0.0000 -0.0000
                                           -0.0000 -0.0000 -0.0000 -0.0000  1.0000
                                            0.0000 -0.0000 -0.0000  0.0000 -0.0000
                                            0.0000 -0.0000  0.0000  0.0000  0.0000
                                           -0.0000 -0.0000  0.0000  0.0000 -0.0000
                                            0.0000  0.0000  0.0000 -0.0000 -0.0000
                                            0.0000  0.0000 -0.0000 -0.0000  0.0000
                                           -0.0000  0.0000 -0.0000  0.0000  0.0000
                                           -0.0000  0.0000  0.0000 -0.0000  0.0000
                                            0.0000 -0.0000  0.0000
    40. (1.99999) CR ( 5)Br  10           s(  0.00%)p 1.00(100.00%)
                                            0.0000  0.0000  0.0000 -0.0000  0.0000
                                            0.0000  0.0000 -0.0000  0.0000  0.0000
                                            1.0000  0.0000  0.0000 -0.0000  0.0000
                                           -0.0000  0.0000  0.0000  0.0000 -0.0000
                                           -0.0000  0.0000 -0.0000 -0.0000  0.0000
                                            0.0000  0.0000 -0.0000 -0.0000  0.0000
                                           -0.0000 -0.0000  0.0000  0.0000 -0.0000
                                            0.0000 -0.0000  0.0000 -0.0000  0.0000
                                           -0.0000  0.0000  0.0000 -0.0000  0.0000
                                            0.0000 -0.0000  0.0000
    41. (2.00000) CR ( 6)Br  10           s(  0.00%)p 1.00(100.00%)
                                           -0.0000 -0.0000  0.0000 -0.0000  0.0000
                                           -0.0000  0.0000  0.0000 -0.0000  0.0000
                                            0.0000  0.0000  0.0000 -0.0000  0.0000
                                           -0.0000  0.0000  1.0000 -0.0000  0.0000
                                            0.0000 -0.0000  0.0000  0.0000 -0.0000
                                           -0.0000 -0.0000  0.0000  0.0000 -0.0000
                                           -0.0000  0.0000  0.0000  0.0000 -0.0000
                                            0.0000 -0.0000  0.0000 -0.0000 -0.0000
                                            0.0000 -0.0000 -0.0000  0.0000 -0.0000
                                           -0.0000  0.0000 -0.0000
    42. (1.99999) CR ( 7)Br  10           s(  0.00%)p 1.00(100.00%)
                                            0.0000  0.0000  0.0000 -0.0000 -0.0000
                                            0.0000  0.0000  0.0000  0.0000  0.0000
                                            0.0000  0.0000  0.0000 -0.0000  0.0000
                                           -0.0000  0.0000 -0.0000  1.0000  0.0001
                                            0.0000 -0.0000  0.0000  0.0000 -0.0000
                                           -0.0000  0.0000  0.0000 -0.0000  0.0000
                                           -0.0000  0.0000 -0.0000  0.0000 -0.0000
                                            0.0000 -0.0000  0.0000 -0.0000 -0.0000
                                            0.0000 -0.0000 -0.0000  0.0000 -0.0000
                                           -0.0000  0.0000  0.0000
    43. (2.00000) CR ( 8)Br  10           s(  0.00%)p 1.00(100.00%)
                                            0.0000  0.0000 -0.0000  0.0000 -0.0000
                                            0.0000 -0.0000 -0.0000  0.0000  0.0000
                                            0.0000  0.0000  0.0000 -0.0000  0.0000
                                           -0.0000  0.0000 -0.0000 -0.0000  0.0000
                                            0.0000 -0.0000 -0.0000  0.0000  0.0000
                                            1.0000 -0.0000 -0.0000 -0.0000 -0.0000
                                            0.0000 -0.0000 -0.0000  0.0000 -0.0000
                                            0.0000 -0.0000  0.0000 -0.0000 -0.0000
                                           -0.0000 -0.0000  0.0000 -0.0000  0.0000
                                           -0.0000  0.0000 -0.0000
    44. (1.99987) CR ( 9)Br  10           s(  0.00%)p 1.00(100.00%)
                                           -0.0000 -0.0000 -0.0000  0.0001  0.0000
                                           -0.0000 -0.0000 -0.0000 -0.0000  0.0000
                                            0.0000  0.0000  0.0000  0.0000  0.0000
                                            0.0000 -0.0000 -0.0000  0.0000  0.0000
                                           -0.0000  0.0000 -0.0000  0.0000 -0.0000
                                           -0.0000  1.0000 -0.0003  0.0000 -0.0000
                                            0.0000 -0.0000  0.0000 -0.0000 -0.0000
                                            0.0000 -0.0000  0.0000 -0.0000  0.0000
                                            0.0000  0.0000 -0.0000 -0.0000 -0.0000
                                           -0.0000 -0.0000 -0.0000
    45. (2.00000) CR (10)Br  10           s(  0.00%)p 0.00(  0.00%)d 1.00(100.00%)
                                           -0.0000 -0.0000 -0.0000 -0.0000  0.0000
                                           -0.0000 -0.0000 -0.0000 -0.0000 -0.0000
                                            0.0000 -0.0000 -0.0000  0.0000 -0.0000
                                            0.0000 -0.0000  0.0000  0.0000  0.0000
                                           -0.0000 -0.0000  0.0000  0.0000 -0.0000
                                            0.0000 -0.0000 -0.0000  0.0000 -0.0000
                                           -0.0000  0.0000  0.0000  1.0000  0.0000
                                           -0.0000  0.0000 -0.0000  0.0000 -0.0000
                                            0.0000  0.0000 -0.0000  0.0000 -0.0000
                                            0.0000 -0.0000 -0.0000
    46. (1.99995) CR (11)Br  10           s(  0.00%)p 0.00(  0.00%)d 1.00(100.00%)
                                            0.0000 -0.0000 -0.0000 -0.0000  0.0000
                                            0.0000  0.0000  0.0000  0.0000  0.0000
                                           -0.0000  0.0004  0.0000 -0.0000  0.0000
                                           -0.0000  0.0000 -0.0000 -0.0000 -0.0000
                                           -0.0000  0.0000 -0.0000 -0.0000  0.0000
                                           -0.0000 -0.0000 -0.0000  0.0000  0.0000
                                           -0.0000 -0.0000  0.0000  0.0000 -0.0000
                                            0.0000  1.0000  0.0000 -0.0000  0.0000
                                           -0.0000 -0.0000  0.0000 -0.0000 -0.0000
                                            0.0000 -0.0000 -0.0000
    47. (1.99996) CR (12)Br  10           s(  0.00%)p 0.00(  0.00%)d 1.00(100.00%)
                                            0.0000  0.0000  0.0000 -0.0000 -0.0000
                                            0.0000  0.0000  0.0000 -0.0000  0.0000
                                            0.0000  0.0000  0.0000 -0.0000  0.0000
                                           -0.0000  0.0000 -0.0000 -0.0000  0.0002
                                            0.0000 -0.0000  0.0000  0.0000 -0.0000
                                           -0.0000  0.0000  0.0000 -0.0000  0.0000
                                           -0.0000  0.0000  0.0000 -0.0000  0.0000
                                            0.0000  0.0000 -0.0000 -0.0000  1.0000
                                            0.0000 -0.0000 -0.0000  0.0000 -0.0000
                                           -0.0000  0.0000  0.0000
    48. (2.00000) CR (13)Br  10           s(  0.00%)p 0.00(  0.00%)d 1.00(100.00%)
                                           -0.0000 -0.0000 -0.0000 -0.0000  0.0000
                                           -0.0000 -0.0000 -0.0000 -0.0000  0.0000
                                            0.0000  0.0000  0.0000 -0.0000  0.0000
                                           -0.0000  0.0000 -0.0000 -0.0000  0.0000
                                            0.0000 -0.0000  0.0000  0.0000 -0.0000
                                            0.0000 -0.0000 -0.0000  0.0000 -0.0000
                                            0.0000  0.0000  0.0000 -0.0000 -0.0000
                                           -0.0000  0.0000 -0.0000 -0.0000 -0.0000
                                            0.0000  0.0000  1.0000  0.0000 -0.0000
                                           -0.0000 -0.0000 -0.0000
    49. (1.99978) CR (14)Br  10           s(  0.00%)p 0.00(  0.00%)d 1.00(100.00%)
                                           -0.0000 -0.0000 -0.0000  0.0000  0.0000
                                           -0.0000 -0.0000 -0.0000 -0.0000  0.0000
                                            0.0000  0.0000  0.0000 -0.0000  0.0000
                                           -0.0000 -0.0000 -0.0000 -0.0000  0.0000
                                            0.0000 -0.0000  0.0000  0.0000  0.0000
                                           -0.0000 -0.0000 -0.0000  0.0000 -0.0000
                                            0.0000 -0.0000 -0.0000  0.0000 -0.0000
                                            0.0000  0.0000 -0.0000 -0.0000 -0.0000
                                            0.0000 -0.0000 -0.0000 -0.0000  0.0000
                                            1.0000 -0.0000 -0.0000
    50. (1.99436) LP ( 1)Br   7           s( 86.34%)p 0.16( 13.66%)d 0.00(  0.00%)
                                           -0.0000 -0.0000 -0.0002  0.9291  0.0105
                                            0.0000 -0.0000 -0.0000 -0.0000 -0.0000
                                            0.0000 -0.0000  0.0000  0.0000  0.0000
                                            0.0000 -0.0000 -0.0000 -0.0000 -0.0052
                                            0.0002 -0.0000  0.0000 -0.0000 -0.0000
                                            0.0000  0.0002  0.3693 -0.0135  0.0015
                                           -0.0015  0.0005  0.0001 -0.0000  0.0004
                                           -0.0001 -0.0000  0.0000 -0.0000  0.0000
                                            0.0001  0.0001  0.0000 -0.0009  0.0002
                                           -0.0000 -0.0036 -0.0024
    51. (1.97852) LP ( 2)Br   7           s(  0.00%)p 1.00( 99.99%)d 0.00(  0.01%)
                                            0.0000  0.0000 -0.0000 -0.0000  0.0000
                                            0.0000 -0.0000 -0.0000  0.0000 -0.0000
                                           -0.0000 -0.0443 -0.0015  0.0001 -0.0003
                                            0.0000 -0.0000 -0.0000 -0.0001  0.9987
                                            0.0158 -0.0013  0.0005  0.0002 -0.0000
                                           -0.0000 -0.0000  0.0142  0.0002 -0.0000
                                            0.0000  0.0000  0.0000  0.0000 -0.0000
                                            0.0000 -0.0000  0.0005 -0.0002  0.0002
                                           -0.0117  0.0010  0.0000 -0.0002  0.0000
                                            0.0000 -0.0003  0.0000
    52. (1.95114) LP ( 3)Br   7           s(  0.00%)p 1.00( 99.97%)d 0.00(  0.03%)
                                            0.0000  0.0000 -0.0000  0.0000  0.0000
                                            0.0000  0.0000  0.0000  0.0000  0.0000
                                           -0.0000  0.9987  0.0188 -0.0005  0.0002
                                           -0.0001  0.0000  0.0000  0.0000  0.0444
                                            0.0003 -0.0002  0.0001  0.0000 -0.0000
                                            0.0000  0.0000  0.0006  0.0000 -0.0000
                                            0.0000  0.0000 -0.0000 -0.0000  0.0002
                                           -0.0000  0.0004 -0.0164  0.0029  0.0000
                                           -0.0004 -0.0001  0.0000 -0.0000 -0.0000
                                            0.0000 -0.0000 -0.0000
    53. (1.99436) LP ( 1)Br  10           s( 86.34%)p 0.16( 13.66%)d 0.00(  0.00%)
                                           -0.0000 -0.0000 -0.0002  0.9291  0.0105
                                            0.0000 -0.0000 -0.0000 -0.0000 -0.0000
                                            0.0000 -0.0000  0.0000  0.0000  0.0000
                                            0.0000 -0.0000  0.0000  0.0000  0.0052
                                           -0.0002  0.0000 -0.0000  0.0000  0.0000
                                           -0.0000 -0.0002 -0.3693  0.0135 -0.0015
                                            0.0015 -0.0005 -0.0001  0.0000 -0.0004
                                            0.0001  0.0000 -0.0000  0.0000  0.0000
                                            0.0001  0.0001  0.0000 -0.0009  0.0002
                                           -0.0000 -0.0036 -0.0024
    54. (1.97852) LP ( 2)Br  10           s(  0.00%)p 1.00( 99.99%)d 0.00(  0.01%)
                                           -0.0000 -0.0000  0.0000  0.0000 -0.0000
                                           -0.0000  0.0000  0.0000 -0.0000  0.0000
                                            0.0000  0.0443  0.0015 -0.0001  0.0003
                                           -0.0000  0.0000 -0.0000 -0.0001  0.9987
                                            0.0158 -0.0013  0.0005  0.0002 -0.0000
                                           -0.0000 -0.0000  0.0142  0.0002 -0.0000
                                            0.0000  0.0000  0.0000  0.0000 -0.0000
                                            0.0000 -0.0000  0.0005 -0.0002 -0.0002
                                            0.0117 -0.0010 -0.0000  0.0002 -0.0000
                                           -0.0000  0.0003 -0.0000
    55. (1.95114) LP ( 3)Br  10           s(  0.00%)p 1.00( 99.97%)d 0.00(  0.03%)
                                            0.0000  0.0000 -0.0000  0.0000  0.0000
                                            0.0000  0.0000  0.0000  0.0000  0.0000
                                           -0.0000  0.9987  0.0188 -0.0005  0.0002
                                           -0.0001  0.0000 -0.0000 -0.0000 -0.0444
                                           -0.0003  0.0002 -0.0001 -0.0000  0.0000
                                           -0.0000 -0.0000 -0.0006 -0.0000  0.0000
                                           -0.0000 -0.0000  0.0000  0.0000 -0.0002
                                            0.0000 -0.0004  0.0164 -0.0029  0.0000
                                           -0.0004 -0.0001  0.0000 -0.0000 -0.0000
                                            0.0000 -0.0000 -0.0000
    56. (0.00701) RY*( 1) C   1           s(  0.00%)p 1.00( 97.87%)d 0.02(  2.13%)
                                            0.0000  0.0000  0.0001  0.0002  0.0000
                                            0.0056  0.1349 -0.0023  0.0072  0.0421
                                            0.9782 -0.0317 -0.0238  0.0007  0.0117
                                           -0.0006 -0.0005 -0.0013  0.0383  0.1407
                                            0.0018  0.0028
    57. (0.00687) RY*( 2) C   1           s(  1.68%)p54.32( 91.30%)d 4.17(  7.02%)
                                            0.0000  0.0044  0.0908  0.0920  0.0091
                                            0.0011  0.0008  0.0001 -0.0000 -0.0009
                                            0.0111  0.0002  0.0012  0.0434 -0.9512
                                           -0.0061 -0.0787  0.0119  0.0011  0.0068
                                           -0.0632 -0.2569
    58. (0.00213) RY*( 3) C   1           s(  0.01%)p 1.00( 53.88%)d 0.86( 46.11%)
                                           -0.0000 -0.0001  0.0079 -0.0009  0.0010
                                           -0.0113 -0.7203 -0.0782  0.0042  0.0044
                                            0.1042 -0.0511 -0.0167 -0.0002 -0.0001
                                            0.0046  0.0003  0.0624 -0.6635  0.1299
                                            0.0082  0.0060
    59. (0.00086) RY*( 4) C   1           s(  3.66%)p 0.29(  1.07%)d26.05( 95.27%)
                                           -0.0000 -0.0020  0.1900 -0.0138  0.0172
                                           -0.0098  0.0395  0.0042  0.0001  0.0009
                                           -0.0027  0.0052  0.0043 -0.0086  0.0048
                                            0.0940  0.0077  0.9657  0.0469 -0.0240
                                            0.1203  0.0537
    60. (0.00046) RY*( 5) C   1           s(  0.00%)p 1.00( 12.77%)d 6.83( 87.23%)
                                            0.0000 -0.0000  0.0057  0.0002  0.0002
                                            0.0059 -0.1071  0.0281 -0.0603  0.0134
                                           -0.1364 -0.2807 -0.1189 -0.0000 -0.0013
                                           -0.0030 -0.0016  0.0101  0.2907  0.8871
                                            0.0143  0.0221
    61. (0.00032) RY*( 6) C   1           s( 91.19%)p 0.04(  3.26%)d 0.06(  5.55%)
                                           -0.0000  0.0034  0.9426  0.1468 -0.0431
                                            0.0007 -0.0013 -0.0004  0.0003  0.0004
                                           -0.0014  0.0022 -0.0007 -0.0335  0.1441
                                           -0.0895  0.0520 -0.1557 -0.0052  0.0029
                                           -0.0850 -0.1549
    62. (0.00025) RY*( 7) C   1           s( 24.33%)p 0.33(  8.12%)d 2.78( 67.55%)
                                            0.0000  0.0083 -0.2439  0.4274 -0.0327
                                           -0.0001  0.0001  0.0000 -0.0000 -0.0004
                                           -0.0035  0.0020 -0.0004  0.0257  0.2443
                                           -0.1406  0.0333  0.1347  0.0021  0.0220
                                           -0.1866 -0.7887
    63. (0.00012) RY*( 8) C   1           s(  0.00%)p 1.00( 77.66%)d 0.29( 22.34%)
                                            0.0000  0.0000  0.0002 -0.0001 -0.0000
                                            0.0053 -0.2477  0.0830 -0.1030  0.0023
                                            0.0489 -0.7193 -0.4217  0.0000  0.0007
                                           -0.0103 -0.0061 -0.0042  0.2533 -0.3989
                                           -0.0056 -0.0100
    64. (0.00010) RY*( 9) C   1           s(  5.36%)p 7.47( 40.03%)d10.20( 54.62%)
    65. (0.00003) RY*(10) C   1           s(  0.00%)p 1.00( 68.61%)d 0.46( 31.39%)
    66. (0.00001) RY*(11) C   1           s(  2.04%)p27.49( 55.96%)d20.64( 42.01%)
    67. (0.00002) RY*(12) C   1           s(  0.00%)p 1.00( 93.35%)d 0.07(  6.65%)
    68. (0.00001) RY*(13) C   1           s( 73.75%)p 0.06(  4.28%)d 0.30( 21.97%)
    69. (0.00000) RY*(14) C   1           s( 94.98%)p 0.02(  2.16%)d 0.03(  2.86%)
    70. (0.00000) RY*(15) C   1           s(  2.95%)p31.96( 94.19%)d 0.97(  2.86%)
    71. (0.00000) RY*(16) C   1           s(  0.00%)p 1.00( 99.01%)d 0.01(  0.99%)
    72. (0.00000) RY*(17) C   1           s(  0.00%)p 1.00( 96.74%)d 0.03(  3.26%)
    73. (0.00627) RY*( 1) C   2           s(  1.53%)p61.78( 94.80%)d 2.39(  3.66%)
                                            0.0000  0.0211  0.0754  0.0959  0.0030
                                           -0.0018 -0.0334  0.0035  0.0076 -0.0426
                                            0.6116 -0.0447  0.0376 -0.0156  0.7530
                                            0.0038  0.0158  0.0230  0.0080  0.1605
                                           -0.0660 -0.0770
    74. (0.00264) RY*( 2) C   2           s(  1.42%)p68.29( 96.73%)d 1.31(  1.85%)
                                           -0.0000 -0.0056  0.1189  0.0014  0.0016
                                            0.0015  0.1653 -0.0164 -0.0018 -0.0268
                                           -0.7329  0.0973  0.0509  0.0380  0.6106
                                           -0.0636 -0.1067 -0.0007  0.0091 -0.1085
                                            0.0003 -0.0815
    75. (0.00149) RY*( 3) C   2           s(  2.16%)p33.92( 73.18%)d11.43( 24.66%)
                                           -0.0000 -0.0032  0.1464  0.0088  0.0068
                                           -0.0056 -0.8387 -0.0652 -0.0492 -0.0046
                                           -0.1174 -0.0269  0.0110  0.0076  0.0490
                                            0.0640 -0.0224 -0.3239  0.3754 -0.0198
                                           -0.0020 -0.0200
    76. (0.00065) RY*( 4) C   2           s( 85.25%)p 0.11(  8.98%)d 0.07(  5.77%)
                                            0.0000  0.0061  0.9212 -0.0613  0.0127
                                           -0.0037  0.1477 -0.0431  0.0381 -0.0205
                                            0.0730 -0.0477  0.0409 -0.0175 -0.1644
                                           -0.1406  0.0887  0.0228  0.0440 -0.0570
                                           -0.1145 -0.1973
    77. (0.00034) RY*( 5) C   2           s(  2.53%)p 7.55( 19.11%)d30.96( 78.36%)
                                           -0.0000  0.0005  0.1451  0.0649  0.0063
                                            0.0041 -0.4157  0.0083 -0.0818 -0.0042
                                           -0.0615  0.0470  0.0092  0.0004  0.0273
                                           -0.0666 -0.0175  0.1629 -0.8564  0.0124
                                           -0.0229  0.1516
    78. (0.00018) RY*( 6) C   2           s( 25.25%)p 1.42( 35.77%)d 1.54( 38.98%)
                                            0.0000  0.0021  0.0113  0.5001 -0.0479
                                           -0.0025  0.0578 -0.0618  0.0641  0.0086
                                            0.0188  0.0405 -0.1562  0.0002  0.0588
                                           -0.1243  0.5487 -0.1493  0.0378 -0.4675
                                           -0.0656  0.3785
    79. (0.00011) RY*( 7) C   2           s(  0.66%)p99.99( 66.44%)d50.17( 32.91%)
                                           -0.0000  0.0003  0.0269  0.0741  0.0186
                                           -0.0019  0.1860 -0.7296  0.0341 -0.0018
                                            0.0313  0.1077  0.0884  0.0006 -0.0312
                                            0.1955 -0.1917 -0.5087 -0.1704  0.1528
                                           -0.0706  0.1136
    80. (0.00011) RY*( 8) C   2           s(  2.03%)p35.13( 71.30%)d13.14( 26.67%)
                                           -0.0000  0.0050  0.0885  0.0681  0.0884
                                            0.0031  0.0258 -0.0650 -0.0257 -0.0130
                                           -0.1195 -0.2596 -0.6049  0.0083  0.0415
                                            0.4098  0.2999  0.0077 -0.0771  0.2804
                                            0.3819 -0.1905
    81. (0.00008) RY*( 9) C   2           s( 10.53%)p 2.43( 25.55%)d 6.07( 63.93%)
    82. (0.00004) RY*(10) C   2           s(  9.31%)p 5.17( 48.13%)d 4.57( 42.55%)
    83. (0.00005) RY*(11) C   2           s(  2.37%)p23.67( 56.20%)d17.44( 41.42%)
    84. (0.00001) RY*(12) C   2           s(  6.64%)p10.00( 66.38%)d 4.07( 26.99%)
    85. (0.00000) RY*(13) C   2           s( 96.85%)p 0.02(  1.48%)d 0.02(  1.67%)
    86. (0.00001) RY*(14) C   2           s(  0.48%)p99.99( 57.08%)d88.40( 42.44%)
    87. (0.00000) RY*(15) C   2           s(  0.47%)p99.99( 98.57%)d 2.01(  0.95%)
    88. (0.00001) RY*(16) C   2           s( 52.41%)p 0.77( 40.35%)d 0.14(  7.24%)
    89. (0.00000) RY*(17) C   2           s(  0.12%)p99.99( 40.14%)d99.99( 59.75%)
    90. (0.00627) RY*( 1) C   3           s(  1.53%)p61.79( 94.80%)d 2.39(  3.66%)
                                           -0.0000  0.0211  0.0754  0.0959  0.0030
                                            0.0018  0.0334 -0.0035 -0.0076 -0.0430
                                            0.6328 -0.0446  0.0381  0.0144 -0.7353
                                           -0.0050 -0.0147 -0.0232  0.0074 -0.1546
                                           -0.0705 -0.0848
    91. (0.00264) RY*( 2) C   3           s(  1.42%)p68.28( 96.73%)d 1.31(  1.85%)
                                           -0.0000 -0.0056  0.1189  0.0014  0.0016
                                           -0.0015 -0.1654  0.0165  0.0018 -0.0257
                                           -0.7153  0.0955  0.0479 -0.0388 -0.6312
                                            0.0664  0.1081  0.0004  0.0092  0.1123
                                            0.0034 -0.0761
    92. (0.00149) RY*( 3) C   3           s(  2.15%)p33.98( 73.19%)d11.45( 24.66%)
                                           -0.0000 -0.0032  0.1463  0.0088  0.0068
                                            0.0056  0.8387  0.0652  0.0492 -0.0043
                                           -0.1160 -0.0251  0.0104 -0.0078 -0.0524
                                           -0.0648  0.0227  0.3131  0.3844  0.0208
                                           -0.0015 -0.0190
    93. (0.00065) RY*( 4) C   3           s( 85.26%)p 0.11(  8.97%)d 0.07(  5.77%)
                                           -0.0000  0.0061  0.9212 -0.0612  0.0127
                                            0.0037 -0.1476  0.0429 -0.0381 -0.0210
                                            0.0683 -0.0517  0.0434  0.0169  0.1664
                                            0.1390 -0.0876 -0.0240  0.0434  0.0699
                                           -0.1126 -0.1941
    94. (0.00034) RY*( 5) C   3           s(  2.53%)p 7.55( 19.11%)d30.95( 78.36%)
                                           -0.0000  0.0005  0.1451  0.0649  0.0063
                                           -0.0041  0.4156 -0.0082  0.0818 -0.0042
                                           -0.0607  0.0451  0.0087 -0.0005 -0.0290
                                            0.0680  0.0177 -0.1385 -0.8606 -0.0192
                                           -0.0234  0.1508
    95. (0.00018) RY*( 6) C   3           s( 25.25%)p 1.42( 35.76%)d 1.54( 38.99%)
                                            0.0000  0.0021  0.0113  0.5000 -0.0479
                                            0.0025 -0.0578  0.0617 -0.0640  0.0086
                                            0.0205  0.0369 -0.1405  0.0001 -0.0582
                                            0.1255 -0.5528  0.1481  0.0420  0.4501
                                           -0.0526  0.4011
    96. (0.00011) RY*( 7) C   3           s(  0.63%)p99.99( 66.47%)d52.15( 32.90%)
                                           -0.0000  0.0002  0.0260  0.0731  0.0171
                                            0.0019 -0.1857  0.7281 -0.0346 -0.0016
                                            0.0323  0.1170  0.0924 -0.0006  0.0327
                                           -0.1867  0.1991  0.5133 -0.1546 -0.1518
                                           -0.0805  0.1098
    97. (0.00011) RY*( 8) C   3           s(  2.06%)p34.66( 71.26%)d12.98( 26.69%)
                                           -0.0000  0.0050  0.0886  0.0693  0.0887
                                           -0.0031 -0.0286  0.0763  0.0252 -0.0128
                                           -0.1177 -0.2462 -0.5949 -0.0087 -0.0443
                                           -0.4195 -0.3141  0.0023 -0.0797 -0.2836
                                            0.3726 -0.2030
    98. (0.00008) RY*( 9) C   3           s( 10.52%)p 2.42( 25.51%)d 6.08( 63.96%)
    99. (0.00004) RY*(10) C   3           s(  9.48%)p 5.12( 48.59%)d 4.42( 41.93%)
   100. (0.00005) RY*(11) C   3           s(  2.19%)p25.45( 55.80%)d19.16( 42.00%)
   101. (0.00001) RY*(12) C   3           s( 53.22%)p 0.74( 39.27%)d 0.14(  7.51%)
   102. (0.00000) RY*(13) C   3           s(  0.11%)p99.99( 40.19%)d99.99( 59.69%)
   103. (0.00001) RY*(14) C   3           s(  0.46%)p99.99( 57.48%)d92.13( 42.07%)
   104. (0.00001) RY*(15) C   3           s(  6.05%)p11.11( 67.25%)d 4.41( 26.70%)
   105. (0.00000) RY*(16) C   3           s( 96.69%)p 0.01(  1.20%)d 0.02(  2.11%)
   106. (0.00000) RY*(17) C   3           s(  0.45%)p99.99( 98.61%)d 2.09(  0.94%)
   107. (0.00701) RY*( 1) C   4           s(  0.00%)p 1.00( 97.87%)d 0.02(  2.13%)
                                            0.0000  0.0000  0.0004  0.0005  0.0000
                                           -0.0056 -0.1349  0.0023 -0.0072  0.0421
                                            0.9781 -0.0317 -0.0238  0.0004  0.0186
                                           -0.0004  0.0001  0.0001  0.0383 -0.1407
                                           -0.0024 -0.0048
   108. (0.00687) RY*( 2) C   4           s(  1.68%)p54.32( 91.30%)d 4.17(  7.02%)
                                            0.0000  0.0044  0.0908  0.0920  0.0091
                                           -0.0011 -0.0005 -0.0001  0.0000  0.0003
                                           -0.0186  0.0001 -0.0010 -0.0434  0.9511
                                            0.0061  0.0787 -0.0120  0.0007  0.0080
                                           -0.0631 -0.2569
   109. (0.00213) RY*( 3) C   4           s(  0.01%)p 1.00( 53.88%)d 0.86( 46.11%)
                                           -0.0000 -0.0001  0.0078 -0.0009  0.0010
                                            0.0113  0.7203  0.0782 -0.0042  0.0044
                                            0.1042 -0.0509 -0.0166  0.0004  0.0031
                                           -0.0058 -0.0008 -0.0435 -0.6650 -0.1302
                                            0.0045 -0.0004
   110. (0.00086) RY*( 4) C   4           s(  3.66%)p 0.29(  1.07%)d26.05( 95.27%)
                                           -0.0000 -0.0020  0.1900 -0.0138  0.0172
                                            0.0098 -0.0394 -0.0042 -0.0001  0.0007
                                           -0.0026  0.0076  0.0046  0.0086 -0.0049
                                           -0.0938 -0.0076 -0.9666  0.0195  0.0178
                                            0.1209  0.0548
   111. (0.00046) RY*( 5) C   4           s(  0.00%)p 1.00( 12.77%)d 6.83( 87.23%)
                                            0.0000 -0.0000  0.0061  0.0001  0.0002
                                           -0.0059  0.1071 -0.0281  0.0603  0.0134
                                           -0.1364 -0.2807 -0.1189  0.0005 -0.0025
                                           -0.0054 -0.0018 -0.0180  0.2903 -0.8872
                                           -0.0108 -0.0211
   112. (0.00032) RY*( 6) C   4           s( 91.19%)p 0.04(  3.26%)d 0.06(  5.55%)
                                           -0.0000  0.0034  0.9426  0.1468 -0.0431
                                           -0.0007  0.0014  0.0003 -0.0003 -0.0006
                                            0.0027 -0.0005  0.0007  0.0335 -0.1441
                                            0.0895 -0.0520  0.1558 -0.0008  0.0075
                                           -0.0850 -0.1548
   113. (0.00025) RY*( 7) C   4           s( 24.33%)p 0.33(  8.12%)d 2.78( 67.55%)
                                            0.0000  0.0083 -0.2439  0.4274 -0.0327
                                            0.0001 -0.0002 -0.0000  0.0000  0.0004
                                            0.0034 -0.0021  0.0005 -0.0257 -0.2443
                                            0.1406 -0.0333 -0.1347 -0.0015  0.0217
                                           -0.1866 -0.7887
   114. (0.00012) RY*( 8) C   4           s(  0.00%)p 1.00( 77.66%)d 0.29( 22.34%)
                                           -0.0000  0.0000  0.0002 -0.0000  0.0001
                                            0.0053 -0.2477  0.0830 -0.1030 -0.0023
                                           -0.0489  0.7193  0.4217 -0.0000 -0.0008
                                            0.0101  0.0065  0.0030 -0.2533 -0.3989
                                           -0.0050 -0.0100
   115. (0.00010) RY*( 9) C   4           s(  5.36%)p 7.47( 40.03%)d10.20( 54.62%)
   116. (0.00003) RY*(10) C   4           s(  0.00%)p 1.00( 68.61%)d 0.46( 31.39%)
   117. (0.00002) RY*(11) C   4           s(  0.00%)p 1.00( 93.35%)d 0.07(  6.65%)
   118. (0.00001) RY*(12) C   4           s( 67.17%)p 0.06(  4.22%)d 0.43( 28.61%)
   119. (0.00002) RY*(13) C   4           s( 10.67%)p 4.93( 52.65%)d 3.44( 36.68%)
   120. (0.00000) RY*(14) C   4           s(  0.00%)p 1.00( 99.01%)d 0.01(  0.99%)
   121. (0.00000) RY*(15) C   4           s( 95.46%)p 0.04(  3.56%)d 0.01(  0.98%)
   122. (0.00000) RY*(16) C   4           s(  0.41%)p99.99( 96.17%)d 8.29(  3.42%)
   123. (0.00000) RY*(17) C   4           s(  0.00%)p 1.00( 96.74%)d 0.03(  3.26%)
   124. (0.00626) RY*( 1) C   5           s(  1.53%)p62.12( 94.80%)d 2.41(  3.67%)
                                            0.0000  0.0211  0.0749  0.0959  0.0030
                                            0.0009 -0.0283  0.0038  0.0079  0.0428
                                           -0.6119  0.0445 -0.0376  0.0159 -0.7530
                                           -0.0033 -0.0159 -0.0248 -0.0058  0.1606
                                           -0.0660 -0.0769
   125. (0.00264) RY*( 2) C   5           s(  1.46%)p66.13( 96.64%)d 1.30(  1.89%)
                                           -0.0000 -0.0057  0.1207  0.0014  0.0017
                                            0.0016  0.1549 -0.0174 -0.0023  0.0268
                                            0.7346 -0.0969 -0.0511 -0.0381 -0.6108
                                            0.0626  0.1069  0.0058 -0.0170 -0.1090
                                            0.0003 -0.0822
   126. (0.00128) RY*( 3) C   5           s(  2.84%)p24.96( 70.92%)d 9.23( 26.24%)
                                           -0.0000 -0.0030  0.1682  0.0083  0.0074
                                            0.0191 -0.8273 -0.0714 -0.0460  0.0069
                                            0.1008  0.0304 -0.0114 -0.0039 -0.0397
                                           -0.0641  0.0175  0.3300 -0.3907 -0.0159
                                           -0.0034 -0.0243
   127. (0.00065) RY*( 4) C   5           s( 83.61%)p 0.12( 10.33%)d 0.07(  6.05%)
                                            0.0000  0.0062  0.9121 -0.0630  0.0122
                                           -0.0035  0.1829 -0.0417  0.0420  0.0202
                                           -0.0778  0.0480 -0.0405  0.0177  0.1667
                                            0.1407 -0.0899 -0.0266 -0.0589 -0.0572
                                           -0.1138 -0.2003
   128. (0.00038) RY*( 5) C   5           s(  3.37%)p 6.01( 20.21%)d22.70( 76.42%)
                                           -0.0000  0.0006  0.1741  0.0575  0.0072
                                           -0.0046 -0.4281  0.0146 -0.0832  0.0043
                                            0.0635 -0.0430 -0.0092 -0.0009 -0.0248
                                            0.0689  0.0183 -0.1651  0.8471  0.0094
                                           -0.0270  0.1362
   129. (0.00018) RY*( 6) C   5           s( 25.32%)p 1.41( 35.69%)d 1.54( 38.99%)
                                            0.0000  0.0021  0.0121  0.5008 -0.0479
                                           -0.0022  0.0553 -0.0625  0.0635 -0.0086
                                           -0.0185 -0.0413  0.1557 -0.0002 -0.0589
                                            0.1250 -0.5481  0.1480 -0.0291 -0.4669
                                           -0.0658  0.3805
   130. (0.00011) RY*( 7) C   5           s(  0.66%)p99.99( 66.35%)d50.00( 32.99%)
                                           -0.0000  0.0003  0.0276  0.0741  0.0188
                                           -0.0020  0.1869 -0.7289  0.0334  0.0018
                                           -0.0311 -0.1082 -0.0878 -0.0006  0.0313
                                           -0.1945  0.1923  0.5042  0.1837  0.1542
                                           -0.0702  0.1151
   131. (0.00011) RY*( 8) C   5           s(  2.02%)p35.26( 71.35%)d13.16( 26.62%)
                                           -0.0000  0.0050  0.0880  0.0682  0.0885
                                            0.0027  0.0283 -0.0643 -0.0257  0.0129
                                            0.1191  0.2598  0.6055 -0.0083 -0.0412
                                           -0.4092 -0.3003 -0.0087  0.0771  0.2792
                                            0.3813 -0.1921
   132. (0.00008) RY*( 9) C   5           s( 10.53%)p 2.42( 25.51%)d 6.07( 63.96%)
   133. (0.00004) RY*(10) C   5           s(  9.28%)p 5.18( 48.04%)d 4.60( 42.68%)
   134. (0.00005) RY*(11) C   5           s(  2.40%)p23.45( 56.33%)d17.19( 41.27%)
   135. (0.00001) RY*(12) C   5           s(  6.72%)p 9.87( 66.34%)d 4.01( 26.94%)
   136. (0.00000) RY*(13) C   5           s( 96.83%)p 0.02(  1.47%)d 0.02(  1.70%)
   137. (0.00001) RY*(14) C   5           s(  0.48%)p99.99( 57.04%)d89.09( 42.48%)
   138. (0.00000) RY*(15) C   5           s(  0.41%)p99.99( 98.72%)d 2.12(  0.87%)
   139. (0.00001) RY*(16) C   5           s( 52.43%)p 0.77( 40.26%)d 0.14(  7.30%)
   140. (0.00000) RY*(17) C   5           s(  0.11%)p99.99( 40.17%)d99.99( 59.72%)
   141. (0.00626) RY*( 1) C   6           s(  1.53%)p62.13( 94.80%)d 2.41(  3.67%)
                                            0.0000  0.0211  0.0749  0.0959  0.0030
                                           -0.0009  0.0283 -0.0038 -0.0079  0.0432
                                           -0.6331  0.0444 -0.0380 -0.0147  0.7353
                                            0.0046  0.0148  0.0250 -0.0051 -0.1547
                                           -0.0705 -0.0847
   142. (0.00264) RY*( 2) C   6           s(  1.46%)p66.11( 96.64%)d 1.30(  1.89%)
                                           -0.0000 -0.0057  0.1208  0.0014  0.0017
                                           -0.0016 -0.1549  0.0175  0.0023  0.0257
                                            0.7169 -0.0950 -0.0480  0.0388  0.6314
                                           -0.0654 -0.1083 -0.0053 -0.0171  0.1128
                                            0.0034 -0.0767
   143. (0.00128) RY*( 3) C   6           s(  2.84%)p25.00( 70.93%)d 9.25( 26.24%)
                                           -0.0000 -0.0030  0.1680  0.0083  0.0074
                                           -0.0191  0.8273  0.0714  0.0460  0.0068
                                            0.0996  0.0286 -0.0109  0.0041  0.0426
                                            0.0649 -0.0178 -0.3187 -0.3999  0.0172
                                           -0.0030 -0.0235
   144. (0.00065) RY*( 4) C   6           s( 83.62%)p 0.12( 10.33%)d 0.07(  6.05%)
                                            0.0000  0.0062  0.9122 -0.0629  0.0122
                                            0.0035 -0.1828  0.0416 -0.0420  0.0207
                                           -0.0730  0.0520 -0.0430 -0.0171 -0.1689
                                           -0.1391  0.0888  0.0282 -0.0582  0.0702
                                           -0.1120 -0.1972
   145. (0.00038) RY*( 5) C   6           s(  3.37%)p 6.00( 20.22%)d22.69( 76.42%)
                                           -0.0000  0.0006  0.1741  0.0576  0.0072
                                            0.0046  0.4281 -0.0146  0.0832  0.0042
                                            0.0628 -0.0410 -0.0088  0.0011  0.0266
                                           -0.0702 -0.0185  0.1410  0.8514 -0.0153
                                           -0.0274  0.1356
   146. (0.00018) RY*( 6) C   6           s( 25.31%)p 1.41( 35.68%)d 1.54( 39.00%)
                                            0.0000  0.0021  0.0120  0.5007 -0.0479
                                            0.0022 -0.0553  0.0624 -0.0634 -0.0086
                                           -0.0201 -0.0376  0.1400 -0.0001  0.0584
                                           -0.1261  0.5523 -0.1470 -0.0334  0.4494
                                           -0.0528  0.4032
   147. (0.00011) RY*( 7) C   6           s(  0.66%)p99.99( 66.35%)d50.15( 33.00%)
                                           -0.0000  0.0003  0.0278  0.0740  0.0184
                                            0.0020 -0.1869  0.7284 -0.0336  0.0018
                                           -0.0305 -0.1143 -0.0841  0.0007 -0.0323
                                            0.1910 -0.1956 -0.5092  0.1691 -0.1569
                                           -0.0754  0.1086
   148. (0.00011) RY*( 8) C   6           s(  2.03%)p35.20( 71.34%)d13.14( 26.63%)
                                           -0.0000  0.0050  0.0878  0.0685  0.0886
                                           -0.0027 -0.0287  0.0663  0.0256  0.0127
                                            0.1178  0.2478  0.5967  0.0087  0.0445
                                            0.4164  0.3170  0.0052  0.0778 -0.2804
                                            0.3730 -0.2060
   149. (0.00008) RY*( 9) C   6           s( 10.53%)p 2.42( 25.47%)d 6.08( 64.00%)
   150. (0.00004) RY*(10) C   6           s(  9.28%)p 5.18( 48.08%)d 4.60( 42.64%)
   151. (0.00005) RY*(11) C   6           s(  2.39%)p23.61( 56.34%)d17.29( 41.27%)
   152. (0.00001) RY*(12) C   6           s(  6.19%)p10.72( 66.32%)d 4.44( 27.49%)
   153. (0.00000) RY*(13) C   6           s( 96.60%)p 0.01(  1.15%)d 0.02(  2.24%)
   154. (0.00001) RY*(14) C   6           s(  0.47%)p99.99( 58.28%)d87.05( 41.24%)
   155. (0.00000) RY*(15) C   6           s(  0.46%)p99.99( 98.62%)d 1.96(  0.91%)
   156. (0.00001) RY*(16) C   6           s( 53.16%)p 0.74( 39.55%)d 0.14(  7.29%)
   157. (0.00000) RY*(17) C   6           s(  0.11%)p99.99( 40.07%)d99.99( 59.82%)
   158. (0.00238) RY*( 1)Br   7           s(  0.00%)p 1.00( 41.05%)d 1.44( 58.95%)
                                           -0.0000  0.0000 -0.0000 -0.0000  0.0000
                                            0.0000 -0.0000  0.0000 -0.0000  0.0000
                                            0.0000  0.0008  0.6222  0.1013  0.0111
                                            0.0052 -0.0006 -0.0000 -0.0000  0.0008
                                           -0.1094 -0.0302  0.0041 -0.0006  0.0000
                                           -0.0000  0.0000  0.0000 -0.0016 -0.0004
                                            0.0001 -0.0000  0.0000 -0.0000 -0.0107
                                            0.0004  0.0000  0.7572 -0.0249 -0.0000
                                           -0.1243  0.0043  0.0000 -0.0018  0.0001
                                           -0.0000 -0.0031  0.0001
   159. (0.00130) RY*( 2)Br   7           s(  0.00%)p 1.00( 71.15%)d 0.41( 28.85%)
                                            0.0000 -0.0000  0.0000 -0.0000  0.0000
                                            0.0000  0.0000  0.0000  0.0000 -0.0000
                                           -0.0000 -0.0004  0.1258  0.0147 -0.0081
                                            0.0001 -0.0002  0.0000 -0.0000 -0.0069
                                            0.8308 -0.0025 -0.0688 -0.0130 -0.0015
                                            0.0000 -0.0000 -0.0001  0.0118 -0.0000
                                           -0.0010 -0.0002 -0.0000  0.0000 -0.0014
                                           -0.0001 -0.0000  0.1017  0.0074  0.0000
                                            0.5264  0.0291  0.0000  0.0075  0.0004
                                           -0.0000  0.0129  0.0007
   160. (0.00076) RY*( 3)Br   7           s( 20.02%)p 3.06( 61.19%)d 0.94( 18.79%)
                                           -0.0000 -0.0000 -0.0000 -0.0171 -0.1168
                                            0.4316 -0.0038 -0.0005  0.0000 -0.0000
                                            0.0000  0.0000 -0.0000  0.0000 -0.0000
                                           -0.0000  0.0000  0.0000  0.0000 -0.0011
                                           -0.0108 -0.0023  0.0005  0.0005  0.0000
                                            0.0000 -0.0000  0.0773  0.7602  0.1591
                                           -0.0335 -0.0378 -0.0005  0.0000  0.0226
                                           -0.0079 -0.0000  0.0003 -0.0001  0.0000
                                           -0.0084 -0.0014  0.0000 -0.1209  0.0453
                                            0.0000  0.4120  0.0293
   161. (0.00015) RY*( 4)Br   7           s( 58.47%)p 0.25( 14.89%)d 0.46( 26.64%)
                                            0.0000  0.0000  0.0000  0.0060  0.7001
                                            0.3057  0.0332  0.0043  0.0000  0.0000
                                           -0.0000 -0.0000 -0.0001 -0.0000 -0.0000
                                           -0.0000  0.0000 -0.0000 -0.0000  0.0006
                                            0.0036 -0.0033 -0.0026 -0.0002 -0.0000
                                           -0.0000  0.0000 -0.0443 -0.2512  0.2261
                                            0.1803  0.0143  0.0004 -0.0000 -0.1432
                                            0.0304  0.0000 -0.0020  0.0004 -0.0000
                                            0.0028 -0.0004 -0.0000 -0.4571  0.1133
                                           -0.0000  0.1446 -0.0479
   162. (0.00005) RY*( 5)Br   7           s(  0.00%)p 1.00( 63.45%)d 0.58( 36.55%)
   163. (0.00005) RY*( 6)Br   7           s(  2.01%)p 0.54(  1.08%)d48.21( 96.91%)
   164. (0.00004) RY*( 7)Br   7           s(  0.00%)p 1.00( 57.56%)d 0.74( 42.44%)
   165. (0.00003) RY*( 8)Br   7           s(  3.76%)p 4.48( 16.85%)d21.11( 79.38%)
   166. (0.00000) RY*( 9)Br   7           s(  0.00%)p 1.00( 99.89%)d 0.00(  0.11%)
   167. (0.00000) RY*(10)Br   7           s(  0.00%)p 1.00(100.00%)d 0.00(  0.00%)
   168. (0.00000) RY*(11)Br   7           s( 99.54%)p 0.00(  0.11%)d 0.00(  0.36%)
   169. (0.00001) RY*(12)Br   7           s(  0.00%)p 1.00( 77.17%)d 0.30( 22.83%)
   170. (0.00000) RY*(13)Br   7           s(  0.00%)p 1.00( 99.70%)d 0.00(  0.30%)
   171. (0.00000) RY*(14)Br   7           s(  0.00%)p 1.00( 99.94%)d 0.00(  0.06%)
   172. (0.00000) RY*(15)Br   7           s(  0.00%)p 1.00(100.00%)d 0.00(  0.00%)
   173. (0.00000) RY*(16)Br   7           s(100.00%)p 0.00(  0.00%)d 0.00(  0.00%)
   174. (0.00000) RY*(17)Br   7           s(  4.22%)p21.77( 91.91%)d 0.92(  3.87%)
   175. (0.00001) RY*(18)Br   7           s(  2.39%)p34.70( 82.82%)d 6.20( 14.80%)
   176. (0.00000) RY*(19)Br   7           s(  0.20%)p99.99( 98.70%)d 5.35(  1.10%)
   177. (0.00000) RY*(20)Br   7           s(  0.00%)p 1.00( 99.99%)d 0.00(  0.01%)
   178. (0.00000) RY*(21)Br   7           s(100.00%)p 0.00(  0.00%)d 0.00(  0.00%)
   179. (0.00000) RY*(22)Br   7           s(  0.01%)p 1.00(  0.01%)d99.99( 99.98%)
   180. (0.00000) RY*(23)Br   7           s( 71.52%)p 0.28( 19.68%)d 0.12(  8.80%)
   181. (0.00000) RY*(24)Br   7           s(  0.00%)p 1.00(  2.07%)d47.41( 97.93%)
   182. (0.00000) RY*(25)Br   7           s(  0.00%)p 1.00( 85.66%)d 0.17( 14.34%)
   183. (0.00000) RY*(26)Br   7           s(  0.00%)p 1.00(  2.40%)d40.68( 97.60%)
   184. (0.00001) RY*(27)Br   7           s( 35.38%)p 0.33( 11.67%)d 1.50( 52.96%)
   185. (0.00000) RY*(28)Br   7           s(  1.00%)p 0.41(  0.41%)d98.77( 98.59%)
   186. (0.00000) RY*(29)Br   7           s(  0.00%)p 1.00(100.00%)d 0.00(  0.00%)
   187. (0.00000) RY*(30)Br   7           s(  1.26%)p 1.01(  1.28%)d77.14( 97.46%)
   188. (0.00056) RY*( 1) H   8           s(100.00%)
                                           -0.0018  1.0000  0.0031  0.0003
   189. (0.00019) RY*( 2) H   8           s(100.00%)
                                           -0.0009 -0.0031  1.0000  0.0006
   190. (0.00008) RY*( 3) H   8           s(100.00%)
   191. (0.00056) RY*( 1) H   9           s(100.00%)
                                           -0.0018  1.0000  0.0031  0.0003
   192. (0.00019) RY*( 2) H   9           s(100.00%)
                                           -0.0009 -0.0031  1.0000  0.0006
   193. (0.00008) RY*( 3) H   9           s(100.00%)
   194. (0.00238) RY*( 1)Br  10           s(  0.00%)p 1.00( 41.05%)d 1.44( 58.95%)
                                            0.0000 -0.0000  0.0000  0.0000 -0.0000
                                           -0.0000  0.0000 -0.0000  0.0000 -0.0000
                                           -0.0000 -0.0008 -0.6222 -0.1013 -0.0111
                                           -0.0052  0.0006 -0.0000  0.0000  0.0008
                                           -0.1094 -0.0302  0.0041 -0.0006  0.0000
                                           -0.0000  0.0000  0.0000 -0.0016 -0.0004
                                            0.0001 -0.0000  0.0000  0.0000 -0.0107
                                            0.0004  0.0000  0.7572 -0.0249 -0.0000
                                            0.1243 -0.0043  0.0000  0.0018 -0.0001
                                           -0.0000  0.0031 -0.0001
   195. (0.00130) RY*( 2)Br  10           s(  0.00%)p 1.00( 71.15%)d 0.41( 28.85%)
                                           -0.0000  0.0000 -0.0000  0.0000 -0.0000
                                           -0.0000 -0.0000 -0.0000 -0.0000  0.0000
                                            0.0000  0.0004 -0.1258 -0.0147  0.0081
                                           -0.0001  0.0002  0.0000 -0.0000 -0.0069
                                            0.8308 -0.0025 -0.0688 -0.0130 -0.0015
                                            0.0000 -0.0000 -0.0001  0.0118 -0.0000
                                           -0.0010 -0.0002 -0.0000 -0.0000 -0.0014
                                           -0.0001 -0.0000  0.1017  0.0074  0.0000
                                           -0.5264 -0.0291 -0.0000 -0.0075 -0.0004
                                            0.0000 -0.0129 -0.0007
   196. (0.00076) RY*( 3)Br  10           s( 20.02%)p 3.06( 61.19%)d 0.94( 18.79%)
                                            0.0000 -0.0000 -0.0000 -0.0171 -0.1168
                                            0.4316 -0.0038 -0.0005  0.0000 -0.0000
                                            0.0000  0.0000 -0.0000  0.0000 -0.0000
                                           -0.0000  0.0000  0.0000  0.0000  0.0011
                                            0.0108  0.0023 -0.0005 -0.0005 -0.0000
                                           -0.0000 -0.0000 -0.0773 -0.7602 -0.1591
                                            0.0335  0.0378  0.0005 -0.0000 -0.0226
                                            0.0079  0.0000 -0.0003  0.0001  0.0000
                                           -0.0084 -0.0014  0.0000 -0.1209  0.0453
                                            0.0000  0.4120  0.0293
   197. (0.00015) RY*( 4)Br  10           s( 58.47%)p 0.25( 14.89%)d 0.46( 26.64%)
                                           -0.0000  0.0000  0.0000  0.0060  0.7001
                                            0.3057  0.0332  0.0043  0.0000  0.0000
                                           -0.0000 -0.0000 -0.0001 -0.0000 -0.0000
                                           -0.0000  0.0000 -0.0000 -0.0000 -0.0006
                                           -0.0036  0.0033  0.0026  0.0002  0.0000
                                            0.0000  0.0000  0.0443  0.2512 -0.2261
                                           -0.1803 -0.0143 -0.0004  0.0000  0.1432
                                           -0.0304 -0.0000  0.0020 -0.0004 -0.0000
                                            0.0028 -0.0004 -0.0000 -0.4571  0.1133
                                           -0.0000  0.1446 -0.0479
   198. (0.00005) RY*( 5)Br  10           s(  0.00%)p 1.00( 63.45%)d 0.58( 36.55%)
   199. (0.00005) RY*( 6)Br  10           s(  2.01%)p 0.54(  1.08%)d48.21( 96.91%)
   200. (0.00004) RY*( 7)Br  10           s(  0.00%)p 1.00( 57.56%)d 0.74( 42.44%)
   201. (0.00003) RY*( 8)Br  10           s(  3.76%)p 4.48( 16.85%)d21.11( 79.38%)
   202. (0.00000) RY*( 9)Br  10           s(  0.00%)p 1.00( 99.89%)d 0.00(  0.11%)
   203. (0.00000) RY*(10)Br  10           s(  0.00%)p 1.00(100.00%)d 0.00(  0.00%)
   204. (0.00000) RY*(11)Br  10           s( 99.54%)p 0.00(  0.11%)d 0.00(  0.36%)
   205. (0.00001) RY*(12)Br  10           s(  0.00%)p 1.00( 77.17%)d 0.30( 22.83%)
   206. (0.00000) RY*(13)Br  10           s(  0.00%)p 1.00( 99.70%)d 0.00(  0.30%)
   207. (0.00000) RY*(14)Br  10           s(  0.00%)p 1.00( 99.94%)d 0.00(  0.06%)
   208. (0.00000) RY*(15)Br  10           s(  0.00%)p 1.00(100.00%)d 0.00(  0.00%)
   209. (0.00000) RY*(16)Br  10           s(100.00%)p 0.00(  0.00%)d 0.00(  0.00%)
   210. (0.00000) RY*(17)Br  10           s(  4.22%)p21.77( 91.91%)d 0.92(  3.87%)
   211. (0.00001) RY*(18)Br  10           s(  2.39%)p34.70( 82.82%)d 6.20( 14.80%)
   212. (0.00000) RY*(19)Br  10           s(  0.20%)p99.99( 98.70%)d 5.35(  1.10%)
   213. (0.00000) RY*(20)Br  10           s(  0.00%)p 1.00( 99.99%)d 0.00(  0.01%)
   214. (0.00000) RY*(21)Br  10           s(100.00%)p 0.00(  0.00%)d 0.00(  0.00%)
   215. (0.00000) RY*(22)Br  10           s(  0.01%)p 1.00(  0.01%)d99.99( 99.98%)
   216. (0.00000) RY*(23)Br  10           s( 71.52%)p 0.28( 19.68%)d 0.12(  8.80%)
   217. (0.00000) RY*(24)Br  10           s(  0.00%)p 1.00(  2.07%)d47.41( 97.93%)
   218. (0.00000) RY*(25)Br  10           s(  0.00%)p 1.00( 85.66%)d 0.17( 14.34%)
   219. (0.00000) RY*(26)Br  10           s(  0.00%)p 1.00(  2.40%)d40.68( 97.60%)
   220. (0.00001) RY*(27)Br  10           s( 35.38%)p 0.33( 11.67%)d 1.50( 52.96%)
   221. (0.00000) RY*(28)Br  10           s(  1.00%)p 0.41(  0.41%)d98.77( 98.59%)
   222. (0.00000) RY*(29)Br  10           s(  0.00%)p 1.00(100.00%)d 0.00(  0.00%)
   223. (0.00000) RY*(30)Br  10           s(  1.26%)p 1.01(  1.28%)d77.14( 97.46%)
   224. (0.00056) RY*( 1) H  11           s(100.00%)
                                           -0.0018  1.0000  0.0031  0.0003
   225. (0.00019) RY*( 2) H  11           s(100.00%)
                                           -0.0009 -0.0031  1.0000  0.0006
   226. (0.00008) RY*( 3) H  11           s(100.00%)
   227. (0.00056) RY*( 1) H  12           s(100.00%)
                                           -0.0018  1.0000  0.0031  0.0003
   228. (0.00019) RY*( 2) H  12           s(100.00%)
                                           -0.0009 -0.0031  1.0000  0.0006
   229. (0.00008) RY*( 3) H  12           s(100.00%)
   230. (0.02325) BD*( 1) C   1 - C   2  
                ( 49.35%)   0.7025* C   1 s( 39.92%)p 1.50( 60.04%)d 0.00(  0.04%)
                                            0.0000 -0.6317  0.0125 -0.0012  0.0000
                                           -0.0823  0.0025  0.0001 -0.0004 -0.7060
                                            0.0280 -0.0061 -0.0039  0.3069  0.0120
                                            0.0039  0.0051 -0.0031  0.0015  0.0127
                                            0.0141 -0.0012
                ( 50.65%)  -0.7117* C   2 s( 35.81%)p 1.79( 64.15%)d 0.00(  0.04%)
                                           -0.0000 -0.5979  0.0232 -0.0042 -0.0001
                                            0.0054  0.0024 -0.0016  0.0001  0.6993
                                           -0.0014 -0.0104  0.0009 -0.3876  0.0465
                                            0.0012 -0.0005 -0.0015 -0.0004  0.0116
                                            0.0164  0.0040
   231. (0.37208) BD*( 2) C   1 - C   2  
                ( 45.93%)   0.6777* C   1 s(  0.00%)p 1.00( 99.97%)d 0.00(  0.02%)
                                            0.0005  0.0062 -0.0007  0.0003 -0.0002
                                           -0.9927  0.0025  0.0185 -0.0009  0.1167
                                           -0.0002 -0.0015  0.0000  0.0148 -0.0005
                                           -0.0009 -0.0004 -0.0104  0.0118  0.0003
                                           -0.0013 -0.0005
                ( 54.07%)  -0.7353* C   2 s(  0.01%)p 1.00( 99.92%)d 0.00(  0.07%)
                                            0.0001  0.0075 -0.0008  0.0013 -0.0000
                                           -0.9906 -0.0019 -0.0159  0.0015  0.0750
                                            0.0023  0.0025  0.0009  0.1101  0.0015
                                            0.0014  0.0008  0.0257 -0.0002  0.0003
                                            0.0054 -0.0021
   232. (0.02325) BD*( 1) C   1 - C   6  
                ( 49.35%)   0.7025* C   1 s( 39.92%)p 1.50( 60.04%)d 0.00(  0.04%)
                                            0.0000 -0.6317  0.0125 -0.0012  0.0000
                                            0.0828 -0.0025 -0.0001  0.0004  0.6969
                                           -0.0283  0.0060  0.0038  0.3268  0.0112
                                            0.0040  0.0052 -0.0031 -0.0016 -0.0130
                                            0.0137 -0.0018
                ( 50.65%)  -0.7117* C   6 s( 35.81%)p 1.79( 64.15%)d 0.00(  0.04%)
                                           -0.0000 -0.5979  0.0232 -0.0042 -0.0001
                                           -0.0019 -0.0023  0.0017 -0.0001 -0.6882
                                            0.0001  0.0103 -0.0009 -0.4069  0.0466
                                            0.0015 -0.0006 -0.0014  0.0003 -0.0123
                                            0.0160  0.0034
   233. (0.04060) BD*( 1) C   1 -Br   7  
                ( 51.32%)   0.7164* C   1 s( 20.21%)p 3.94( 79.69%)d 0.01(  0.10%)
                                           -0.0002  0.4485  0.0315 -0.0034 -0.0000
                                            0.0143 -0.0000 -0.0003  0.0000 -0.0143
                                           -0.0005 -0.0001  0.0001  0.8915  0.0377
                                            0.0105 -0.0096 -0.0000 -0.0002 -0.0008
                                           -0.0010  0.0319
                ( 48.68%)  -0.6977*Br   7 s( 13.88%)p 6.18( 85.78%)d 0.02(  0.34%)
                                            0.0000  0.0000  0.0002  0.3691 -0.0509
                                            0.0011  0.0000  0.0000  0.0000 -0.0000
                                            0.0000  0.0000 -0.0000  0.0000  0.0000
                                            0.0000  0.0000 -0.0000  0.0000  0.0131
                                           -0.0009  0.0000  0.0000 -0.0000 -0.0000
                                            0.0000 -0.0002 -0.9240  0.0627 -0.0019
                                            0.0000  0.0005  0.0001 -0.0000 -0.0000
                                           -0.0001 -0.0000  0.0000 -0.0000 -0.0000
                                           -0.0014 -0.0001  0.0000 -0.0001  0.0005
                                            0.0000  0.0580  0.0028
   234. (0.01913) BD*( 1) C   2 - C   3  
                ( 50.00%)   0.7071* C   2 s( 33.57%)p 1.98( 66.40%)d 0.00(  0.04%)
                                            0.0002 -0.5793  0.0076  0.0064 -0.0001
                                            0.0819  0.0019 -0.0022  0.0002 -0.0476
                                            0.0457 -0.0047 -0.0003  0.8079 -0.0087
                                           -0.0126  0.0010 -0.0013 -0.0049 -0.0053
                                            0.0028 -0.0173
                ( 50.00%)  -0.7071* C   3 s( 33.57%)p 1.98( 66.40%)d 0.00(  0.04%)
                                            0.0002 -0.5793  0.0076  0.0064 -0.0001
                                           -0.0819 -0.0019  0.0022 -0.0002 -0.0247
                                            0.0455 -0.0051 -0.0003 -0.8089  0.0099
                                            0.0124 -0.0010  0.0014 -0.0048  0.0061
                                            0.0030 -0.0170
   235. (0.01104) BD*( 1) C   2 - H   8  
                ( 37.35%)   0.6112* C   2 s( 30.61%)p 2.26( 69.33%)d 0.00(  0.06%)
                                            0.0004 -0.5528 -0.0224 -0.0018  0.0002
                                           -0.1053  0.0002  0.0000 -0.0000 -0.7067
                                           -0.0088 -0.0018 -0.0000 -0.4270 -0.0184
                                           -0.0006 -0.0004 -0.0053 -0.0028 -0.0193
                                            0.0125  0.0021
                ( 62.65%)  -0.7915* H   8 s(100.00%)
                                           -1.0000 -0.0018 -0.0009 -0.0001
   236. (0.02325) BD*( 1) C   3 - C   4  
                ( 50.65%)   0.7117* C   3 s( 35.80%)p 1.79( 64.15%)d 0.00(  0.04%)
                                            0.0000  0.5979 -0.0232  0.0042  0.0001
                                            0.0054  0.0024 -0.0016  0.0001 -0.6880
                                            0.0001  0.0104 -0.0009 -0.4073  0.0466
                                            0.0015 -0.0006 -0.0015  0.0003  0.0123
                                           -0.0160 -0.0034
                ( 49.35%)  -0.7025* C   4 s( 39.92%)p 1.50( 60.04%)d 0.00(  0.04%)
                                           -0.0000  0.6317 -0.0125  0.0012 -0.0000
                                           -0.0823  0.0025  0.0001 -0.0004  0.6970
                                           -0.0283  0.0060  0.0038  0.3268  0.0112
                                            0.0040  0.0052 -0.0030 -0.0016  0.0130
                                           -0.0137  0.0018
   237. (0.37207) BD*( 2) C   3 - C   4  
                ( 54.07%)   0.7353* C   3 s(  0.01%)p 1.00( 99.92%)d 0.00(  0.07%)
                                            0.0001  0.0075 -0.0008  0.0013 -0.0000
                                            0.9906  0.0019  0.0159 -0.0015  0.0781
                                            0.0023  0.0025  0.0009 -0.1079 -0.0014
                                           -0.0013 -0.0008 -0.0257 -0.0009 -0.0003
                                            0.0054 -0.0021
                ( 45.93%)  -0.6777* C   4 s(  0.00%)p 1.00( 99.97%)d 0.00(  0.02%)
                                            0.0005  0.0062 -0.0007  0.0003 -0.0002
                                            0.9927 -0.0025 -0.0185  0.0009  0.1171
                                           -0.0002 -0.0015  0.0000 -0.0115  0.0005
                                            0.0008  0.0004  0.0100  0.0121 -0.0002
                                           -0.0013 -0.0005
   238. (0.01104) BD*( 1) C   3 - H   9  
                ( 37.35%)   0.6111* C   3 s( 30.61%)p 2.26( 69.33%)d 0.00(  0.06%)
                                            0.0004 -0.5528 -0.0224 -0.0018  0.0002
                                            0.1053 -0.0002 -0.0000  0.0000 -0.7185
                                           -0.0093 -0.0018 -0.0000  0.4068  0.0182
                                            0.0005  0.0004  0.0054 -0.0027  0.0188
                                            0.0130  0.0030
                ( 62.65%)  -0.7915* H   9 s(100.00%)
                                           -1.0000 -0.0018 -0.0009 -0.0001
   239. (0.02325) BD*( 1) C   4 - C   5  
                ( 49.35%)   0.7025* C   4 s( 39.92%)p 1.50( 60.04%)d 0.00(  0.04%)
                                            0.0000 -0.6317  0.0125 -0.0012  0.0000
                                           -0.0828  0.0025  0.0001 -0.0004  0.7059
                                           -0.0280  0.0061  0.0039 -0.3069 -0.0120
                                           -0.0039 -0.0051  0.0031 -0.0015  0.0127
                                            0.0141 -0.0012
                ( 50.65%)  -0.7117* C   5 s( 35.81%)p 1.79( 64.15%)d 0.00(  0.04%)
                                           -0.0000 -0.5979  0.0232 -0.0042 -0.0001
                                            0.0019  0.0023 -0.0017  0.0001 -0.6995
                                            0.0014  0.0104 -0.0009  0.3873 -0.0465
                                           -0.0012  0.0005  0.0014  0.0003  0.0116
                                            0.0164  0.0040
   240. (0.04060) BD*( 1) C   4 -Br  10  
                ( 51.32%)   0.7164* C   4 s( 20.21%)p 3.94( 79.69%)d 0.01(  0.10%)
                                            0.0002 -0.4485 -0.0315  0.0034  0.0000
                                            0.0143 -0.0000 -0.0003  0.0000 -0.0110
                                           -0.0005 -0.0002  0.0001  0.8916  0.0377
                                            0.0105 -0.0096 -0.0000  0.0002  0.0008
                                            0.0010 -0.0319
                ( 48.68%)  -0.6977*Br  10 s( 13.88%)p 6.18( 85.78%)d 0.02(  0.34%)
                                           -0.0000 -0.0000 -0.0002 -0.3691  0.0509
                                           -0.0011 -0.0000 -0.0000 -0.0000  0.0000
                                           -0.0000 -0.0000  0.0000 -0.0000 -0.0000
                                           -0.0000 -0.0000 -0.0000  0.0000  0.0131
                                           -0.0009  0.0000  0.0000 -0.0000 -0.0000
                                            0.0000 -0.0002 -0.9240  0.0627 -0.0019
                                            0.0000  0.0005  0.0001 -0.0000 -0.0000
                                           -0.0001 -0.0000  0.0000 -0.0000  0.0000
                                            0.0014  0.0001 -0.0000  0.0001 -0.0005
                                           -0.0000 -0.0580 -0.0028
   241. (0.01912) BD*( 1) C   5 - C   6  
                ( 50.00%)   0.7071* C   5 s( 33.57%)p 1.98( 66.40%)d 0.00(  0.04%)
                                            0.0002 -0.5793  0.0076  0.0064 -0.0001
                                            0.0829  0.0020 -0.0022  0.0002  0.0477
                                           -0.0457  0.0047  0.0003 -0.8078  0.0087
                                            0.0126 -0.0010  0.0013  0.0049 -0.0053
                                            0.0028 -0.0173
                ( 50.00%)  -0.7071* C   6 s( 33.57%)p 1.98( 66.40%)d 0.00(  0.04%)
                                            0.0002 -0.5793  0.0076  0.0064 -0.0001
                                           -0.0829 -0.0020  0.0022 -0.0002  0.0247
                                           -0.0455  0.0051  0.0003  0.8088 -0.0100
                                           -0.0124  0.0010 -0.0014  0.0049  0.0061
                                            0.0030 -0.0170
   242. (0.32800) BD*( 2) C   5 - C   6  
                ( 50.00%)   0.7071* C   5 s(  0.00%)p 1.00( 99.94%)d 0.00(  0.06%)
                                           -0.0003 -0.0052  0.0017  0.0013  0.0001
                                           -0.9927 -0.0191 -0.0177  0.0011 -0.0540
                                           -0.0016 -0.0014 -0.0013 -0.1013 -0.0038
                                           -0.0032 -0.0006 -0.0160 -0.0170 -0.0006
                                            0.0054 -0.0040
                ( 50.00%)  -0.7071* C   6 s(  0.00%)p 1.00( 99.94%)d 0.00(  0.06%)
                                            0.0003  0.0052 -0.0017 -0.0013 -0.0000
                                           -0.9927 -0.0191 -0.0177  0.0011  0.0568
                                            0.0017  0.0015  0.0014 -0.0998 -0.0037
                                           -0.0032 -0.0005 -0.0165  0.0165 -0.0007
                                           -0.0054  0.0040
   243. (0.01104) BD*( 1) C   5 - H  11  
                ( 37.36%)   0.6112* C   5 s( 30.62%)p 2.26( 69.33%)d 0.00(  0.06%)
                                           -0.0004  0.5529  0.0224  0.0019 -0.0002
                                            0.0797 -0.0007 -0.0005  0.0000 -0.7084
                                           -0.0088 -0.0018 -0.0000 -0.4298 -0.0185
                                           -0.0006 -0.0005 -0.0058 -0.0032  0.0193
                                           -0.0124 -0.0022
                ( 62.64%)  -0.7915* H  11 s(100.00%)
                                            1.0000  0.0018  0.0009  0.0001
   244. (0.01104) BD*( 1) C   6 - H  12  
                ( 37.35%)   0.6112* C   6 s( 30.62%)p 2.26( 69.33%)d 0.00(  0.06%)
                                           -0.0004  0.5529  0.0224  0.0019 -0.0002
                                           -0.0797  0.0006  0.0005 -0.0000 -0.7203
                                           -0.0093 -0.0018 -0.0001  0.4095  0.0183
                                            0.0006  0.0005  0.0059 -0.0031 -0.0188
                                           -0.0129 -0.0031
                ( 62.65%)  -0.7915* H  12 s(100.00%)
                                            1.0000  0.0018  0.0009  0.0001


 NHO Directionality and "Bond Bending" (deviations from line of nuclear centers)

         [Thresholds for printing:  angular deviation  >  1.0 degree]
                                    hybrid p-character > 25.0%
                                    orbital occupancy  >  0.10e

                                Line of Centers        Hybrid 1              Hybrid 2
                                ---------------  -------------------   ------------------
                NBO               Theta   Phi    Theta   Phi    Dev    Theta   Phi    Dev
 ========================================================================================
     1. BD (   1) C   1 - C   2   116.9   86.2   115.3   83.4   3.0     63.7  269.5   3.0
     2. BD (   2) C   1 - C   2   116.9   86.2    89.2  173.3  87.7     83.6  175.4  87.8
     3. BD (   1) C   1 - C   6   118.5  266.1   116.9  263.2   3.0     62.1   89.8   3.3
     6. BD (   1) C   2 - H   8    58.8   79.8    58.4   81.7   1.6      --     --    --
     7. BD (   1) C   3 - C   4   118.5  273.9   117.9  270.5   3.0     63.1   96.7   3.0
     8. BD (   2) C   3 - C   4   118.5  273.9    96.3    4.8  87.8     90.6    6.8  87.7
     9. BD (   1) C   3 - H   9   119.6  100.1   120.0   98.2   1.6      --     --    --
    10. BD (   1) C   4 - C   5    63.1  273.8    64.7  276.7   3.0    116.3   90.2   3.3
    13. BD (   2) C   5 - C   6     6.5  187.1    84.0    3.2  90.5     95.9  176.6  90.5
    14. BD (   1) C   5 - H  11   121.2  280.2   121.9  276.2   3.4      --     --    --
    15. BD (   1) C   6 - H  12    60.4  259.9    59.8  263.9   3.4      --     --    --
    51. LP (   2)Br   7             --     --     89.2   92.6   --       --     --    --
    52. LP (   3)Br   7             --     --     90.0    2.5   --       --     --    --
    54. LP (   2)Br  10             --     --     89.2   87.4   --       --     --    --
    55. LP (   3)Br  10             --     --     90.0  357.5   --       --     --    --
   231. BD*(   2) C   1 - C   2   116.9   86.2    89.2  173.3  87.7     83.6  175.4  87.8
   237. BD*(   2) C   3 - C   4   118.5  273.9    96.3    4.8  87.8     90.6    6.8  87.7
   242. BD*(   2) C   5 - C   6     6.5  187.1    84.0    3.2  90.5     95.9  176.6  90.5


 Second Order Perturbation Theory Analysis of Fock Matrix in NBO Basis

     Threshold for printing:   0.50 kcal/mol
                                                                              E(2)  E(j)-E(i) F(i,j)
         Donor NBO (i)                     Acceptor NBO (j)                 kcal/mol   a.u.    a.u. 
 ===================================================================================================

 within unit  1
   1. BD (   1) C   1 - C   2        / 91. RY*(   2) C   3                    1.93    1.83    0.053
   1. BD (   1) C   1 - C   2        /141. RY*(   1) C   6                    1.56    1.80    0.047
   1. BD (   1) C   1 - C   2        /142. RY*(   2) C   6                    0.77    1.84    0.034
   1. BD (   1) C   1 - C   2        /232. BD*(   1) C   1 - C   6            3.96    1.45    0.068
   1. BD (   1) C   1 - C   2        /234. BD*(   1) C   2 - C   3            2.18    1.37    0.049
   1. BD (   1) C   1 - C   2        /235. BD*(   1) C   2 - H   8            1.58    1.34    0.041
   1. BD (   1) C   1 - C   2        /238. BD*(   1) C   3 - H   9            1.81    1.34    0.044
   1. BD (   1) C   1 - C   2        /244. BD*(   1) C   6 - H  12            2.11    1.34    0.048
   2. BD (   2) C   1 - C   2        / 94. RY*(   5) C   3                    0.81    1.73    0.036
   2. BD (   2) C   1 - C   2        /143. RY*(   3) C   6                    2.31    1.16    0.050
   2. BD (   2) C   1 - C   2        /158. RY*(   1)Br   7                    1.38    0.93    0.035
   2. BD (   2) C   1 - C   2        /237. BD*(   2) C   3 - C   4           22.17    0.36    0.081
   2. BD (   2) C   1 - C   2        /242. BD*(   2) C   5 - C   6           28.89    0.36    0.091
   3. BD (   1) C   1 - C   6        / 73. RY*(   1) C   2                    1.56    1.80    0.047
   3. BD (   1) C   1 - C   6        / 74. RY*(   2) C   2                    0.78    1.83    0.034
   3. BD (   1) C   1 - C   6        /125. RY*(   2) C   5                    1.93    1.84    0.053
   3. BD (   1) C   1 - C   6        /230. BD*(   1) C   1 - C   2            3.96    1.45    0.068
   3. BD (   1) C   1 - C   6        /235. BD*(   1) C   2 - H   8            2.12    1.34    0.048
   3. BD (   1) C   1 - C   6        /241. BD*(   1) C   5 - C   6            2.18    1.37    0.049
   3. BD (   1) C   1 - C   6        /243. BD*(   1) C   5 - H  11            1.81    1.34    0.044
   3. BD (   1) C   1 - C   6        /244. BD*(   1) C   6 - H  12            1.57    1.34    0.041
   4. BD (   1) C   1 -Br   7        / 73. RY*(   1) C   2                    1.25    1.67    0.041
   4. BD (   1) C   1 -Br   7        /141. RY*(   1) C   6                    1.26    1.67    0.041
   4. BD (   1) C   1 -Br   7        /234. BD*(   1) C   2 - C   3            3.50    1.24    0.059
   4. BD (   1) C   1 -Br   7        /235. BD*(   1) C   2 - H   8            0.54    1.21    0.023
   4. BD (   1) C   1 -Br   7        /241. BD*(   1) C   5 - C   6            3.48    1.24    0.059
   4. BD (   1) C   1 -Br   7        /244. BD*(   1) C   6 - H  12            0.54    1.21    0.023
   5. BD (   1) C   2 - C   3        / 56. RY*(   1) C   1                    1.40    1.50    0.041
   5. BD (   1) C   2 - C   3        / 57. RY*(   2) C   1                    0.72    1.71    0.032
   5. BD (   1) C   2 - C   3        /107. RY*(   1) C   4                    1.39    1.50    0.041
   5. BD (   1) C   2 - C   3        /108. RY*(   2) C   4                    0.72    1.71    0.032
   5. BD (   1) C   2 - C   3        /230. BD*(   1) C   1 - C   2            3.06    1.37    0.058
   5. BD (   1) C   2 - C   3        /233. BD*(   1) C   1 -Br   7            7.07    0.87    0.070
   5. BD (   1) C   2 - C   3        /235. BD*(   1) C   2 - H   8            0.73    1.26    0.027
   5. BD (   1) C   2 - C   3        /236. BD*(   1) C   3 - C   4            3.06    1.37    0.058
   5. BD (   1) C   2 - C   3        /238. BD*(   1) C   3 - H   9            0.73    1.26    0.027
   5. BD (   1) C   2 - C   3        /240. BD*(   1) C   4 -Br  10            7.07    0.87    0.070
   6. BD (   1) C   2 - H   8        / 57. RY*(   2) C   1                    1.37    1.57    0.042
   6. BD (   1) C   2 - H   8        / 90. RY*(   1) C   3                    1.13    1.57    0.038
   6. BD (   1) C   2 - H   8        /230. BD*(   1) C   1 - C   2            1.57    1.22    0.039
   6. BD (   1) C   2 - H   8        /232. BD*(   1) C   1 - C   6            5.45    1.22    0.073
   6. BD (   1) C   2 - H   8        /236. BD*(   1) C   3 - C   4            2.57    1.22    0.050
   7. BD (   1) C   3 - C   4        / 74. RY*(   2) C   2                    1.93    1.83    0.053
   7. BD (   1) C   3 - C   4        /124. RY*(   1) C   5                    1.56    1.80    0.047
   7. BD (   1) C   3 - C   4        /125. RY*(   2) C   5                    0.77    1.84    0.034
   7. BD (   1) C   3 - C   4        /234. BD*(   1) C   2 - C   3            2.18    1.37    0.049
   7. BD (   1) C   3 - C   4        /235. BD*(   1) C   2 - H   8            1.81    1.34    0.044
   7. BD (   1) C   3 - C   4        /238. BD*(   1) C   3 - H   9            1.58    1.34    0.041
   7. BD (   1) C   3 - C   4        /239. BD*(   1) C   4 - C   5            3.96    1.45    0.068
   7. BD (   1) C   3 - C   4        /243. BD*(   1) C   5 - H  11            2.11    1.34    0.048
   8. BD (   2) C   3 - C   4        / 77. RY*(   5) C   2                    0.81    1.73    0.036
   8. BD (   2) C   3 - C   4        /126. RY*(   3) C   5                    2.31    1.16    0.050
   8. BD (   2) C   3 - C   4        /194. RY*(   1)Br  10                    1.38    0.93    0.035
   8. BD (   2) C   3 - C   4        /231. BD*(   2) C   1 - C   2           22.17    0.36    0.081
   8. BD (   2) C   3 - C   4        /242. BD*(   2) C   5 - C   6           28.89    0.36    0.091
   9. BD (   1) C   3 - H   9        / 73. RY*(   1) C   2                    1.13    1.57    0.038
   9. BD (   1) C   3 - H   9        /108. RY*(   2) C   4                    1.37    1.57    0.041
   9. BD (   1) C   3 - H   9        /230. BD*(   1) C   1 - C   2            2.57    1.22    0.050
   9. BD (   1) C   3 - H   9        /236. BD*(   1) C   3 - C   4            1.57    1.22    0.039
   9. BD (   1) C   3 - H   9        /239. BD*(   1) C   4 - C   5            5.45    1.22    0.073
  10. BD (   1) C   4 - C   5        / 90. RY*(   1) C   3                    1.56    1.80    0.047
  10. BD (   1) C   4 - C   5        / 91. RY*(   2) C   3                    0.78    1.83    0.034
  10. BD (   1) C   4 - C   5        /142. RY*(   2) C   6                    1.93    1.84    0.053
  10. BD (   1) C   4 - C   5        /236. BD*(   1) C   3 - C   4            3.96    1.45    0.068
  10. BD (   1) C   4 - C   5        /238. BD*(   1) C   3 - H   9            2.12    1.34    0.048
  10. BD (   1) C   4 - C   5        /241. BD*(   1) C   5 - C   6            2.18    1.37    0.049
  10. BD (   1) C   4 - C   5        /243. BD*(   1) C   5 - H  11            1.57    1.34    0.041
  10. BD (   1) C   4 - C   5        /244. BD*(   1) C   6 - H  12            1.81    1.34    0.044
  11. BD (   1) C   4 -Br  10        / 90. RY*(   1) C   3                    1.25    1.67    0.041
  11. BD (   1) C   4 -Br  10        /124. RY*(   1) C   5                    1.26    1.67    0.041
  11. BD (   1) C   4 -Br  10        /234. BD*(   1) C   2 - C   3            3.50    1.24    0.059
  11. BD (   1) C   4 -Br  10        /238. BD*(   1) C   3 - H   9            0.54    1.21    0.023
  11. BD (   1) C   4 -Br  10        /241. BD*(   1) C   5 - C   6            3.48    1.24    0.059
  11. BD (   1) C   4 -Br  10        /243. BD*(   1) C   5 - H  11            0.54    1.21    0.023
  12. BD (   1) C   5 - C   6        / 56. RY*(   1) C   1                    1.41    1.50    0.041
  12. BD (   1) C   5 - C   6        / 57. RY*(   2) C   1                    0.71    1.71    0.031
  12. BD (   1) C   5 - C   6        /107. RY*(   1) C   4                    1.41    1.50    0.041
  12. BD (   1) C   5 - C   6        /108. RY*(   2) C   4                    0.70    1.71    0.031
  12. BD (   1) C   5 - C   6        /232. BD*(   1) C   1 - C   6            3.06    1.37    0.058
  12. BD (   1) C   5 - C   6        /233. BD*(   1) C   1 -Br   7            7.02    0.87    0.070
  12. BD (   1) C   5 - C   6        /239. BD*(   1) C   4 - C   5            3.06    1.37    0.058
  12. BD (   1) C   5 - C   6        /240. BD*(   1) C   4 -Br  10            7.02    0.87    0.070
  12. BD (   1) C   5 - C   6        /243. BD*(   1) C   5 - H  11            0.72    1.26    0.027
  12. BD (   1) C   5 - C   6        /244. BD*(   1) C   6 - H  12            0.72    1.26    0.027
  13. BD (   2) C   5 - C   6        / 58. RY*(   3) C   1                    0.77    1.31    0.031
  13. BD (   2) C   5 - C   6        / 59. RY*(   4) C   1                    0.51    1.96    0.031
  13. BD (   2) C   5 - C   6        /109. RY*(   3) C   4                    0.77    1.31    0.031
  13. BD (   2) C   5 - C   6        /110. RY*(   4) C   4                    0.51    1.96    0.031
  13. BD (   2) C   5 - C   6        /126. RY*(   3) C   5                    0.63    1.12    0.026
  13. BD (   2) C   5 - C   6        /143. RY*(   3) C   6                    0.63    1.12    0.026
  13. BD (   2) C   5 - C   6        /231. BD*(   2) C   1 - C   2           33.23    0.33    0.093
  13. BD (   2) C   5 - C   6        /237. BD*(   2) C   3 - C   4           33.23    0.33    0.093
  14. BD (   1) C   5 - H  11        /108. RY*(   2) C   4                    1.38    1.57    0.042
  14. BD (   1) C   5 - H  11        /141. RY*(   1) C   6                    1.13    1.57    0.038
  14. BD (   1) C   5 - H  11        /232. BD*(   1) C   1 - C   6            2.60    1.22    0.050
  14. BD (   1) C   5 - H  11        /236. BD*(   1) C   3 - C   4            5.47    1.22    0.073
  14. BD (   1) C   5 - H  11        /239. BD*(   1) C   4 - C   5            1.60    1.22    0.039
  15. BD (   1) C   6 - H  12        / 57. RY*(   2) C   1                    1.38    1.57    0.042
  15. BD (   1) C   6 - H  12        /124. RY*(   1) C   5                    1.13    1.57    0.038
  15. BD (   1) C   6 - H  12        /230. BD*(   1) C   1 - C   2            5.48    1.22    0.073
  15. BD (   1) C   6 - H  12        /232. BD*(   1) C   1 - C   6            1.60    1.22    0.039
  15. BD (   1) C   6 - H  12        /239. BD*(   1) C   4 - C   5            2.60    1.22    0.050
  16. CR (   1) C   1                / 74. RY*(   2) C   2                    2.11   11.48    0.139
  16. CR (   1) C   1                /142. RY*(   2) C   6                    2.12   11.48    0.139
  16. CR (   1) C   1                /230. BD*(   1) C   1 - C   2            0.64   11.09    0.076
  16. CR (   1) C   1                /232. BD*(   1) C   1 - C   6            0.64   11.09    0.075
  16. CR (   1) C   1                /233. BD*(   1) C   1 -Br   7            2.96   10.59    0.160
  16. CR (   1) C   1                /234. BD*(   1) C   2 - C   3            0.54   11.02    0.069
  16. CR (   1) C   1                /241. BD*(   1) C   5 - C   6            0.54   11.02    0.069
  17. CR (   1) C   2                / 56. RY*(   1) C   1                    2.75   11.17    0.157
  17. CR (   1) C   2                / 91. RY*(   2) C   3                    0.76   11.42    0.083
  17. CR (   1) C   2                /188. RY*(   1) H   8                    0.62   11.50    0.075
  17. CR (   1) C   2                /230. BD*(   1) C   1 - C   2            0.70   11.04    0.079
  17. CR (   1) C   2                /232. BD*(   1) C   1 - C   6            1.22   11.04    0.104
  17. CR (   1) C   2                /233. BD*(   1) C   1 -Br   7            1.00   10.54    0.093
  17. CR (   1) C   2                /236. BD*(   1) C   3 - C   4            0.52   11.04    0.068
  18. CR (   1) C   3                / 74. RY*(   2) C   2                    0.76   11.42    0.083
  18. CR (   1) C   3                /107. RY*(   1) C   4                    2.76   11.17    0.157
  18. CR (   1) C   3                /191. RY*(   1) H   9                    0.62   11.50    0.075
  18. CR (   1) C   3                /230. BD*(   1) C   1 - C   2            0.52   11.04    0.068
  18. CR (   1) C   3                /236. BD*(   1) C   3 - C   4            0.70   11.04    0.079
  18. CR (   1) C   3                /239. BD*(   1) C   4 - C   5            1.22   11.04    0.104
  18. CR (   1) C   3                /240. BD*(   1) C   4 -Br  10            1.00   10.54    0.093
  19. CR (   1) C   4                / 91. RY*(   2) C   3                    2.11   11.48    0.139
  19. CR (   1) C   4                /125. RY*(   2) C   5                    2.12   11.48    0.139
  19. CR (   1) C   4                /234. BD*(   1) C   2 - C   3            0.54   11.02    0.069
  19. CR (   1) C   4                /236. BD*(   1) C   3 - C   4            0.64   11.09    0.076
  19. CR (   1) C   4                /239. BD*(   1) C   4 - C   5            0.64   11.09    0.075
  19. CR (   1) C   4                /240. BD*(   1) C   4 -Br  10            2.96   10.59    0.160
  19. CR (   1) C   4                /241. BD*(   1) C   5 - C   6            0.54   11.02    0.069
  20. CR (   1) C   5                /107. RY*(   1) C   4                    2.73   11.17    0.156
  20. CR (   1) C   5                /142. RY*(   2) C   6                    0.75   11.43    0.083
  20. CR (   1) C   5                /224. RY*(   1) H  11                    0.62   11.50    0.075
  20. CR (   1) C   5                /232. BD*(   1) C   1 - C   6            0.52   11.04    0.068
  20. CR (   1) C   5                /236. BD*(   1) C   3 - C   4            1.22   11.04    0.104
  20. CR (   1) C   5                /239. BD*(   1) C   4 - C   5            0.70   11.04    0.079
  20. CR (   1) C   5                /240. BD*(   1) C   4 -Br  10            0.99   10.54    0.092
  21. CR (   1) C   6                / 56. RY*(   1) C   1                    2.74   11.17    0.156
  21. CR (   1) C   6                /125. RY*(   2) C   5                    0.75   11.43    0.083
  21. CR (   1) C   6                /227. RY*(   1) H  12                    0.62   11.50    0.075
  21. CR (   1) C   6                /230. BD*(   1) C   1 - C   2            1.22   11.04    0.104
  21. CR (   1) C   6                /232. BD*(   1) C   1 - C   6            0.70   11.04    0.079
  21. CR (   1) C   6                /233. BD*(   1) C   1 -Br   7            0.99   10.54    0.092
  21. CR (   1) C   6                /239. BD*(   1) C   4 - C   5            0.52   11.04    0.068
  24. CR (   3)Br   7                / 57. RY*(   2) C   1                    1.37   12.97    0.119
  24. CR (   3)Br   7                /230. BD*(   1) C   1 - C   2            0.71   12.62    0.085
  24. CR (   3)Br   7                /232. BD*(   1) C   1 - C   6            0.71   12.62    0.085
  38. CR (   3)Br  10                /108. RY*(   2) C   4                    1.37   12.97    0.119
  38. CR (   3)Br  10                /236. BD*(   1) C   3 - C   4            0.71   12.62    0.085
  38. CR (   3)Br  10                /239. BD*(   1) C   4 - C   5            0.71   12.62    0.085
  50. LP (   1)Br   7                / 57. RY*(   2) C   1                    2.01    2.01    0.057
  50. LP (   1)Br   7                /230. BD*(   1) C   1 - C   2            1.37    1.67    0.043
  50. LP (   1)Br   7                /232. BD*(   1) C   1 - C   6            1.37    1.67    0.043
  51. LP (   2)Br   7                / 56. RY*(   1) C   1                    1.18    1.10    0.032
  51. LP (   2)Br   7                /230. BD*(   1) C   1 - C   2            3.13    0.97    0.049
  51. LP (   2)Br   7                /232. BD*(   1) C   1 - C   6            3.13    0.97    0.049
  51. LP (   2)Br   7                /234. BD*(   1) C   2 - C   3            0.56    0.90    0.020
  51. LP (   2)Br   7                /241. BD*(   1) C   5 - C   6            0.56    0.90    0.020
  52. LP (   3)Br   7                / 58. RY*(   3) C   1                    0.71    1.37    0.028
  52. LP (   3)Br   7                /231. BD*(   2) C   1 - C   2            9.81    0.39    0.060
  53. LP (   1)Br  10                /108. RY*(   2) C   4                    2.01    2.01    0.057
  53. LP (   1)Br  10                /236. BD*(   1) C   3 - C   4            1.37    1.67    0.043
  53. LP (   1)Br  10                /239. BD*(   1) C   4 - C   5            1.37    1.67    0.043
  54. LP (   2)Br  10                /107. RY*(   1) C   4                    1.18    1.10    0.032
  54. LP (   2)Br  10                /234. BD*(   1) C   2 - C   3            0.56    0.90    0.020
  54. LP (   2)Br  10                /236. BD*(   1) C   3 - C   4            3.13    0.97    0.049
  54. LP (   2)Br  10                /239. BD*(   1) C   4 - C   5            3.13    0.97    0.049
  54. LP (   2)Br  10                /241. BD*(   1) C   5 - C   6            0.56    0.90    0.020
  55. LP (   3)Br  10                /109. RY*(   3) C   4                    0.71    1.37    0.028
  55. LP (   3)Br  10                /237. BD*(   2) C   3 - C   4            9.81    0.39    0.060
 231. BD*(   2) C   1 - C   2        / 58. RY*(   3) C   1                    1.39    0.98    0.076
 231. BD*(   2) C   1 - C   2        / 75. RY*(   3) C   2                    3.28    0.77    0.104
 231. BD*(   2) C   1 - C   2        /143. RY*(   3) C   6                    0.81    0.79    0.053
 231. BD*(   2) C   1 - C   2        /158. RY*(   1)Br   7                    0.55    0.57    0.036
 237. BD*(   2) C   3 - C   4        / 92. RY*(   3) C   3                    3.28    0.77    0.104
 237. BD*(   2) C   3 - C   4        /109. RY*(   3) C   4                    1.39    0.98    0.076
 237. BD*(   2) C   3 - C   4        /126. RY*(   3) C   5                    0.81    0.79    0.053
 237. BD*(   2) C   3 - C   4        /194. RY*(   1)Br  10                    0.55    0.57    0.036
 242. BD*(   2) C   5 - C   6        /128. RY*(   5) C   5                    0.98    1.36    0.080
 242. BD*(   2) C   5 - C   6        /145. RY*(   5) C   6                    0.98    1.36    0.080


 Natural Bond Orbitals (Summary):

                                                            Principal Delocalizations
           NBO                        Occupancy    Energy   (geminal,vicinal,remote)
 ====================================================================================
 Molecular unit  1  (C6H4Br2)
     1. BD (   1) C   1 - C   2          1.98244    -0.83612  232(g),234(g),244(v),91(v)
                                                    238(v),235(g),141(v),142(v)
     2. BD (   2) C   1 - C   2          1.69082    -0.33131  242(v),237(v),143(v),158(v)
                                                    94(v)
     3. BD (   1) C   1 - C   6          1.98244    -0.83606  230(g),241(g),235(v),125(v)
                                                    243(v),244(g),73(v),74(v)
     4. BD (   1) C   1 -Br   7          1.98158    -0.70654  234(v),241(v),141(v),73(v)
                                                    244(v),235(v)
     5. BD (   1) C   2 - C   3          1.95803    -0.75320  233(v),240(v),230(g),236(g)
                                                    56(v),107(v),235(g),238(g)
                                                    108(v),57(v)
     6. BD (   1) C   2 - H   8          1.97899    -0.60977  232(v),236(v),230(g),57(v)
                                                    90(v)
     7. BD (   1) C   3 - C   4          1.98244    -0.83612  239(g),234(g),243(v),74(v)
                                                    235(v),238(g),124(v),125(v)
     8. BD (   2) C   3 - C   4          1.69081    -0.33131  242(v),231(v),126(v),194(v)
                                                    77(v)
     9. BD (   1) C   3 - H   9          1.97899    -0.60975  239(v),230(v),236(g),108(v)
                                                    73(v)
    10. BD (   1) C   4 - C   5          1.98244    -0.83606  236(g),241(g),238(v),142(v)
                                                    244(v),243(g),90(v),91(v)
    11. BD (   1) C   4 -Br  10          1.98158    -0.70654  234(v),241(v),124(v),90(v)
                                                    243(v),238(v)
    12. BD (   1) C   5 - C   6          1.95802    -0.75320  233(v),240(v),232(g),239(g)
                                                    107(v),56(v),243(g),244(g)
                                                    57(v),108(v)
    13. BD (   2) C   5 - C   6          1.62864    -0.29838  237(v),231(v),109(v),58(v)
                                                    126(g),143(g),59(v),110(v)
    14. BD (   1) C   5 - H  11          1.97863    -0.60938  236(v),232(v),239(g),108(v)
                                                    141(v)
    15. BD (   1) C   6 - H  12          1.97863    -0.60937  230(v),239(v),232(g),57(v)
                                                    124(v)
    16. CR (   1) C   1                  1.99863   -10.48059  233(g),142(v),74(v),230(g)
                                                    232(g),234(v),241(v)
    17. CR (   1) C   2                  1.99900   -10.42626  56(v),232(v),233(v),91(v)
                                                    230(g),188(v),236(v)
    18. CR (   1) C   3                  1.99900   -10.42625  107(v),239(v),240(v),74(v)
                                                    236(g),191(v),230(v)
    19. CR (   1) C   4                  1.99863   -10.48059  240(g),125(v),91(v),236(g)
                                                    239(g),234(v),241(v)
    20. CR (   1) C   5                  1.99900   -10.42625  107(v),236(v),240(v),142(v)
                                                    239(g),224(v),232(v)
    21. CR (   1) C   6                  1.99900   -10.42625  56(v),230(v),233(v),125(v)
                                                    232(g),227(v),239(v)
    22. CR (   1)Br   7                  2.00000  -482.68136   
    23. CR (   2)Br   7                  2.00000   -62.62647   
    24. CR (   3)Br   7                  1.99979   -12.00644  57(v),230(v),232(v)
    25. CR (   4)Br   7                  2.00000   -56.91097   
    26. CR (   5)Br   7                  1.99999    -7.07509   
    27. CR (   6)Br   7                  2.00000   -56.91092   
    28. CR (   7)Br   7                  1.99999    -7.07499   
    29. CR (   8)Br   7                  2.00000   -56.91332   
    30. CR (   9)Br   7                  1.99987    -7.08212   
    31. CR (  10)Br   7                  2.00000    -2.86558   
    32. CR (  11)Br   7                  1.99995    -2.87474   
    33. CR (  12)Br   7                  1.99996    -2.87460   
    34. CR (  13)Br   7                  2.00000    -2.86558   
    35. CR (  14)Br   7                  1.99978    -2.87787   
    36. CR (   1)Br  10                  2.00000  -482.68137   
    37. CR (   2)Br  10                  2.00000   -62.62646   
    38. CR (   3)Br  10                  1.99979   -12.00644  108(v),236(v),239(v)
    39. CR (   4)Br  10                  2.00000   -56.91097   
    40. CR (   5)Br  10                  1.99999    -7.07509   
    41. CR (   6)Br  10                  2.00000   -56.91092   
    42. CR (   7)Br  10                  1.99999    -7.07499   
    43. CR (   8)Br  10                  2.00000   -56.91332   
    44. CR (   9)Br  10                  1.99987    -7.08212   
    45. CR (  10)Br  10                  2.00000    -2.86558   
    46. CR (  11)Br  10                  1.99995    -2.87474   
    47. CR (  12)Br  10                  1.99996    -2.87460   
    48. CR (  13)Br  10                  2.00000    -2.86558   
    49. CR (  14)Br  10                  1.99978    -2.87787   
    50. LP (   1)Br   7                  1.99436    -1.05481  57(v),232(v),230(v)
    51. LP (   2)Br   7                  1.97852    -0.35973  230(v),232(v),56(v),234(r)
                                                    241(r)
    52. LP (   3)Br   7                  1.95114    -0.35757  231(v),58(v)
    53. LP (   1)Br  10                  1.99436    -1.05481  108(v),239(v),236(v)
    54. LP (   2)Br  10                  1.97852    -0.35973  236(v),239(v),107(v),234(r)
                                                    241(r)
    55. LP (   3)Br  10                  1.95114    -0.35757  237(v),109(v)
    56. RY*(   1) C   1                  0.00701     0.74246   
    57. RY*(   2) C   1                  0.00687     0.96014   
    58. RY*(   3) C   1                  0.00213     1.01464   
    59. RY*(   4) C   1                  0.00086     1.66059   
    60. RY*(   5) C   1                  0.00046     2.08738   
    61. RY*(   6) C   1                  0.00032     0.91842   
    62. RY*(   7) C   1                  0.00025     1.66931   
    63. RY*(   8) C   1                  0.00012     2.02817   
    64. RY*(   9) C   1                  0.00010     3.63593   
    65. RY*(  10) C   1                  0.00003     0.83542   
    66. RY*(  11) C   1                  0.00001     2.44228   
    67. RY*(  12) C   1                  0.00002     2.21129   
    68. RY*(  13) C   1                  0.00001     1.42410   
    69. RY*(  14) C   1                  0.00000    21.67279   
    70. RY*(  15) C   1                  0.00000     1.07799   
    71. RY*(  16) C   1                  0.00000     0.50433   
    72. RY*(  17) C   1                  0.00000     2.61413   
    73. RY*(   1) C   2                  0.00627     0.96288   
    74. RY*(   2) C   2                  0.00264     0.99789   
    75. RY*(   3) C   2                  0.00149     0.80303   
    76. RY*(   4) C   2                  0.00065     0.93189   
    77. RY*(   5) C   2                  0.00034     1.40227   
    78. RY*(   6) C   2                  0.00018     2.46026   
    79. RY*(   7) C   2                  0.00011     0.89752   
    80. RY*(   8) C   2                  0.00011     2.32842   
    81. RY*(   9) C   2                  0.00008     2.03354   
    82. RY*(  10) C   2                  0.00004     1.76356   
    83. RY*(  11) C   2                  0.00005     1.62852   
    84. RY*(  12) C   2                  0.00001     2.21359   
    85. RY*(  13) C   2                  0.00000    22.03692   
    86. RY*(  14) C   2                  0.00001     1.01271   
    87. RY*(  15) C   2                  0.00000     2.75769   
    88. RY*(  16) C   2                  0.00001     1.61828   
    89. RY*(  17) C   2                  0.00000     1.03294   
    90. RY*(   1) C   3                  0.00627     0.96293   
    91. RY*(   2) C   3                  0.00264     0.99790   
    92. RY*(   3) C   3                  0.00149     0.80298   
    93. RY*(   4) C   3                  0.00065     0.93194   
    94. RY*(   5) C   3                  0.00034     1.40225   
    95. RY*(   6) C   3                  0.00018     2.46031   
    96. RY*(   7) C   3                  0.00011     0.90342   
    97. RY*(   8) C   3                  0.00011     2.32386   
    98. RY*(   9) C   3                  0.00008     2.03319   
    99. RY*(  10) C   3                  0.00004     1.75032   
   100. RY*(  11) C   3                  0.00005     1.64114   
   101. RY*(  12) C   3                  0.00001     1.62638   
   102. RY*(  13) C   3                  0.00000     1.03728   
   103. RY*(  14) C   3                  0.00001     1.01862   
   104. RY*(  15) C   3                  0.00001     2.20577   
   105. RY*(  16) C   3                  0.00000    22.02071   
   106. RY*(  17) C   3                  0.00000     2.76295   
   107. RY*(   1) C   4                  0.00701     0.74247   
   108. RY*(   2) C   4                  0.00687     0.96014   
   109. RY*(   3) C   4                  0.00213     1.01464   
   110. RY*(   4) C   4                  0.00086     1.66060   
   111. RY*(   5) C   4                  0.00046     2.08737   
   112. RY*(   6) C   4                  0.00032     0.91842   
   113. RY*(   7) C   4                  0.00025     1.66931   
   114. RY*(   8) C   4                  0.00012     2.02817   
   115. RY*(   9) C   4                  0.00010     3.63593   
   116. RY*(  10) C   4                  0.00003     0.83542   
   117. RY*(  11) C   4                  0.00002     2.21127   
   118. RY*(  12) C   4                  0.00001     0.91845   
   119. RY*(  13) C   4                  0.00002     2.39510   
   120. RY*(  14) C   4                  0.00000     0.50430   
   121. RY*(  15) C   4                  0.00000    22.15492   
   122. RY*(  16) C   4                  0.00000     1.14870   
   123. RY*(  17) C   4                  0.00000     2.61416   
   124. RY*(   1) C   5                  0.00626     0.96387   
   125. RY*(   2) C   5                  0.00264     0.99914   
   126. RY*(   3) C   5                  0.00128     0.82386   
   127. RY*(   4) C   5                  0.00065     0.92849   
   128. RY*(   5) C   5                  0.00038     1.38652   
   129. RY*(   6) C   5                  0.00018     2.45892   
   130. RY*(   7) C   5                  0.00011     0.89828   
   131. RY*(   8) C   5                  0.00011     2.32921   
   132. RY*(   9) C   5                  0.00008     2.03188   
   133. RY*(  10) C   5                  0.00004     1.76603   
   134. RY*(  11) C   5                  0.00005     1.62606   
   135. RY*(  12) C   5                  0.00001     2.20834   
   136. RY*(  13) C   5                  0.00000    22.03150   
   137. RY*(  14) C   5                  0.00001     1.01347   
   138. RY*(  15) C   5                  0.00000     2.77193   
   139. RY*(  16) C   5                  0.00001     1.61897   
   140. RY*(  17) C   5                  0.00000     1.02784   
   141. RY*(   1) C   6                  0.00626     0.96391   
   142. RY*(   2) C   6                  0.00264     0.99916   
   143. RY*(   3) C   6                  0.00128     0.82381   
   144. RY*(   4) C   6                  0.00065     0.92854   
   145. RY*(   5) C   6                  0.00038     1.38649   
   146. RY*(   6) C   6                  0.00018     2.45898   
   147. RY*(   7) C   6                  0.00011     0.89945   
   148. RY*(   8) C   6                  0.00011     2.32936   
   149. RY*(   9) C   6                  0.00008     2.03154   
   150. RY*(  10) C   6                  0.00004     1.76558   
   151. RY*(  11) C   6                  0.00005     1.62590   
   152. RY*(  12) C   6                  0.00001     2.21334   
   153. RY*(  13) C   6                  0.00000    22.01750   
   154. RY*(  14) C   6                  0.00001     1.00763   
   155. RY*(  15) C   6                  0.00000     2.76663   
   156. RY*(  16) C   6                  0.00001     1.63458   
   157. RY*(  17) C   6                  0.00000     1.03199   
   158. RY*(   1)Br   7                  0.00238     0.59617   
   159. RY*(   2)Br   7                  0.00130     0.60266   
   160. RY*(   3)Br   7                  0.00076     0.46037   
   161. RY*(   4)Br   7                  0.00015     0.86669   
   162. RY*(   5)Br   7                  0.00005     0.68244   
   163. RY*(   6)Br   7                  0.00005     0.76644   
   164. RY*(   7)Br   7                  0.00004     0.82005   
   165. RY*(   8)Br   7                  0.00003     1.80307   
   166. RY*(   9)Br   7                  0.00000    11.69759   
   167. RY*(  10)Br   7                  0.00000   285.24454   
   168. RY*(  11)Br   7                  0.00000    15.67970   
   169. RY*(  12)Br   7                  0.00001     0.66939   
   170. RY*(  13)Br   7                  0.00000     3.36086   
   171. RY*(  14)Br   7                  0.00000    11.53790   
   172. RY*(  15)Br   7                  0.00000   285.23924   
   173. RY*(  16)Br   7                  0.00000    72.91853   
   174. RY*(  17)Br   7                  0.00000     0.54942   
   175. RY*(  18)Br   7                  0.00001     2.75002   
   176. RY*(  19)Br   7                  0.00000    11.72585   
   177. RY*(  20)Br   7                  0.00000   285.16409   
   178. RY*(  21)Br   7                  0.00000   986.93958   
   179. RY*(  22)Br   7                  0.00000     4.23036   
   180. RY*(  23)Br   7                  0.00000     0.41717   
   181. RY*(  24)Br   7                  0.00000     4.27315   
   182. RY*(  25)Br   7                  0.00000     0.49658   
   183. RY*(  26)Br   7                  0.00000     4.34424   
   184. RY*(  27)Br   7                  0.00001     0.87153   
   185. RY*(  28)Br   7                  0.00000     4.24060   
   186. RY*(  29)Br   7                  0.00000     3.12725   
   187. RY*(  30)Br   7                  0.00000     4.28313   
   188. RY*(   1) H   8                  0.00056     1.07305   
   189. RY*(   2) H   8                  0.00019     1.72345   
   190. RY*(   3) H   8                  0.00008     0.19293   
   191. RY*(   1) H   9                  0.00056     1.07340   
   192. RY*(   2) H   9                  0.00019     1.72317   
   193. RY*(   3) H   9                  0.00008     0.19289   
   194. RY*(   1)Br  10                  0.00238     0.59617   
   195. RY*(   2)Br  10                  0.00130     0.60266   
   196. RY*(   3)Br  10                  0.00076     0.46037   
   197. RY*(   4)Br  10                  0.00015     0.86669   
   198. RY*(   5)Br  10                  0.00005     0.68244   
   199. RY*(   6)Br  10                  0.00005     0.76644   
   200. RY*(   7)Br  10                  0.00004     0.82005   
   201. RY*(   8)Br  10                  0.00003     1.80307   
   202. RY*(   9)Br  10                  0.00000    11.69759   
   203. RY*(  10)Br  10                  0.00000   285.24454   
   204. RY*(  11)Br  10                  0.00000    15.67970   
   205. RY*(  12)Br  10                  0.00001     0.66939   
   206. RY*(  13)Br  10                  0.00000     3.36086   
   207. RY*(  14)Br  10                  0.00000    11.53790   
   208. RY*(  15)Br  10                  0.00000   285.23924   
   209. RY*(  16)Br  10                  0.00000    72.91856   
   210. RY*(  17)Br  10                  0.00000     0.54942   
   211. RY*(  18)Br  10                  0.00001     2.75002   
   212. RY*(  19)Br  10                  0.00000    11.72585   
   213. RY*(  20)Br  10                  0.00000   285.16409   
   214. RY*(  21)Br  10                  0.00000   986.93956   
   215. RY*(  22)Br  10                  0.00000     4.23036   
   216. RY*(  23)Br  10                  0.00000     0.41717   
   217. RY*(  24)Br  10                  0.00000     4.27315   
   218. RY*(  25)Br  10                  0.00000     0.49658   
   219. RY*(  26)Br  10                  0.00000     4.34424   
   220. RY*(  27)Br  10                  0.00001     0.87153   
   221. RY*(  28)Br  10                  0.00000     4.24060   
   222. RY*(  29)Br  10                  0.00000     3.12725   
   223. RY*(  30)Br  10                  0.00000     4.28313   
   224. RY*(   1) H  11                  0.00056     1.07305   
   225. RY*(   2) H  11                  0.00019     1.72345   
   226. RY*(   3) H  11                  0.00008     0.19293   
   227. RY*(   1) H  12                  0.00056     1.07340   
   228. RY*(   2) H  12                  0.00019     1.72317   
   229. RY*(   3) H  12                  0.00008     0.19289   
   230. BD*(   1) C   1 - C   2          0.02325     0.61385   
   231. BD*(   2) C   1 - C   2          0.37208     0.03090  237(v),242(v),75(g),58(g)
                                                    143(v),158(v)
   232. BD*(   1) C   1 - C   6          0.02325     0.61377   
   233. BD*(   1) C   1 -Br   7          0.04060     0.11361   
   234. BD*(   1) C   2 - C   3          0.01913     0.53706   
   235. BD*(   1) C   2 - H   8          0.01104     0.50516   
   236. BD*(   1) C   3 - C   4          0.02325     0.61385   
   237. BD*(   2) C   3 - C   4          0.37207     0.03090  231(v),242(v),92(g),109(g)
                                                    126(v),194(v)
   238. BD*(   1) C   3 - H   9          0.01104     0.50519   
   239. BD*(   1) C   4 - C   5          0.02325     0.61377   
   240. BD*(   1) C   4 -Br  10          0.04060     0.11361   
   241. BD*(   1) C   5 - C   6          0.01912     0.53708   
   242. BD*(   2) C   5 - C   6          0.32800     0.02717  231(v),237(v),128(g),145(g)
   243. BD*(   1) C   5 - H  11          0.01104     0.50483   
   244. BD*(   1) C   6 - H  12          0.01104     0.50486   
       -------------------------------
              Total Lewis  108.57443  ( 98.7040%)
        Valence non-Lewis    1.32874  (  1.2079%)
        Rydberg non-Lewis    0.09683  (  0.0880%)
       -------------------------------
            Total unit  1  110.00000  (100.0000%)
           Charge unit  1    0.00000
 Leave Link  607 at Mon Sep 28 13:11:36 2026, MaxMem=  1610612736 cpu:              14.2 elap:               2.0
 (Enter /share/software/user/restricted/gaussian/g16.B01/l9999.exe)
 1\1\GINC-SH03-01N42\SP\RM062X\6-311++G(d)\C6H4Br2\JLAPIER\28-Sep-2026\
 0\\#p SP M062X/6-311++G(d) SCRF=(SMD,Solvent=Water) Int=UltraFine Pop=
 (Hirshfeld,NBORead) NoSymm SCF=XQC Geom=Check\\BrBz_14_RA__vN sp_m062x
 _smd\\0,1\C,0,0.0000004993,-0.0193451947,1.363516697\C,0,0.0820055133,
 1.2138876488,0.7373084565\C,0,-0.0820022195,1.2343159771,-0.7025752726
 \C,0,0.0000004992,0.0193451949,-1.3635166971\C,0,0.0820055134,-1.21388
 76486,-0.7373084565\C,0,-0.0820022193,-1.234315977,0.7025752725\Br,0,-
 0.0000044347,-0.0469628629,3.3101693799\H,0,0.2462906422,2.125237138,1
 .2990693338\H,0,-0.2462899994,2.1612352055,-1.2382555493\Br,0,-0.00000
 4435,0.0469628631,-3.31016938\H,0,0.2462906423,-2.1252371378,-1.299069
 3338\H,0,-0.246289999,-2.1612352054,1.2382555493\\Version=ES64L-G16Rev
 B.01\HF=-5379.3277952\RMSD=2.072e-09\Dipole=-0.0000445,0.,0.\Quadrupol
 e=-2.2753788,7.7310167,-5.4556379,0.,0.,0.1854722\PG=C02 [X(C6H4Br2)]\
 \@


 REPARTEE - WHAT YOU THINK OF AFTER YOU BECOME A DEPARTEE.
 Job cpu time:       0 days  0 hours  4 minutes 36.6 seconds.
 Elapsed time:       0 days  0 hours  0 minutes 40.3 seconds.
 File lengths (MBytes):  RWF=     66 Int=      0 D2E=      0 Chk=     67 Scr=      1
 Normal termination of Gaussian 16 at Mon Sep 28 13:11:37 2026.
