 Entering Gaussian System, Link 0=g16
 Initial command:
 /share/software/user/restricted/gaussian/g16.B01/l1.exe "/lscratch/jlapier/g16_45667984_122/Gau-29147.inp" -scrdir="/lscratch/jlapier/g16_45667984_122/"
 Entering Link 1 = /share/software/user/restricted/gaussian/g16.B01/l1.exe PID=     29148.
  
 Copyright (c) 1988-2017, Gaussian, Inc.  All Rights Reserved.
  
 This is part of the Gaussian(R) 16 program.  It is based on
 the Gaussian(R) 09 system (copyright 2009, Gaussian, Inc.),
 the Gaussian(R) 03 system (copyright 2003, Gaussian, Inc.),
 the Gaussian(R) 98 system (copyright 1998, Gaussian, Inc.),
 the Gaussian(R) 94 system (copyright 1995, Gaussian, Inc.),
 the Gaussian 92(TM) system (copyright 1992, Gaussian, Inc.),
 the Gaussian 90(TM) system (copyright 1990, Gaussian, Inc.),
 the Gaussian 88(TM) system (copyright 1988, Gaussian, Inc.),
 the Gaussian 86(TM) system (copyright 1986, Carnegie Mellon
 University), and the Gaussian 82(TM) system (copyright 1983,
 Carnegie Mellon University). Gaussian is a federally registered
 trademark of Gaussian, Inc.
  
 This software contains proprietary and confidential information,
 including trade secrets, belonging to Gaussian, Inc.
  
 This software is provided under written license and may be
 used, copied, transmitted, or stored only in accord with that
 written license.
  
 The following legend is applicable only to US Government
 contracts under FAR:
  
                    RESTRICTED RIGHTS LEGEND
  
 Use, reproduction and disclosure by the US Government is
 subject to restrictions as set forth in subparagraphs (a)
 and (c) of the Commercial Computer Software - Restricted
 Rights clause in FAR 52.227-19.
  
 Gaussian, Inc.
 340 Quinnipiac St., Bldg. 40, Wallingford CT 06492
  
  
 ---------------------------------------------------------------
 Warning -- This program may not be used in any manner that
 competes with the business of Gaussian, Inc. or will provide
 assistance to any competitor of Gaussian, Inc.  The licensee
 of this program is prohibited from giving any competitor of
 Gaussian, Inc. access to this program.  By using this program,
 the user acknowledges that Gaussian, Inc. is engaged in the
 business of creating and licensing software in the field of
 computational chemistry and represents and warrants to the
 licensee that it is not a competitor of Gaussian, Inc. and that
 it will not use this program in any manner prohibited above.
 ---------------------------------------------------------------
  

 Cite this work as:
 Gaussian 16, Revision B.01,
 M. J. Frisch, G. W. Trucks, H. B. Schlegel, G. E. Scuseria, 
 M. A. Robb, J. R. Cheeseman, G. Scalmani, V. Barone, 
 G. A. Petersson, H. Nakatsuji, X. Li, M. Caricato, A. V. Marenich, 
 J. Bloino, B. G. Janesko, R. Gomperts, B. Mennucci, H. P. Hratchian, 
 J. V. Ortiz, A. F. Izmaylov, J. L. Sonnenberg, D. Williams-Young, 
 F. Ding, F. Lipparini, F. Egidi, J. Goings, B. Peng, A. Petrone, 
 T. Henderson, D. Ranasinghe, V. G. Zakrzewski, J. Gao, N. Rega, 
 G. Zheng, W. Liang, M. Hada, M. Ehara, K. Toyota, R. Fukuda, 
 J. Hasegawa, M. Ishida, T. Nakajima, Y. Honda, O. Kitao, H. Nakai, 
 T. Vreven, K. Throssell, J. A. Montgomery, Jr., J. E. Peralta, 
 F. Ogliaro, M. J. Bearpark, J. J. Heyd, E. N. Brothers, K. N. Kudin, 
 V. N. Staroverov, T. A. Keith, R. Kobayashi, J. Normand, 
 K. Raghavachari, A. P. Rendell, J. C. Burant, S. S. Iyengar, 
 J. Tomasi, M. Cossi, J. M. Millam, M. Klene, C. Adamo, R. Cammi, 
 J. W. Ochterski, R. L. Martin, K. Morokuma, O. Farkas, 
 J. B. Foresman, and D. J. Fox, Gaussian, Inc., Wallingford CT, 2016.
 
 ******************************************
 Gaussian 16:  ES64L-G16RevB.01 20-Dec-2017
                28-Sep-2026 
 ******************************************
 %nprocshared=1
 Will use up to    1 processors via shared memory.
 %mem=1GB
 %chk=calcs/am1/chks/BrBz_123456.chk
 -----------------
 # Opt AM1 SCF=XQC
 -----------------
 1/18=20,19=15,26=1,38=1/1,3;
 2/9=110,12=2,17=6,18=5,40=1/2;
 3/5=2,25=1,41=700000,71=1/1,2,3;
 4/35=1/1;
 5/5=2,8=3,13=1,35=1,38=5/2,8;
 6/7=2,8=2,9=2,10=2,28=1/1;
 7//1,2,3,16;
 1/18=20,19=15,26=1/3(2);
 2/9=110/2;
 99//99;
 2/9=110/2;
 3/5=2,25=1,41=700000,71=1,135=20/1,2,3;
 4/5=5,16=3,35=1/1;
 5/5=2,8=3,13=1,35=1,38=5/2,8;
 7//1,2,3,16;
 1/18=20,19=15,26=1/3(-5);
 2/9=110/2;
 6/7=2,8=2,9=2,10=2,19=2,28=1/1;
 99/9=1/99;
 ---------------
 BrBz_123456 am1
 ---------------
 Symbolic Z-matrix:
 Charge =  0 Multiplicity = 1
 C                     0.        1.39      0. 
 C                     1.20378   0.695     0. 
 C                     1.20378  -0.695     0. 
 C                     0.       -1.39      0. 
 C                    -1.20378  -0.695     0. 
 C                    -1.20378   0.695     0. 
 Br                    0.        3.29      0. 
 Br                    2.84922   1.645     0. 
 Br                    2.84922  -1.645     0. 
 Br                    0.       -3.29      0. 
 Br                   -2.84922  -1.645     0. 
 Br                   -2.84922   1.645     0. 
 

 GradGradGradGradGradGradGradGradGradGradGradGradGradGradGradGradGradGrad
 Berny optimization.
 Initialization pass.
                           ----------------------------
                           !    Initial Parameters    !
                           ! (Angstroms and Degrees)  !
 --------------------------                            --------------------------
 ! Name  Definition              Value          Derivative Info.                !
 --------------------------------------------------------------------------------
 ! R1    R(1,2)                  1.39           estimate D2E/DX2                !
 ! R2    R(1,6)                  1.39           estimate D2E/DX2                !
 ! R3    R(1,7)                  1.9            estimate D2E/DX2                !
 ! R4    R(2,3)                  1.39           estimate D2E/DX2                !
 ! R5    R(2,8)                  1.9            estimate D2E/DX2                !
 ! R6    R(3,4)                  1.39           estimate D2E/DX2                !
 ! R7    R(3,9)                  1.9            estimate D2E/DX2                !
 ! R8    R(4,5)                  1.39           estimate D2E/DX2                !
 ! R9    R(4,10)                 1.9            estimate D2E/DX2                !
 ! R10   R(5,6)                  1.39           estimate D2E/DX2                !
 ! R11   R(5,11)                 1.9            estimate D2E/DX2                !
 ! R12   R(6,12)                 1.9            estimate D2E/DX2                !
 ! A1    A(2,1,6)              120.0            estimate D2E/DX2                !
 ! A2    A(2,1,7)              120.0            estimate D2E/DX2                !
 ! A3    A(6,1,7)              120.0            estimate D2E/DX2                !
 ! A4    A(1,2,3)              120.0            estimate D2E/DX2                !
 ! A5    A(1,2,8)              120.0            estimate D2E/DX2                !
 ! A6    A(3,2,8)              120.0            estimate D2E/DX2                !
 ! A7    A(2,3,4)              120.0            estimate D2E/DX2                !
 ! A8    A(2,3,9)              120.0            estimate D2E/DX2                !
 ! A9    A(4,3,9)              120.0            estimate D2E/DX2                !
 ! A10   A(3,4,5)              120.0            estimate D2E/DX2                !
 ! A11   A(3,4,10)             120.0            estimate D2E/DX2                !
 ! A12   A(5,4,10)             120.0            estimate D2E/DX2                !
 ! A13   A(4,5,6)              120.0            estimate D2E/DX2                !
 ! A14   A(4,5,11)             120.0            estimate D2E/DX2                !
 ! A15   A(6,5,11)             120.0            estimate D2E/DX2                !
 ! A16   A(1,6,5)              120.0            estimate D2E/DX2                !
 ! A17   A(1,6,12)             120.0            estimate D2E/DX2                !
 ! A18   A(5,6,12)             120.0            estimate D2E/DX2                !
 ! D1    D(6,1,2,3)              0.0            estimate D2E/DX2                !
 ! D2    D(6,1,2,8)            180.0            estimate D2E/DX2                !
 ! D3    D(7,1,2,3)            180.0            estimate D2E/DX2                !
 ! D4    D(7,1,2,8)              0.0            estimate D2E/DX2                !
 ! D5    D(2,1,6,5)              0.0            estimate D2E/DX2                !
 ! D6    D(2,1,6,12)           180.0            estimate D2E/DX2                !
 ! D7    D(7,1,6,5)            180.0            estimate D2E/DX2                !
 ! D8    D(7,1,6,12)             0.0            estimate D2E/DX2                !
 ! D9    D(1,2,3,4)              0.0            estimate D2E/DX2                !
 ! D10   D(1,2,3,9)            180.0            estimate D2E/DX2                !
 ! D11   D(8,2,3,4)            180.0            estimate D2E/DX2                !
 ! D12   D(8,2,3,9)              0.0            estimate D2E/DX2                !
 ! D13   D(2,3,4,5)              0.0            estimate D2E/DX2                !
 ! D14   D(2,3,4,10)           180.0            estimate D2E/DX2                !
 ! D15   D(9,3,4,5)            180.0            estimate D2E/DX2                !
 ! D16   D(9,3,4,10)             0.0            estimate D2E/DX2                !
 ! D17   D(3,4,5,6)              0.0            estimate D2E/DX2                !
 ! D18   D(3,4,5,11)           180.0            estimate D2E/DX2                !
 ! D19   D(10,4,5,6)           180.0            estimate D2E/DX2                !
 ! D20   D(10,4,5,11)            0.0            estimate D2E/DX2                !
 ! D21   D(4,5,6,1)              0.0            estimate D2E/DX2                !
 ! D22   D(4,5,6,12)           180.0            estimate D2E/DX2                !
 ! D23   D(11,5,6,1)           180.0            estimate D2E/DX2                !
 ! D24   D(11,5,6,12)            0.0            estimate D2E/DX2                !
 --------------------------------------------------------------------------------
 Trust Radius=3.00D-01 FncErr=1.00D-07 GrdErr=1.00D-07 EigMax=2.50D+02 EigMin=1.00D-04
 Number of steps in this run=     64 maximum allowed number of steps=    100.
 GradGradGradGradGradGradGradGradGradGradGradGradGradGradGradGradGradGrad

                          Input orientation:                          
 ---------------------------------------------------------------------
 Center     Atomic      Atomic             Coordinates (Angstroms)
 Number     Number       Type             X           Y           Z
 ---------------------------------------------------------------------
      1          6           0        0.000000    1.390000    0.000000
      2          6           0        1.203775    0.695000    0.000000
      3          6           0        1.203775   -0.695000    0.000000
      4          6           0        0.000000   -1.390000    0.000000
      5          6           0       -1.203775   -0.695000    0.000000
      6          6           0       -1.203775    0.695000    0.000000
      7         35           0        0.000000    3.290000    0.000000
      8         35           0        2.849224    1.645000    0.000000
      9         35           0        2.849224   -1.645000    0.000000
     10         35           0        0.000000   -3.290000    0.000000
     11         35           0       -2.849224   -1.645000    0.000000
     12         35           0       -2.849224    1.645000    0.000000
 ---------------------------------------------------------------------
                    Distance matrix (angstroms):
                    1          2          3          4          5
     1  C    0.000000
     2  C    1.390000   0.000000
     3  C    2.407551   1.390000   0.000000
     4  C    2.780000   2.407551   1.390000   0.000000
     5  C    2.407551   2.780000   2.407551   1.390000   0.000000
     6  C    1.390000   2.407551   2.780000   2.407551   1.390000
     7  Br   1.900000   2.860612   4.162848   4.680000   4.162848
     8  Br   2.860612   1.900000   2.860612   4.162848   4.680000
     9  Br   4.162848   2.860612   1.900000   2.860612   4.162848
    10  Br   4.680000   4.162848   2.860612   1.900000   2.860612
    11  Br   4.162848   4.680000   4.162848   2.860612   1.900000
    12  Br   2.860612   4.162848   4.680000   4.162848   2.860612
                    6          7          8          9         10
     6  C    0.000000
     7  Br   2.860612   0.000000
     8  Br   4.162848   3.290000   0.000000
     9  Br   4.680000   5.698447   3.290000   0.000000
    10  Br   4.162848   6.580000   5.698447   3.290000   0.000000
    11  Br   2.860612   5.698447   6.580000   5.698447   3.290000
    12  Br   1.900000   3.290000   5.698447   6.580000   5.698447
                   11         12
    11  Br   0.000000
    12  Br   3.290000   0.000000
 Stoichiometry    C6Br6
 Framework group  D6H[3C2'(BrC.CBr)]
 Deg. of freedom     2
 Full point group                 D6H     NOp  24
 Largest Abelian subgroup         D2H     NOp   8
 Largest concise Abelian subgroup D2      NOp   4
                         Standard orientation:                         
 ---------------------------------------------------------------------
 Center     Atomic      Atomic             Coordinates (Angstroms)
 Number     Number       Type             X           Y           Z
 ---------------------------------------------------------------------
      1          6           0        0.000000    1.390000    0.000000
      2          6           0        1.203775    0.695000    0.000000
      3          6           0        1.203775   -0.695000    0.000000
      4          6           0       -0.000000   -1.390000    0.000000
      5          6           0       -1.203775   -0.695000    0.000000
      6          6           0       -1.203775    0.695000    0.000000
      7         35           0        0.000000    3.290000    0.000000
      8         35           0        2.849224    1.645000    0.000000
      9         35           0        2.849224   -1.645000    0.000000
     10         35           0       -0.000000   -3.290000    0.000000
     11         35           0       -2.849224   -1.645000    0.000000
     12         35           0       -2.849224    1.645000    0.000000
 ---------------------------------------------------------------------
 Rotational constants (GHZ):           0.1919976           0.1919976           0.0959988
 Standard basis: VSTO-6G (5D, 7F)
 There are    10 symmetry adapted cartesian basis functions of AG  symmetry.
 There are     8 symmetry adapted cartesian basis functions of B1G symmetry.
 There are     2 symmetry adapted cartesian basis functions of B2G symmetry.
 There are     4 symmetry adapted cartesian basis functions of B3G symmetry.
 There are     2 symmetry adapted cartesian basis functions of AU  symmetry.
 There are     4 symmetry adapted cartesian basis functions of B1U symmetry.
 There are    10 symmetry adapted cartesian basis functions of B2U symmetry.
 There are     8 symmetry adapted cartesian basis functions of B3U symmetry.
 There are    10 symmetry adapted basis functions of AG  symmetry.
 There are     8 symmetry adapted basis functions of B1G symmetry.
 There are     2 symmetry adapted basis functions of B2G symmetry.
 There are     4 symmetry adapted basis functions of B3G symmetry.
 There are     2 symmetry adapted basis functions of AU  symmetry.
 There are     4 symmetry adapted basis functions of B1U symmetry.
 There are    10 symmetry adapted basis functions of B2U symmetry.
 There are     8 symmetry adapted basis functions of B3U symmetry.
    48 basis functions,   288 primitive gaussians,    48 cartesian basis functions
    33 alpha electrons       33 beta electrons
       nuclear repulsion energy       406.9646863335 Hartrees.
 Integral buffers will be    131072 words long.
 Regular integral format.
 Two-electron integral symmetry is turned off.
 Do NDO integrals.
 One-electron integrals computed using PRISM.
 NBasis=    48 RedAO= T EigKep=  1.00D+00  NBF=    10     8     2     4     2     4    10     8
 NBsUse=    48 1.00D-06 EigRej= -1.00D+00 NBFU=    10     8     2     4     2     4    10     8
 Nonelectrostatic core Hamiltonian diagonalized for initial guess.
 Initial guess orbital symmetries:
       Occupied  (A1G) (E1U) (E1U) (E2G) (E2G) (A1G) (B1U) (E1U)
                 (E1U) (E2G) (E2G) (A1G) (B2U) (B1U) (A2U) (E1U)
                 (E1U) (E1G) (E1G) (E2G) (E2G) (B2U) (E2G) (E2G)
                 (E2U) (E2U) (B2G) (A2U) (E1U) (E1U) (E1G) (E1G)
                 (A2G)
       Virtual   (E2U) (E2U) (B1U) (A1G) (E2G) (E2G) (B2G) (E1U)
                 (E1U) (E2G) (E2G) (E1U) (E1U) (B1U) (A2G)
 The electronic state of the initial guess is 1-A1G.
 Keep J ints in memory in canonical form, NReq=866607.
 Overlap will be assumed to be unity.
 Requested convergence on RMS density matrix=1.00D-08 within  32 cycles.
 Requested convergence on MAX density matrix=1.00D-06.
 Requested convergence on             energy=1.00D-06.
 No special actions if energy rises.
 Fock symm off for IB=2 I1=    1 I=   11 J=    5 Cut=1.00D-07 Err=3.39D-02
 Fock matrix is not symmetric: symmetry in diagonalization turned off.
 SCF Done:  E(RAM1) =  0.966211606154E-01 A.U. after   13 cycles
            NFock= 12  Conv=0.57D-08     -V/T= 1.0006
 QCSCF skips out because SCF is already converged.

 **********************************************************************

            Population analysis using the SCF Density.

 **********************************************************************

 Orbital symmetries:
       Occupied  (A1G) (E1U) (E1U) (E2G) (E2G) (A1G) (B1U) (E1U)
                 (E1U) (E2G) (E2G) (B2U) (A1G) (B1U) (A2U) (E1U)
                 (E1U) (E1G) (E1G) (E2G) (E2G) (B2U) (E2G) (E2G)
                 (E2U) (E2U) (B2G) (A2U) (E1U) (E1U) (A2G) (E1G)
                 (E1G)
       Virtual   (E2U) (E2U) (A1G) (E1U) (E1U) (B1U) (E2G) (E2G)
                 (B2G) (E2G) (E2G) (E1U) (E1U) (A2G) (B1U)
 The electronic state is 1-A1G.
 Alpha  occ. eigenvalues --   -1.50644  -1.29428  -1.29428  -1.20075  -1.20075
 Alpha  occ. eigenvalues --   -1.17829  -1.17818  -1.08533  -1.08533  -0.87666
 Alpha  occ. eigenvalues --   -0.87666  -0.67869  -0.67384  -0.60557  -0.59777
 Alpha  occ. eigenvalues --   -0.56395  -0.56395  -0.50056  -0.50056  -0.49589
 Alpha  occ. eigenvalues --   -0.49589  -0.46621  -0.45625  -0.45625  -0.44395
 Alpha  occ. eigenvalues --   -0.44395  -0.43347  -0.42105  -0.41122  -0.41122
 Alpha  occ. eigenvalues --   -0.38490  -0.37419  -0.37419
 Alpha virt. eigenvalues --   -0.04599  -0.04599  -0.02684  -0.01128  -0.01128
 Alpha virt. eigenvalues --   -0.00915   0.01031   0.01031   0.04045   0.11115
 Alpha virt. eigenvalues --    0.11115   0.12005   0.12005   0.13449   0.14339
          Condensed to atoms (all electrons):
               1          2          3          4          5          6
     1  C    4.117057   0.000000   0.000000   0.000000   0.000000   0.000000
     2  C    0.000000   4.117057   0.000000   0.000000   0.000000   0.000000
     3  C    0.000000   0.000000   4.117057   0.000000   0.000000   0.000000
     4  C    0.000000   0.000000   0.000000   4.117057   0.000000   0.000000
     5  C    0.000000   0.000000   0.000000   0.000000   4.117057   0.000000
     6  C    0.000000   0.000000   0.000000   0.000000   0.000000   4.117057
     7  Br   0.000000   0.000000   0.000000   0.000000   0.000000   0.000000
     8  Br   0.000000   0.000000   0.000000   0.000000   0.000000   0.000000
     9  Br   0.000000   0.000000   0.000000   0.000000   0.000000   0.000000
    10  Br   0.000000   0.000000   0.000000   0.000000   0.000000   0.000000
    11  Br   0.000000   0.000000   0.000000   0.000000   0.000000   0.000000
    12  Br   0.000000   0.000000   0.000000   0.000000   0.000000   0.000000
               7          8          9         10         11         12
     1  C    0.000000   0.000000   0.000000   0.000000   0.000000   0.000000
     2  C    0.000000   0.000000   0.000000   0.000000   0.000000   0.000000
     3  C    0.000000   0.000000   0.000000   0.000000   0.000000   0.000000
     4  C    0.000000   0.000000   0.000000   0.000000   0.000000   0.000000
     5  C    0.000000   0.000000   0.000000   0.000000   0.000000   0.000000
     6  C    0.000000   0.000000   0.000000   0.000000   0.000000   0.000000
     7  Br   6.882943   0.000000   0.000000   0.000000   0.000000   0.000000
     8  Br   0.000000   6.882943   0.000000   0.000000   0.000000   0.000000
     9  Br   0.000000   0.000000   6.882943   0.000000   0.000000   0.000000
    10  Br   0.000000   0.000000   0.000000   6.882943   0.000000   0.000000
    11  Br   0.000000   0.000000   0.000000   0.000000   6.882943   0.000000
    12  Br   0.000000   0.000000   0.000000   0.000000   0.000000   6.882943
 Mulliken charges:
               1
     1  C   -0.117057
     2  C   -0.117057
     3  C   -0.117057
     4  C   -0.117057
     5  C   -0.117057
     6  C   -0.117057
     7  Br   0.117057
     8  Br   0.117057
     9  Br   0.117057
    10  Br   0.117057
    11  Br   0.117057
    12  Br   0.117057
 Sum of Mulliken charges =  -0.00000
 Mulliken charges with hydrogens summed into heavy atoms:
               1
     1  C   -0.117057
     2  C   -0.117057
     3  C   -0.117057
     4  C   -0.117057
     5  C   -0.117057
     6  C   -0.117057
     7  Br   0.117057
     8  Br   0.117057
     9  Br   0.117057
    10  Br   0.117057
    11  Br   0.117057
    12  Br   0.117057
 Charge=             -0.0000 electrons
 Dipole moment (field-independent basis, Debye):
    X=              0.0000    Y=             -0.0000    Z=              0.0000  Tot=              0.0000
 N-N= 4.069646863335D+02 E-N=-5.945599240100D+02  KE=-1.721152213481D+02
 Symmetry AG   KE=-3.849192030829D+01
 Symmetry B1G  KE=-2.675301156778D+01
 Symmetry B2G  KE=-8.536438789758D+00
 Symmetry B3G  KE=-1.397712024232D+01
 Symmetry AU   KE=-5.417924025893D+00
 Symmetry B1U  KE=-1.415945308010D+01
 Symmetry B2U  KE=-3.405184101917D+01
 Symmetry B3U  KE=-3.072751231475D+01
 Calling FoFJK, ICntrl=      2127 FMM=F ISym2X=1 I1Cent= 0 IOpClX= 0 NMat=1 NMatS=1 NMatT=0.
 ***** Axes restored to original set *****
 -------------------------------------------------------------------
 Center     Atomic                   Forces (Hartrees/Bohr)
 Number     Number              X              Y              Z
 -------------------------------------------------------------------
      1        6          -0.000000001    0.026102546   -0.000000000
      2        6           0.022605467    0.013051273    0.000000000
      3        6           0.022605468   -0.013051272   -0.000000000
      4        6           0.000000001   -0.026102546    0.000000000
      5        6          -0.022605467   -0.013051273   -0.000000000
      6        6          -0.022605468    0.013051272    0.000000000
      7       35          -0.000000001   -0.013034636   -0.000000000
      8       35          -0.011288327   -0.006517317    0.000000000
      9       35          -0.011288326    0.006517319   -0.000000000
     10       35           0.000000001    0.013034636    0.000000000
     11       35           0.011288327    0.006517317   -0.000000000
     12       35           0.011288326   -0.006517319   -0.000000000
 -------------------------------------------------------------------
 Cartesian Forces:  Max     0.026102546 RMS     0.011911092

 GradGradGradGradGradGradGradGradGradGradGradGradGradGradGradGradGradGrad
 Berny optimization.
 FormGI is forming the generalized inverse of G from B-inverse, IUseBI=4.
 Internal  Forces:  Max     0.013067909 RMS     0.006152434
 Search for a local minimum.
 Step number   1 out of a maximum of   64
 All quantities printed in internal units (Hartrees-Bohrs-Radians)
 Mixed Optimization -- RFO/linear search
 Second derivative matrix not updated -- first step.
 ITU=  0
     Eigenvalues ---    0.02221   0.02221   0.02221   0.02221   0.02221
     Eigenvalues ---    0.02221   0.02221   0.02221   0.02221   0.18251
     Eigenvalues ---    0.18251   0.18251   0.18251   0.18251   0.18251
     Eigenvalues ---    0.25000   0.25000   0.25000   0.25000   0.25000
     Eigenvalues ---    0.25000   0.25000   0.25000   0.25000   0.43333
     Eigenvalues ---    0.43333   0.47319   0.47319   0.47319   0.47319
 RFO step:  Lambda=-7.49674336D-03 EMin= 2.22103664D-02
 Linear search not attempted -- first point.
 Iteration  1 RMS(Cart)=  0.01651366 RMS(Int)=  0.00000000
 Iteration  2 RMS(Cart)=  0.00000000 RMS(Int)=  0.00000000
 ClnCor:  largest displacement from symmetrization is 1.76D-10 for atom     1.
 Variable       Old X    -DE/DX   Delta X   Delta X   Delta X     New X
                                 (Linear)    (Quad)   (Total)
    R1        2.62672   0.01307   0.00000   0.02719   0.02719   2.65391
    R2        2.62672   0.01307   0.00000   0.02719   0.02719   2.65391
    R3        3.59048  -0.01303   0.00000  -0.06860  -0.06860   3.52188
    R4        2.62672   0.01307   0.00000   0.02719   0.02719   2.65391
    R5        3.59048  -0.01303   0.00000  -0.06860  -0.06860   3.52188
    R6        2.62672   0.01307   0.00000   0.02719   0.02719   2.65391
    R7        3.59048  -0.01303   0.00000  -0.06860  -0.06860   3.52188
    R8        2.62672   0.01307   0.00000   0.02719   0.02719   2.65391
    R9        3.59048  -0.01303   0.00000  -0.06860  -0.06860   3.52188
   R10        2.62672   0.01307   0.00000   0.02719   0.02719   2.65391
   R11        3.59048  -0.01303   0.00000  -0.06860  -0.06860   3.52188
   R12        3.59048  -0.01303   0.00000  -0.06860  -0.06860   3.52188
    A1        2.09440   0.00000   0.00000   0.00000   0.00000   2.09440
    A2        2.09440  -0.00000   0.00000  -0.00000   0.00000   2.09440
    A3        2.09440   0.00000   0.00000   0.00000  -0.00000   2.09440
    A4        2.09440   0.00000   0.00000   0.00000  -0.00000   2.09440
    A5        2.09440   0.00000   0.00000   0.00000  -0.00000   2.09440
    A6        2.09440  -0.00000   0.00000  -0.00000   0.00000   2.09440
    A7        2.09440  -0.00000   0.00000  -0.00000   0.00000   2.09440
    A8        2.09440   0.00000   0.00000   0.00000  -0.00000   2.09440
    A9        2.09440  -0.00000   0.00000  -0.00000   0.00000   2.09440
   A10        2.09440   0.00000   0.00000   0.00000   0.00000   2.09440
   A11        2.09440   0.00000   0.00000   0.00000   0.00000   2.09440
   A12        2.09440  -0.00000   0.00000  -0.00000   0.00000   2.09440
   A13        2.09440  -0.00000   0.00000  -0.00000   0.00000   2.09440
   A14        2.09440   0.00000   0.00000   0.00000   0.00000   2.09440
   A15        2.09440  -0.00000   0.00000  -0.00000   0.00000   2.09440
   A16        2.09440  -0.00000   0.00000  -0.00000   0.00000   2.09440
   A17        2.09440  -0.00000   0.00000  -0.00000   0.00000   2.09440
   A18        2.09440   0.00000   0.00000   0.00000   0.00000   2.09440
    D1        0.00000   0.00000   0.00000   0.00000   0.00000   0.00000
    D2        3.14159   0.00000   0.00000   0.00000   0.00000   3.14159
    D3        3.14159   0.00000   0.00000   0.00000   0.00000   3.14159
    D4        0.00000   0.00000   0.00000   0.00000   0.00000   0.00000
    D5        0.00000  -0.00000   0.00000  -0.00000   0.00000   0.00000
    D6        3.14159  -0.00000   0.00000  -0.00000   0.00000   3.14159
    D7        3.14159  -0.00000   0.00000  -0.00000   0.00000   3.14159
    D8        0.00000  -0.00000   0.00000  -0.00000   0.00000   0.00000
    D9        0.00000  -0.00000   0.00000  -0.00000   0.00000   0.00000
   D10        3.14159  -0.00000   0.00000  -0.00000   0.00000   3.14159
   D11        3.14159  -0.00000   0.00000  -0.00000   0.00000   3.14159
   D12        0.00000  -0.00000   0.00000  -0.00000  -0.00000   0.00000
   D13        0.00000   0.00000   0.00000   0.00000   0.00000   0.00000
   D14        3.14159   0.00000   0.00000   0.00000   0.00000   3.14159
   D15        3.14159   0.00000   0.00000   0.00000   0.00000   3.14159
   D16        0.00000   0.00000   0.00000   0.00000   0.00000   0.00000
   D17        0.00000  -0.00000   0.00000  -0.00000   0.00000   0.00000
   D18        3.14159  -0.00000   0.00000  -0.00000   0.00000   3.14159
   D19        3.14159  -0.00000   0.00000  -0.00000   0.00000   3.14159
   D20        0.00000  -0.00000   0.00000  -0.00000  -0.00000   0.00000
   D21        0.00000   0.00000   0.00000   0.00000   0.00000   0.00000
   D22        3.14159   0.00000   0.00000   0.00000   0.00000   3.14159
   D23        3.14159   0.00000   0.00000   0.00000   0.00000   3.14159
   D24        0.00000   0.00000   0.00000   0.00000   0.00000   0.00000
         Item               Value     Threshold  Converged?
 Maximum Force            0.013068     0.000450     NO 
 RMS     Force            0.006152     0.000300     NO 
 Maximum Displacement     0.041415     0.001800     NO 
 RMS     Displacement     0.016514     0.001200     NO 
 Predicted change in Energy=-3.870841D-03
 GradGradGradGradGradGradGradGradGradGradGradGradGradGradGradGradGradGrad

                          Input orientation:                          
 ---------------------------------------------------------------------
 Center     Atomic      Atomic             Coordinates (Angstroms)
 Number     Number       Type             X           Y           Z
 ---------------------------------------------------------------------
      1          6           0       -0.000000    1.404386    0.000000
      2          6           0        1.216234    0.702193    0.000000
      3          6           0        1.216234   -0.702193    0.000000
      4          6           0        0.000000   -1.404386    0.000000
      5          6           0       -1.216234   -0.702193    0.000000
      6          6           0       -1.216234    0.702193    0.000000
      7         35           0       -0.000000    3.268084   -0.000000
      8         35           0        2.830244    1.634042   -0.000000
      9         35           0        2.830244   -1.634042   -0.000000
     10         35           0        0.000000   -3.268084   -0.000000
     11         35           0       -2.830244   -1.634042   -0.000000
     12         35           0       -2.830244    1.634042   -0.000000
 ---------------------------------------------------------------------
                    Distance matrix (angstroms):
                    1          2          3          4          5
     1  C    0.000000
     2  C    1.404386   0.000000
     3  C    2.432468   1.404386   0.000000
     4  C    2.808772   2.432468   1.404386   0.000000
     5  C    2.432468   2.808772   2.432468   1.404386   0.000000
     6  C    1.404386   2.432468   2.808772   2.432468   1.404386
     7  Br   1.863698   2.839546   4.152388   4.672470   4.152388
     8  Br   2.839546   1.863698   2.839546   4.152388   4.672470
     9  Br   4.152388   2.839546   1.863698   2.839546   4.152388
    10  Br   4.672470   4.152388   2.839546   1.863698   2.839546
    11  Br   4.152388   4.672470   4.152388   2.839546   1.863698
    12  Br   2.839546   4.152388   4.672470   4.152388   2.839546
                    6          7          8          9         10
     6  C    0.000000
     7  Br   2.839546   0.000000
     8  Br   4.152388   3.268084   0.000000
     9  Br   4.672470   5.660487   3.268084   0.000000
    10  Br   4.152388   6.536168   5.660487   3.268084   0.000000
    11  Br   2.839546   5.660487   6.536168   5.660487   3.268084
    12  Br   1.863698   3.268084   5.660487   6.536168   5.660487
                   11         12
    11  Br   0.000000
    12  Br   3.268084   0.000000
 Stoichiometry    C6Br6
 Framework group  D6H[3C2'(BrC.CBr)]
 Deg. of freedom     2
 Full point group                 D6H     NOp  24
 Largest Abelian subgroup         D2H     NOp   8
 Largest concise Abelian subgroup D2      NOp   4
                         Standard orientation:                         
 ---------------------------------------------------------------------
 Center     Atomic      Atomic             Coordinates (Angstroms)
 Number     Number       Type             X           Y           Z
 ---------------------------------------------------------------------
      1          6           0        0.000000    1.404386    0.000000
      2          6           0        1.216234    0.702193    0.000000
      3          6           0        1.216234   -0.702193    0.000000
      4          6           0       -0.000000   -1.404386    0.000000
      5          6           0       -1.216234   -0.702193    0.000000
      6          6           0       -1.216234    0.702193    0.000000
      7         35           0        0.000000    3.268084    0.000000
      8         35           0        2.830244    1.634042    0.000000
      9         35           0        2.830244   -1.634042    0.000000
     10         35           0       -0.000000   -3.268084    0.000000
     11         35           0       -2.830244   -1.634042    0.000000
     12         35           0       -2.830244    1.634042    0.000000
 ---------------------------------------------------------------------
 Rotational constants (GHZ):           0.1944039           0.1944039           0.0972019
 Standard basis: VSTO-6G (5D, 7F)
 There are    10 symmetry adapted cartesian basis functions of AG  symmetry.
 There are     8 symmetry adapted cartesian basis functions of B1G symmetry.
 There are     2 symmetry adapted cartesian basis functions of B2G symmetry.
 There are     4 symmetry adapted cartesian basis functions of B3G symmetry.
 There are     2 symmetry adapted cartesian basis functions of AU  symmetry.
 There are     4 symmetry adapted cartesian basis functions of B1U symmetry.
 There are    10 symmetry adapted cartesian basis functions of B2U symmetry.
 There are     8 symmetry adapted cartesian basis functions of B3U symmetry.
 There are    10 symmetry adapted basis functions of AG  symmetry.
 There are     8 symmetry adapted basis functions of B1G symmetry.
 There are     2 symmetry adapted basis functions of B2G symmetry.
 There are     4 symmetry adapted basis functions of B3G symmetry.
 There are     2 symmetry adapted basis functions of AU  symmetry.
 There are     4 symmetry adapted basis functions of B1U symmetry.
 There are    10 symmetry adapted basis functions of B2U symmetry.
 There are     8 symmetry adapted basis functions of B3U symmetry.
    48 basis functions,   288 primitive gaussians,    48 cartesian basis functions
    33 alpha electrons       33 beta electrons
       nuclear repulsion energy       408.2381090312 Hartrees.
 Integral buffers will be    131072 words long.
 Regular integral format.
 Two-electron integral symmetry is turned off.
 Do NDO integrals.
 One-electron integrals computed using PRISM.
 NBasis=    48 RedAO= T EigKep=  1.00D+00  NBF=    10     8     2     4     2     4    10     8
 NBsUse=    48 1.00D-06 EigRej= -1.00D+00 NBFU=    10     8     2     4     2     4    10     8
 Initial guess from the checkpoint file:  "calcs/am1/chks/BrBz_123456.chk"
 B after Tr=     0.000000    0.000000    0.000000
         Rot=    1.000000   -0.000000    0.000000    0.000000 Ang=   0.00 deg.
 Initial guess orbital symmetries:
       Occupied  (A1G) (E1U) (E1U) (E2G) (E2G) (A1G) (B1U) (E1U)
                 (E1U) (E2G) (E2G) (B2U) (A1G) (B1U) (A2U) (E1U)
                 (E1U) (E1G) (E1G) (E2G) (E2G) (B2U) (E2G) (E2G)
                 (E2U) (E2U) (B2G) (A2U) (E1U) (E1U) (A2G) (E1G)
                 (E1G)
       Virtual   (E2U) (E2U) (A1G) (E1U) (E1U) (B1U) (E2G) (E2G)
                 (B2G) (E2G) (E2G) (E1U) (E1U) (A2G) (B1U)
 Keep J ints in memory in canonical form, NReq=866607.
 Overlap will be assumed to be unity.
 Requested convergence on RMS density matrix=1.00D-08 within  32 cycles.
 Requested convergence on MAX density matrix=1.00D-06.
 Requested convergence on             energy=1.00D-06.
 No special actions if energy rises.
 An orbital has undefined symmetry, so N**3 symmetry is turned off.
 SCF Done:  E(RAM1) =  0.933342654458E-01 A.U. after    9 cycles
            NFock=  8  Conv=0.61D-08     -V/T= 1.0005
 QCSCF skips out because SCF is already converged.
 Calling FoFJK, ICntrl=      2127 FMM=F ISym2X=1 I1Cent= 0 IOpClX= 0 NMat=1 NMatS=1 NMatT=0.
 ***** Axes restored to original set *****
 -------------------------------------------------------------------
 Center     Atomic                   Forces (Hartrees/Bohr)
 Number     Number              X              Y              Z
 -------------------------------------------------------------------
      1        6          -0.000000000   -0.004597514   -0.000000000
      2        6          -0.003981564   -0.002298757    0.000000000
      3        6          -0.003981564    0.002298757   -0.000000000
      4        6           0.000000000    0.004597514    0.000000000
      5        6           0.003981564    0.002298757    0.000000000
      6        6           0.003981564   -0.002298757    0.000000000
      7       35          -0.000000000    0.000871241   -0.000000000
      8       35           0.000754517    0.000435621    0.000000000
      9       35           0.000754517   -0.000435620   -0.000000000
     10       35           0.000000000   -0.000871241    0.000000000
     11       35          -0.000754517   -0.000435621   -0.000000000
     12       35          -0.000754517    0.000435620   -0.000000000
 -------------------------------------------------------------------
 Cartesian Forces:  Max     0.004597514 RMS     0.001910332

 GradGradGradGradGradGradGradGradGradGradGradGradGradGradGradGradGradGrad
 Berny optimization.
 Using GEDIIS/GDIIS optimizer.
 FormGI is forming the generalized inverse of G from B-inverse, IUseBI=4.
 Internal  Forces:  Max     0.003726274 RMS     0.001275590
 Search for a local minimum.
 Step number   2 out of a maximum of   64
 All quantities printed in internal units (Hartrees-Bohrs-Radians)
 Mixed Optimization -- RFO/linear search
 Update second derivatives using D2CorX and points    1    2
 DE= -3.29D-03 DEPred=-3.87D-03 R= 8.49D-01
 TightC=F SS=  1.41D+00  RLast= 1.81D-01 DXNew= 5.0454D-01 5.4226D-01
 Trust test= 8.49D-01 RLast= 1.81D-01 DXMaxT set to 5.05D-01
 ITU=  1  0
 Use linear search instead of GDIIS.
     Eigenvalues ---    0.02221   0.02221   0.02221   0.02221   0.02221
     Eigenvalues ---    0.02221   0.02221   0.02221   0.02221   0.18251
     Eigenvalues ---    0.18251   0.18251   0.18251   0.18251   0.18691
     Eigenvalues ---    0.25000   0.25000   0.25000   0.25000   0.25000
     Eigenvalues ---    0.25000   0.25000   0.25000   0.25000   0.43400
     Eigenvalues ---    0.43400   0.47319   0.47319   0.47319   0.53921
 RFO step:  Lambda=-5.93226259D-05 EMin= 2.22103664D-02
 Quartic linear search produced a step of -0.11265.
 Iteration  1 RMS(Cart)=  0.00251771 RMS(Int)=  0.00000000
 Iteration  2 RMS(Cart)=  0.00000000 RMS(Int)=  0.00000000
 ClnCor:  largest displacement from symmetrization is 5.48D-10 for atom     4.
 Variable       Old X    -DE/DX   Delta X   Delta X   Delta X     New X
                                 (Linear)    (Quad)   (Total)
    R1        2.65391  -0.00373  -0.00306  -0.00367  -0.00673   2.64718
    R2        2.65391  -0.00373  -0.00306  -0.00367  -0.00673   2.64718
    R3        3.52188   0.00087   0.00773  -0.00443   0.00330   3.52518
    R4        2.65391  -0.00373  -0.00306  -0.00367  -0.00673   2.64718
    R5        3.52188   0.00087   0.00773  -0.00443   0.00330   3.52518
    R6        2.65391  -0.00373  -0.00306  -0.00367  -0.00673   2.64718
    R7        3.52188   0.00087   0.00773  -0.00443   0.00330   3.52518
    R8        2.65391  -0.00373  -0.00306  -0.00367  -0.00673   2.64718
    R9        3.52188   0.00087   0.00773  -0.00443   0.00330   3.52518
   R10        2.65391  -0.00373  -0.00306  -0.00367  -0.00673   2.64718
   R11        3.52188   0.00087   0.00773  -0.00443   0.00330   3.52518
   R12        3.52188   0.00087   0.00773  -0.00443   0.00330   3.52518
    A1        2.09440   0.00000  -0.00000   0.00000   0.00000   2.09440
    A2        2.09440  -0.00000   0.00000  -0.00000   0.00000   2.09440
    A3        2.09440   0.00000   0.00000   0.00000   0.00000   2.09440
    A4        2.09440  -0.00000   0.00000  -0.00000   0.00000   2.09440
    A5        2.09440   0.00000   0.00000   0.00000  -0.00000   2.09440
    A6        2.09440  -0.00000   0.00000  -0.00000   0.00000   2.09440
    A7        2.09440  -0.00000   0.00000  -0.00000   0.00000   2.09440
    A8        2.09440   0.00000   0.00000   0.00000   0.00000   2.09440
    A9        2.09440  -0.00000   0.00000  -0.00000   0.00000   2.09440
   A10        2.09440   0.00000   0.00000   0.00000   0.00000   2.09440
   A11        2.09440   0.00000   0.00000   0.00000   0.00000   2.09440
   A12        2.09440  -0.00000   0.00000  -0.00000   0.00000   2.09440
   A13        2.09440   0.00000  -0.00000  -0.00000   0.00000   2.09440
   A14        2.09440   0.00000   0.00000   0.00000   0.00000   2.09440
   A15        2.09440  -0.00000  -0.00000  -0.00000   0.00000   2.09440
   A16        2.09440  -0.00000   0.00000  -0.00000  -0.00000   2.09440
   A17        2.09440  -0.00000  -0.00000  -0.00000   0.00000   2.09440
   A18        2.09440   0.00000   0.00000   0.00000  -0.00000   2.09440
    D1        0.00000   0.00000   0.00000   0.00000   0.00000   0.00000
    D2        3.14159   0.00000   0.00000   0.00000   0.00000   3.14159
    D3        3.14159   0.00000   0.00000   0.00000   0.00000   3.14159
    D4        0.00000   0.00000   0.00000   0.00000   0.00000   0.00000
    D5        0.00000  -0.00000   0.00000  -0.00000   0.00000   0.00000
    D6        3.14159   0.00000   0.00000  -0.00000   0.00000   3.14159
    D7        3.14159  -0.00000   0.00000  -0.00000   0.00000   3.14159
    D8        0.00000  -0.00000   0.00000  -0.00000   0.00000   0.00000
    D9        0.00000  -0.00000   0.00000  -0.00000   0.00000   0.00000
   D10        3.14159  -0.00000   0.00000  -0.00000   0.00000   3.14159
   D11        3.14159  -0.00000   0.00000  -0.00000   0.00000   3.14159
   D12        0.00000  -0.00000   0.00000  -0.00000   0.00000   0.00000
   D13        0.00000   0.00000   0.00000   0.00000   0.00000   0.00000
   D14        3.14159  -0.00000   0.00000  -0.00000   0.00000   3.14159
   D15        3.14159   0.00000   0.00000   0.00000   0.00000   3.14159
   D16        0.00000   0.00000   0.00000   0.00000   0.00000   0.00000
   D17        0.00000  -0.00000   0.00000  -0.00000   0.00000   0.00000
   D18        3.14159  -0.00000   0.00000  -0.00000   0.00000   3.14159
   D19        3.14159   0.00000   0.00000   0.00000   0.00000   3.14159
   D20        0.00000  -0.00000   0.00000  -0.00000   0.00000   0.00000
   D21        0.00000   0.00000   0.00000   0.00000   0.00000   0.00000
   D22        3.14159  -0.00000   0.00000  -0.00000   0.00000   3.14159
   D23        3.14159   0.00000   0.00000   0.00000   0.00000   3.14159
   D24        0.00000   0.00000   0.00000   0.00000   0.00000   0.00000
         Item               Value     Threshold  Converged?
 Maximum Force            0.003726     0.000450     NO 
 RMS     Force            0.001276     0.000300     NO 
 Maximum Displacement     0.006730     0.001800     NO 
 RMS     Displacement     0.002518     0.001200     NO 
 Predicted change in Energy=-8.434668D-05
 GradGradGradGradGradGradGradGradGradGradGradGradGradGradGradGradGradGrad

                          Input orientation:                          
 ---------------------------------------------------------------------
 Center     Atomic      Atomic             Coordinates (Angstroms)
 Number     Number       Type             X           Y           Z
 ---------------------------------------------------------------------
      1          6           0       -0.000000    1.400825    0.000000
      2          6           0        1.213150    0.700413    0.000000
      3          6           0        1.213150   -0.700413    0.000000
      4          6           0        0.000000   -1.400825    0.000000
      5          6           0       -1.213150   -0.700413    0.000000
      6          6           0       -1.213150    0.700413    0.000000
      7         35           0       -0.000000    3.266269   -0.000000
      8         35           0        2.828672    1.633135   -0.000000
      9         35           0        2.828672   -1.633135   -0.000000
     10         35           0        0.000000   -3.266269   -0.000000
     11         35           0       -2.828672   -1.633135   -0.000000
     12         35           0       -2.828672    1.633135   -0.000000
 ---------------------------------------------------------------------
                    Distance matrix (angstroms):
                    1          2          3          4          5
     1  C    0.000000
     2  C    1.400825   0.000000
     3  C    2.426300   1.400825   0.000000
     4  C    2.801650   2.426300   1.400825   0.000000
     5  C    2.426300   2.801650   2.426300   1.400825   0.000000
     6  C    1.400825   2.426300   2.801650   2.426300   1.400825
     7  Br   1.865444   2.838195   4.148047   4.667094   4.148047
     8  Br   2.838195   1.865444   2.838195   4.148047   4.667094
     9  Br   4.148047   2.838195   1.865444   2.838195   4.148047
    10  Br   4.667094   4.148047   2.838195   1.865444   2.838195
    11  Br   4.148047   4.667094   4.148047   2.838195   1.865444
    12  Br   2.838195   4.148047   4.667094   4.148047   2.838195
                    6          7          8          9         10
     6  C    0.000000
     7  Br   2.838195   0.000000
     8  Br   4.148047   3.266269   0.000000
     9  Br   4.667094   5.657344   3.266269   0.000000
    10  Br   4.148047   6.532538   5.657344   3.266269   0.000000
    11  Br   2.838195   5.657344   6.532538   5.657344   3.266269
    12  Br   1.865444   3.266269   5.657344   6.532538   5.657344
                   11         12
    11  Br   0.000000
    12  Br   3.266269   0.000000
 Stoichiometry    C6Br6
 Framework group  D6H[3C2'(BrC.CBr)]
 Deg. of freedom     2
 Full point group                 D6H     NOp  24
 Largest Abelian subgroup         D2H     NOp   8
 Largest concise Abelian subgroup D2      NOp   4
                         Standard orientation:                         
 ---------------------------------------------------------------------
 Center     Atomic      Atomic             Coordinates (Angstroms)
 Number     Number       Type             X           Y           Z
 ---------------------------------------------------------------------
      1          6           0        0.000000    1.400825    0.000000
      2          6           0        1.213150    0.700413    0.000000
      3          6           0        1.213150   -0.700413    0.000000
      4          6           0       -0.000000   -1.400825    0.000000
      5          6           0       -1.213150   -0.700413    0.000000
      6          6           0       -1.213150    0.700413    0.000000
      7         35           0        0.000000    3.266269    0.000000
      8         35           0        2.828672    1.633135    0.000000
      9         35           0        2.828672   -1.633135    0.000000
     10         35           0       -0.000000   -3.266269    0.000000
     11         35           0       -2.828672   -1.633135    0.000000
     12         35           0       -2.828672    1.633135    0.000000
 ---------------------------------------------------------------------
 Rotational constants (GHZ):           0.1946410           0.1946410           0.0973205
 Standard basis: VSTO-6G (5D, 7F)
 There are    10 symmetry adapted cartesian basis functions of AG  symmetry.
 There are     8 symmetry adapted cartesian basis functions of B1G symmetry.
 There are     2 symmetry adapted cartesian basis functions of B2G symmetry.
 There are     4 symmetry adapted cartesian basis functions of B3G symmetry.
 There are     2 symmetry adapted cartesian basis functions of AU  symmetry.
 There are     4 symmetry adapted cartesian basis functions of B1U symmetry.
 There are    10 symmetry adapted cartesian basis functions of B2U symmetry.
 There are     8 symmetry adapted cartesian basis functions of B3U symmetry.
 There are    10 symmetry adapted basis functions of AG  symmetry.
 There are     8 symmetry adapted basis functions of B1G symmetry.
 There are     2 symmetry adapted basis functions of B2G symmetry.
 There are     4 symmetry adapted basis functions of B3G symmetry.
 There are     2 symmetry adapted basis functions of AU  symmetry.
 There are     4 symmetry adapted basis functions of B1U symmetry.
 There are    10 symmetry adapted basis functions of B2U symmetry.
 There are     8 symmetry adapted basis functions of B3U symmetry.
    48 basis functions,   288 primitive gaussians,    48 cartesian basis functions
    33 alpha electrons       33 beta electrons
       nuclear repulsion energy       408.4483280966 Hartrees.
 Integral buffers will be    131072 words long.
 Regular integral format.
 Two-electron integral symmetry is turned off.
 Do NDO integrals.
 One-electron integrals computed using PRISM.
 NBasis=    48 RedAO= T EigKep=  1.00D+00  NBF=    10     8     2     4     2     4    10     8
 NBsUse=    48 1.00D-06 EigRej= -1.00D+00 NBFU=    10     8     2     4     2     4    10     8
 Initial guess from the checkpoint file:  "calcs/am1/chks/BrBz_123456.chk"
 B after Tr=     0.000000   -0.000000    0.000000
         Rot=    1.000000    0.000000   -0.000000   -0.000000 Ang=   0.00 deg.
 Initial guess orbital symmetries:
       Occupied  (A1G) (E1U) (E1U) (E2G) (E2G) (B1U) (A1G) (E1U)
                 (E1U) (E2G) (E2G) (B2U) (A1G) (B1U) (A2U) (E1U)
                 (E1U) (E1G) (E1G) (E2G) (E2G) (B2U) (E2G) (E2G)
                 (E2U) (E2U) (B2G) (A2U) (E1U) (E1U) (A2G) (E1G)
                 (E1G)
       Virtual   (E2U) (E2U) (A1G) (E1U) (E1U) (B1U) (E2G) (E2G)
                 (B2G) (E2G) (E2G) (E1U) (E1U) (A2G) (B1U)
 Keep J ints in memory in canonical form, NReq=866607.
 Overlap will be assumed to be unity.
 Requested convergence on RMS density matrix=1.00D-08 within  32 cycles.
 Requested convergence on MAX density matrix=1.00D-06.
 Requested convergence on             energy=1.00D-06.
 No special actions if energy rises.
 An orbital has undefined symmetry, so N**3 symmetry is turned off.
 SCF Done:  E(RAM1) =  0.932696197338E-01 A.U. after    8 cycles
            NFock=  7  Conv=0.69D-08     -V/T= 1.0005
 QCSCF skips out because SCF is already converged.
 Calling FoFJK, ICntrl=      2127 FMM=F ISym2X=1 I1Cent= 0 IOpClX= 0 NMat=1 NMatS=1 NMatT=0.
 ***** Axes restored to original set *****
 -------------------------------------------------------------------
 Center     Atomic                   Forces (Hartrees/Bohr)
 Number     Number              X              Y              Z
 -------------------------------------------------------------------
      1        6           0.000000002    0.000682909   -0.000000000
      2        6           0.000591417    0.000341453    0.000000000
      3        6           0.000591415   -0.000341456   -0.000000000
      4        6          -0.000000002   -0.000682909    0.000000000
      5        6          -0.000591417   -0.000341453   -0.000000000
      6        6          -0.000591415    0.000341456   -0.000000000
      7       35           0.000000001    0.000558696   -0.000000000
      8       35           0.000483845    0.000279348    0.000000000
      9       35           0.000483845   -0.000279348   -0.000000000
     10       35          -0.000000001   -0.000558696   -0.000000000
     11       35          -0.000483845   -0.000279348   -0.000000000
     12       35          -0.000483845    0.000279348   -0.000000000
 -------------------------------------------------------------------
 Cartesian Forces:  Max     0.000682909 RMS     0.000360210

 GradGradGradGradGradGradGradGradGradGradGradGradGradGradGradGradGradGrad
 Berny optimization.
 Using GEDIIS/GDIIS optimizer.
 FormGI is forming the generalized inverse of G from B-inverse, IUseBI=4.
 Internal  Forces:  Max     0.001241605 RMS     0.000453838
 Search for a local minimum.
 Step number   3 out of a maximum of   64
 All quantities printed in internal units (Hartrees-Bohrs-Radians)
 Mixed Optimization -- En-DIIS/RFO-DIIS
 Update second derivatives using D2CorX and points    1    2    3
 DE= -6.46D-05 DEPred=-8.43D-05 R= 7.66D-01
 TightC=F SS=  1.41D+00  RLast= 1.84D-02 DXNew= 8.4853D-01 5.5078D-02
 Trust test= 7.66D-01 RLast= 1.84D-02 DXMaxT set to 5.05D-01
 ITU=  1  1  0
 Use linear search instead of GDIIS.
     Eigenvalues ---    0.02221   0.02221   0.02221   0.02221   0.02221
     Eigenvalues ---    0.02221   0.02221   0.02221   0.02221   0.17586
     Eigenvalues ---    0.18251   0.18251   0.18251   0.18251   0.18251
     Eigenvalues ---    0.25000   0.25000   0.25000   0.25000   0.25000
     Eigenvalues ---    0.25000   0.25000   0.25000   0.25000   0.43384
     Eigenvalues ---    0.43384   0.47319   0.47319   0.47319   0.76134
 RFO step:  Lambda=-1.31188500D-05 EMin= 2.22103664D-02
 Quartic linear search produced a step of -0.18750.
 Iteration  1 RMS(Cart)=  0.00150851 RMS(Int)=  0.00000000
 Iteration  2 RMS(Cart)=  0.00000000 RMS(Int)=  0.00000000
 ClnCor:  largest displacement from symmetrization is 4.06D-09 for atom     5.
 Variable       Old X    -DE/DX   Delta X   Delta X   Delta X     New X
                                 (Linear)    (Quad)   (Total)
    R1        2.64718   0.00124   0.00126   0.00022   0.00148   2.64865
    R2        2.64718   0.00124   0.00126   0.00022   0.00148   2.64865
    R3        3.52518   0.00056  -0.00062   0.00342   0.00280   3.52798
    R4        2.64718   0.00124   0.00126   0.00022   0.00148   2.64865
    R5        3.52518   0.00056  -0.00062   0.00342   0.00280   3.52798
    R6        2.64718   0.00124   0.00126   0.00022   0.00148   2.64865
    R7        3.52518   0.00056  -0.00062   0.00342   0.00280   3.52798
    R8        2.64718   0.00124   0.00126   0.00022   0.00148   2.64865
    R9        3.52518   0.00056  -0.00062   0.00342   0.00280   3.52798
   R10        2.64718   0.00124   0.00126   0.00022   0.00148   2.64865
   R11        3.52518   0.00056  -0.00062   0.00342   0.00280   3.52798
   R12        3.52518   0.00056  -0.00062   0.00342   0.00280   3.52798
    A1        2.09440   0.00000   0.00000   0.00000   0.00000   2.09440
    A2        2.09440   0.00000   0.00000   0.00000   0.00000   2.09440
    A3        2.09440  -0.00000   0.00000  -0.00000   0.00000   2.09440
    A4        2.09440  -0.00000   0.00000  -0.00000   0.00000   2.09440
    A5        2.09440  -0.00000   0.00000  -0.00000   0.00000   2.09440
    A6        2.09440   0.00000   0.00000   0.00000   0.00000   2.09440
    A7        2.09440   0.00000   0.00000   0.00000   0.00000   2.09440
    A8        2.09440  -0.00000   0.00000  -0.00000   0.00000   2.09440
    A9        2.09440   0.00000   0.00000   0.00000   0.00000   2.09440
   A10        2.09440   0.00000   0.00000   0.00000   0.00000   2.09440
   A11        2.09440  -0.00000  -0.00000  -0.00000  -0.00000   2.09440
   A12        2.09440   0.00000   0.00000   0.00000   0.00000   2.09440
   A13        2.09440  -0.00000   0.00000  -0.00000   0.00000   2.09440
   A14        2.09440  -0.00000  -0.00000  -0.00000  -0.00000   2.09440
   A15        2.09440   0.00000   0.00000   0.00000  -0.00000   2.09440
   A16        2.09440  -0.00000   0.00000  -0.00000   0.00000   2.09440
   A17        2.09440   0.00000   0.00000   0.00000   0.00000   2.09440
   A18        2.09440  -0.00000   0.00000  -0.00000   0.00000   2.09440
    D1        0.00000   0.00000   0.00000   0.00000   0.00000   0.00000
    D2        3.14159  -0.00000   0.00000  -0.00000   0.00000   3.14159
    D3        3.14159   0.00000   0.00000   0.00000   0.00000   3.14159
    D4        0.00000  -0.00000   0.00000   0.00000   0.00000   0.00000
    D5        0.00000   0.00000   0.00000  -0.00000   0.00000   0.00000
    D6        3.14159  -0.00000   0.00000  -0.00000   0.00000   3.14159
    D7        3.14159  -0.00000   0.00000  -0.00000   0.00000   3.14159
    D8        0.00000  -0.00000   0.00000  -0.00000   0.00000   0.00000
    D9        0.00000  -0.00000   0.00000  -0.00000   0.00000   0.00000
   D10        3.14159  -0.00000   0.00000  -0.00000   0.00000   3.14159
   D11        3.14159   0.00000   0.00000   0.00000   0.00000   3.14159
   D12        0.00000  -0.00000   0.00000  -0.00000  -0.00000   0.00000
   D13        0.00000   0.00000   0.00000   0.00000   0.00000   0.00000
   D14        3.14159  -0.00000   0.00000  -0.00000   0.00000   3.14159
   D15        3.14159   0.00000   0.00000   0.00000   0.00000   3.14159
   D16        0.00000   0.00000   0.00000   0.00000   0.00000   0.00000
   D17        0.00000  -0.00000   0.00000  -0.00000   0.00000   0.00000
   D18        3.14159  -0.00000   0.00000  -0.00000   0.00000   3.14159
   D19        3.14159   0.00000   0.00000   0.00000   0.00000   3.14159
   D20        0.00000   0.00000   0.00000   0.00000  -0.00000   0.00000
   D21        0.00000   0.00000   0.00000   0.00000   0.00000   0.00000
   D22        3.14159   0.00000   0.00000   0.00000   0.00000   3.14159
   D23        3.14159   0.00000   0.00000   0.00000   0.00000   3.14159
   D24        0.00000   0.00000   0.00000   0.00000  -0.00000   0.00000
         Item               Value     Threshold  Converged?
 Maximum Force            0.001242     0.000450     NO 
 RMS     Force            0.000454     0.000300     NO 
 Maximum Displacement     0.004278     0.001800     NO 
 RMS     Displacement     0.001509     0.001200     NO 
 Predicted change in Energy=-1.019803D-05
 GradGradGradGradGradGradGradGradGradGradGradGradGradGradGradGradGradGrad

                          Input orientation:                          
 ---------------------------------------------------------------------
 Center     Atomic      Atomic             Coordinates (Angstroms)
 Number     Number       Type             X           Y           Z
 ---------------------------------------------------------------------
      1          6           0       -0.000000    1.401607   -0.000000
      2          6           0        1.213827    0.700803   -0.000000
      3          6           0        1.213827   -0.700803   -0.000000
      4          6           0        0.000000   -1.401607   -0.000000
      5          6           0       -1.213827   -0.700803   -0.000000
      6          6           0       -1.213827    0.700803   -0.000000
      7         35           0       -0.000000    3.268533    0.000000
      8         35           0        2.830632    1.634266    0.000000
      9         35           0        2.830632   -1.634266    0.000000
     10         35           0        0.000000   -3.268533    0.000000
     11         35           0       -2.830632   -1.634266    0.000000
     12         35           0       -2.830632    1.634266    0.000000
 ---------------------------------------------------------------------
                    Distance matrix (angstroms):
                    1          2          3          4          5
     1  C    0.000000
     2  C    1.401607   0.000000
     3  C    2.427654   1.401607   0.000000
     4  C    2.803213   2.427654   1.401607   0.000000
     5  C    2.427654   2.803213   2.427654   1.401607   0.000000
     6  C    1.401607   2.427654   2.803213   2.427654   1.401607
     7  Br   1.866926   2.840178   4.150784   4.670139   4.150784
     8  Br   2.840178   1.866926   2.840178   4.150784   4.670139
     9  Br   4.150784   2.840178   1.866926   2.840178   4.150784
    10  Br   4.670139   4.150784   2.840178   1.866926   2.840178
    11  Br   4.150784   4.670139   4.150784   2.840178   1.866926
    12  Br   2.840178   4.150784   4.670139   4.150784   2.840178
                    6          7          8          9         10
     6  C    0.000000
     7  Br   2.840178   0.000000
     8  Br   4.150784   3.268533   0.000000
     9  Br   4.670139   5.661265   3.268533   0.000000
    10  Br   4.150784   6.537066   5.661265   3.268533   0.000000
    11  Br   2.840178   5.661265   6.537066   5.661265   3.268533
    12  Br   1.866926   3.268533   5.661265   6.537066   5.661265
                   11         12
    11  Br   0.000000
    12  Br   3.268533   0.000000
 Stoichiometry    C6Br6
 Framework group  D6H[3C2'(BrC.CBr)]
 Deg. of freedom     2
 Full point group                 D6H     NOp  24
 Largest Abelian subgroup         D2H     NOp   8
 Largest concise Abelian subgroup D2      NOp   4
                         Standard orientation:                         
 ---------------------------------------------------------------------
 Center     Atomic      Atomic             Coordinates (Angstroms)
 Number     Number       Type             X           Y           Z
 ---------------------------------------------------------------------
      1          6           0        0.000000    1.401607    0.000000
      2          6           0        1.213827    0.700803    0.000000
      3          6           0        1.213827   -0.700803    0.000000
      4          6           0       -0.000000   -1.401607    0.000000
      5          6           0       -1.213827   -0.700803    0.000000
      6          6           0       -1.213827    0.700803    0.000000
      7         35           0        0.000000    3.268533    0.000000
      8         35           0        2.830632    1.634266    0.000000
      9         35           0        2.830632   -1.634266    0.000000
     10         35           0       -0.000000   -3.268533    0.000000
     11         35           0       -2.830632   -1.634266    0.000000
     12         35           0       -2.830632    1.634266    0.000000
 ---------------------------------------------------------------------
 Rotational constants (GHZ):           0.1943729           0.1943729           0.0971865
 Standard basis: VSTO-6G (5D, 7F)
 There are    10 symmetry adapted cartesian basis functions of AG  symmetry.
 There are     8 symmetry adapted cartesian basis functions of B1G symmetry.
 There are     2 symmetry adapted cartesian basis functions of B2G symmetry.
 There are     4 symmetry adapted cartesian basis functions of B3G symmetry.
 There are     2 symmetry adapted cartesian basis functions of AU  symmetry.
 There are     4 symmetry adapted cartesian basis functions of B1U symmetry.
 There are    10 symmetry adapted cartesian basis functions of B2U symmetry.
 There are     8 symmetry adapted cartesian basis functions of B3U symmetry.
 There are    10 symmetry adapted basis functions of AG  symmetry.
 There are     8 symmetry adapted basis functions of B1G symmetry.
 There are     2 symmetry adapted basis functions of B2G symmetry.
 There are     4 symmetry adapted basis functions of B3G symmetry.
 There are     2 symmetry adapted basis functions of AU  symmetry.
 There are     4 symmetry adapted basis functions of B1U symmetry.
 There are    10 symmetry adapted basis functions of B2U symmetry.
 There are     8 symmetry adapted basis functions of B3U symmetry.
    48 basis functions,   288 primitive gaussians,    48 cartesian basis functions
    33 alpha electrons       33 beta electrons
       nuclear repulsion energy       408.2656374190 Hartrees.
 Integral buffers will be    131072 words long.
 Regular integral format.
 Two-electron integral symmetry is turned off.
 Do NDO integrals.
 One-electron integrals computed using PRISM.
 NBasis=    48 RedAO= T EigKep=  1.00D+00  NBF=    10     8     2     4     2     4    10     8
 NBsUse=    48 1.00D-06 EigRej= -1.00D+00 NBFU=    10     8     2     4     2     4    10     8
 Initial guess from the checkpoint file:  "calcs/am1/chks/BrBz_123456.chk"
 B after Tr=    -0.000000    0.000000    0.000000
         Rot=    1.000000   -0.000000    0.000000    0.000000 Ang=   0.00 deg.
 Initial guess orbital symmetries:
       Occupied  (A1G) (E1U) (E1U) (E2G) (E2G) (B1U) (A1G) (E1U)
                 (E1U) (E2G) (E2G) (B2U) (A1G) (B1U) (A2U) (E1U)
                 (E1U) (E1G) (E1G) (E2G) (E2G) (B2U) (E2G) (E2G)
                 (E2U) (E2U) (B2G) (A2U) (E1U) (E1U) (A2G) (E1G)
                 (E1G)
       Virtual   (E2U) (E2U) (A1G) (E1U) (E1U) (B1U) (E2G) (E2G)
                 (B2G) (E2G) (E2G) (E1U) (E1U) (A2G) (B1U)
 Keep J ints in memory in canonical form, NReq=866607.
 Overlap will be assumed to be unity.
 Requested convergence on RMS density matrix=1.00D-08 within  32 cycles.
 Requested convergence on MAX density matrix=1.00D-06.
 Requested convergence on             energy=1.00D-06.
 No special actions if energy rises.
 An orbital has undefined symmetry, so N**3 symmetry is turned off.
 SCF Done:  E(RAM1) =  0.932617529625E-01 A.U. after    8 cycles
            NFock=  7  Conv=0.23D-08     -V/T= 1.0005
 QCSCF skips out because SCF is already converged.
 Calling FoFJK, ICntrl=      2127 FMM=F ISym2X=1 I1Cent= 0 IOpClX= 0 NMat=1 NMatS=1 NMatT=0.
 ***** Axes restored to original set *****
 -------------------------------------------------------------------
 Center     Atomic                   Forces (Hartrees/Bohr)
 Number     Number              X              Y              Z
 -------------------------------------------------------------------
      1        6          -0.000000002    0.000109198    0.000000000
      2        6           0.000094567    0.000054601    0.000000000
      3        6           0.000094570   -0.000054597    0.000000000
      4        6           0.000000002   -0.000109198    0.000000000
      5        6          -0.000094567   -0.000054601    0.000000000
      6        6          -0.000094570    0.000054597   -0.000000000
      7       35          -0.000000001   -0.000218421   -0.000000000
      8       35          -0.000189159   -0.000109210   -0.000000000
      9       35          -0.000189158    0.000109211   -0.000000000
     10       35           0.000000001    0.000218421   -0.000000000
     11       35           0.000189159    0.000109210   -0.000000000
     12       35           0.000189158   -0.000109211   -0.000000000
 -------------------------------------------------------------------
 Cartesian Forces:  Max     0.000218421 RMS     0.000099693

 GradGradGradGradGradGradGradGradGradGradGradGradGradGradGradGradGradGrad
 Berny optimization.
 Using GEDIIS/GDIIS optimizer.
 FormGI is forming the generalized inverse of G from B-inverse, IUseBI=4.
 Internal  Forces:  Max     0.000218421 RMS     0.000081403
 Search for a local minimum.
 Step number   4 out of a maximum of   64
 All quantities printed in internal units (Hartrees-Bohrs-Radians)
 Mixed Optimization -- En-DIIS/RFO-DIIS
 Swapping is turned off.
 Update second derivatives using D2CorX and points    1    2    3    4
 DE= -7.87D-06 DEPred=-1.02D-05 R= 7.71D-01
 TightC=F SS=  1.41D+00  RLast= 7.76D-03 DXNew= 8.4853D-01 2.3268D-02
 Trust test= 7.71D-01 RLast= 7.76D-03 DXMaxT set to 5.05D-01
 ITU=  1  1  1  0
     Eigenvalues ---    0.02221   0.02221   0.02221   0.02221   0.02221
     Eigenvalues ---    0.02221   0.02221   0.02221   0.02221   0.18251
     Eigenvalues ---    0.18251   0.18251   0.18251   0.18251   0.22862
     Eigenvalues ---    0.25000   0.25000   0.25000   0.25000   0.25000
     Eigenvalues ---    0.25000   0.25000   0.25000   0.25000   0.43387
     Eigenvalues ---    0.43387   0.47319   0.47319   0.47319   0.78471
 En-DIIS/RFO-DIIS/Sim-DIIS IScMMF=       -3 using points:     4    3
 RFO step:  Lambda=-1.21368604D-06.
 DidBck=T Rises=F RFO-DIIS coefs:    0.74086    0.25914
 Iteration  1 RMS(Cart)=  0.00031848 RMS(Int)=  0.00000000
 Iteration  2 RMS(Cart)=  0.00000000 RMS(Int)=  0.00000000
 ClnCor:  largest displacement from symmetrization is 3.71D-09 for atom     3.
 Variable       Old X    -DE/DX   Delta X   Delta X   Delta X     New X
                                 (Linear)    (Quad)   (Total)
    R1        2.64865  -0.00011  -0.00038   0.00033  -0.00006   2.64860
    R2        2.64865  -0.00011  -0.00038   0.00033  -0.00006   2.64860
    R3        3.52798  -0.00022  -0.00073  -0.00017  -0.00090   3.52708
    R4        2.64865  -0.00011  -0.00038   0.00033  -0.00006   2.64860
    R5        3.52798  -0.00022  -0.00073  -0.00017  -0.00090   3.52708
    R6        2.64865  -0.00011  -0.00038   0.00033  -0.00006   2.64860
    R7        3.52798  -0.00022  -0.00073  -0.00017  -0.00090   3.52708
    R8        2.64865  -0.00011  -0.00038   0.00033  -0.00006   2.64860
    R9        3.52798  -0.00022  -0.00073  -0.00017  -0.00090   3.52708
   R10        2.64865  -0.00011  -0.00038   0.00033  -0.00006   2.64860
   R11        3.52798  -0.00022  -0.00073  -0.00017  -0.00090   3.52708
   R12        3.52798  -0.00022  -0.00073  -0.00017  -0.00090   3.52708
    A1        2.09440   0.00000   0.00000   0.00000   0.00000   2.09440
    A2        2.09440  -0.00000   0.00000  -0.00000   0.00000   2.09440
    A3        2.09440   0.00000   0.00000   0.00000   0.00000   2.09440
    A4        2.09440  -0.00000   0.00000  -0.00000   0.00000   2.09440
    A5        2.09440   0.00000   0.00000   0.00000   0.00000   2.09440
    A6        2.09440  -0.00000   0.00000  -0.00000   0.00000   2.09440
    A7        2.09440   0.00000   0.00000   0.00000   0.00000   2.09440
    A8        2.09440   0.00000   0.00000   0.00000   0.00000   2.09440
    A9        2.09440  -0.00000   0.00000  -0.00000   0.00000   2.09440
   A10        2.09440  -0.00000   0.00000  -0.00000   0.00000   2.09440
   A11        2.09440   0.00000   0.00000   0.00000   0.00000   2.09440
   A12        2.09440  -0.00000   0.00000  -0.00000   0.00000   2.09440
   A13        2.09440   0.00000   0.00000   0.00000   0.00000   2.09440
   A14        2.09440   0.00000   0.00000   0.00000   0.00000   2.09440
   A15        2.09440  -0.00000   0.00000  -0.00000   0.00000   2.09440
   A16        2.09440  -0.00000   0.00000  -0.00000  -0.00000   2.09440
   A17        2.09440  -0.00000   0.00000  -0.00000   0.00000   2.09440
   A18        2.09440   0.00000   0.00000   0.00000   0.00000   2.09440
    D1        0.00000   0.00000   0.00000   0.00000   0.00000   0.00000
    D2        3.14159  -0.00000   0.00000  -0.00000   0.00000   3.14159
    D3        3.14159   0.00000   0.00000   0.00000   0.00000   3.14159
    D4        0.00000  -0.00000   0.00000  -0.00000   0.00000   0.00000
    D5        0.00000   0.00000   0.00000   0.00000   0.00000   0.00000
    D6        3.14159   0.00000   0.00000   0.00000   0.00000   3.14159
    D7        3.14159  -0.00000   0.00000  -0.00000   0.00000   3.14159
    D8        0.00000  -0.00000   0.00000  -0.00000   0.00000   0.00000
    D9        0.00000  -0.00000   0.00000  -0.00000   0.00000   0.00000
   D10        3.14159  -0.00000   0.00000  -0.00000   0.00000   3.14159
   D11        3.14159   0.00000   0.00000   0.00000   0.00000   3.14159
   D12        0.00000  -0.00000   0.00000  -0.00000  -0.00000   0.00000
   D13        0.00000   0.00000   0.00000   0.00000   0.00000   0.00000
   D14        3.14159  -0.00000   0.00000  -0.00000   0.00000   3.14159
   D15        3.14159   0.00000   0.00000   0.00000   0.00000   3.14159
   D16        0.00000   0.00000   0.00000   0.00000  -0.00000   0.00000
   D17        0.00000   0.00000   0.00000   0.00000   0.00000   0.00000
   D18        3.14159  -0.00000   0.00000  -0.00000   0.00000   3.14159
   D19        3.14159   0.00000   0.00000   0.00000   0.00000   3.14159
   D20        0.00000  -0.00000   0.00000  -0.00000   0.00000   0.00000
   D21        0.00000  -0.00000   0.00000  -0.00000   0.00000   0.00000
   D22        3.14159  -0.00000   0.00000  -0.00000   0.00000   3.14159
   D23        3.14159   0.00000   0.00000   0.00000   0.00000   3.14159
   D24        0.00000   0.00000   0.00000   0.00000  -0.00000   0.00000
         Item               Value     Threshold  Converged?
 Maximum Force            0.000218     0.000450     YES
 RMS     Force            0.000081     0.000300     YES
 Maximum Displacement     0.000954     0.001800     YES
 RMS     Displacement     0.000318     0.001200     YES
 Predicted change in Energy=-6.068457D-07
 Optimization completed.
    -- Stationary point found.
                           ----------------------------
                           !   Optimized Parameters   !
                           ! (Angstroms and Degrees)  !
 --------------------------                            --------------------------
 ! Name  Definition              Value          Derivative Info.                !
 --------------------------------------------------------------------------------
 ! R1    R(1,2)                  1.4016         -DE/DX =   -0.0001              !
 ! R2    R(1,6)                  1.4016         -DE/DX =   -0.0001              !
 ! R3    R(1,7)                  1.8669         -DE/DX =   -0.0002              !
 ! R4    R(2,3)                  1.4016         -DE/DX =   -0.0001              !
 ! R5    R(2,8)                  1.8669         -DE/DX =   -0.0002              !
 ! R6    R(3,4)                  1.4016         -DE/DX =   -0.0001              !
 ! R7    R(3,9)                  1.8669         -DE/DX =   -0.0002              !
 ! R8    R(4,5)                  1.4016         -DE/DX =   -0.0001              !
 ! R9    R(4,10)                 1.8669         -DE/DX =   -0.0002              !
 ! R10   R(5,6)                  1.4016         -DE/DX =   -0.0001              !
 ! R11   R(5,11)                 1.8669         -DE/DX =   -0.0002              !
 ! R12   R(6,12)                 1.8669         -DE/DX =   -0.0002              !
 ! A1    A(2,1,6)              120.0            -DE/DX =    0.0                 !
 ! A2    A(2,1,7)              120.0            -DE/DX =    0.0                 !
 ! A3    A(6,1,7)              120.0            -DE/DX =    0.0                 !
 ! A4    A(1,2,3)              120.0            -DE/DX =    0.0                 !
 ! A5    A(1,2,8)              120.0            -DE/DX =    0.0                 !
 ! A6    A(3,2,8)              120.0            -DE/DX =    0.0                 !
 ! A7    A(2,3,4)              120.0            -DE/DX =    0.0                 !
 ! A8    A(2,3,9)              120.0            -DE/DX =    0.0                 !
 ! A9    A(4,3,9)              120.0            -DE/DX =    0.0                 !
 ! A10   A(3,4,5)              120.0            -DE/DX =    0.0                 !
 ! A11   A(3,4,10)             120.0            -DE/DX =    0.0                 !
 ! A12   A(5,4,10)             120.0            -DE/DX =    0.0                 !
 ! A13   A(4,5,6)              120.0            -DE/DX =    0.0                 !
 ! A14   A(4,5,11)             120.0            -DE/DX =    0.0                 !
 ! A15   A(6,5,11)             120.0            -DE/DX =    0.0                 !
 ! A16   A(1,6,5)              120.0            -DE/DX =    0.0                 !
 ! A17   A(1,6,12)             120.0            -DE/DX =    0.0                 !
 ! A18   A(5,6,12)             120.0            -DE/DX =    0.0                 !
 ! D1    D(6,1,2,3)              0.0            -DE/DX =    0.0                 !
 ! D2    D(6,1,2,8)            180.0            -DE/DX =    0.0                 !
 ! D3    D(7,1,2,3)            180.0            -DE/DX =    0.0                 !
 ! D4    D(7,1,2,8)              0.0            -DE/DX =    0.0                 !
 ! D5    D(2,1,6,5)              0.0            -DE/DX =    0.0                 !
 ! D6    D(2,1,6,12)           180.0            -DE/DX =    0.0                 !
 ! D7    D(7,1,6,5)            180.0            -DE/DX =    0.0                 !
 ! D8    D(7,1,6,12)             0.0            -DE/DX =    0.0                 !
 ! D9    D(1,2,3,4)              0.0            -DE/DX =    0.0                 !
 ! D10   D(1,2,3,9)            180.0            -DE/DX =    0.0                 !
 ! D11   D(8,2,3,4)            180.0            -DE/DX =    0.0                 !
 ! D12   D(8,2,3,9)              0.0            -DE/DX =    0.0                 !
 ! D13   D(2,3,4,5)              0.0            -DE/DX =    0.0                 !
 ! D14   D(2,3,4,10)           180.0            -DE/DX =    0.0                 !
 ! D15   D(9,3,4,5)            180.0            -DE/DX =    0.0                 !
 ! D16   D(9,3,4,10)             0.0            -DE/DX =    0.0                 !
 ! D17   D(3,4,5,6)              0.0            -DE/DX =    0.0                 !
 ! D18   D(3,4,5,11)           180.0            -DE/DX =    0.0                 !
 ! D19   D(10,4,5,6)           180.0            -DE/DX =    0.0                 !
 ! D20   D(10,4,5,11)            0.0            -DE/DX =    0.0                 !
 ! D21   D(4,5,6,1)              0.0            -DE/DX =    0.0                 !
 ! D22   D(4,5,6,12)           180.0            -DE/DX =    0.0                 !
 ! D23   D(11,5,6,1)           180.0            -DE/DX =    0.0                 !
 ! D24   D(11,5,6,12)            0.0            -DE/DX =    0.0                 !
 --------------------------------------------------------------------------------
 GradGradGradGradGradGradGradGradGradGradGradGradGradGradGradGradGradGrad

                          Input orientation:                          
 ---------------------------------------------------------------------
 Center     Atomic      Atomic             Coordinates (Angstroms)
 Number     Number       Type             X           Y           Z
 ---------------------------------------------------------------------
      1          6           0       -0.000000    1.401607    0.000000
      2          6           0        1.213827    0.700803    0.000000
      3          6           0        1.213827   -0.700803    0.000000
      4          6           0        0.000000   -1.401607    0.000000
      5          6           0       -1.213827   -0.700803    0.000000
      6          6           0       -1.213827    0.700803    0.000000
      7         35           0       -0.000000    3.268533    0.000000
      8         35           0        2.830632    1.634266    0.000000
      9         35           0        2.830632   -1.634266    0.000000
     10         35           0        0.000000   -3.268533    0.000000
     11         35           0       -2.830632   -1.634266    0.000000
     12         35           0       -2.830632    1.634266    0.000000
 ---------------------------------------------------------------------
                    Distance matrix (angstroms):
                    1          2          3          4          5
     1  C    0.000000
     2  C    1.401607   0.000000
     3  C    2.427654   1.401607   0.000000
     4  C    2.803213   2.427654   1.401607   0.000000
     5  C    2.427654   2.803213   2.427654   1.401607   0.000000
     6  C    1.401607   2.427654   2.803213   2.427654   1.401607
     7  Br   1.866926   2.840178   4.150784   4.670139   4.150784
     8  Br   2.840178   1.866926   2.840178   4.150784   4.670139
     9  Br   4.150784   2.840178   1.866926   2.840178   4.150784
    10  Br   4.670139   4.150784   2.840178   1.866926   2.840178
    11  Br   4.150784   4.670139   4.150784   2.840178   1.866926
    12  Br   2.840178   4.150784   4.670139   4.150784   2.840178
                    6          7          8          9         10
     6  C    0.000000
     7  Br   2.840178   0.000000
     8  Br   4.150784   3.268533   0.000000
     9  Br   4.670139   5.661265   3.268533   0.000000
    10  Br   4.150784   6.537066   5.661265   3.268533   0.000000
    11  Br   2.840178   5.661265   6.537066   5.661265   3.268533
    12  Br   1.866926   3.268533   5.661265   6.537066   5.661265
                   11         12
    11  Br   0.000000
    12  Br   3.268533   0.000000
 Stoichiometry    C6Br6
 Framework group  D6H[3C2'(BrC.CBr)]
 Deg. of freedom     2
 Full point group                 D6H     NOp  24
 Largest Abelian subgroup         D2H     NOp   8
 Largest concise Abelian subgroup D2      NOp   4
                         Standard orientation:                         
 ---------------------------------------------------------------------
 Center     Atomic      Atomic             Coordinates (Angstroms)
 Number     Number       Type             X           Y           Z
 ---------------------------------------------------------------------
      1          6           0        0.000000    1.401607    0.000000
      2          6           0        1.213827    0.700803    0.000000
      3          6           0        1.213827   -0.700803    0.000000
      4          6           0       -0.000000   -1.401607    0.000000
      5          6           0       -1.213827   -0.700803    0.000000
      6          6           0       -1.213827    0.700803    0.000000
      7         35           0        0.000000    3.268533    0.000000
      8         35           0        2.830632    1.634266    0.000000
      9         35           0        2.830632   -1.634266    0.000000
     10         35           0       -0.000000   -3.268533    0.000000
     11         35           0       -2.830632   -1.634266    0.000000
     12         35           0       -2.830632    1.634266    0.000000
 ---------------------------------------------------------------------
 Rotational constants (GHZ):           0.1943729           0.1943729           0.0971865

 **********************************************************************

            Population analysis using the SCF Density.

 **********************************************************************

 Orbital symmetries:
       Occupied  (A1G) (E1U) (E1U) (E2G) (E2G) (B1U) (A1G) (E1U)
                 (E1U) (E2G) (E2G) (B2U) (A1G) (B1U) (A2U) (E1U)
                 (E1U) (E1G) (E1G) (E2G) (E2G) (B2U) (E2G) (E2G)
                 (E2U) (E2U) (B2G) (A2U) (E1U) (E1U) (A2G) (E1G)
                 (E1G)
       Virtual   (E2U) (E2U) (A1G) (E1U) (E1U) (B1U) (E2G) (E2G)
                 (B2G) (E2G) (E2G) (E1U) (E1U) (A2G) (B1U)
 The electronic state is 1-A1G.
 Alpha  occ. eigenvalues --   -1.49734  -1.30249  -1.30249  -1.20851  -1.20851
 Alpha  occ. eigenvalues --   -1.18379  -1.17993  -1.07977  -1.07977  -0.87601
 Alpha  occ. eigenvalues --   -0.87601  -0.68037  -0.67486  -0.61435  -0.59649
 Alpha  occ. eigenvalues --   -0.56555  -0.56555  -0.50380  -0.50380  -0.50098
 Alpha  occ. eigenvalues --   -0.50098  -0.46507  -0.45581  -0.45581  -0.44581
 Alpha  occ. eigenvalues --   -0.44581  -0.43453  -0.41809  -0.41149  -0.41149
 Alpha  occ. eigenvalues --   -0.38421  -0.36942  -0.36942
 Alpha virt. eigenvalues --   -0.04632  -0.04632  -0.02039  -0.00584  -0.00584
 Alpha virt. eigenvalues --   -0.00468   0.01390   0.01390   0.03890   0.11165
 Alpha virt. eigenvalues --    0.11165   0.11899   0.11899   0.13357   0.14422
          Condensed to atoms (all electrons):
               1          2          3          4          5          6
     1  C    4.127451   0.000000   0.000000   0.000000   0.000000   0.000000
     2  C    0.000000   4.127451   0.000000   0.000000   0.000000   0.000000
     3  C    0.000000   0.000000   4.127451   0.000000   0.000000   0.000000
     4  C    0.000000   0.000000   0.000000   4.127451   0.000000   0.000000
     5  C    0.000000   0.000000   0.000000   0.000000   4.127451   0.000000
     6  C    0.000000   0.000000   0.000000   0.000000   0.000000   4.127451
     7  Br   0.000000   0.000000   0.000000   0.000000   0.000000   0.000000
     8  Br   0.000000   0.000000   0.000000   0.000000   0.000000   0.000000
     9  Br   0.000000   0.000000   0.000000   0.000000   0.000000   0.000000
    10  Br   0.000000   0.000000   0.000000   0.000000   0.000000   0.000000
    11  Br   0.000000   0.000000   0.000000   0.000000   0.000000   0.000000
    12  Br   0.000000   0.000000   0.000000   0.000000   0.000000   0.000000
               7          8          9         10         11         12
     1  C    0.000000   0.000000   0.000000   0.000000   0.000000   0.000000
     2  C    0.000000   0.000000   0.000000   0.000000   0.000000   0.000000
     3  C    0.000000   0.000000   0.000000   0.000000   0.000000   0.000000
     4  C    0.000000   0.000000   0.000000   0.000000   0.000000   0.000000
     5  C    0.000000   0.000000   0.000000   0.000000   0.000000   0.000000
     6  C    0.000000   0.000000   0.000000   0.000000   0.000000   0.000000
     7  Br   6.872549   0.000000   0.000000   0.000000   0.000000   0.000000
     8  Br   0.000000   6.872549   0.000000   0.000000   0.000000   0.000000
     9  Br   0.000000   0.000000   6.872549   0.000000   0.000000   0.000000
    10  Br   0.000000   0.000000   0.000000   6.872549   0.000000   0.000000
    11  Br   0.000000   0.000000   0.000000   0.000000   6.872549   0.000000
    12  Br   0.000000   0.000000   0.000000   0.000000   0.000000   6.872549
 Mulliken charges:
               1
     1  C   -0.127451
     2  C   -0.127451
     3  C   -0.127451
     4  C   -0.127451
     5  C   -0.127451
     6  C   -0.127451
     7  Br   0.127451
     8  Br   0.127451
     9  Br   0.127451
    10  Br   0.127451
    11  Br   0.127451
    12  Br   0.127451
 Sum of Mulliken charges =   0.00000
 Mulliken charges with hydrogens summed into heavy atoms:
               1
     1  C   -0.127451
     2  C   -0.127451
     3  C   -0.127451
     4  C   -0.127451
     5  C   -0.127451
     6  C   -0.127451
     7  Br   0.127451
     8  Br   0.127451
     9  Br   0.127451
    10  Br   0.127451
    11  Br   0.127451
    12  Br   0.127451
 Charge=              0.0000 electrons
 Dipole moment (field-independent basis, Debye):
    X=             -0.0000    Y=              0.0000    Z=              0.0000  Tot=              0.0000
 N-N= 4.082656374190D+02 E-N=-5.971507145462D+02  KE=-1.720574212864D+02
 Symmetry AG   KE=-3.847945445584D+01
 Symmetry B1G  KE=-2.674125513995D+01
 Symmetry B2G  KE=-8.535465036549D+00
 Symmetry B3G  KE=-1.396841499464D+01
 Symmetry AU   KE=-5.406957733027D+00
 Symmetry B1U  KE=-1.414254831507D+01
 Symmetry B2U  KE=-3.405313760479D+01
 Symmetry B3U  KE=-3.073018800656D+01
 1\1\GINC-SH02-01N23\FOpt\RAM1\ZDO\C6Br6\JLAPIER\28-Sep-2026\0\\# Opt A
 M1 SCF=XQC\\BrBz_123456 am1\\0,1\C,-0.0000000006,1.4016066798,0.\C,1.2
 138269905,0.7008033405,0.\C,1.2138269911,-0.7008033394,0.\C,0.00000000
 06,-1.4016066798,0.\C,-1.2138269905,-0.7008033405,0.\C,-1.2138269911,0
 .7008033394,0.\Br,-0.0000000015,3.2685327562,0.\Br,2.8306323992,1.6342
 663794,0.\Br,2.8306324007,-1.6342663768,0.\Br,0.0000000015,-3.26853275
 62,0.\Br,-2.8306323992,-1.6342663794,0.\Br,-2.8306324007,1.6342663768,
 0.\\Version=ES64L-G16RevB.01\State=1-A1G\HF=0.0932618\RMSD=2.278e-09\R
 MSF=9.969e-05\Dipole=0.,0.,0.\PG=D06H [3C2'(Br1C1.C1Br1)]\\@


 Everywhere is walking distance if you have the time.
                                    -- Steven Wright
 Job cpu time:       0 days  0 hours  0 minutes  2.7 seconds.
 Elapsed time:       0 days  0 hours  0 minutes  2.5 seconds.
 File lengths (MBytes):  RWF=      6 Int=      0 D2E=      0 Chk=      3 Scr=      1
 Normal termination of Gaussian 16 at Mon Sep 28 01:25:33 2026.
