 Entering Gaussian System, Link 0=g16
 Initial command:
 /share/software/user/restricted/gaussian/g16.B01/l1.exe "/lscratch/jlapier/g16_45667811_93/Gau-16187.inp" -scrdir="/lscratch/jlapier/g16_45667811_93/"
 Entering Link 1 = /share/software/user/restricted/gaussian/g16.B01/l1.exe PID=     16188.
  
 Copyright (c) 1988-2017, Gaussian, Inc.  All Rights Reserved.
  
 This is part of the Gaussian(R) 16 program.  It is based on
 the Gaussian(R) 09 system (copyright 2009, Gaussian, Inc.),
 the Gaussian(R) 03 system (copyright 2003, Gaussian, Inc.),
 the Gaussian(R) 98 system (copyright 1998, Gaussian, Inc.),
 the Gaussian(R) 94 system (copyright 1995, Gaussian, Inc.),
 the Gaussian 92(TM) system (copyright 1992, Gaussian, Inc.),
 the Gaussian 90(TM) system (copyright 1990, Gaussian, Inc.),
 the Gaussian 88(TM) system (copyright 1988, Gaussian, Inc.),
 the Gaussian 86(TM) system (copyright 1986, Carnegie Mellon
 University), and the Gaussian 82(TM) system (copyright 1983,
 Carnegie Mellon University). Gaussian is a federally registered
 trademark of Gaussian, Inc.
  
 This software contains proprietary and confidential information,
 including trade secrets, belonging to Gaussian, Inc.
  
 This software is provided under written license and may be
 used, copied, transmitted, or stored only in accord with that
 written license.
  
 The following legend is applicable only to US Government
 contracts under FAR:
  
                    RESTRICTED RIGHTS LEGEND
  
 Use, reproduction and disclosure by the US Government is
 subject to restrictions as set forth in subparagraphs (a)
 and (c) of the Commercial Computer Software - Restricted
 Rights clause in FAR 52.227-19.
  
 Gaussian, Inc.
 340 Quinnipiac St., Bldg. 40, Wallingford CT 06492
  
  
 ---------------------------------------------------------------
 Warning -- This program may not be used in any manner that
 competes with the business of Gaussian, Inc. or will provide
 assistance to any competitor of Gaussian, Inc.  The licensee
 of this program is prohibited from giving any competitor of
 Gaussian, Inc. access to this program.  By using this program,
 the user acknowledges that Gaussian, Inc. is engaged in the
 business of creating and licensing software in the field of
 computational chemistry and represents and warrants to the
 licensee that it is not a competitor of Gaussian, Inc. and that
 it will not use this program in any manner prohibited above.
 ---------------------------------------------------------------
  

 Cite this work as:
 Gaussian 16, Revision B.01,
 M. J. Frisch, G. W. Trucks, H. B. Schlegel, G. E. Scuseria, 
 M. A. Robb, J. R. Cheeseman, G. Scalmani, V. Barone, 
 G. A. Petersson, H. Nakatsuji, X. Li, M. Caricato, A. V. Marenich, 
 J. Bloino, B. G. Janesko, R. Gomperts, B. Mennucci, H. P. Hratchian, 
 J. V. Ortiz, A. F. Izmaylov, J. L. Sonnenberg, D. Williams-Young, 
 F. Ding, F. Lipparini, F. Egidi, J. Goings, B. Peng, A. Petrone, 
 T. Henderson, D. Ranasinghe, V. G. Zakrzewski, J. Gao, N. Rega, 
 G. Zheng, W. Liang, M. Hada, M. Ehara, K. Toyota, R. Fukuda, 
 J. Hasegawa, M. Ishida, T. Nakajima, Y. Honda, O. Kitao, H. Nakai, 
 T. Vreven, K. Throssell, J. A. Montgomery, Jr., J. E. Peralta, 
 F. Ogliaro, M. J. Bearpark, J. J. Heyd, E. N. Brothers, K. N. Kudin, 
 V. N. Staroverov, T. A. Keith, R. Kobayashi, J. Normand, 
 K. Raghavachari, A. P. Rendell, J. C. Burant, S. S. Iyengar, 
 J. Tomasi, M. Cossi, J. M. Millam, M. Klene, C. Adamo, R. Cammi, 
 J. W. Ochterski, R. L. Martin, K. Morokuma, O. Farkas, 
 J. B. Foresman, and D. J. Fox, Gaussian, Inc., Wallingford CT, 2016.
 
 ******************************************
 Gaussian 16:  ES64L-G16RevB.01 20-Dec-2017
                28-Sep-2026 
 ******************************************
 %nprocshared=1
 Will use up to    1 processors via shared memory.
 %mem=1GB
 %chk=calcs/am1/chks/BrBz_135_RA.chk
 -----------------
 # Opt AM1 SCF=XQC
 -----------------
 1/18=20,19=15,26=1,38=1/1,3;
 2/9=110,12=2,17=6,18=5,40=1/2;
 3/5=2,25=1,41=700000,71=1/1,2,3;
 4/35=1/1;
 5/5=2,8=3,13=1,35=1,38=5/2,8;
 6/7=2,8=2,9=2,10=2,28=1/1;
 7//1,2,3,16;
 1/18=20,19=15,26=1/3(2);
 2/9=110/2;
 99//99;
 2/9=110/2;
 3/5=2,25=1,41=700000,71=1,135=20/1,2,3;
 4/5=5,16=3,35=1/1;
 5/5=2,8=3,13=1,35=1,38=5/2,8;
 7//1,2,3,16;
 1/18=20,19=15,26=1/3(-5);
 2/9=110/2;
 6/7=2,8=2,9=2,10=2,19=2,28=1/1;
 99/9=1/99;
 ---------------
 BrBz_135_RA am1
 ---------------
 Symbolic Z-matrix:
 Charge = -1 Multiplicity = 2
 C                     0.        1.39      0. 
 C                     1.20378   0.695     0. 
 C                     1.20378  -0.695     0. 
 C                     0.       -1.39      0. 
 C                    -1.20378  -0.695     0. 
 C                    -1.20378   0.695     0. 
 Br                    0.        3.29      0. 
 H                     2.13908   1.235     0. 
 Br                    2.84922  -1.645     0. 
 H                     0.       -2.47      0. 
 Br                   -2.84922  -1.645     0. 
 H                    -2.13908   1.235     0. 
 

 GradGradGradGradGradGradGradGradGradGradGradGradGradGradGradGradGradGrad
 Berny optimization.
 Initialization pass.
                           ----------------------------
                           !    Initial Parameters    !
                           ! (Angstroms and Degrees)  !
 --------------------------                            --------------------------
 ! Name  Definition              Value          Derivative Info.                !
 --------------------------------------------------------------------------------
 ! R1    R(1,2)                  1.39           estimate D2E/DX2                !
 ! R2    R(1,6)                  1.39           estimate D2E/DX2                !
 ! R3    R(1,7)                  1.9            estimate D2E/DX2                !
 ! R4    R(2,3)                  1.39           estimate D2E/DX2                !
 ! R5    R(2,8)                  1.08           estimate D2E/DX2                !
 ! R6    R(3,4)                  1.39           estimate D2E/DX2                !
 ! R7    R(3,9)                  1.9            estimate D2E/DX2                !
 ! R8    R(4,5)                  1.39           estimate D2E/DX2                !
 ! R9    R(4,10)                 1.08           estimate D2E/DX2                !
 ! R10   R(5,6)                  1.39           estimate D2E/DX2                !
 ! R11   R(5,11)                 1.9            estimate D2E/DX2                !
 ! R12   R(6,12)                 1.08           estimate D2E/DX2                !
 ! A1    A(2,1,6)              120.0            estimate D2E/DX2                !
 ! A2    A(2,1,7)              120.0            estimate D2E/DX2                !
 ! A3    A(6,1,7)              120.0            estimate D2E/DX2                !
 ! A4    A(1,2,3)              120.0            estimate D2E/DX2                !
 ! A5    A(1,2,8)              120.0            estimate D2E/DX2                !
 ! A6    A(3,2,8)              120.0            estimate D2E/DX2                !
 ! A7    A(2,3,4)              120.0            estimate D2E/DX2                !
 ! A8    A(2,3,9)              120.0            estimate D2E/DX2                !
 ! A9    A(4,3,9)              120.0            estimate D2E/DX2                !
 ! A10   A(3,4,5)              120.0            estimate D2E/DX2                !
 ! A11   A(3,4,10)             120.0            estimate D2E/DX2                !
 ! A12   A(5,4,10)             120.0            estimate D2E/DX2                !
 ! A13   A(4,5,6)              120.0            estimate D2E/DX2                !
 ! A14   A(4,5,11)             120.0            estimate D2E/DX2                !
 ! A15   A(6,5,11)             120.0            estimate D2E/DX2                !
 ! A16   A(1,6,5)              120.0            estimate D2E/DX2                !
 ! A17   A(1,6,12)             120.0            estimate D2E/DX2                !
 ! A18   A(5,6,12)             120.0            estimate D2E/DX2                !
 ! D1    D(6,1,2,3)              0.0            estimate D2E/DX2                !
 ! D2    D(6,1,2,8)            180.0            estimate D2E/DX2                !
 ! D3    D(7,1,2,3)            180.0            estimate D2E/DX2                !
 ! D4    D(7,1,2,8)              0.0            estimate D2E/DX2                !
 ! D5    D(2,1,6,5)              0.0            estimate D2E/DX2                !
 ! D6    D(2,1,6,12)           180.0            estimate D2E/DX2                !
 ! D7    D(7,1,6,5)            180.0            estimate D2E/DX2                !
 ! D8    D(7,1,6,12)             0.0            estimate D2E/DX2                !
 ! D9    D(1,2,3,4)              0.0            estimate D2E/DX2                !
 ! D10   D(1,2,3,9)            180.0            estimate D2E/DX2                !
 ! D11   D(8,2,3,4)            180.0            estimate D2E/DX2                !
 ! D12   D(8,2,3,9)              0.0            estimate D2E/DX2                !
 ! D13   D(2,3,4,5)              0.0            estimate D2E/DX2                !
 ! D14   D(2,3,4,10)           180.0            estimate D2E/DX2                !
 ! D15   D(9,3,4,5)            180.0            estimate D2E/DX2                !
 ! D16   D(9,3,4,10)             0.0            estimate D2E/DX2                !
 ! D17   D(3,4,5,6)              0.0            estimate D2E/DX2                !
 ! D18   D(3,4,5,11)           180.0            estimate D2E/DX2                !
 ! D19   D(10,4,5,6)           180.0            estimate D2E/DX2                !
 ! D20   D(10,4,5,11)            0.0            estimate D2E/DX2                !
 ! D21   D(4,5,6,1)              0.0            estimate D2E/DX2                !
 ! D22   D(4,5,6,12)           180.0            estimate D2E/DX2                !
 ! D23   D(11,5,6,1)           180.0            estimate D2E/DX2                !
 ! D24   D(11,5,6,12)            0.0            estimate D2E/DX2                !
 --------------------------------------------------------------------------------
 Trust Radius=3.00D-01 FncErr=1.00D-07 GrdErr=1.00D-07 EigMax=2.50D+02 EigMin=1.00D-04
 Number of steps in this run=     64 maximum allowed number of steps=    100.
 GradGradGradGradGradGradGradGradGradGradGradGradGradGradGradGradGradGrad

                          Input orientation:                          
 ---------------------------------------------------------------------
 Center     Atomic      Atomic             Coordinates (Angstroms)
 Number     Number       Type             X           Y           Z
 ---------------------------------------------------------------------
      1          6           0        0.000000    1.390000    0.000000
      2          6           0        1.203775    0.695000    0.000000
      3          6           0        1.203775   -0.695000    0.000000
      4          6           0        0.000000   -1.390000    0.000000
      5          6           0       -1.203775   -0.695000    0.000000
      6          6           0       -1.203775    0.695000    0.000000
      7         35           0        0.000000    3.290000    0.000000
      8          1           0        2.139083    1.235000    0.000000
      9         35           0        2.849224   -1.645000    0.000000
     10          1           0        0.000000   -2.470000    0.000000
     11         35           0       -2.849224   -1.645000    0.000000
     12          1           0       -2.139083    1.235000    0.000000
 ---------------------------------------------------------------------
                    Distance matrix (angstroms):
                    1          2          3          4          5
     1  C    0.000000
     2  C    1.390000   0.000000
     3  C    2.407551   1.390000   0.000000
     4  C    2.780000   2.407551   1.390000   0.000000
     5  C    2.407551   2.780000   2.407551   1.390000   0.000000
     6  C    1.390000   2.407551   2.780000   2.407551   1.390000
     7  Br   1.900000   2.860612   4.162848   4.680000   4.162848
     8  H    2.144691   1.080000   2.144691   3.386193   3.860000
     9  Br   4.162848   2.860612   1.900000   2.860612   4.162848
    10  H    3.860000   3.386193   2.144691   1.080000   2.144691
    11  Br   4.162848   4.680000   4.162848   2.860612   1.900000
    12  H    2.144691   3.386193   3.860000   3.386193   2.144691
                    6          7          8          9         10
     6  C    0.000000
     7  Br   2.860612   0.000000
     8  H    3.386193   2.966260   0.000000
     9  Br   4.680000   5.698447   2.966260   0.000000
    10  H    3.386193   5.760000   4.278165   2.966260   0.000000
    11  Br   2.860612   5.698447   5.760000   5.698447   2.966260
    12  H    1.080000   2.966260   4.278166   5.760000   4.278165
                   11         12
    11  Br   0.000000
    12  H    2.966260   0.000000
 Stoichiometry    C6H3Br3(1-,2)
 Framework group  D3H[3C2(HC.CBr)]
 Deg. of freedom     4
 Full point group                 D3H     NOp  12
 Largest Abelian subgroup         C2V     NOp   4
 Largest concise Abelian subgroup C2      NOp   2
                         Standard orientation:                         
 ---------------------------------------------------------------------
 Center     Atomic      Atomic             Coordinates (Angstroms)
 Number     Number       Type             X           Y           Z
 ---------------------------------------------------------------------
      1          6           0        0.000000    1.390000    0.000000
      2          6           0       -1.203775    0.695000   -0.000000
      3          6           0       -1.203775   -0.695000   -0.000000
      4          6           0       -0.000000   -1.390000   -0.000000
      5          6           0        1.203775   -0.695000   -0.000000
      6          6           0        1.203775    0.695000    0.000000
      7         35           0        0.000000    3.290000    0.000000
      8          1           0       -2.139083    1.235000   -0.000000
      9         35           0       -2.849224   -1.645000   -0.000000
     10          1           0       -0.000000   -2.470000   -0.000000
     11         35           0        2.849224   -1.645000   -0.000000
     12          1           0        2.139083    1.235000    0.000000
 ---------------------------------------------------------------------
 Rotational constants (GHZ):           0.3715726           0.3715726           0.1857863
 Standard basis: VSTO-6G (5D, 7F)
 There are    17 symmetry adapted cartesian basis functions of A1  symmetry.
 There are     3 symmetry adapted cartesian basis functions of A2  symmetry.
 There are    13 symmetry adapted cartesian basis functions of B1  symmetry.
 There are     6 symmetry adapted cartesian basis functions of B2  symmetry.
 There are    17 symmetry adapted basis functions of A1  symmetry.
 There are     3 symmetry adapted basis functions of A2  symmetry.
 There are    13 symmetry adapted basis functions of B1  symmetry.
 There are     6 symmetry adapted basis functions of B2  symmetry.
    39 basis functions,   234 primitive gaussians,    39 cartesian basis functions
    25 alpha electrons       24 beta electrons
       nuclear repulsion energy       243.1806886469 Hartrees.
 Integral buffers will be    131072 words long.
 Regular integral format.
 Two-electron integral symmetry is turned off.
 Do NDO integrals.
 One-electron integrals computed using PRISM.
 NBasis=    39 RedAO= T EigKep=  1.00D+00  NBF=    17     3    13     6
 NBsUse=    39 1.00D-06 EigRej= -1.00D+00 NBFU=    17     3    13     6
 Nonelectrostatic core Hamiltonian diagonalized for initial guess.
 Initial guess orbital symmetries:
 Alpha Orbitals:
       Occupied  (A1') (E') (E') (A1') (E') (E') (E') (E') (A1')
                 (A1') (E') (E') (A2') (A2") (E") (E") (E') (E')
                 (E') (E') (A2") (E") (E") (A2') (A1')
       Virtual   (E") (E") (E') (E') (A1') (E') (E') (A2") (E')
                 (E') (A1') (E') (E') (A2')
 Beta  Orbitals:
       Occupied  (A1') (E') (E') (A1') (E') (E') (E') (E') (A1')
                 (A1') (E') (E') (A2') (A2") (E") (E") (E') (E')
                 (E') (E') (A2") (E") (E") (A2')
       Virtual   (A1') (E") (E") (E') (E') (A1') (E') (E') (A2")
                 (E') (E') (A1') (E') (E') (A2')
 The electronic state of the initial guess is 2-A1'.
 Initial guess <Sx>= 0.0000 <Sy>= 0.0000 <Sz>= 0.5000 <S**2>= 0.7500 S= 0.5000
 Keep J ints in memory in canonical form, NReq=863709.
 Overlap will be assumed to be unity.
 Requested convergence on RMS density matrix=1.00D-08 within  32 cycles.
 Requested convergence on MAX density matrix=1.00D-06.
 Requested convergence on             energy=1.00D-06.
 No special actions if energy rises.
 Fock symm off for IB=2 I1=    2 I=   19 J=   15 Cut=1.00D-07 Err=2.33D-03
 Fock matrix is not symmetric: symmetry in diagonalization turned off.
 Rare condition: small coef for last iteration:  0.000D+00
 Rare condition: small coef for last iteration:  0.000D+00
 Rare condition: small coef for last iteration:  0.000D+00
 Rare condition: small coef for last iteration:  0.000D+00
 Rare condition: small coef for last iteration:  0.000D+00
 Rare condition: small coef for last iteration:  0.000D+00
 >>>>>>>>>> Convergence criterion not met.
 SCF Done:  E(UAM1) =  0.464260256508E-01 A.U. after   33 cycles
            NFock= 32  Conv=0.15D-05     -V/T= 1.0004
 <Sx>= 0.0000 <Sy>= 0.0000 <Sz>= 0.5000 <S**2>= 1.1685 S= 0.6910
 <L.S>=  0.00000000000    
 Annihilation of the first spin contaminant:
 S**2 before annihilation     1.1685,   after     0.8985
 Keep J ints in memory in canonical form, NReq=864109.
 LinEq1:  Iter=  0 NonCon=     1 RMS=5.72D-08 Max=6.00D-07 NDo=     1
 AX will form     1 AO Fock derivatives at one time.
 LinEq1:  Iter=  1 NonCon=     1 RMS=6.69D-09 Max=6.49D-08 NDo=     1
 LinEq1:  Iter=  2 NonCon=     1 RMS=1.07D-09 Max=7.40D-09 NDo=     1
 LinEq1:  Iter=  3 NonCon=     1 RMS=1.86D-10 Max=1.22D-09 NDo=     1
 LinEq1:  Iter=  4 NonCon=     1 RMS=3.22D-11 Max=4.19D-10 NDo=     1
 LinEq1:  Iter=  5 NonCon=     0 RMS=4.24D-12 Max=3.74D-11 NDo=     1
 Linear equations converged to 6.640D-12 6.640D-11 after     5 iterations.
 SCF Done:  E(UAM1) =  0.464260255846E-01 a.u. after    2 cycles
            Convg  =    0.8632D-08                     7 Fock formations.
              S**2 =  1.1685                  -V/T =  1.0004
 <Sx>= 0.0000 <Sy>= 0.0000 <Sz>= 0.5000 <S**2>= 1.1685 S= 0.6910
 <L.S>=  0.00000000000    
 Annihilation of the first spin contaminant:
 S**2 before annihilation     1.1685,   after     0.8985

 **********************************************************************

            Population analysis using the SCF Density.

 **********************************************************************

 Orbital symmetries:
 Alpha Orbitals:
       Occupied  (A1') (E') (E') (A1') (E') (E') (E') (E') (A1')
                 (A2') (A1') (A2") (E') (E') (E') (E') (E") (E")
                 (E') (E') (A2') (A2") (E") (E") (A1')
       Virtual   (E') (E') (E") (E") (A2") (A1') (E') (E') (E')
                 (E') (E') (E') (A2') (A1')
 Beta  Orbitals:
       Occupied  (A1') (E') (E') (A1') (E') (E') (E') (E') (A1')
                 (A2') (A1') (A2") (E') (E') (E') (E') (E") (E")
                 (E') (E') (A2') (A2") (E") (E")
       Virtual   (E") (E") (A1') (E') (E') (A2") (A1') (E') (E')
                 (E') (E') (E') (E') (A2') (A1')
 The electronic state is 2-A1'.
 Alpha  occ. eigenvalues --   -1.30860  -1.06750  -1.06750  -0.97619  -0.93189
 Alpha  occ. eigenvalues --   -0.93189  -0.69690  -0.69690  -0.50989  -0.45002
 Alpha  occ. eigenvalues --   -0.43522  -0.38418  -0.37957  -0.37957  -0.30330
 Alpha  occ. eigenvalues --   -0.30330  -0.29926  -0.29926  -0.25668  -0.25668
 Alpha  occ. eigenvalues --   -0.24925  -0.24738  -0.20176  -0.20176  -0.02663
 Alpha virt. eigenvalues --    0.12520   0.12520   0.16065   0.16065   0.24166
 Alpha virt. eigenvalues --    0.29579   0.29981   0.29981   0.31327   0.31327
 Alpha virt. eigenvalues --    0.33977   0.33977   0.34324   0.35159
  Beta  occ. eigenvalues --   -1.30619  -1.05545  -1.05545  -0.95998  -0.92741
  Beta  occ. eigenvalues --   -0.92741  -0.68540  -0.68540  -0.51025  -0.44752
  Beta  occ. eigenvalues --   -0.41368  -0.37865  -0.37561  -0.37561  -0.29508
  Beta  occ. eigenvalues --   -0.29508  -0.28645  -0.28645  -0.25028  -0.25028
  Beta  occ. eigenvalues --   -0.24295  -0.24057  -0.20551  -0.20551
  Beta virt. eigenvalues --    0.16522   0.16522   0.20279   0.21959   0.21959
  Beta virt. eigenvalues --    0.24508   0.28674   0.29837   0.29837   0.31485
  Beta virt. eigenvalues --    0.31485   0.34002   0.34002   0.34697   0.35362
          Condensed to atoms (all electrons):
               1          2          3          4          5          6
     1  C    4.144596   0.000000   0.000000   0.000000   0.000000   0.000000
     2  C    0.000000   4.129064   0.000000   0.000000   0.000000   0.000000
     3  C    0.000000   0.000000   4.144596   0.000000   0.000000   0.000000
     4  C    0.000000   0.000000   0.000000   4.129064   0.000000   0.000000
     5  C    0.000000   0.000000   0.000000   0.000000   4.144596   0.000000
     6  C    0.000000   0.000000   0.000000   0.000000   0.000000   4.129064
     7  Br   0.000000   0.000000   0.000000   0.000000   0.000000   0.000000
     8  H    0.000000   0.000000   0.000000   0.000000   0.000000   0.000000
     9  Br   0.000000   0.000000   0.000000   0.000000   0.000000   0.000000
    10  H    0.000000   0.000000   0.000000   0.000000   0.000000   0.000000
    11  Br   0.000000   0.000000   0.000000   0.000000   0.000000   0.000000
    12  H    0.000000   0.000000   0.000000   0.000000   0.000000   0.000000
               7          8          9         10         11         12
     1  C    0.000000   0.000000   0.000000   0.000000   0.000000   0.000000
     2  C    0.000000   0.000000   0.000000   0.000000   0.000000   0.000000
     3  C    0.000000   0.000000   0.000000   0.000000   0.000000   0.000000
     4  C    0.000000   0.000000   0.000000   0.000000   0.000000   0.000000
     5  C    0.000000   0.000000   0.000000   0.000000   0.000000   0.000000
     6  C    0.000000   0.000000   0.000000   0.000000   0.000000   0.000000
     7  Br   7.188442   0.000000   0.000000   0.000000   0.000000   0.000000
     8  H    0.000000   0.871231   0.000000   0.000000   0.000000   0.000000
     9  Br   0.000000   0.000000   7.188442   0.000000   0.000000   0.000000
    10  H    0.000000   0.000000   0.000000   0.871231   0.000000   0.000000
    11  Br   0.000000   0.000000   0.000000   0.000000   7.188442   0.000000
    12  H    0.000000   0.000000   0.000000   0.000000   0.000000   0.871231
          Atomic-Atomic Spin Densities.
               1          2          3          4          5          6
     1  C    0.533831   0.000000   0.000000   0.000000   0.000000   0.000000
     2  C    0.000000  -0.440812   0.000000   0.000000   0.000000   0.000000
     3  C    0.000000   0.000000   0.533831   0.000000   0.000000   0.000000
     4  C    0.000000   0.000000   0.000000  -0.440812   0.000000   0.000000
     5  C    0.000000   0.000000   0.000000   0.000000   0.533831   0.000000
     6  C    0.000000   0.000000   0.000000   0.000000   0.000000  -0.440812
     7  Br   0.000000   0.000000   0.000000   0.000000   0.000000   0.000000
     8  H    0.000000   0.000000   0.000000   0.000000   0.000000   0.000000
     9  Br   0.000000   0.000000   0.000000   0.000000   0.000000   0.000000
    10  H    0.000000   0.000000   0.000000   0.000000   0.000000   0.000000
    11  Br   0.000000   0.000000   0.000000   0.000000   0.000000   0.000000
    12  H    0.000000   0.000000   0.000000   0.000000   0.000000   0.000000
               7          8          9         10         11         12
     1  C    0.000000   0.000000   0.000000   0.000000   0.000000   0.000000
     2  C    0.000000   0.000000   0.000000   0.000000   0.000000   0.000000
     3  C    0.000000   0.000000   0.000000   0.000000   0.000000   0.000000
     4  C    0.000000   0.000000   0.000000   0.000000   0.000000   0.000000
     5  C    0.000000   0.000000   0.000000   0.000000   0.000000   0.000000
     6  C    0.000000   0.000000   0.000000   0.000000   0.000000   0.000000
     7  Br   0.216168   0.000000   0.000000   0.000000   0.000000   0.000000
     8  H    0.000000   0.024146   0.000000   0.000000   0.000000   0.000000
     9  Br   0.000000   0.000000   0.216168   0.000000   0.000000   0.000000
    10  H    0.000000   0.000000   0.000000   0.024146   0.000000   0.000000
    11  Br   0.000000   0.000000   0.000000   0.000000   0.216168   0.000000
    12  H    0.000000   0.000000   0.000000   0.000000   0.000000   0.024146
 Mulliken charges and spin densities:
               1          2
     1  C   -0.144596   0.533831
     2  C   -0.129064  -0.440812
     3  C   -0.144596   0.533831
     4  C   -0.129064  -0.440812
     5  C   -0.144596   0.533831
     6  C   -0.129064  -0.440812
     7  Br  -0.188442   0.216168
     8  H    0.128769   0.024146
     9  Br  -0.188442   0.216168
    10  H    0.128769   0.024146
    11  Br  -0.188442   0.216168
    12  H    0.128769   0.024146
 Sum of Mulliken charges =  -1.00000   1.00000
 Mulliken charges and spin densities with hydrogens summed into heavy atoms:
               1          2
     1  C   -0.144596   0.533831
     2  C   -0.000296  -0.416666
     3  C   -0.144596   0.533831
     4  C   -0.000296  -0.416666
     5  C   -0.144596   0.533831
     6  C   -0.000296  -0.416666
     7  Br  -0.188442   0.216168
     9  Br  -0.188442   0.216168
    11  Br  -0.188442   0.216168
 Charge=             -1.0000 electrons
 Dipole moment (field-independent basis, Debye):
    X=              0.0000    Y=             -0.0000    Z=              0.0000  Tot=              0.0000
 N-N= 2.431806886469D+02 E-N=-3.482375998889D+02  KE=-1.125076768985D+02
 Symmetry A1   KE=-5.000975860657D+01
 Symmetry A2   KE=-8.481666197299D+00
 Symmetry B1   KE=-3.683914334635D+01
 Symmetry B2   KE=-1.717710874823D+01
 Symmetry A1   SP= 1.000000000000D+00
 Symmetry A2   SP=-1.595945597899D-16
 Symmetry B1   SP=-5.273559366969D-16
 Symmetry B2   SP=-6.591949208712D-16
 Calling FoFJK, ICntrl=      2127 FMM=F ISym2X=1 I1Cent= 0 IOpClX= 1 NMat=1 NMatS=1 NMatT=0.
 ***** Axes restored to original set *****
 -------------------------------------------------------------------
 Center     Atomic                   Forces (Hartrees/Bohr)
 Number     Number              X              Y              Z
 -------------------------------------------------------------------
      1        6           0.000000000   -0.002542388    0.000000000
      2        6           0.003475054    0.002006323   -0.000000000
      3        6          -0.002201773    0.001271194   -0.000000000
      4        6           0.000000000   -0.004012646   -0.000000000
      5        6           0.002201773    0.001271194    0.000000000
      6        6          -0.003475054    0.002006323   -0.000000000
      7       35          -0.000000000    0.017374562   -0.000000000
      8        1           0.012873041    0.007432254    0.000000000
      9       35           0.015046812   -0.008687281    0.000000000
     10        1           0.000000000   -0.014864507    0.000000000
     11       35          -0.015046812   -0.008687281   -0.000000000
     12        1          -0.012873041    0.007432254   -0.000000000
 -------------------------------------------------------------------
 Cartesian Forces:  Max     0.017374562 RMS     0.006741625

 GradGradGradGradGradGradGradGradGradGradGradGradGradGradGradGradGradGrad
 Berny optimization.
 FormGI is forming the generalized inverse of G from B-inverse, IUseBI=4.
 Internal  Forces:  Max     0.017374562 RMS     0.007796453
 Search for a local minimum.
 Step number   1 out of a maximum of   64
 All quantities printed in internal units (Hartrees-Bohrs-Radians)
 Mixed Optimization -- RFO/linear search
 Second derivative matrix not updated -- first step.
 ITU=  0
     Eigenvalues ---    0.02221   0.02221   0.02221   0.02221   0.02221
     Eigenvalues ---    0.02221   0.02221   0.02221   0.02221   0.16000
     Eigenvalues ---    0.16000   0.16000   0.18251   0.18251   0.18251
     Eigenvalues ---    0.23479   0.23479   0.23500   0.25000   0.25000
     Eigenvalues ---    0.25000   0.35994   0.35994   0.35994   0.43086
     Eigenvalues ---    0.43086   0.47319   0.47319   0.47319   0.47319
 RFO step:  Lambda=-1.00598987D-02 EMin= 2.22103665D-02
 Linear search not attempted -- first point.
 Iteration  1 RMS(Cart)=  0.03608624 RMS(Int)=  0.00002240
 Iteration  2 RMS(Cart)=  0.00001999 RMS(Int)=  0.00000000
 Iteration  3 RMS(Cart)=  0.00000000 RMS(Int)=  0.00000000
 ClnCor:  largest displacement from symmetrization is 1.80D-12 for atom    11.
 Variable       Old X    -DE/DX   Delta X   Delta X   Delta X     New X
                                 (Linear)    (Quad)   (Total)
    R1        2.62672   0.01685   0.00000   0.03488   0.03488   2.66160
    R2        2.62672   0.01685   0.00000   0.03488   0.03488   2.66160
    R3        3.59048   0.01737   0.00000   0.09023   0.09023   3.68070
    R4        2.62672   0.01685   0.00000   0.03488   0.03488   2.66160
    R5        2.04090   0.01486   0.00000   0.04017   0.04017   2.08108
    R6        2.62672   0.01685   0.00000   0.03488   0.03488   2.66160
    R7        3.59048   0.01737   0.00000   0.09023   0.09023   3.68070
    R8        2.62672   0.01685   0.00000   0.03488   0.03488   2.66160
    R9        2.04090   0.01486   0.00000   0.04017   0.04017   2.08108
   R10        2.62672   0.01685   0.00000   0.03488   0.03488   2.66160
   R11        3.59048   0.01737   0.00000   0.09023   0.09023   3.68070
   R12        2.04090   0.01486   0.00000   0.04017   0.04017   2.08108
    A1        2.09440   0.00102   0.00000   0.00417   0.00417   2.09857
    A2        2.09440  -0.00051   0.00000  -0.00209  -0.00209   2.09231
    A3        2.09440  -0.00051   0.00000  -0.00209  -0.00209   2.09231
    A4        2.09440  -0.00102   0.00000  -0.00417  -0.00417   2.09022
    A5        2.09440   0.00051   0.00000   0.00209   0.00209   2.09648
    A6        2.09440   0.00051   0.00000   0.00209   0.00209   2.09648
    A7        2.09440   0.00102   0.00000   0.00417   0.00417   2.09857
    A8        2.09440  -0.00051   0.00000  -0.00209  -0.00209   2.09231
    A9        2.09440  -0.00051   0.00000  -0.00209  -0.00209   2.09231
   A10        2.09440  -0.00102   0.00000  -0.00417  -0.00417   2.09022
   A11        2.09440   0.00051   0.00000   0.00209   0.00209   2.09648
   A12        2.09440   0.00051   0.00000   0.00209   0.00209   2.09648
   A13        2.09440   0.00102   0.00000   0.00417   0.00417   2.09857
   A14        2.09440  -0.00051   0.00000  -0.00209  -0.00209   2.09231
   A15        2.09440  -0.00051   0.00000  -0.00209  -0.00209   2.09231
   A16        2.09440  -0.00102   0.00000  -0.00417  -0.00417   2.09022
   A17        2.09440   0.00051   0.00000   0.00209   0.00209   2.09648
   A18        2.09440   0.00051   0.00000   0.00209   0.00209   2.09648
    D1       -0.00000  -0.00000   0.00000   0.00000   0.00000   0.00000
    D2        3.14159  -0.00000   0.00000  -0.00000   0.00000   3.14159
    D3        3.14159   0.00000   0.00000   0.00000   0.00000   3.14159
    D4        0.00000   0.00000   0.00000   0.00000  -0.00000   0.00000
    D5        0.00000   0.00000   0.00000   0.00000   0.00000   0.00000
    D6        3.14159   0.00000   0.00000   0.00000   0.00000   3.14159
    D7        3.14159  -0.00000   0.00000  -0.00000   0.00000   3.14159
    D8        0.00000  -0.00000   0.00000  -0.00000  -0.00000   0.00000
    D9       -0.00000  -0.00000   0.00000  -0.00000   0.00000   0.00000
   D10        3.14159  -0.00000   0.00000  -0.00000   0.00000   3.14159
   D11        3.14159  -0.00000   0.00000  -0.00000   0.00000   3.14159
   D12       -0.00000  -0.00000   0.00000  -0.00000   0.00000   0.00000
   D13       -0.00000   0.00000   0.00000   0.00000   0.00000   0.00000
   D14        3.14159   0.00000   0.00000   0.00000   0.00000   3.14159
   D15        3.14159   0.00000   0.00000   0.00000   0.00000   3.14159
   D16        0.00000   0.00000   0.00000   0.00000  -0.00000   0.00000
   D17        0.00000  -0.00000   0.00000   0.00000   0.00000   0.00000
   D18        3.14159  -0.00000   0.00000  -0.00000   0.00000   3.14159
   D19        3.14159  -0.00000   0.00000   0.00000   0.00000   3.14159
   D20       -0.00000  -0.00000   0.00000  -0.00000   0.00000   0.00000
   D21       -0.00000  -0.00000   0.00000  -0.00000   0.00000   0.00000
   D22        3.14159  -0.00000   0.00000  -0.00000   0.00000   3.14159
   D23        3.14159   0.00000   0.00000   0.00000   0.00000   3.14159
   D24       -0.00000   0.00000   0.00000   0.00000   0.00000   0.00000
         Item               Value     Threshold  Converged?
 Maximum Force            0.017375     0.000450     NO 
 RMS     Force            0.007796     0.000300     NO 
 Maximum Displacement     0.121892     0.001800     NO 
 RMS     Displacement     0.036081     0.001200     NO 
 Predicted change in Energy=-5.214644D-03
 GradGradGradGradGradGradGradGradGradGradGradGradGradGradGradGradGradGrad

                          Input orientation:                          
 ---------------------------------------------------------------------
 Center     Atomic      Atomic             Coordinates (Angstroms)
 Number     Number       Type             X           Y           Z
 ---------------------------------------------------------------------
      1          6           0       -0.000000    1.406757   -0.000000
      2          6           0        1.221226    0.705075    0.000000
      3          6           0        1.218288   -0.703379    0.000000
      4          6           0        0.000000   -1.410150    0.000000
      5          6           0       -1.218288   -0.703379   -0.000000
      6          6           0       -1.221226    0.705075   -0.000000
      7         35           0       -0.000000    3.354502    0.000000
      8          1           0        2.174944    1.255704    0.000000
      9         35           0        2.905084   -1.677251    0.000000
     10          1           0        0.000000   -2.511409   -0.000000
     11         35           0       -2.905084   -1.677251   -0.000000
     12          1           0       -2.174944    1.255704   -0.000000
 ---------------------------------------------------------------------
                    Distance matrix (angstroms):
                    1          2          3          4          5
     1  C    0.000000
     2  C    1.408457   0.000000
     3  C    2.436575   1.408457   0.000000
     4  C    2.816907   2.442451   1.408457   0.000000
     5  C    2.436575   2.816907   2.436575   1.408457   0.000000
     6  C    1.408457   2.442451   2.816907   2.442451   1.408457
     7  Br   1.947745   2.917337   4.236818   4.764652   4.236818
     8  H    2.180183   1.101259   2.180183   3.440517   3.918166
     9  Br   4.236818   2.917337   1.947745   2.917337   4.236818
    10  H    3.918166   3.440517   2.180183   1.101259   2.180183
    11  Br   4.236818   4.764652   4.236818   2.917337   1.947745
    12  H    2.180183   3.440517   3.918166   3.440517   2.180183
                    6          7          8          9         10
     6  C    0.000000
     7  Br   2.917337   0.000000
     8  H    3.440517   3.022472   0.000000
     9  Br   4.764652   5.810169   3.022472   0.000000
    10  H    3.440517   5.865911   4.349888   3.022472   0.000000
    11  Br   2.917337   5.810169   5.865911   5.810169   3.022472
    12  H    1.101259   3.022472   4.349888   5.865911   4.349888
                   11         12
    11  Br   0.000000
    12  H    3.022472   0.000000
 Stoichiometry    C6H3Br3(1-,2)
 Framework group  D3H[3C2(HC.CBr)]
 Deg. of freedom     4
 Full point group                 D3H     NOp  12
 Largest Abelian subgroup         C2V     NOp   4
 Largest concise Abelian subgroup C2      NOp   2
                         Standard orientation:                         
 ---------------------------------------------------------------------
 Center     Atomic      Atomic             Coordinates (Angstroms)
 Number     Number       Type             X           Y           Z
 ---------------------------------------------------------------------
      1          6           0        0.000000    1.406757    0.000000
      2          6           0       -1.221226    0.705075    0.000000
      3          6           0       -1.218288   -0.703379    0.000000
      4          6           0        0.000000   -1.410150    0.000000
      5          6           0        1.218288   -0.703379    0.000000
      6          6           0        1.221226    0.705075    0.000000
      7         35           0        0.000000    3.354502    0.000000
      8          1           0       -2.174944    1.255704    0.000000
      9         35           0       -2.905084   -1.677251    0.000000
     10          1           0        0.000000   -2.511409    0.000000
     11         35           0        2.905084   -1.677251    0.000000
     12          1           0        2.174944    1.255704    0.000000
 ---------------------------------------------------------------------
 Rotational constants (GHZ):           0.3576602           0.3576602           0.1788301
 Standard basis: VSTO-6G (5D, 7F)
 There are    17 symmetry adapted cartesian basis functions of A1  symmetry.
 There are     3 symmetry adapted cartesian basis functions of A2  symmetry.
 There are    13 symmetry adapted cartesian basis functions of B1  symmetry.
 There are     6 symmetry adapted cartesian basis functions of B2  symmetry.
 There are    17 symmetry adapted basis functions of A1  symmetry.
 There are     3 symmetry adapted basis functions of A2  symmetry.
 There are    13 symmetry adapted basis functions of B1  symmetry.
 There are     6 symmetry adapted basis functions of B2  symmetry.
    39 basis functions,   234 primitive gaussians,    39 cartesian basis functions
    25 alpha electrons       24 beta electrons
       nuclear repulsion energy       240.5366402661 Hartrees.
 Integral buffers will be    131072 words long.
 Regular integral format.
 Two-electron integral symmetry is turned off.
 Do NDO integrals.
 One-electron integrals computed using PRISM.
 NBasis=    39 RedAO= T EigKep=  1.00D+00  NBF=    17     3    13     6
 NBsUse=    39 1.00D-06 EigRej= -1.00D+00 NBFU=    17     3    13     6
 Initial guess from the checkpoint file:  "calcs/am1/chks/BrBz_135_RA.chk"
 B after Tr=     0.000000    0.000000    0.000000
         Rot=    1.000000   -0.000000   -0.000000   -0.000000 Ang=   0.00 deg.
 Initial guess orbital symmetries:
 Alpha Orbitals:
       Occupied  (?A) (?B) (?B) (?A) (?B) (?B) (?B) (?B) (?A) (?A)
                 (?A) (A2") (?B) (?B) (?B) (?B) (E") (E") (?B)
                 (?B) (?A) (A2") (E") (E") (?A)
       Virtual   (?B) (?B) (E") (E") (A2") (?A) (?B) (?B) (?B)
                 (?B) (?B) (?B) (?A) (?A)
 Beta  Orbitals:
       Occupied  (?A) (?B) (?B) (?A) (?B) (?B) (?B) (?B) (?A) (?A)
                 (?A) (A2") (?B) (?B) (?B) (?B) (E") (E") (?B)
                 (?B) (?A) (A2") (E") (E")
       Virtual   (E") (E") (?A) (?B) (?B) (A2") (?A) (?B) (?B)
                 (?B) (?B) (?B) (?B) (?A) (?A)
 Initial guess <Sx>= 0.0000 <Sy>= 0.0000 <Sz>= 0.5000 <S**2>= 1.1685 S= 0.6910
 Keep J ints in memory in canonical form, NReq=863709.
 Overlap will be assumed to be unity.
 Requested convergence on RMS density matrix=1.00D-08 within  32 cycles.
 Requested convergence on MAX density matrix=1.00D-06.
 Requested convergence on             energy=1.00D-06.
 No special actions if energy rises.
 Fock symm off for IB=2 I1=    2 I=   19 J=    8 Cut=1.00D-07 Err=6.30D-04
 Fock matrix is not symmetric: symmetry in diagonalization turned off.
 SCF Done:  E(UAM1) =  0.430835841413E-01 A.U. after   17 cycles
            NFock= 16  Conv=0.26D-08     -V/T= 1.0004
 <Sx>= 0.0000 <Sy>= 0.0000 <Sz>= 0.5000 <S**2>= 1.2719 S= 0.7336
 <L.S>=  0.00000000000    
 Annihilation of the first spin contaminant:
 S**2 before annihilation     1.2719,   after     0.9911
 QCSCF skips out because SCF is already converged.
 Calling FoFJK, ICntrl=      2127 FMM=F ISym2X=1 I1Cent= 0 IOpClX= 1 NMat=1 NMatS=1 NMatT=0.
 ***** Axes restored to original set *****
 -------------------------------------------------------------------
 Center     Atomic                   Forces (Hartrees/Bohr)
 Number     Number              X              Y              Z
 -------------------------------------------------------------------
      1        6           0.000000000   -0.013478995   -0.000000000
      2        6          -0.005629894   -0.003250421   -0.000000000
      3        6          -0.011673152    0.006739497   -0.000000000
      4        6           0.000000000    0.006500842   -0.000000000
      5        6           0.011673152    0.006739498    0.000000000
      6        6           0.005629894   -0.003250421    0.000000000
      7       35          -0.000000000   -0.001536706   -0.000000000
      8        1          -0.001964699   -0.001134320    0.000000000
      9       35          -0.001330827    0.000768353    0.000000000
     10        1          -0.000000000    0.002268639    0.000000000
     11       35           0.001330827    0.000768353   -0.000000000
     12        1           0.001964699   -0.001134320    0.000000000
 -------------------------------------------------------------------
 Cartesian Forces:  Max     0.013478995 RMS     0.004391777

 GradGradGradGradGradGradGradGradGradGradGradGradGradGradGradGradGradGrad
 Berny optimization.
 Using GEDIIS/GDIIS optimizer.
 FormGI is forming the generalized inverse of G from B-inverse, IUseBI=4.
 Internal  Forces:  Max     0.011888804 RMS     0.004069437
 Search for a local minimum.
 Step number   2 out of a maximum of   64
 All quantities printed in internal units (Hartrees-Bohrs-Radians)
 Mixed Optimization -- RFO/linear search
 Update second derivatives using D2CorX and points    1    2
 DE= -3.34D-03 DEPred=-5.21D-03 R= 6.41D-01
 TightC=F SS=  1.41D+00  RLast= 1.92D-01 DXNew= 5.0454D-01 5.7487D-01
 Trust test= 6.41D-01 RLast= 1.92D-01 DXMaxT set to 5.05D-01
 ITU=  1  0
 Use linear search instead of GDIIS.
     Eigenvalues ---    0.02221   0.02221   0.02221   0.02221   0.02221
     Eigenvalues ---    0.02221   0.02221   0.02221   0.02221   0.16000
     Eigenvalues ---    0.16000   0.16000   0.17165   0.18251   0.18251
     Eigenvalues ---    0.23452   0.23484   0.23484   0.25000   0.25000
     Eigenvalues ---    0.25000   0.35403   0.35994   0.35994   0.43176
     Eigenvalues ---    0.43176   0.47319   0.47319   0.47319   0.69694
 RFO step:  Lambda=-5.41545568D-04 EMin= 2.22103665D-02
 Quartic linear search produced a step of -0.24743.
 Iteration  1 RMS(Cart)=  0.00891523 RMS(Int)=  0.00001443
 Iteration  2 RMS(Cart)=  0.00001403 RMS(Int)=  0.00000000
 Iteration  3 RMS(Cart)=  0.00000000 RMS(Int)=  0.00000000
 ClnCor:  largest displacement from symmetrization is 7.37D-10 for atom     9.
 Variable       Old X    -DE/DX   Delta X   Delta X   Delta X     New X
                                 (Linear)    (Quad)   (Total)
    R1        2.66160  -0.01189  -0.00863  -0.00852  -0.01715   2.64444
    R2        2.66160  -0.01189  -0.00863  -0.00852  -0.01715   2.64444
    R3        3.68070  -0.00154  -0.02232   0.02000  -0.00233   3.67838
    R4        2.66160  -0.01189  -0.00863  -0.00852  -0.01715   2.64444
    R5        2.08108  -0.00227  -0.00994   0.00715  -0.00279   2.07829
    R6        2.66160  -0.01189  -0.00863  -0.00852  -0.01715   2.64444
    R7        3.68070  -0.00154  -0.02232   0.02000  -0.00233   3.67838
    R8        2.66160  -0.01189  -0.00863  -0.00852  -0.01715   2.64444
    R9        2.08108  -0.00227  -0.00994   0.00715  -0.00279   2.07829
   R10        2.66160  -0.01189  -0.00863  -0.00852  -0.01715   2.64444
   R11        3.68070  -0.00154  -0.02232   0.02000  -0.00233   3.67838
   R12        2.08108  -0.00227  -0.00994   0.00715  -0.00279   2.07829
    A1        2.09857   0.00162  -0.00103   0.00641   0.00537   2.10394
    A2        2.09231  -0.00081   0.00052  -0.00320  -0.00269   2.08962
    A3        2.09231  -0.00081   0.00052  -0.00320  -0.00269   2.08962
    A4        2.09022  -0.00162   0.00103  -0.00641  -0.00537   2.08485
    A5        2.09648   0.00081  -0.00052   0.00320   0.00269   2.09917
    A6        2.09648   0.00081  -0.00052   0.00320   0.00269   2.09917
    A7        2.09857   0.00162  -0.00103   0.00641   0.00537   2.10394
    A8        2.09231  -0.00081   0.00052  -0.00320  -0.00269   2.08962
    A9        2.09231  -0.00081   0.00052  -0.00320  -0.00269   2.08962
   A10        2.09022  -0.00162   0.00103  -0.00641  -0.00537   2.08485
   A11        2.09648   0.00081  -0.00052   0.00320   0.00269   2.09917
   A12        2.09648   0.00081  -0.00052   0.00320   0.00269   2.09917
   A13        2.09857   0.00162  -0.00103   0.00641   0.00537   2.10394
   A14        2.09231  -0.00081   0.00052  -0.00320  -0.00269   2.08962
   A15        2.09231  -0.00081   0.00052  -0.00320  -0.00269   2.08962
   A16        2.09022  -0.00162   0.00103  -0.00641  -0.00537   2.08485
   A17        2.09648   0.00081  -0.00052   0.00320   0.00269   2.09917
   A18        2.09648   0.00081  -0.00052   0.00320   0.00269   2.09917
    D1       -0.00000   0.00000   0.00000   0.00000   0.00000   0.00000
    D2        3.14159   0.00000   0.00000   0.00000   0.00000   3.14159
    D3        3.14159   0.00000   0.00000   0.00000   0.00000   3.14159
    D4        0.00000   0.00000   0.00000   0.00000  -0.00000   0.00000
    D5        0.00000  -0.00000   0.00000  -0.00000   0.00000   0.00000
    D6        3.14159  -0.00000   0.00000  -0.00000   0.00000   3.14159
    D7        3.14159  -0.00000   0.00000  -0.00000   0.00000   3.14159
    D8        0.00000  -0.00000   0.00000  -0.00000   0.00000   0.00000
    D9        0.00000  -0.00000   0.00000  -0.00000  -0.00000   0.00000
   D10        3.14159   0.00000   0.00000   0.00000   0.00000   3.14159
   D11        3.14159  -0.00000   0.00000  -0.00000   0.00000   3.14159
   D12       -0.00000  -0.00000   0.00000  -0.00000   0.00000   0.00000
   D13       -0.00000   0.00000   0.00000   0.00000   0.00000   0.00000
   D14        3.14159   0.00000   0.00000   0.00000   0.00000   3.14159
   D15        3.14159  -0.00000   0.00000  -0.00000   0.00000   3.14159
   D16        0.00000   0.00000   0.00000   0.00000  -0.00000   0.00000
   D17        0.00000   0.00000   0.00000   0.00000   0.00000   0.00000
   D18        3.14159   0.00000   0.00000  -0.00000   0.00000   3.14159
   D19        3.14159  -0.00000   0.00000  -0.00000   0.00000   3.14159
   D20       -0.00000  -0.00000   0.00000  -0.00000   0.00000   0.00000
   D21       -0.00000   0.00000   0.00000  -0.00000   0.00000   0.00000
   D22        3.14159   0.00000   0.00000  -0.00000   0.00000   3.14159
   D23        3.14159   0.00000   0.00000   0.00000   0.00000   3.14159
   D24       -0.00000   0.00000   0.00000   0.00000   0.00000   0.00000
         Item               Value     Threshold  Converged?
 Maximum Force            0.011889     0.000450     NO 
 RMS     Force            0.004069     0.000300     NO 
 Maximum Displacement     0.023586     0.001800     NO 
 RMS     Displacement     0.008920     0.001200     NO 
 Predicted change in Energy=-6.576382D-04
 GradGradGradGradGradGradGradGradGradGradGradGradGradGradGradGradGradGrad

                          Input orientation:                          
 ---------------------------------------------------------------------
 Center     Atomic      Atomic             Coordinates (Angstroms)
 Number     Number       Type             X           Y           Z
 ---------------------------------------------------------------------
      1          6           0       -0.000000    1.395507   -0.000000
      2          6           0        1.215223    0.701609   -0.000000
      3          6           0        1.208545   -0.697754   -0.000000
      4          6           0        0.000000   -1.403219   -0.000000
      5          6           0       -1.208545   -0.697754   -0.000000
      6          6           0       -1.215223    0.701609   -0.000000
      7         35           0       -0.000000    3.342021   -0.000000
      8          1           0        2.167664    1.251501   -0.000000
      9         35           0        2.894275   -1.671010   -0.000000
     10          1           0        0.000000   -2.503003   -0.000000
     11         35           0       -2.894275   -1.671010   -0.000000
     12          1           0       -2.167664    1.251501   -0.000000
 ---------------------------------------------------------------------
                    Distance matrix (angstroms):
                    1          2          3          4          5
     1  C    0.000000
     2  C    1.399379   0.000000
     3  C    2.417089   1.399379   0.000000
     4  C    2.798726   2.430446   1.399379   0.000000
     5  C    2.417089   2.798726   2.417089   1.399379   0.000000
     6  C    1.399379   2.430446   2.798726   2.430446   1.399379
     7  Br   1.946514   2.906637   4.216676   4.745240   4.216676
     8  H    2.172442   1.099784   2.172442   3.427289   3.898510
     9  Br   4.216676   2.906637   1.946514   2.906637   4.216676
    10  H    3.898510   3.427289   2.172442   1.099784   2.172442
    11  Br   4.216676   4.745240   4.216676   2.906637   1.946514
    12  H    2.172442   3.427289   3.898510   3.427289   2.172442
                    6          7          8          9         10
     6  C    0.000000
     7  Br   2.906637   0.000000
     8  H    3.427289   3.011485   0.000000
     9  Br   4.745240   5.788550   3.011485   0.000000
    10  H    3.427289   5.845024   4.335328   3.011485   0.000000
    11  Br   2.906637   5.788550   5.845024   5.788550   3.011485
    12  H    1.099784   3.011485   4.335328   5.845024   4.335328
                   11         12
    11  Br   0.000000
    12  H    3.011485   0.000000
 Stoichiometry    C6H3Br3(1-,2)
 Framework group  D3H[3C2(HC.CBr)]
 Deg. of freedom     4
 Full point group                 D3H     NOp  12
 Largest Abelian subgroup         C2V     NOp   4
 Largest concise Abelian subgroup C2      NOp   2
                         Standard orientation:                         
 ---------------------------------------------------------------------
 Center     Atomic      Atomic             Coordinates (Angstroms)
 Number     Number       Type             X           Y           Z
 ---------------------------------------------------------------------
      1          6           0        0.000000    1.395507    0.000000
      2          6           0       -1.215223    0.701609    0.000000
      3          6           0       -1.208545   -0.697754    0.000000
      4          6           0        0.000000   -1.403219    0.000000
      5          6           0        1.208545   -0.697754    0.000000
      6          6           0        1.215223    0.701609    0.000000
      7         35           0        0.000000    3.342021    0.000000
      8          1           0       -2.167664    1.251501    0.000000
      9         35           0       -2.894275   -1.671010    0.000000
     10          1           0        0.000000   -2.503003    0.000000
     11         35           0        2.894275   -1.671010    0.000000
     12          1           0        2.167664    1.251501    0.000000
 ---------------------------------------------------------------------
 Rotational constants (GHZ):           0.3604345           0.3604345           0.1802173
 Standard basis: VSTO-6G (5D, 7F)
 There are    17 symmetry adapted cartesian basis functions of A1  symmetry.
 There are     3 symmetry adapted cartesian basis functions of A2  symmetry.
 There are    13 symmetry adapted cartesian basis functions of B1  symmetry.
 There are     6 symmetry adapted cartesian basis functions of B2  symmetry.
 There are    17 symmetry adapted basis functions of A1  symmetry.
 There are     3 symmetry adapted basis functions of A2  symmetry.
 There are    13 symmetry adapted basis functions of B1  symmetry.
 There are     6 symmetry adapted basis functions of B2  symmetry.
    39 basis functions,   234 primitive gaussians,    39 cartesian basis functions
    25 alpha electrons       24 beta electrons
       nuclear repulsion energy       241.1748194421 Hartrees.
 Integral buffers will be    131072 words long.
 Regular integral format.
 Two-electron integral symmetry is turned off.
 Do NDO integrals.
 One-electron integrals computed using PRISM.
 NBasis=    39 RedAO= T EigKep=  1.00D+00  NBF=    17     3    13     6
 NBsUse=    39 1.00D-06 EigRej= -1.00D+00 NBFU=    17     3    13     6
 Initial guess from the checkpoint file:  "calcs/am1/chks/BrBz_135_RA.chk"
 B after Tr=     0.000000   -0.000000   -0.000000
         Rot=    1.000000   -0.000000   -0.000000    0.000000 Ang=   0.00 deg.
 Initial guess orbital symmetries:
 Alpha Orbitals:
       Occupied  (?A) (?B) (?B) (?A) (?B) (?B) (?B) (?B) (?A) (?A)
                 (?A) (?B) (?B) (A2") (?B) (?B) (E") (E") (?B)
                 (?B) (?A) (A2") (E") (E") (?A)
       Virtual   (?B) (?B) (E") (E") (A2") (?A) (?B) (?B) (?B)
                 (?B) (?B) (?B) (?A) (?A)
 Beta  Orbitals:
       Occupied  (?A) (?B) (?B) (?A) (?B) (?B) (?B) (?B) (?A) (?A)
                 (?A) (?B) (?B) (A2") (?B) (?B) (E") (E") (?B)
                 (?B) (?A) (A2") (E") (E")
       Virtual   (E") (E") (?A) (?B) (?B) (A2") (?A) (?B) (?B)
                 (?B) (?B) (?B) (?B) (?A) (?A)
 Initial guess <Sx>= 0.0000 <Sy>= 0.0000 <Sz>= 0.5000 <S**2>= 1.2719 S= 0.7336
 Keep J ints in memory in canonical form, NReq=863709.
 Overlap will be assumed to be unity.
 Requested convergence on RMS density matrix=1.00D-08 within  32 cycles.
 Requested convergence on MAX density matrix=1.00D-06.
 Requested convergence on             energy=1.00D-06.
 No special actions if energy rises.
 An orbital has undefined symmetry, so N**3 symmetry is turned off.
 SCF Done:  E(UAM1) =  0.423983767646E-01 A.U. after   14 cycles
            NFock= 13  Conv=0.31D-08     -V/T= 1.0004
 <Sx>= 0.0000 <Sy>= 0.0000 <Sz>= 0.5000 <S**2>= 1.2100 S= 0.7083
 <L.S>=  0.00000000000    
 Annihilation of the first spin contaminant:
 S**2 before annihilation     1.2100,   after     0.9331
 QCSCF skips out because SCF is already converged.
 Calling FoFJK, ICntrl=      2127 FMM=F ISym2X=1 I1Cent= 0 IOpClX= 1 NMat=1 NMatS=1 NMatT=0.
 ***** Axes restored to original set *****
 -------------------------------------------------------------------
 Center     Atomic                   Forces (Hartrees/Bohr)
 Number     Number              X              Y              Z
 -------------------------------------------------------------------
      1        6          -0.000000001   -0.001475577   -0.000000000
      2        6           0.001784136    0.001030070    0.000000000
      3        6          -0.001277887    0.000737790   -0.000000000
      4        6          -0.000000001   -0.002060142   -0.000000000
      5        6           0.001277888    0.000737787    0.000000000
      6        6          -0.001784135    0.001030072   -0.000000000
      7       35           0.000000000    0.000250571   -0.000000000
      8        1          -0.000564771   -0.000326071    0.000000000
      9       35           0.000217001   -0.000125285    0.000000000
     10        1          -0.000000000    0.000652142    0.000000000
     11       35          -0.000217001   -0.000125285   -0.000000000
     12        1           0.000564771   -0.000326071   -0.000000000
 -------------------------------------------------------------------
 Cartesian Forces:  Max     0.002060142 RMS     0.000758814

 GradGradGradGradGradGradGradGradGradGradGradGradGradGradGradGradGradGrad
 Berny optimization.
 Using GEDIIS/GDIIS optimizer.
 FormGI is forming the generalized inverse of G from B-inverse, IUseBI=4.
 Internal  Forces:  Max     0.000669607 RMS     0.000320702
 Search for a local minimum.
 Step number   3 out of a maximum of   64
 All quantities printed in internal units (Hartrees-Bohrs-Radians)
 Mixed Optimization -- En-DIIS/RFO-DIIS
 Update second derivatives using D2CorX and points    1    2    3
 DE= -6.85D-04 DEPred=-6.58D-04 R= 1.04D+00
 TightC=F SS=  1.41D+00  RLast= 4.54D-02 DXNew= 8.4853D-01 1.3633D-01
 Trust test= 1.04D+00 RLast= 4.54D-02 DXMaxT set to 5.05D-01
 ITU=  1  1  0
 Use linear search instead of GDIIS.
     Eigenvalues ---    0.02221   0.02221   0.02221   0.02221   0.02221
     Eigenvalues ---    0.02221   0.02221   0.02221   0.02221   0.16000
     Eigenvalues ---    0.16000   0.16000   0.16923   0.18251   0.18251
     Eigenvalues ---    0.22333   0.23488   0.23488   0.25000   0.25000
     Eigenvalues ---    0.25000   0.35962   0.35994   0.35994   0.43131
     Eigenvalues ---    0.43131   0.47319   0.47319   0.47319   0.70507
 RFO step:  Lambda=-2.27566609D-05 EMin= 2.22103665D-02
 Quartic linear search produced a step of  0.01957.
 Iteration  1 RMS(Cart)=  0.00080902 RMS(Int)=  0.00000105
 Iteration  2 RMS(Cart)=  0.00000148 RMS(Int)=  0.00000000
 Iteration  3 RMS(Cart)=  0.00000000 RMS(Int)=  0.00000000
 ClnCor:  largest displacement from symmetrization is 1.49D-09 for atom     3.
 Variable       Old X    -DE/DX   Delta X   Delta X   Delta X     New X
                                 (Linear)    (Quad)   (Total)
    R1        2.64444   0.00010  -0.00034   0.00033  -0.00001   2.64444
    R2        2.64444   0.00010  -0.00034   0.00033  -0.00001   2.64444
    R3        3.67838   0.00025  -0.00005   0.00186   0.00182   3.68020
    R4        2.64444   0.00010  -0.00034   0.00033  -0.00001   2.64444
    R5        2.07829  -0.00065  -0.00005  -0.00166  -0.00172   2.07657
    R6        2.64444   0.00010  -0.00034   0.00033  -0.00001   2.64444
    R7        3.67838   0.00025  -0.00005   0.00186   0.00182   3.68020
    R8        2.64444   0.00010  -0.00034   0.00033  -0.00001   2.64444
    R9        2.07829  -0.00065  -0.00005  -0.00166  -0.00172   2.07657
   R10        2.64444   0.00010  -0.00034   0.00033  -0.00001   2.64444
   R11        3.67838   0.00025  -0.00005   0.00186   0.00182   3.68020
   R12        2.07829  -0.00065  -0.00005  -0.00166  -0.00172   2.07657
    A1        2.10394   0.00067   0.00011   0.00298   0.00308   2.10702
    A2        2.08962  -0.00033  -0.00005  -0.00149  -0.00154   2.08808
    A3        2.08962  -0.00033  -0.00005  -0.00149  -0.00154   2.08808
    A4        2.08485  -0.00067  -0.00011  -0.00298  -0.00308   2.08177
    A5        2.09917   0.00033   0.00005   0.00149   0.00154   2.10071
    A6        2.09917   0.00033   0.00005   0.00149   0.00154   2.10071
    A7        2.10394   0.00067   0.00011   0.00298   0.00308   2.10702
    A8        2.08962  -0.00033  -0.00005  -0.00149  -0.00154   2.08808
    A9        2.08962  -0.00033  -0.00005  -0.00149  -0.00154   2.08808
   A10        2.08485  -0.00067  -0.00011  -0.00298  -0.00308   2.08177
   A11        2.09917   0.00033   0.00005   0.00149   0.00154   2.10071
   A12        2.09917   0.00033   0.00005   0.00149   0.00154   2.10071
   A13        2.10394   0.00067   0.00011   0.00298   0.00308   2.10702
   A14        2.08962  -0.00033  -0.00005  -0.00149  -0.00154   2.08808
   A15        2.08962  -0.00033  -0.00005  -0.00149  -0.00154   2.08808
   A16        2.08485  -0.00067  -0.00011  -0.00298  -0.00308   2.08177
   A17        2.09917   0.00033   0.00005   0.00149   0.00154   2.10071
   A18        2.09917   0.00033   0.00005   0.00149   0.00154   2.10071
    D1       -0.00000   0.00000   0.00000   0.00000   0.00000   0.00000
    D2        3.14159   0.00000   0.00000   0.00000   0.00000   3.14159
    D3        3.14159   0.00000   0.00000   0.00000   0.00000   3.14159
    D4       -0.00000   0.00000   0.00000   0.00000   0.00000   0.00000
    D5        0.00000  -0.00000   0.00000  -0.00000   0.00000   0.00000
    D6        3.14159  -0.00000   0.00000  -0.00000   0.00000   3.14159
    D7        3.14159   0.00000   0.00000   0.00000   0.00000   3.14159
    D8       -0.00000   0.00000   0.00000   0.00000   0.00000   0.00000
    D9        0.00000  -0.00000   0.00000  -0.00000   0.00000   0.00000
   D10        3.14159  -0.00000   0.00000  -0.00000   0.00000   3.14159
   D11        3.14159  -0.00000   0.00000  -0.00000   0.00000   3.14159
   D12        0.00000  -0.00000   0.00000  -0.00000  -0.00000   0.00000
   D13       -0.00000   0.00000   0.00000   0.00000   0.00000   0.00000
   D14        3.14159   0.00000   0.00000   0.00000   0.00000   3.14159
   D15        3.14159  -0.00000   0.00000  -0.00000   0.00000   3.14159
   D16       -0.00000   0.00000   0.00000   0.00000   0.00000   0.00000
   D17        0.00000   0.00000   0.00000   0.00000   0.00000   0.00000
   D18        3.14159  -0.00000   0.00000  -0.00000   0.00000   3.14159
   D19        3.14159   0.00000   0.00000   0.00000   0.00000   3.14159
   D20        0.00000  -0.00000   0.00000  -0.00000  -0.00000   0.00000
   D21       -0.00000  -0.00000   0.00000  -0.00000   0.00000   0.00000
   D22        3.14159  -0.00000   0.00000  -0.00000   0.00000   3.14159
   D23        3.14159   0.00000   0.00000   0.00000   0.00000   3.14159
   D24        0.00000   0.00000   0.00000   0.00000   0.00000   0.00000
         Item               Value     Threshold  Converged?
 Maximum Force            0.000670     0.000450     NO 
 RMS     Force            0.000321     0.000300     NO 
 Maximum Displacement     0.002385     0.001800     NO 
 RMS     Displacement     0.000809     0.001200     YES
 Predicted change in Energy=-1.168283D-05
 GradGradGradGradGradGradGradGradGradGradGradGradGradGradGradGradGradGrad

                          Input orientation:                          
 ---------------------------------------------------------------------
 Center     Atomic      Atomic             Coordinates (Angstroms)
 Number     Number       Type             X           Y           Z
 ---------------------------------------------------------------------
      1          6           0       -0.000000    1.394245   -0.000000
      2          6           0        1.216288    0.702224   -0.000000
      3          6           0        1.207452   -0.697123   -0.000000
      4          6           0        0.000000   -1.404449   -0.000000
      5          6           0       -1.207452   -0.697123   -0.000000
      6          6           0       -1.216288    0.702224   -0.000000
      7         35           0       -0.000000    3.341721   -0.000000
      8          1           0        2.167943    1.251662   -0.000000
      9         35           0        2.894015   -1.670861   -0.000000
     10          1           0        0.000000   -2.503325   -0.000000
     11         35           0       -2.894015   -1.670861   -0.000000
     12          1           0       -2.167943    1.251662   -0.000000
 ---------------------------------------------------------------------
                    Distance matrix (angstroms):
                    1          2          3          4          5
     1  C    0.000000
     2  C    1.399375   0.000000
     3  C    2.414904   1.399375   0.000000
     4  C    2.798694   2.432577   1.399375   0.000000
     5  C    2.414904   2.798694   2.414904   1.399375   0.000000
     6  C    1.399375   2.432577   2.798694   2.432577   1.399375
     7  Br   1.947476   2.906252   4.215471   4.746170   4.215471
     8  H    2.172627   1.098876   2.172627   3.428542   3.897570
     9  Br   4.215471   2.906252   1.947476   2.906252   4.215471
    10  H    3.897570   3.428542   2.172627   1.098876   2.172627
    11  Br   4.215471   4.746170   4.215471   2.906252   1.947476
    12  H    2.172627   3.428542   3.897570   3.428542   2.172627
                    6          7          8          9         10
     6  C    0.000000
     7  Br   2.906252   0.000000
     8  H    3.428542   3.011365   0.000000
     9  Br   4.746170   5.788031   3.011365   0.000000
    10  H    3.428542   5.845046   4.335886   3.011365   0.000000
    11  Br   2.906252   5.788031   5.845046   5.788031   3.011365
    12  H    1.098876   3.011365   4.335886   5.845046   4.335886
                   11         12
    11  Br   0.000000
    12  H    3.011365   0.000000
 Stoichiometry    C6H3Br3(1-,2)
 Framework group  D3H[3C2(HC.CBr)]
 Deg. of freedom     4
 Full point group                 D3H     NOp  12
 Largest Abelian subgroup         C2V     NOp   4
 Largest concise Abelian subgroup C2      NOp   2
                         Standard orientation:                         
 ---------------------------------------------------------------------
 Center     Atomic      Atomic             Coordinates (Angstroms)
 Number     Number       Type             X           Y           Z
 ---------------------------------------------------------------------
      1          6           0        0.000000    1.394245    0.000000
      2          6           0       -1.216288    0.702224    0.000000
      3          6           0       -1.207452   -0.697123    0.000000
      4          6           0        0.000000   -1.404449    0.000000
      5          6           0        1.207452   -0.697123    0.000000
      6          6           0        1.216288    0.702224    0.000000
      7         35           0        0.000000    3.341721    0.000000
      8          1           0       -2.167943    1.251662    0.000000
      9         35           0       -2.894015   -1.670861    0.000000
     10          1           0        0.000000   -2.503325    0.000000
     11         35           0        2.894015   -1.670861    0.000000
     12          1           0        2.167943    1.251662    0.000000
 ---------------------------------------------------------------------
 Rotational constants (GHZ):           0.3604952           0.3604952           0.1802476
 Standard basis: VSTO-6G (5D, 7F)
 There are    17 symmetry adapted cartesian basis functions of A1  symmetry.
 There are     3 symmetry adapted cartesian basis functions of A2  symmetry.
 There are    13 symmetry adapted cartesian basis functions of B1  symmetry.
 There are     6 symmetry adapted cartesian basis functions of B2  symmetry.
 There are    17 symmetry adapted basis functions of A1  symmetry.
 There are     3 symmetry adapted basis functions of A2  symmetry.
 There are    13 symmetry adapted basis functions of B1  symmetry.
 There are     6 symmetry adapted basis functions of B2  symmetry.
    39 basis functions,   234 primitive gaussians,    39 cartesian basis functions
    25 alpha electrons       24 beta electrons
       nuclear repulsion energy       241.1766709283 Hartrees.
 Integral buffers will be    131072 words long.
 Regular integral format.
 Two-electron integral symmetry is turned off.
 Do NDO integrals.
 One-electron integrals computed using PRISM.
 NBasis=    39 RedAO= T EigKep=  1.00D+00  NBF=    17     3    13     6
 NBsUse=    39 1.00D-06 EigRej= -1.00D+00 NBFU=    17     3    13     6
 Initial guess from the checkpoint file:  "calcs/am1/chks/BrBz_135_RA.chk"
 B after Tr=    -0.000000   -0.000000    0.000000
         Rot=    1.000000    0.000000    0.000000   -0.000000 Ang=   0.00 deg.
 Initial guess orbital symmetries:
 Alpha Orbitals:
       Occupied  (?A) (?B) (?B) (?A) (?B) (?B) (?B) (?B) (?A) (?A)
                 (?A) (A2") (?B) (?B) (?B) (?B) (E") (E") (?B)
                 (?B) (?A) (A2") (E") (E") (?A)
       Virtual   (?B) (?B) (E") (E") (A2") (?A) (?B) (?B) (?B)
                 (?B) (?B) (?B) (?A) (?A)
 Beta  Orbitals:
       Occupied  (?A) (?B) (?B) (?A) (?B) (?B) (?B) (?B) (?A) (?A)
                 (?A) (?B) (?B) (A2") (?B) (?B) (E") (E") (?B)
                 (?B) (?A) (A2") (E") (E")
       Virtual   (E") (E") (?A) (?B) (?B) (A2") (?A) (?B) (?B)
                 (?B) (?B) (?B) (?B) (?A) (?A)
 Initial guess <Sx>= 0.0000 <Sy>= 0.0000 <Sz>= 0.5000 <S**2>= 1.2100 S= 0.7083
 Keep J ints in memory in canonical form, NReq=863709.
 Overlap will be assumed to be unity.
 Requested convergence on RMS density matrix=1.00D-08 within  32 cycles.
 Requested convergence on MAX density matrix=1.00D-06.
 Requested convergence on             energy=1.00D-06.
 No special actions if energy rises.
 An orbital has undefined symmetry, so N**3 symmetry is turned off.
 SCF Done:  E(UAM1) =  0.423838482336E-01 A.U. after   13 cycles
            NFock= 12  Conv=0.20D-08     -V/T= 1.0004
 <Sx>= 0.0000 <Sy>= 0.0000 <Sz>= 0.5000 <S**2>= 1.2094 S= 0.7081
 <L.S>=  0.00000000000    
 Annihilation of the first spin contaminant:
 S**2 before annihilation     1.2094,   after     0.9326
 QCSCF skips out because SCF is already converged.
 Calling FoFJK, ICntrl=      2127 FMM=F ISym2X=1 I1Cent= 0 IOpClX= 1 NMat=1 NMatS=1 NMatT=0.
 ***** Axes restored to original set *****
 -------------------------------------------------------------------
 Center     Atomic                   Forces (Hartrees/Bohr)
 Number     Number              X              Y              Z
 -------------------------------------------------------------------
      1        6          -0.000000001   -0.000366248   -0.000000000
      2        6           0.000454843    0.000262603    0.000000000
      3        6          -0.000317180    0.000183124   -0.000000000
      4        6          -0.000000001   -0.000525207   -0.000000000
      5        6           0.000317180    0.000183124    0.000000000
      6        6          -0.000454843    0.000262604    0.000000000
      7       35          -0.000000000    0.000144415   -0.000000000
      8        1          -0.000136998   -0.000079096    0.000000000
      9       35           0.000125067   -0.000072208    0.000000000
     10        1          -0.000000000    0.000158192    0.000000000
     11       35          -0.000125067   -0.000072208   -0.000000000
     12        1           0.000136998   -0.000079096   -0.000000000
 -------------------------------------------------------------------
 Cartesian Forces:  Max     0.000525207 RMS     0.000194906

 GradGradGradGradGradGradGradGradGradGradGradGradGradGradGradGradGradGrad
 Berny optimization.
 Using GEDIIS/GDIIS optimizer.
 FormGI is forming the generalized inverse of G from B-inverse, IUseBI=4.
 Internal  Forces:  Max     0.000158192 RMS     0.000082906
 Search for a local minimum.
 Step number   4 out of a maximum of   64
 All quantities printed in internal units (Hartrees-Bohrs-Radians)
 Mixed Optimization -- En-DIIS/RFO-DIIS
 Swapping is turned off.
 Update second derivatives using D2CorX and points    1    2    3    4
 DE= -1.45D-05 DEPred=-1.17D-05 R= 1.24D+00
 TightC=F SS=  1.41D+00  RLast= 1.02D-02 DXNew= 8.4853D-01 3.0650D-02
 Trust test= 1.24D+00 RLast= 1.02D-02 DXMaxT set to 5.05D-01
 ITU=  1  1  1  0
     Eigenvalues ---    0.02221   0.02221   0.02221   0.02221   0.02221
     Eigenvalues ---    0.02221   0.02221   0.02221   0.02221   0.14142
     Eigenvalues ---    0.16000   0.16000   0.16000   0.18251   0.18251
     Eigenvalues ---    0.21476   0.23491   0.23491   0.25000   0.25000
     Eigenvalues ---    0.25000   0.34954   0.35994   0.35994   0.43130
     Eigenvalues ---    0.43130   0.47319   0.47319   0.47319   0.70863
 En-DIIS/RFO-DIIS/Sim-DIIS IScMMF=       -3 using points:     4    3
 RFO step:  Lambda=-2.10843468D-06.
 DidBck=F Rises=F RFO-DIIS coefs:    1.34595   -0.34595
 Iteration  1 RMS(Cart)=  0.00027710 RMS(Int)=  0.00000010
 Iteration  2 RMS(Cart)=  0.00000014 RMS(Int)=  0.00000000
 ClnCor:  largest displacement from symmetrization is 1.07D-09 for atom     7.
 Variable       Old X    -DE/DX   Delta X   Delta X   Delta X     New X
                                 (Linear)    (Quad)   (Total)
    R1        2.64444   0.00007  -0.00000   0.00007   0.00007   2.64450
    R2        2.64444   0.00007  -0.00000   0.00007   0.00007   2.64450
    R3        3.68020   0.00014   0.00063   0.00055   0.00118   3.68137
    R4        2.64444   0.00007  -0.00000   0.00007   0.00007   2.64450
    R5        2.07657  -0.00016  -0.00059   0.00001  -0.00058   2.07599
    R6        2.64444   0.00007  -0.00000   0.00007   0.00007   2.64450
    R7        3.68020   0.00014   0.00063   0.00055   0.00118   3.68137
    R8        2.64444   0.00007  -0.00000   0.00007   0.00007   2.64450
    R9        2.07657  -0.00016  -0.00059   0.00001  -0.00058   2.07599
   R10        2.64444   0.00007  -0.00000   0.00007   0.00007   2.64450
   R11        3.68020   0.00014   0.00063   0.00055   0.00118   3.68137
   R12        2.07657  -0.00016  -0.00059   0.00001  -0.00058   2.07599
    A1        2.10702   0.00015   0.00107  -0.00011   0.00096   2.10799
    A2        2.08808  -0.00007  -0.00053   0.00005  -0.00048   2.08760
    A3        2.08808  -0.00007  -0.00053   0.00005  -0.00048   2.08760
    A4        2.08177  -0.00015  -0.00107   0.00011  -0.00096   2.08080
    A5        2.10071   0.00007   0.00053  -0.00005   0.00048   2.10119
    A6        2.10071   0.00007   0.00053  -0.00005   0.00048   2.10119
    A7        2.10702   0.00015   0.00107  -0.00011   0.00096   2.10799
    A8        2.08808  -0.00007  -0.00053   0.00005  -0.00048   2.08760
    A9        2.08808  -0.00007  -0.00053   0.00005  -0.00048   2.08760
   A10        2.08177  -0.00015  -0.00107   0.00011  -0.00096   2.08080
   A11        2.10071   0.00007   0.00053  -0.00005   0.00048   2.10119
   A12        2.10071   0.00007   0.00053  -0.00005   0.00048   2.10119
   A13        2.10702   0.00015   0.00107  -0.00011   0.00096   2.10799
   A14        2.08808  -0.00007  -0.00053   0.00005  -0.00048   2.08760
   A15        2.08808  -0.00007  -0.00053   0.00005  -0.00048   2.08760
   A16        2.08177  -0.00015  -0.00107   0.00011  -0.00096   2.08080
   A17        2.10071   0.00007   0.00053  -0.00005   0.00048   2.10119
   A18        2.10071   0.00007   0.00053  -0.00005   0.00048   2.10119
    D1       -0.00000   0.00000   0.00000   0.00000   0.00000   0.00000
    D2        3.14159   0.00000   0.00000   0.00000   0.00000   3.14159
    D3        3.14159   0.00000   0.00000   0.00000   0.00000   3.14159
    D4       -0.00000   0.00000   0.00000   0.00000   0.00000   0.00000
    D5        0.00000  -0.00000   0.00000  -0.00000   0.00000   0.00000
    D6        3.14159  -0.00000   0.00000  -0.00000   0.00000   3.14159
    D7        3.14159   0.00000   0.00000   0.00000   0.00000   3.14159
    D8       -0.00000   0.00000   0.00000   0.00000   0.00000   0.00000
    D9        0.00000  -0.00000   0.00000  -0.00000  -0.00000   0.00000
   D10        3.14159  -0.00000   0.00000  -0.00000   0.00000   3.14159
   D11        3.14159  -0.00000   0.00000  -0.00000   0.00000   3.14159
   D12        0.00000  -0.00000   0.00000  -0.00000   0.00000   0.00000
   D13       -0.00000   0.00000   0.00000   0.00000   0.00000   0.00000
   D14        3.14159   0.00000   0.00000   0.00000   0.00000   3.14159
   D15        3.14159  -0.00000   0.00000  -0.00000   0.00000   3.14159
   D16       -0.00000   0.00000   0.00000   0.00000   0.00000   0.00000
   D17        0.00000   0.00000   0.00000  -0.00000   0.00000   0.00000
   D18        3.14159  -0.00000   0.00000  -0.00000   0.00000   3.14159
   D19        3.14159  -0.00000   0.00000  -0.00000   0.00000   3.14159
   D20        0.00000  -0.00000   0.00000  -0.00000   0.00000   0.00000
   D21       -0.00000  -0.00000   0.00000  -0.00000   0.00000   0.00000
   D22        3.14159  -0.00000   0.00000  -0.00000   0.00000   3.14159
   D23        3.14159  -0.00000   0.00000  -0.00000   0.00000   3.14159
   D24        0.00000   0.00000   0.00000  -0.00000  -0.00000   0.00000
         Item               Value     Threshold  Converged?
 Maximum Force            0.000158     0.000450     YES
 RMS     Force            0.000083     0.000300     YES
 Maximum Displacement     0.000793     0.001800     YES
 RMS     Displacement     0.000277     0.001200     YES
 Predicted change in Energy=-1.054229D-06
 Optimization completed.
    -- Stationary point found.
                           ----------------------------
                           !   Optimized Parameters   !
                           ! (Angstroms and Degrees)  !
 --------------------------                            --------------------------
 ! Name  Definition              Value          Derivative Info.                !
 --------------------------------------------------------------------------------
 ! R1    R(1,2)                  1.3994         -DE/DX =    0.0001              !
 ! R2    R(1,6)                  1.3994         -DE/DX =    0.0001              !
 ! R3    R(1,7)                  1.9475         -DE/DX =    0.0001              !
 ! R4    R(2,3)                  1.3994         -DE/DX =    0.0001              !
 ! R5    R(2,8)                  1.0989         -DE/DX =   -0.0002              !
 ! R6    R(3,4)                  1.3994         -DE/DX =    0.0001              !
 ! R7    R(3,9)                  1.9475         -DE/DX =    0.0001              !
 ! R8    R(4,5)                  1.3994         -DE/DX =    0.0001              !
 ! R9    R(4,10)                 1.0989         -DE/DX =   -0.0002              !
 ! R10   R(5,6)                  1.3994         -DE/DX =    0.0001              !
 ! R11   R(5,11)                 1.9475         -DE/DX =    0.0001              !
 ! R12   R(6,12)                 1.0989         -DE/DX =   -0.0002              !
 ! A1    A(2,1,6)              120.7236         -DE/DX =    0.0001              !
 ! A2    A(2,1,7)              119.6382         -DE/DX =   -0.0001              !
 ! A3    A(6,1,7)              119.6382         -DE/DX =   -0.0001              !
 ! A4    A(1,2,3)              119.2764         -DE/DX =   -0.0001              !
 ! A5    A(1,2,8)              120.3618         -DE/DX =    0.0001              !
 ! A6    A(3,2,8)              120.3618         -DE/DX =    0.0001              !
 ! A7    A(2,3,4)              120.7236         -DE/DX =    0.0001              !
 ! A8    A(2,3,9)              119.6382         -DE/DX =   -0.0001              !
 ! A9    A(4,3,9)              119.6382         -DE/DX =   -0.0001              !
 ! A10   A(3,4,5)              119.2764         -DE/DX =   -0.0001              !
 ! A11   A(3,4,10)             120.3618         -DE/DX =    0.0001              !
 ! A12   A(5,4,10)             120.3618         -DE/DX =    0.0001              !
 ! A13   A(4,5,6)              120.7236         -DE/DX =    0.0001              !
 ! A14   A(4,5,11)             119.6382         -DE/DX =   -0.0001              !
 ! A15   A(6,5,11)             119.6382         -DE/DX =   -0.0001              !
 ! A16   A(1,6,5)              119.2764         -DE/DX =   -0.0001              !
 ! A17   A(1,6,12)             120.3618         -DE/DX =    0.0001              !
 ! A18   A(5,6,12)             120.3618         -DE/DX =    0.0001              !
 ! D1    D(6,1,2,3)              0.0            -DE/DX =    0.0                 !
 ! D2    D(6,1,2,8)            180.0            -DE/DX =    0.0                 !
 ! D3    D(7,1,2,3)            180.0            -DE/DX =    0.0                 !
 ! D4    D(7,1,2,8)              0.0            -DE/DX =    0.0                 !
 ! D5    D(2,1,6,5)              0.0            -DE/DX =    0.0                 !
 ! D6    D(2,1,6,12)           180.0            -DE/DX =    0.0                 !
 ! D7    D(7,1,6,5)            180.0            -DE/DX =    0.0                 !
 ! D8    D(7,1,6,12)             0.0            -DE/DX =    0.0                 !
 ! D9    D(1,2,3,4)              0.0            -DE/DX =    0.0                 !
 ! D10   D(1,2,3,9)            180.0            -DE/DX =    0.0                 !
 ! D11   D(8,2,3,4)            180.0            -DE/DX =    0.0                 !
 ! D12   D(8,2,3,9)              0.0            -DE/DX =    0.0                 !
 ! D13   D(2,3,4,5)              0.0            -DE/DX =    0.0                 !
 ! D14   D(2,3,4,10)           180.0            -DE/DX =    0.0                 !
 ! D15   D(9,3,4,5)            180.0            -DE/DX =    0.0                 !
 ! D16   D(9,3,4,10)             0.0            -DE/DX =    0.0                 !
 ! D17   D(3,4,5,6)              0.0            -DE/DX =    0.0                 !
 ! D18   D(3,4,5,11)           180.0            -DE/DX =    0.0                 !
 ! D19   D(10,4,5,6)           180.0            -DE/DX =    0.0                 !
 ! D20   D(10,4,5,11)            0.0            -DE/DX =    0.0                 !
 ! D21   D(4,5,6,1)              0.0            -DE/DX =    0.0                 !
 ! D22   D(4,5,6,12)           180.0            -DE/DX =    0.0                 !
 ! D23   D(11,5,6,1)           180.0            -DE/DX =    0.0                 !
 ! D24   D(11,5,6,12)            0.0            -DE/DX =    0.0                 !
 --------------------------------------------------------------------------------
 GradGradGradGradGradGradGradGradGradGradGradGradGradGradGradGradGradGrad

                          Input orientation:                          
 ---------------------------------------------------------------------
 Center     Atomic      Atomic             Coordinates (Angstroms)
 Number     Number       Type             X           Y           Z
 ---------------------------------------------------------------------
      1          6           0       -0.000000    1.394245   -0.000000
      2          6           0        1.216288    0.702224   -0.000000
      3          6           0        1.207452   -0.697123   -0.000000
      4          6           0        0.000000   -1.404449   -0.000000
      5          6           0       -1.207452   -0.697123   -0.000000
      6          6           0       -1.216288    0.702224   -0.000000
      7         35           0       -0.000000    3.341721   -0.000000
      8          1           0        2.167943    1.251662   -0.000000
      9         35           0        2.894015   -1.670861   -0.000000
     10          1           0        0.000000   -2.503325   -0.000000
     11         35           0       -2.894015   -1.670861   -0.000000
     12          1           0       -2.167943    1.251662   -0.000000
 ---------------------------------------------------------------------
                    Distance matrix (angstroms):
                    1          2          3          4          5
     1  C    0.000000
     2  C    1.399375   0.000000
     3  C    2.414904   1.399375   0.000000
     4  C    2.798694   2.432577   1.399375   0.000000
     5  C    2.414904   2.798694   2.414904   1.399375   0.000000
     6  C    1.399375   2.432577   2.798694   2.432577   1.399375
     7  Br   1.947476   2.906252   4.215471   4.746170   4.215471
     8  H    2.172627   1.098876   2.172627   3.428542   3.897570
     9  Br   4.215471   2.906252   1.947476   2.906252   4.215471
    10  H    3.897570   3.428542   2.172627   1.098876   2.172627
    11  Br   4.215471   4.746170   4.215471   2.906252   1.947476
    12  H    2.172627   3.428542   3.897570   3.428542   2.172627
                    6          7          8          9         10
     6  C    0.000000
     7  Br   2.906252   0.000000
     8  H    3.428542   3.011365   0.000000
     9  Br   4.746170   5.788031   3.011365   0.000000
    10  H    3.428542   5.845046   4.335886   3.011365   0.000000
    11  Br   2.906252   5.788031   5.845046   5.788031   3.011365
    12  H    1.098876   3.011365   4.335886   5.845046   4.335886
                   11         12
    11  Br   0.000000
    12  H    3.011365   0.000000
 Stoichiometry    C6H3Br3(1-,2)
 Framework group  D3H[3C2(HC.CBr)]
 Deg. of freedom     4
 Full point group                 D3H     NOp  12
 Largest Abelian subgroup         C2V     NOp   4
 Largest concise Abelian subgroup C2      NOp   2
                         Standard orientation:                         
 ---------------------------------------------------------------------
 Center     Atomic      Atomic             Coordinates (Angstroms)
 Number     Number       Type             X           Y           Z
 ---------------------------------------------------------------------
      1          6           0        0.000000    1.394245    0.000000
      2          6           0       -1.216288    0.702224    0.000000
      3          6           0       -1.207452   -0.697123    0.000000
      4          6           0        0.000000   -1.404449    0.000000
      5          6           0        1.207452   -0.697123    0.000000
      6          6           0        1.216288    0.702224    0.000000
      7         35           0        0.000000    3.341721    0.000000
      8          1           0       -2.167943    1.251662    0.000000
      9         35           0       -2.894015   -1.670861    0.000000
     10          1           0        0.000000   -2.503325    0.000000
     11         35           0        2.894015   -1.670861    0.000000
     12          1           0        2.167943    1.251662    0.000000
 ---------------------------------------------------------------------
 Rotational constants (GHZ):           0.3604952           0.3604952           0.1802476

 **********************************************************************

            Population analysis using the SCF Density.

 **********************************************************************

 Orbital symmetries:
 Alpha Orbitals:
       Occupied  (?A) (?B) (?B) (?A) (?B) (?B) (?B) (?B) (?A) (?A)
                 (?A) (A2") (?B) (?B) (?B) (?B) (E") (E") (?B)
                 (?B) (?A) (A2") (E") (E") (?A)
       Virtual   (?B) (?B) (E") (E") (A2") (?A) (?B) (?B) (?B)
                 (?B) (?B) (?B) (?A) (?A)
 Beta  Orbitals:
       Occupied  (?A) (?B) (?B) (?A) (?B) (?B) (?B) (?B) (?A) (?A)
                 (?A) (?B) (?B) (A2") (?B) (?B) (E") (E") (?B)
                 (?B) (?A) (A2") (E") (E")
       Virtual   (E") (E") (?A) (?B) (?B) (A2") (?A) (?B) (?B)
                 (?B) (?B) (?B) (?B) (?A) (?A)
 Unable to determine electronic state:  an orbital has unidentified symmetry.
 Alpha  occ. eigenvalues --   -1.29416  -1.05350  -1.05350  -0.97064  -0.93076
 Alpha  occ. eigenvalues --   -0.93076  -0.69416  -0.69416  -0.50672  -0.44716
 Alpha  occ. eigenvalues --   -0.43114  -0.37944  -0.37881  -0.37881  -0.30258
 Alpha  occ. eigenvalues --   -0.30258  -0.29528  -0.29528  -0.25729  -0.25729
 Alpha  occ. eigenvalues --   -0.25071  -0.24884  -0.20522  -0.20522  -0.03489
 Alpha virt. eigenvalues --    0.11898   0.11898   0.15778   0.15778   0.23788
 Alpha virt. eigenvalues --    0.28735   0.29346   0.29346   0.30943   0.30943
 Alpha virt. eigenvalues --    0.33450   0.33450   0.34094   0.34681
  Beta  occ. eigenvalues --   -1.29181  -1.04196  -1.04196  -0.95397  -0.92564
  Beta  occ. eigenvalues --   -0.92564  -0.68234  -0.68234  -0.50822  -0.44494
  Beta  occ. eigenvalues --   -0.40707  -0.37516  -0.37516  -0.37399  -0.29290
  Beta  occ. eigenvalues --   -0.29290  -0.28258  -0.28258  -0.25087  -0.25087
  Beta  occ. eigenvalues --   -0.24451  -0.24228  -0.20936  -0.20936
  Beta virt. eigenvalues --    0.16291   0.16291   0.19297   0.21204   0.21204
  Beta virt. eigenvalues --    0.24132   0.27809   0.29113   0.29113   0.31121
  Beta virt. eigenvalues --    0.31121   0.33499   0.33499   0.34468   0.34882
          Condensed to atoms (all electrons):
               1          2          3          4          5          6
     1  C    4.129386   0.000000   0.000000   0.000000   0.000000   0.000000
     2  C    0.000000   4.131333   0.000000   0.000000   0.000000   0.000000
     3  C    0.000000   0.000000   4.129386   0.000000   0.000000   0.000000
     4  C    0.000000   0.000000   0.000000   4.131333   0.000000   0.000000
     5  C    0.000000   0.000000   0.000000   0.000000   4.129386   0.000000
     6  C    0.000000   0.000000   0.000000   0.000000   0.000000   4.131333
     7  Br   0.000000   0.000000   0.000000   0.000000   0.000000   0.000000
     8  H    0.000000   0.000000   0.000000   0.000000   0.000000   0.000000
     9  Br   0.000000   0.000000   0.000000   0.000000   0.000000   0.000000
    10  H    0.000000   0.000000   0.000000   0.000000   0.000000   0.000000
    11  Br   0.000000   0.000000   0.000000   0.000000   0.000000   0.000000
    12  H    0.000000   0.000000   0.000000   0.000000   0.000000   0.000000
               7          8          9         10         11         12
     1  C    0.000000   0.000000   0.000000   0.000000   0.000000   0.000000
     2  C    0.000000   0.000000   0.000000   0.000000   0.000000   0.000000
     3  C    0.000000   0.000000   0.000000   0.000000   0.000000   0.000000
     4  C    0.000000   0.000000   0.000000   0.000000   0.000000   0.000000
     5  C    0.000000   0.000000   0.000000   0.000000   0.000000   0.000000
     6  C    0.000000   0.000000   0.000000   0.000000   0.000000   0.000000
     7  Br   7.207073   0.000000   0.000000   0.000000   0.000000   0.000000
     8  H    0.000000   0.865541   0.000000   0.000000   0.000000   0.000000
     9  Br   0.000000   0.000000   7.207073   0.000000   0.000000   0.000000
    10  H    0.000000   0.000000   0.000000   0.865541   0.000000   0.000000
    11  Br   0.000000   0.000000   0.000000   0.000000   7.207073   0.000000
    12  H    0.000000   0.000000   0.000000   0.000000   0.000000   0.865541
          Atomic-Atomic Spin Densities.
               1          2          3          4          5          6
     1  C    0.552400   0.000000   0.000000   0.000000   0.000000   0.000000
     2  C    0.000000  -0.461743   0.000000   0.000000   0.000000   0.000000
     3  C    0.000000   0.000000   0.552400   0.000000   0.000000   0.000000
     4  C    0.000000   0.000000   0.000000  -0.461743   0.000000   0.000000
     5  C    0.000000   0.000000   0.000000   0.000000   0.552400   0.000000
     6  C    0.000000   0.000000   0.000000   0.000000   0.000000  -0.461743
     7  Br   0.000000   0.000000   0.000000   0.000000   0.000000   0.000000
     8  H    0.000000   0.000000   0.000000   0.000000   0.000000   0.000000
     9  Br   0.000000   0.000000   0.000000   0.000000   0.000000   0.000000
    10  H    0.000000   0.000000   0.000000   0.000000   0.000000   0.000000
    11  Br   0.000000   0.000000   0.000000   0.000000   0.000000   0.000000
    12  H    0.000000   0.000000   0.000000   0.000000   0.000000   0.000000
               7          8          9         10         11         12
     1  C    0.000000   0.000000   0.000000   0.000000   0.000000   0.000000
     2  C    0.000000   0.000000   0.000000   0.000000   0.000000   0.000000
     3  C    0.000000   0.000000   0.000000   0.000000   0.000000   0.000000
     4  C    0.000000   0.000000   0.000000   0.000000   0.000000   0.000000
     5  C    0.000000   0.000000   0.000000   0.000000   0.000000   0.000000
     6  C    0.000000   0.000000   0.000000   0.000000   0.000000   0.000000
     7  Br   0.217035   0.000000   0.000000   0.000000   0.000000   0.000000
     8  H    0.000000   0.025641   0.000000   0.000000   0.000000   0.000000
     9  Br   0.000000   0.000000   0.217035   0.000000   0.000000   0.000000
    10  H    0.000000   0.000000   0.000000   0.025641   0.000000   0.000000
    11  Br   0.000000   0.000000   0.000000   0.000000   0.217035   0.000000
    12  H    0.000000   0.000000   0.000000   0.000000   0.000000   0.025641
 Mulliken charges and spin densities:
               1          2
     1  C   -0.129386   0.552400
     2  C   -0.131333  -0.461743
     3  C   -0.129386   0.552400
     4  C   -0.131333  -0.461743
     5  C   -0.129386   0.552400
     6  C   -0.131333  -0.461743
     7  Br  -0.207073   0.217035
     8  H    0.134459   0.025641
     9  Br  -0.207073   0.217035
    10  H    0.134459   0.025641
    11  Br  -0.207073   0.217035
    12  H    0.134459   0.025641
 Sum of Mulliken charges =  -1.00000   1.00000
 Mulliken charges and spin densities with hydrogens summed into heavy atoms:
               1          2
     1  C   -0.129386   0.552400
     2  C    0.003126  -0.436102
     3  C   -0.129386   0.552400
     4  C    0.003126  -0.436102
     5  C   -0.129386   0.552400
     6  C    0.003126  -0.436102
     7  Br  -0.207073   0.217035
     9  Br  -0.207073   0.217035
    11  Br  -0.207073   0.217035
 Charge=             -1.0000 electrons
 Dipole moment (field-independent basis, Debye):
    X=              0.0000    Y=             -0.0000    Z=              0.0000  Tot=              0.0000
 N-N= 2.411766709283D+02 E-N=-3.443706220425D+02  KE=-1.125106575173D+02
 Symmetry A1   KE=-4.999961828518D+01
 Symmetry A2   KE=-8.483658856231D+00
 Symmetry B1   KE=-3.685241910888D+01
 Symmetry B2   KE=-1.717496126706D+01
 Symmetry A1   SP= 1.000000000000D+00
 Symmetry A2   SP= 6.279698983036D-16
 Symmetry B1   SP=-6.314393452556D-16
 Symmetry B2   SP= 3.710573515114D-15
 1\1\GINC-SH04-01N28\FOpt\UAM1\ZDO\C6H3Br3(1-,2)\JLAPIER\28-Sep-2026\0\
 \# Opt AM1 SCF=XQC\\BrBz_135_RA am1\\-1,2\C,-0.0000000006,1.3942452688
 ,0.\C,1.2162883266,0.7022243935,0.\C,1.2074518222,-0.6971226339,0.\C,0
 .0000000006,-1.4044487859,0.\C,-1.2074518216,-0.697122635,0.\C,-1.2162
 883272,0.7022243924,0.\Br,-0.0000000015,3.3417212139,0.\H,2.1679428459
 ,1.251662387,0.\Br,2.8940154644,-1.6708606056,0.\H,0.0000000011,-2.503
 324772,0.\Br,-2.8940154629,-1.6708606083,0.\H,-2.167942847,1.251662385
 ,0.\\Version=ES64L-G16RevB.01\HF=0.0423838\S2=1.209431\S2-1=0.\S2A=0.9
 32609\RMSD=1.980e-09\RMSF=1.949e-04\Dipole=0.,0.,0.\PG=D03H [3C2(H1C1.
 C1Br1)]\\@


 DESK:  A WASTEBASKET WITH DRAWERS.
 Job cpu time:       0 days  0 hours  0 minutes  1.7 seconds.
 Elapsed time:       0 days  0 hours  0 minutes  1.6 seconds.
 File lengths (MBytes):  RWF=      6 Int=      0 D2E=      0 Chk=      3 Scr=      1
 Normal termination of Gaussian 16 at Mon Sep 28 01:24:02 2026.
