 Entering Gaussian System, Link 0=g16
 Initial command:
 /share/software/user/restricted/gaussian/g16.B01/l1.exe "/lscratch/jlapier/g16_45667802_84/Gau-5941.inp" -scrdir="/lscratch/jlapier/g16_45667802_84/"
 Entering Link 1 = /share/software/user/restricted/gaussian/g16.B01/l1.exe PID=      5944.
  
 Copyright (c) 1988-2017, Gaussian, Inc.  All Rights Reserved.
  
 This is part of the Gaussian(R) 16 program.  It is based on
 the Gaussian(R) 09 system (copyright 2009, Gaussian, Inc.),
 the Gaussian(R) 03 system (copyright 2003, Gaussian, Inc.),
 the Gaussian(R) 98 system (copyright 1998, Gaussian, Inc.),
 the Gaussian(R) 94 system (copyright 1995, Gaussian, Inc.),
 the Gaussian 92(TM) system (copyright 1992, Gaussian, Inc.),
 the Gaussian 90(TM) system (copyright 1990, Gaussian, Inc.),
 the Gaussian 88(TM) system (copyright 1988, Gaussian, Inc.),
 the Gaussian 86(TM) system (copyright 1986, Carnegie Mellon
 University), and the Gaussian 82(TM) system (copyright 1983,
 Carnegie Mellon University). Gaussian is a federally registered
 trademark of Gaussian, Inc.
  
 This software contains proprietary and confidential information,
 including trade secrets, belonging to Gaussian, Inc.
  
 This software is provided under written license and may be
 used, copied, transmitted, or stored only in accord with that
 written license.
  
 The following legend is applicable only to US Government
 contracts under FAR:
  
                    RESTRICTED RIGHTS LEGEND
  
 Use, reproduction and disclosure by the US Government is
 subject to restrictions as set forth in subparagraphs (a)
 and (c) of the Commercial Computer Software - Restricted
 Rights clause in FAR 52.227-19.
  
 Gaussian, Inc.
 340 Quinnipiac St., Bldg. 40, Wallingford CT 06492
  
  
 ---------------------------------------------------------------
 Warning -- This program may not be used in any manner that
 competes with the business of Gaussian, Inc. or will provide
 assistance to any competitor of Gaussian, Inc.  The licensee
 of this program is prohibited from giving any competitor of
 Gaussian, Inc. access to this program.  By using this program,
 the user acknowledges that Gaussian, Inc. is engaged in the
 business of creating and licensing software in the field of
 computational chemistry and represents and warrants to the
 licensee that it is not a competitor of Gaussian, Inc. and that
 it will not use this program in any manner prohibited above.
 ---------------------------------------------------------------
  

 Cite this work as:
 Gaussian 16, Revision B.01,
 M. J. Frisch, G. W. Trucks, H. B. Schlegel, G. E. Scuseria, 
 M. A. Robb, J. R. Cheeseman, G. Scalmani, V. Barone, 
 G. A. Petersson, H. Nakatsuji, X. Li, M. Caricato, A. V. Marenich, 
 J. Bloino, B. G. Janesko, R. Gomperts, B. Mennucci, H. P. Hratchian, 
 J. V. Ortiz, A. F. Izmaylov, J. L. Sonnenberg, D. Williams-Young, 
 F. Ding, F. Lipparini, F. Egidi, J. Goings, B. Peng, A. Petrone, 
 T. Henderson, D. Ranasinghe, V. G. Zakrzewski, J. Gao, N. Rega, 
 G. Zheng, W. Liang, M. Hada, M. Ehara, K. Toyota, R. Fukuda, 
 J. Hasegawa, M. Ishida, T. Nakajima, Y. Honda, O. Kitao, H. Nakai, 
 T. Vreven, K. Throssell, J. A. Montgomery, Jr., J. E. Peralta, 
 F. Ogliaro, M. J. Bearpark, J. J. Heyd, E. N. Brothers, K. N. Kudin, 
 V. N. Staroverov, T. A. Keith, R. Kobayashi, J. Normand, 
 K. Raghavachari, A. P. Rendell, J. C. Burant, S. S. Iyengar, 
 J. Tomasi, M. Cossi, J. M. Millam, M. Klene, C. Adamo, R. Cammi, 
 J. W. Ochterski, R. L. Martin, K. Morokuma, O. Farkas, 
 J. B. Foresman, and D. J. Fox, Gaussian, Inc., Wallingford CT, 2016.
 
 ******************************************
 Gaussian 16:  ES64L-G16RevB.01 20-Dec-2017
                28-Sep-2026 
 ******************************************
 %nprocshared=1
 Will use up to    1 processors via shared memory.
 %mem=1GB
 %chk=calcs/am1/chks/BrBz_124.chk
 -----------------
 # Opt AM1 SCF=XQC
 -----------------
 1/18=20,19=15,26=1,38=1/1,3;
 2/9=110,12=2,17=6,18=5,40=1/2;
 3/5=2,25=1,41=700000,71=1/1,2,3;
 4/35=1/1;
 5/5=2,8=3,13=1,35=1,38=5/2,8;
 6/7=2,8=2,9=2,10=2,28=1/1;
 7//1,2,3,16;
 1/18=20,19=15,26=1/3(2);
 2/9=110/2;
 99//99;
 2/9=110/2;
 3/5=2,25=1,41=700000,71=1,135=20/1,2,3;
 4/5=5,16=3,35=1/1;
 5/5=2,8=3,13=1,35=1,38=5/2,8;
 7//1,2,3,16;
 1/18=20,19=15,26=1/3(-5);
 2/9=110/2;
 6/7=2,8=2,9=2,10=2,19=2,28=1/1;
 99/9=1/99;
 ------------
 BrBz_124 am1
 ------------
 Symbolic Z-matrix:
 Charge =  0 Multiplicity = 1
 C                     0.        1.39      0. 
 C                     1.20378   0.695     0. 
 C                     1.20378  -0.695     0. 
 C                     0.       -1.39      0. 
 C                    -1.20378  -0.695     0. 
 C                    -1.20378   0.695     0. 
 Br                    0.        3.29      0. 
 Br                    2.84922   1.645     0. 
 H                     2.13908  -1.235     0. 
 Br                    0.       -3.29      0. 
 H                    -2.13908  -1.235     0. 
 H                    -2.13908   1.235     0. 
 

 GradGradGradGradGradGradGradGradGradGradGradGradGradGradGradGradGradGrad
 Berny optimization.
 Initialization pass.
                           ----------------------------
                           !    Initial Parameters    !
                           ! (Angstroms and Degrees)  !
 --------------------------                            --------------------------
 ! Name  Definition              Value          Derivative Info.                !
 --------------------------------------------------------------------------------
 ! R1    R(1,2)                  1.39           estimate D2E/DX2                !
 ! R2    R(1,6)                  1.39           estimate D2E/DX2                !
 ! R3    R(1,7)                  1.9            estimate D2E/DX2                !
 ! R4    R(2,3)                  1.39           estimate D2E/DX2                !
 ! R5    R(2,8)                  1.9            estimate D2E/DX2                !
 ! R6    R(3,4)                  1.39           estimate D2E/DX2                !
 ! R7    R(3,9)                  1.08           estimate D2E/DX2                !
 ! R8    R(4,5)                  1.39           estimate D2E/DX2                !
 ! R9    R(4,10)                 1.9            estimate D2E/DX2                !
 ! R10   R(5,6)                  1.39           estimate D2E/DX2                !
 ! R11   R(5,11)                 1.08           estimate D2E/DX2                !
 ! R12   R(6,12)                 1.08           estimate D2E/DX2                !
 ! A1    A(2,1,6)              120.0            estimate D2E/DX2                !
 ! A2    A(2,1,7)              120.0            estimate D2E/DX2                !
 ! A3    A(6,1,7)              120.0            estimate D2E/DX2                !
 ! A4    A(1,2,3)              120.0            estimate D2E/DX2                !
 ! A5    A(1,2,8)              120.0            estimate D2E/DX2                !
 ! A6    A(3,2,8)              120.0            estimate D2E/DX2                !
 ! A7    A(2,3,4)              120.0            estimate D2E/DX2                !
 ! A8    A(2,3,9)              120.0            estimate D2E/DX2                !
 ! A9    A(4,3,9)              120.0            estimate D2E/DX2                !
 ! A10   A(3,4,5)              120.0            estimate D2E/DX2                !
 ! A11   A(3,4,10)             120.0            estimate D2E/DX2                !
 ! A12   A(5,4,10)             120.0            estimate D2E/DX2                !
 ! A13   A(4,5,6)              120.0            estimate D2E/DX2                !
 ! A14   A(4,5,11)             120.0            estimate D2E/DX2                !
 ! A15   A(6,5,11)             120.0            estimate D2E/DX2                !
 ! A16   A(1,6,5)              120.0            estimate D2E/DX2                !
 ! A17   A(1,6,12)             120.0            estimate D2E/DX2                !
 ! A18   A(5,6,12)             120.0            estimate D2E/DX2                !
 ! D1    D(6,1,2,3)              0.0            estimate D2E/DX2                !
 ! D2    D(6,1,2,8)            180.0            estimate D2E/DX2                !
 ! D3    D(7,1,2,3)            180.0            estimate D2E/DX2                !
 ! D4    D(7,1,2,8)              0.0            estimate D2E/DX2                !
 ! D5    D(2,1,6,5)              0.0            estimate D2E/DX2                !
 ! D6    D(2,1,6,12)           180.0            estimate D2E/DX2                !
 ! D7    D(7,1,6,5)            180.0            estimate D2E/DX2                !
 ! D8    D(7,1,6,12)             0.0            estimate D2E/DX2                !
 ! D9    D(1,2,3,4)              0.0            estimate D2E/DX2                !
 ! D10   D(1,2,3,9)            180.0            estimate D2E/DX2                !
 ! D11   D(8,2,3,4)            180.0            estimate D2E/DX2                !
 ! D12   D(8,2,3,9)              0.0            estimate D2E/DX2                !
 ! D13   D(2,3,4,5)              0.0            estimate D2E/DX2                !
 ! D14   D(2,3,4,10)           180.0            estimate D2E/DX2                !
 ! D15   D(9,3,4,5)            180.0            estimate D2E/DX2                !
 ! D16   D(9,3,4,10)             0.0            estimate D2E/DX2                !
 ! D17   D(3,4,5,6)              0.0            estimate D2E/DX2                !
 ! D18   D(3,4,5,11)           180.0            estimate D2E/DX2                !
 ! D19   D(10,4,5,6)           180.0            estimate D2E/DX2                !
 ! D20   D(10,4,5,11)            0.0            estimate D2E/DX2                !
 ! D21   D(4,5,6,1)              0.0            estimate D2E/DX2                !
 ! D22   D(4,5,6,12)           180.0            estimate D2E/DX2                !
 ! D23   D(11,5,6,1)           180.0            estimate D2E/DX2                !
 ! D24   D(11,5,6,12)            0.0            estimate D2E/DX2                !
 --------------------------------------------------------------------------------
 Trust Radius=3.00D-01 FncErr=1.00D-07 GrdErr=1.00D-07 EigMax=2.50D+02 EigMin=1.00D-04
 Number of steps in this run=     64 maximum allowed number of steps=    100.
 GradGradGradGradGradGradGradGradGradGradGradGradGradGradGradGradGradGrad

                          Input orientation:                          
 ---------------------------------------------------------------------
 Center     Atomic      Atomic             Coordinates (Angstroms)
 Number     Number       Type             X           Y           Z
 ---------------------------------------------------------------------
      1          6           0        0.000000    1.390000    0.000000
      2          6           0        1.203775    0.695000    0.000000
      3          6           0        1.203775   -0.695000    0.000000
      4          6           0        0.000000   -1.390000    0.000000
      5          6           0       -1.203775   -0.695000    0.000000
      6          6           0       -1.203775    0.695000    0.000000
      7         35           0        0.000000    3.290000    0.000000
      8         35           0        2.849224    1.645000    0.000000
      9          1           0        2.139083   -1.235000    0.000000
     10         35           0        0.000000   -3.290000    0.000000
     11          1           0       -2.139083   -1.235000    0.000000
     12          1           0       -2.139083    1.235000    0.000000
 ---------------------------------------------------------------------
                    Distance matrix (angstroms):
                    1          2          3          4          5
     1  C    0.000000
     2  C    1.390000   0.000000
     3  C    2.407551   1.390000   0.000000
     4  C    2.780000   2.407551   1.390000   0.000000
     5  C    2.407551   2.780000   2.407551   1.390000   0.000000
     6  C    1.390000   2.407551   2.780000   2.407551   1.390000
     7  Br   1.900000   2.860612   4.162848   4.680000   4.162848
     8  Br   2.860612   1.900000   2.860612   4.162848   4.680000
     9  H    3.386193   2.144691   1.080000   2.144691   3.386193
    10  Br   4.680000   4.162848   2.860612   1.900000   2.860612
    11  H    3.386193   3.860000   3.386193   2.144691   1.080000
    12  H    2.144691   3.386193   3.860000   3.386193   2.144691
                    6          7          8          9         10
     6  C    0.000000
     7  Br   2.860612   0.000000
     8  Br   4.162848   3.290000   0.000000
     9  H    3.860000   5.005127   2.966260   0.000000
    10  Br   4.162848   6.580000   5.698447   2.966260   0.000000
    11  H    2.144691   5.005127   5.760000   4.278166   2.966260
    12  H    1.080000   2.966260   5.005127   4.940000   5.005127
                   11         12
    11  H    0.000000
    12  H    2.470000   0.000000
 Stoichiometry    C6H3Br3
 Framework group  CS[SG(C6H3Br3)]
 Deg. of freedom    21
 Full point group                 CS      NOp   2
 Largest Abelian subgroup         CS      NOp   2
 Largest concise Abelian subgroup C1      NOp   1
                         Standard orientation:                         
 ---------------------------------------------------------------------
 Center     Atomic      Atomic             Coordinates (Angstroms)
 Number     Number       Type             X           Y           Z
 ---------------------------------------------------------------------
      1          6           0        0.677665   -0.998750    0.000000
      2          6           0       -0.526110   -0.303750    0.000000
      3          6           0       -0.526110    1.086250    0.000000
      4          6           0        0.677665    1.781250    0.000000
      5          6           0        1.881440    1.086250    0.000000
      6          6           0        1.881440   -0.303750    0.000000
      7         35           0        0.677665   -2.898750    0.000000
      8         35           0       -2.171559   -1.253750    0.000000
      9          1           0       -1.461418    1.626250    0.000000
     10         35           0        0.677665    3.681250    0.000000
     11          1           0        2.816748    1.626250    0.000000
     12          1           0        2.816748   -0.843750    0.000000
 ---------------------------------------------------------------------
 Rotational constants (GHZ):           0.9870835           0.2531796           0.2014971
 Standard basis: VSTO-6G (5D, 7F)
 There are    30 symmetry adapted cartesian basis functions of A'  symmetry.
 There are     9 symmetry adapted cartesian basis functions of A"  symmetry.
 There are    30 symmetry adapted basis functions of A'  symmetry.
 There are     9 symmetry adapted basis functions of A"  symmetry.
    39 basis functions,   234 primitive gaussians,    39 cartesian basis functions
    24 alpha electrons       24 beta electrons
       nuclear repulsion energy       245.0107533231 Hartrees.
 Integral buffers will be    131072 words long.
 Regular integral format.
 Two-electron integral symmetry is turned off.
 Do NDO integrals.
 One-electron integrals computed using PRISM.
 NBasis=    39 RedAO= T EigKep=  1.00D+00  NBF=    30     9
 NBsUse=    39 1.00D-06 EigRej= -1.00D+00 NBFU=    30     9
 Nonelectrostatic core Hamiltonian diagonalized for initial guess.
 Initial guess orbital symmetries:
       Occupied  (A') (A') (A') (A') (A') (A') (A') (A') (A') (A')
                 (A') (A') (A") (A') (A') (A") (A") (A') (A') (A")
                 (A") (A') (A") (A')
       Virtual   (A') (A") (A') (A") (A') (A') (A') (A") (A') (A')
                 (A') (A') (A') (A') (A')
 The electronic state of the initial guess is 1-A'.
 Keep J ints in memory in canonical form, NReq=863709.
 Overlap will be assumed to be unity.
 Requested convergence on RMS density matrix=1.00D-08 within  32 cycles.
 Requested convergence on MAX density matrix=1.00D-06.
 Requested convergence on             energy=1.00D-06.
 No special actions if energy rises.
 Fock symm off for IB=2 I1=    1 I=   31 J=   13 Cut=1.00D-07 Err=6.92D-03
 Fock matrix is not symmetric: symmetry in diagonalization turned off.
 SCF Done:  E(RAM1) =  0.632124270388E-01 A.U. after   15 cycles
            NFock= 14  Conv=0.74D-08     -V/T= 1.0006
 QCSCF skips out because SCF is already converged.

 **********************************************************************

            Population analysis using the SCF Density.

 **********************************************************************

 Orbital symmetries:
       Occupied  (A') (A') (A') (A') (A') (A') (A') (A') (A') (A')
                 (A') (A") (A') (A') (A') (A") (A') (A") (A') (A')
                 (A") (A') (A") (A")
       Virtual   (A") (A") (A') (A') (A') (A") (A') (A') (A') (A')
                 (A') (A') (A') (A') (A')
 The electronic state is 1-A'.
 Alpha  occ. eigenvalues --   -1.48545  -1.26503  -1.23027  -1.17849  -1.13431
 Alpha  occ. eigenvalues --   -1.08269  -0.88921  -0.85403  -0.67389  -0.62993
 Alpha  occ. eigenvalues --   -0.60724  -0.55790  -0.55290  -0.54722  -0.47949
 Alpha  occ. eigenvalues --   -0.47624  -0.46904  -0.44389  -0.44122  -0.42390
 Alpha  occ. eigenvalues --   -0.42142  -0.40008  -0.37652  -0.36279
 Alpha virt. eigenvalues --   -0.02448  -0.01461   0.00129   0.00475   0.02055
 Alpha virt. eigenvalues --    0.06893   0.11667   0.12798   0.13386   0.13815
 Alpha virt. eigenvalues --    0.15383   0.15575   0.16599   0.16866   0.18347
          Condensed to atoms (all electrons):
               1          2          3          4          5          6
     1  C    4.131090   0.000000   0.000000   0.000000   0.000000   0.000000
     2  C    0.000000   4.140377   0.000000   0.000000   0.000000   0.000000
     3  C    0.000000   0.000000   4.076657   0.000000   0.000000   0.000000
     4  C    0.000000   0.000000   0.000000   4.150215   0.000000   0.000000
     5  C    0.000000   0.000000   0.000000   0.000000   4.092153   0.000000
     6  C    0.000000   0.000000   0.000000   0.000000   0.000000   4.100272
     7  Br   0.000000   0.000000   0.000000   0.000000   0.000000   0.000000
     8  Br   0.000000   0.000000   0.000000   0.000000   0.000000   0.000000
     9  H    0.000000   0.000000   0.000000   0.000000   0.000000   0.000000
    10  Br   0.000000   0.000000   0.000000   0.000000   0.000000   0.000000
    11  H    0.000000   0.000000   0.000000   0.000000   0.000000   0.000000
    12  H    0.000000   0.000000   0.000000   0.000000   0.000000   0.000000
               7          8          9         10         11         12
     1  C    0.000000   0.000000   0.000000   0.000000   0.000000   0.000000
     2  C    0.000000   0.000000   0.000000   0.000000   0.000000   0.000000
     3  C    0.000000   0.000000   0.000000   0.000000   0.000000   0.000000
     4  C    0.000000   0.000000   0.000000   0.000000   0.000000   0.000000
     5  C    0.000000   0.000000   0.000000   0.000000   0.000000   0.000000
     6  C    0.000000   0.000000   0.000000   0.000000   0.000000   0.000000
     7  Br   6.922845   0.000000   0.000000   0.000000   0.000000   0.000000
     8  Br   0.000000   6.920283   0.000000   0.000000   0.000000   0.000000
     9  H    0.000000   0.000000   0.837643   0.000000   0.000000   0.000000
    10  Br   0.000000   0.000000   0.000000   6.937751   0.000000   0.000000
    11  H    0.000000   0.000000   0.000000   0.000000   0.846449   0.000000
    12  H    0.000000   0.000000   0.000000   0.000000   0.000000   0.844266
 Mulliken charges:
               1
     1  C   -0.131090
     2  C   -0.140377
     3  C   -0.076657
     4  C   -0.150215
     5  C   -0.092153
     6  C   -0.100272
     7  Br   0.077155
     8  Br   0.079717
     9  H    0.162357
    10  Br   0.062249
    11  H    0.153551
    12  H    0.155734
 Sum of Mulliken charges =  -0.00000
 Mulliken charges with hydrogens summed into heavy atoms:
               1
     1  C   -0.131090
     2  C   -0.140377
     3  C    0.085700
     4  C   -0.150215
     5  C    0.061399
     6  C    0.055462
     7  Br   0.077155
     8  Br   0.079717
    10  Br   0.062249
 Charge=             -0.0000 electrons
 Dipole moment (field-independent basis, Debye):
    X=              1.0178    Y=              0.4746    Z=              0.0000  Tot=              1.1230
 N-N= 2.450107533231D+02 E-N=-3.456684668228D+02  KE=-1.102603221080D+02
 Symmetry A'   KE=-8.457343737552D+01
 Symmetry A"   KE=-2.568688473249D+01
 Calling FoFJK, ICntrl=      2127 FMM=F ISym2X=1 I1Cent= 0 IOpClX= 0 NMat=1 NMatS=1 NMatT=0.
 ***** Axes restored to original set *****
 -------------------------------------------------------------------
 Center     Atomic                   Forces (Hartrees/Bohr)
 Number     Number              X              Y              Z
 -------------------------------------------------------------------
      1        6          -0.000543667    0.023242436    0.000000000
      2        6           0.019115137    0.010575764    0.000000000
      3        6          -0.002243141    0.000831177    0.000000000
      4        6           0.000066001   -0.017709427    0.000000000
      5        6           0.003447845    0.002305709    0.000000000
      6        6           0.005020840   -0.003426442   -0.000000000
      7       35          -0.001791868   -0.011524782   -0.000000000
      8       35          -0.009204700   -0.007652875    0.000000000
      9        1           0.014990249   -0.008223657   -0.000000000
     10       35           0.000227255    0.011356182   -0.000000000
     11        1          -0.014707647   -0.006833586   -0.000000000
     12        1          -0.014376304    0.007059502   -0.000000000
 -------------------------------------------------------------------
 Cartesian Forces:  Max     0.023242436 RMS     0.008517055

 GradGradGradGradGradGradGradGradGradGradGradGradGradGradGradGradGradGrad
 Berny optimization.
 FormGI is forming the generalized inverse of G from B-inverse, IUseBI=4.
 Internal  Forces:  Max     0.017093765 RMS     0.006084706
 Search for a local minimum.
 Step number   1 out of a maximum of   64
 All quantities printed in internal units (Hartrees-Bohrs-Radians)
 Mixed Optimization -- RFO/linear search
 Second derivative matrix not updated -- first step.
 ITU=  0
     Eigenvalues ---    0.02221   0.02221   0.02221   0.02221   0.02221
     Eigenvalues ---    0.02221   0.02221   0.02221   0.02221   0.16000
     Eigenvalues ---    0.16000   0.16000   0.18251   0.18251   0.18251
     Eigenvalues ---    0.22375   0.23492   0.24610   0.25000   0.25000
     Eigenvalues ---    0.25000   0.35994   0.35994   0.35994   0.42922
     Eigenvalues ---    0.43231   0.47319   0.47319   0.47319   0.47319
 RFO step:  Lambda=-6.12676584D-03 EMin= 2.22103665D-02
 Linear search not attempted -- first point.
 Iteration  1 RMS(Cart)=  0.02276386 RMS(Int)=  0.00009992
 Iteration  2 RMS(Cart)=  0.00018034 RMS(Int)=  0.00000270
 Iteration  3 RMS(Cart)=  0.00000002 RMS(Int)=  0.00000270
 ClnCor:  largest displacement from symmetrization is 6.70D-11 for atom    10.
 Variable       Old X    -DE/DX   Delta X   Delta X   Delta X     New X
                                 (Linear)    (Quad)   (Total)
    R1        2.62672   0.01427   0.00000   0.03001   0.03001   2.65673
    R2        2.62672   0.01085   0.00000   0.02261   0.02261   2.64933
    R3        3.59048  -0.01152   0.00000  -0.06110  -0.06110   3.52938
    R4        2.62672   0.01018   0.00000   0.02150   0.02150   2.64822
    R5        3.59048  -0.01180   0.00000  -0.06254  -0.06254   3.52794
    R6        2.62672   0.01037   0.00000   0.02166   0.02167   2.64838
    R7        2.04090   0.01709   0.00000   0.04670   0.04670   2.08760
    R8        2.62672   0.01102   0.00000   0.02275   0.02274   2.64946
    R9        3.59048  -0.01136   0.00000  -0.06020  -0.06020   3.53028
   R10        2.62672   0.00810   0.00000   0.01663   0.01662   2.64334
   R11        2.04090   0.01615   0.00000   0.04413   0.04413   2.08503
   R12        2.04090   0.01598   0.00000   0.04365   0.04365   2.08456
    A1        2.09440  -0.00042   0.00000  -0.00101  -0.00100   2.09339
    A2        2.09440   0.00343   0.00000   0.01306   0.01306   2.10746
    A3        2.09440  -0.00301   0.00000  -0.01206  -0.01206   2.08234
    A4        2.09440   0.00011   0.00000   0.00157   0.00158   2.09598
    A5        2.09440   0.00358   0.00000   0.01341   0.01340   2.10780
    A6        2.09440  -0.00369   0.00000  -0.01498  -0.01499   2.07941
    A7        2.09440  -0.00188   0.00000  -0.00750  -0.00749   2.08690
    A8        2.09440   0.00056   0.00000   0.00146   0.00145   2.09585
    A9        2.09440   0.00132   0.00000   0.00604   0.00604   2.10043
   A10        2.09440   0.00245   0.00000   0.00933   0.00933   2.10372
   A11        2.09440  -0.00163   0.00000  -0.00626  -0.00626   2.08814
   A12        2.09440  -0.00082   0.00000  -0.00307  -0.00307   2.09132
   A13        2.09440  -0.00077   0.00000  -0.00429  -0.00430   2.09010
   A14        2.09440   0.00185   0.00000   0.01096   0.01097   2.10536
   A15        2.09440  -0.00108   0.00000  -0.00668  -0.00667   2.08772
   A16        2.09440   0.00052   0.00000   0.00189   0.00188   2.09628
   A17        2.09440   0.00084   0.00000   0.00565   0.00566   2.10005
   A18        2.09440  -0.00135   0.00000  -0.00755  -0.00754   2.08685
    D1        0.00000  -0.00000   0.00000  -0.00000   0.00000   0.00000
    D2        3.14159  -0.00000   0.00000  -0.00000   0.00000   3.14159
    D3        3.14159   0.00000   0.00000   0.00000   0.00000   3.14159
    D4        0.00000  -0.00000   0.00000   0.00000   0.00000   0.00000
    D5        0.00000   0.00000   0.00000   0.00000   0.00000   0.00000
    D6        3.14159   0.00000   0.00000   0.00000   0.00000   3.14159
    D7        3.14159  -0.00000   0.00000  -0.00000   0.00000   3.14159
    D8        0.00000  -0.00000   0.00000  -0.00000   0.00000   0.00000
    D9        0.00000  -0.00000   0.00000  -0.00000   0.00000   0.00000
   D10        3.14159  -0.00000   0.00000  -0.00000   0.00000   3.14159
   D11        3.14159   0.00000   0.00000   0.00000   0.00000   3.14159
   D12        0.00000  -0.00000   0.00000  -0.00000   0.00000   0.00000
   D13        0.00000   0.00000   0.00000   0.00000   0.00000   0.00000
   D14        3.14159  -0.00000   0.00000  -0.00000   0.00000   3.14159
   D15        3.14159   0.00000   0.00000   0.00000   0.00000   3.14159
   D16        0.00000   0.00000   0.00000   0.00000   0.00000   0.00000
   D17        0.00000   0.00000   0.00000   0.00000   0.00000   0.00000
   D18        3.14159  -0.00000   0.00000  -0.00000   0.00000   3.14159
   D19        3.14159   0.00000   0.00000   0.00000   0.00000   3.14159
   D20        0.00000   0.00000   0.00000   0.00000   0.00000   0.00000
   D21        0.00000  -0.00000   0.00000  -0.00000   0.00000   0.00000
   D22        3.14159  -0.00000   0.00000  -0.00000   0.00000   3.14159
   D23        3.14159  -0.00000   0.00000  -0.00000   0.00000   3.14159
   D24        0.00000  -0.00000   0.00000  -0.00000   0.00000   0.00000
         Item               Value     Threshold  Converged?
 Maximum Force            0.017094     0.000450     NO 
 RMS     Force            0.006085     0.000300     NO 
 Maximum Displacement     0.077996     0.001800     NO 
 RMS     Displacement     0.022728     0.001200     NO 
 Predicted change in Energy=-3.129753D-03
 GradGradGradGradGradGradGradGradGradGradGradGradGradGradGradGradGradGrad

                          Input orientation:                          
 ---------------------------------------------------------------------
 Center     Atomic      Atomic             Coordinates (Angstroms)
 Number     Number       Type             X           Y           Z
 ---------------------------------------------------------------------
      1          6           0        0.003558    1.405585    0.000000
      2          6           0        1.221160    0.702768    0.000000
      3          6           0        1.223522   -0.698608    0.000000
      4          6           0        0.005768   -1.392279    0.000000
      5          6           0       -1.210890   -0.695538    0.000000
      6          6           0       -1.209803    0.703258    0.000000
      7         35           0       -0.021027    3.273093    0.000000
      8         35           0        2.850219    1.614632    0.000000
      9          1           0        2.180356   -1.250742    0.000000
     10         35           0        0.006605   -3.260421    0.000000
     11          1           0       -2.170503   -1.240081    0.000000
     12          1           0       -2.168825    1.248333    0.000000
 ---------------------------------------------------------------------
                    Distance matrix (angstroms):
                    1          2          3          4          5
     1  C    0.000000
     2  C    1.405883   0.000000
     3  C    2.432270   1.401378   0.000000
     4  C    2.797865   2.422066   1.401465   0.000000
     5  C    2.426850   2.805375   2.434413   1.402035   0.000000
     6  C    1.401966   2.430964   2.808255   2.422579   1.398796
     7  Br   1.867670   2.854750   4.162128   4.665449   4.143163
     8  Br   2.854326   1.866903   2.827937   4.139133   4.672204
     9  H    3.434315   2.176295   1.104710   2.179190   3.436393
    10  Br   4.666007   4.145120   2.836155   1.868143   2.839176
    11  H    3.424338   3.908714   3.436946   2.181586   1.103352
    12  H    2.178068   3.433605   3.911342   3.420773   2.167089
                    6          7          8          9         10
     6  C    0.000000
     7  Br   2.831473   0.000000
     8  Br   4.161056   3.315803   0.000000
     9  H    3.912965   5.031021   2.942633   0.000000
    10  Br   4.146131   6.533573   5.643783   2.960406   0.000000
    11  H    2.167836   4.998898   5.775555   4.350872   2.970113
    12  H    1.103100   2.951727   5.032393   5.016050   5.006132
                   11         12
    11  H    0.000000
    12  H    2.488415   0.000000
 Stoichiometry    C6H3Br3
 Framework group  CS[SG(C6H3Br3)]
 Deg. of freedom    21
 Full point group                 CS      NOp   2
 Largest Abelian subgroup         CS      NOp   2
 Largest concise Abelian subgroup C1      NOp   1
                         Standard orientation:                         
 ---------------------------------------------------------------------
 Center     Atomic      Atomic             Coordinates (Angstroms)
 Number     Number       Type             X           Y           Z
 ---------------------------------------------------------------------
      1          6           0        1.217335    0.073444    0.000000
      2          6           0        0.000000   -0.629836    0.000000
      3          6           0       -1.214931    0.068594   -0.000000
      4          6           0       -1.207037    1.470037   -0.000000
      5          6           0        0.004564    2.175535   -0.000000
      6          6           0        1.215536    1.475409    0.000000
      7         35           0        2.847097   -0.838732    0.000000
      8         35           0       -0.024504   -2.496578    0.000000
      9          1           0       -2.171413   -0.484150   -0.000000
     10         35           0       -2.825478    2.403099   -0.000000
     11          1           0        0.012588    3.278858   -0.000000
     12          1           0        2.166998    2.033576    0.000000
 ---------------------------------------------------------------------
 Rotational constants (GHZ):           0.9738389           0.2575053           0.2036544
 Standard basis: VSTO-6G (5D, 7F)
 There are    30 symmetry adapted cartesian basis functions of A'  symmetry.
 There are     9 symmetry adapted cartesian basis functions of A"  symmetry.
 There are    30 symmetry adapted basis functions of A'  symmetry.
 There are     9 symmetry adapted basis functions of A"  symmetry.
    39 basis functions,   234 primitive gaussians,    39 cartesian basis functions
    24 alpha electrons       24 beta electrons
       nuclear repulsion energy       245.0282251609 Hartrees.
 Integral buffers will be    131072 words long.
 Regular integral format.
 Two-electron integral symmetry is turned off.
 Do NDO integrals.
 One-electron integrals computed using PRISM.
 NBasis=    39 RedAO= T EigKep=  1.00D+00  NBF=    30     9
 NBsUse=    39 1.00D-06 EigRej= -1.00D+00 NBFU=    30     9
 Initial guess from the checkpoint file:  "calcs/am1/chks/BrBz_124.chk"
 B after Tr=    -0.000000   -0.000000   -0.000000
         Rot=    0.865915   -0.000000   -0.000000   -0.500191 Ang= -60.03 deg.
 Initial guess orbital symmetries:
       Occupied  (A') (A') (A') (A') (A') (A') (A') (A') (A') (A')
                 (A') (A") (A') (A') (A') (A") (A') (A") (A') (A')
                 (A") (A') (A") (A")
       Virtual   (A") (A") (A') (A') (A') (A") (A') (A') (A') (A')
                 (A') (A') (A') (A') (A')
 Keep J ints in memory in canonical form, NReq=863709.
 Overlap will be assumed to be unity.
 Requested convergence on RMS density matrix=1.00D-08 within  32 cycles.
 Requested convergence on MAX density matrix=1.00D-06.
 Requested convergence on             energy=1.00D-06.
 No special actions if energy rises.
 Fock symm off for IB=2 I1=    1 I=   31 J=   13 Cut=1.00D-07 Err=6.32D-04
 Fock matrix is not symmetric: symmetry in diagonalization turned off.
 SCF Done:  E(RAM1) =  0.607917448720E-01 A.U. after   13 cycles
            NFock= 12  Conv=0.31D-08     -V/T= 1.0006
 QCSCF skips out because SCF is already converged.
 Calling FoFJK, ICntrl=      2127 FMM=F ISym2X=1 I1Cent= 0 IOpClX= 0 NMat=1 NMatS=1 NMatT=0.
 ***** Axes restored to original set *****
 -------------------------------------------------------------------
 Center     Atomic                   Forces (Hartrees/Bohr)
 Number     Number              X              Y              Z
 -------------------------------------------------------------------
      1        6          -0.000749230   -0.004564029   -0.000000000
      2        6          -0.004149346   -0.002413693    0.000000000
      3        6          -0.007050737    0.003141143    0.000000000
      4        6          -0.000322193    0.004408882    0.000000000
      5        6           0.005366147    0.004923237   -0.000000000
      6        6           0.005407352   -0.005412009    0.000000000
      7       35          -0.000024000    0.000239333   -0.000000000
      8       35           0.000571344    0.000287854    0.000000000
      9        1          -0.001437197    0.000772324   -0.000000000
     10       35           0.000018836   -0.001492616   -0.000000000
     11        1           0.001314757    0.000855556   -0.000000000
     12        1           0.001054266   -0.000745981   -0.000000000
 -------------------------------------------------------------------
 Cartesian Forces:  Max     0.007050737 RMS     0.002606645

 GradGradGradGradGradGradGradGradGradGradGradGradGradGradGradGradGradGrad
 Berny optimization.
 Using GEDIIS/GDIIS optimizer.
 FormGI is forming the generalized inverse of G from B-inverse, IUseBI=4.
 Internal  Forces:  Max     0.007731417 RMS     0.002280064
 Search for a local minimum.
 Step number   2 out of a maximum of   64
 All quantities printed in internal units (Hartrees-Bohrs-Radians)
 Mixed Optimization -- RFO/linear search
 Update second derivatives using D2CorX and points    1    2
 DE= -2.42D-03 DEPred=-3.13D-03 R= 7.73D-01
 TightC=F SS=  1.41D+00  RLast= 1.47D-01 DXNew= 5.0454D-01 4.4161D-01
 Trust test= 7.73D-01 RLast= 1.47D-01 DXMaxT set to 4.42D-01
 ITU=  1  0
 Use linear search instead of GDIIS.
     Eigenvalues ---    0.02221   0.02221   0.02221   0.02221   0.02221
     Eigenvalues ---    0.02221   0.02221   0.02221   0.02221   0.15946
     Eigenvalues ---    0.16000   0.16000   0.17554   0.18251   0.18319
     Eigenvalues ---    0.22363   0.23819   0.24564   0.24984   0.25000
     Eigenvalues ---    0.25001   0.34909   0.35994   0.35997   0.42958
     Eigenvalues ---    0.43217   0.47283   0.47319   0.47319   0.61892
 RFO step:  Lambda=-2.74921040D-04 EMin= 2.22103665D-02
 Quartic linear search produced a step of -0.17129.
 Iteration  1 RMS(Cart)=  0.00614382 RMS(Int)=  0.00001090
 Iteration  2 RMS(Cart)=  0.00001484 RMS(Int)=  0.00000122
 Iteration  3 RMS(Cart)=  0.00000000 RMS(Int)=  0.00000122
 ClnCor:  largest displacement from symmetrization is 3.86D-13 for atom    10.
 Variable       Old X    -DE/DX   Delta X   Delta X   Delta X     New X
                                 (Linear)    (Quad)   (Total)
    R1        2.65673  -0.00598  -0.00514  -0.00382  -0.00896   2.64777
    R2        2.64933  -0.00606  -0.00387  -0.00573  -0.00960   2.63973
    R3        3.52938   0.00024   0.01046  -0.01215  -0.00169   3.52770
    R4        2.64822  -0.00488  -0.00368  -0.00373  -0.00741   2.64081
    R5        3.52794   0.00064   0.01071  -0.01065   0.00006   3.52800
    R6        2.64838  -0.00634  -0.00371  -0.00642  -0.01013   2.63826
    R7        2.08760  -0.00163  -0.00800   0.00634  -0.00166   2.08594
    R8        2.64946  -0.00709  -0.00390  -0.00766  -0.01156   2.63790
    R9        3.53028   0.00149   0.01031  -0.00628   0.00403   3.53431
   R10        2.64334  -0.00773  -0.00285  -0.01011  -0.01296   2.63038
   R11        2.08503  -0.00157  -0.00756   0.00593  -0.00163   2.08341
   R12        2.08456  -0.00129  -0.00748   0.00648  -0.00100   2.08356
    A1        2.09339  -0.00148   0.00017  -0.00512  -0.00495   2.08844
    A2        2.10746   0.00078  -0.00224   0.00540   0.00316   2.11062
    A3        2.08234   0.00070   0.00207  -0.00028   0.00179   2.08413
    A4        2.09598  -0.00098  -0.00027  -0.00258  -0.00285   2.09313
    A5        2.10780   0.00054  -0.00230   0.00452   0.00223   2.11003
    A6        2.07941   0.00044   0.00257  -0.00195   0.00062   2.08003
    A7        2.08690   0.00214   0.00128   0.00645   0.00773   2.09463
    A8        2.09585  -0.00102  -0.00025  -0.00346  -0.00370   2.09214
    A9        2.10043  -0.00112  -0.00103  -0.00300  -0.00403   2.09641
   A10        2.10372  -0.00227  -0.00160  -0.00612  -0.00772   2.09600
   A11        2.08814   0.00110   0.00107   0.00261   0.00368   2.09182
   A12        2.09132   0.00117   0.00053   0.00351   0.00404   2.09536
   A13        2.09010   0.00097   0.00074   0.00163   0.00237   2.09247
   A14        2.10536  -0.00039  -0.00188   0.00161  -0.00027   2.10509
   A15        2.08772  -0.00059   0.00114  -0.00324  -0.00210   2.08562
   A16        2.09628   0.00162  -0.00032   0.00574   0.00542   2.10170
   A17        2.10005  -0.00068  -0.00097  -0.00075  -0.00172   2.09833
   A18        2.08685  -0.00094   0.00129  -0.00499  -0.00370   2.08315
    D1       -0.00000   0.00000   0.00000   0.00000   0.00000   0.00000
    D2        3.14159  -0.00000   0.00000  -0.00000   0.00000   3.14159
    D3        3.14159   0.00000   0.00000   0.00000   0.00000   3.14159
    D4        0.00000  -0.00000   0.00000  -0.00000   0.00000   0.00000
    D5        0.00000  -0.00000   0.00000  -0.00000  -0.00000   0.00000
    D6        3.14159   0.00000   0.00000   0.00000   0.00000   3.14159
    D7        3.14159  -0.00000   0.00000  -0.00000   0.00000   3.14159
    D8       -0.00000  -0.00000   0.00000  -0.00000   0.00000   0.00000
    D9       -0.00000  -0.00000   0.00000  -0.00000   0.00000   0.00000
   D10        3.14159  -0.00000   0.00000  -0.00000   0.00000   3.14159
   D11        3.14159   0.00000   0.00000   0.00000   0.00000   3.14159
   D12        0.00000  -0.00000   0.00000  -0.00000  -0.00000   0.00000
   D13        0.00000   0.00000   0.00000   0.00000   0.00000   0.00000
   D14        3.14159  -0.00000   0.00000  -0.00000   0.00000   3.14159
   D15        3.14159   0.00000   0.00000   0.00000   0.00000   3.14159
   D16       -0.00000   0.00000   0.00000   0.00000   0.00000   0.00000
   D17       -0.00000  -0.00000   0.00000  -0.00000   0.00000   0.00000
   D18        3.14159  -0.00000   0.00000  -0.00000   0.00000   3.14159
   D19        3.14159   0.00000   0.00000   0.00000   0.00000   3.14159
   D20        0.00000   0.00000   0.00000   0.00000   0.00000   0.00000
   D21       -0.00000  -0.00000   0.00000  -0.00000   0.00000   0.00000
   D22        3.14159  -0.00000   0.00000  -0.00000   0.00000   3.14159
   D23        3.14159   0.00000   0.00000   0.00000   0.00000   3.14159
   D24        0.00000  -0.00000   0.00000  -0.00000  -0.00000   0.00000
         Item               Value     Threshold  Converged?
 Maximum Force            0.007731     0.000450     NO 
 RMS     Force            0.002280     0.000300     NO 
 Maximum Displacement     0.017673     0.001800     NO 
 RMS     Displacement     0.006146     0.001200     NO 
 Predicted change in Energy=-2.443748D-04
 GradGradGradGradGradGradGradGradGradGradGradGradGradGradGradGradGradGrad

                          Input orientation:                          
 ---------------------------------------------------------------------
 Center     Atomic      Atomic             Coordinates (Angstroms)
 Number     Number       Type             X           Y           Z
 ---------------------------------------------------------------------
      1          6           0        0.004267    1.404167   -0.000000
      2          6           0        1.217321    0.702956   -0.000000
      3          6           0        1.214808   -0.694498    0.000000
      4          6           0        0.004660   -1.390666    0.000000
      5          6           0       -1.204277   -0.692768   -0.000000
      6          6           0       -1.201664    0.699169   -0.000000
      7         35           0       -0.025033    3.270714   -0.000000
      8         35           0        2.849007    1.610174    0.000000
      9          1           0        2.171004   -1.245981    0.000000
     10         35           0        0.006562   -3.260942    0.000000
     11          1           0       -2.164877   -1.233816   -0.000000
     12          1           0       -2.161637    1.241490   -0.000000
 ---------------------------------------------------------------------
                    Distance matrix (angstroms):
                    1          2          3          4          5
     1  C    0.000000
     2  C    1.401140   0.000000
     3  C    2.422768   1.397456   0.000000
     4  C    2.794833   2.419462   1.396105   0.000000
     5  C    2.420271   2.795027   2.419086   1.395919   0.000000
     6  C    1.396887   2.418987   2.789560   2.413012   1.391939
     7  Br   1.866777   2.852512   4.154529   4.661474   4.135191
     8  Br   2.852189   1.866935   2.825264   4.134652   4.661829
     9  H    3.423161   2.169762   1.103831   2.171171   3.420317
    10  Br   4.665110   4.144686   2.836634   1.870278   2.839305
    11  H    3.415281   3.897480   3.422447   2.175200   1.102491
    12  H    2.172005   3.421604   3.892099   3.408971   2.158215
                    6          7          8          9         10
     6  C    0.000000
     7  Br   2.827951   0.000000
     8  Br   4.151851   3.319262   0.000000
     9  H    3.893392   5.022262   2.935525   0.000000
    10  Br   4.140325   6.531733   5.639793   2.957174   0.000000
    11  H    2.159679   4.986956   5.764314   4.335899   2.970587
    12  H    1.102570   2.946664   5.024190   4.995928   4.997297
                   11         12
    11  H    0.000000
    12  H    2.475308   0.000000
 Stoichiometry    C6H3Br3
 Framework group  CS[SG(C6H3Br3)]
 Deg. of freedom    21
 Full point group                 CS      NOp   2
 Largest Abelian subgroup         CS      NOp   2
 Largest concise Abelian subgroup C1      NOp   1
                         Standard orientation:                         
 ---------------------------------------------------------------------
 Center     Atomic      Atomic             Coordinates (Angstroms)
 Number     Number       Type             X           Y           Z
 ---------------------------------------------------------------------
      1          6           0        1.216890    0.066086   -0.000000
      2          6           0        0.000000   -0.628446    0.000000
      3          6           0       -1.205850    0.077820    0.000000
      4          6           0       -1.197474    1.473900    0.000000
      5          6           0        0.014480    2.166544   -0.000000
      6          6           0        1.215513    1.462972   -0.000000
      7         35           0        2.843969   -0.849048   -0.000000
      8         35           0       -0.038460   -2.494984    0.000000
      9          1           0       -2.163990   -0.470279    0.000000
     10         35           0       -2.813970    2.414579    0.000000
     11          1           0        0.031115    3.268910   -0.000000
     12          1           0        2.167642    2.018950   -0.000000
 ---------------------------------------------------------------------
 Rotational constants (GHZ):           0.9745561           0.2578295           0.2038886
 Standard basis: VSTO-6G (5D, 7F)
 There are    30 symmetry adapted cartesian basis functions of A'  symmetry.
 There are     9 symmetry adapted cartesian basis functions of A"  symmetry.
 There are    30 symmetry adapted basis functions of A'  symmetry.
 There are     9 symmetry adapted basis functions of A"  symmetry.
    39 basis functions,   234 primitive gaussians,    39 cartesian basis functions
    24 alpha electrons       24 beta electrons
       nuclear repulsion energy       245.2923511011 Hartrees.
 Integral buffers will be    131072 words long.
 Regular integral format.
 Two-electron integral symmetry is turned off.
 Do NDO integrals.
 One-electron integrals computed using PRISM.
 NBasis=    39 RedAO= T EigKep=  1.00D+00  NBF=    30     9
 NBsUse=    39 1.00D-06 EigRej= -1.00D+00 NBFU=    30     9
 Initial guess from the checkpoint file:  "calcs/am1/chks/BrBz_124.chk"
 B after Tr=    -0.000000    0.000000   -0.000000
         Rot=    0.999998    0.000000   -0.000000    0.002233 Ang=   0.26 deg.
 Initial guess orbital symmetries:
       Occupied  (A') (A') (A') (A') (A') (A') (A') (A') (A') (A')
                 (A') (A") (A') (A') (A') (A") (A') (A") (A') (A')
                 (A") (A') (A") (A")
       Virtual   (A") (A") (A') (A') (A') (A") (A') (A') (A') (A')
                 (A') (A') (A') (A') (A')
 Keep J ints in memory in canonical form, NReq=863709.
 Overlap will be assumed to be unity.
 Requested convergence on RMS density matrix=1.00D-08 within  32 cycles.
 Requested convergence on MAX density matrix=1.00D-06.
 Requested convergence on             energy=1.00D-06.
 No special actions if energy rises.
 Fock symm off for IB=2 I1=    1 I=   31 J=   13 Cut=1.00D-07 Err=2.91D-04
 Fock matrix is not symmetric: symmetry in diagonalization turned off.
 SCF Done:  E(RAM1) =  0.605797301419E-01 A.U. after   12 cycles
            NFock= 11  Conv=0.12D-08     -V/T= 1.0005
 QCSCF skips out because SCF is already converged.
 Calling FoFJK, ICntrl=      2127 FMM=F ISym2X=1 I1Cent= 0 IOpClX= 0 NMat=1 NMatS=1 NMatT=0.
 ***** Axes restored to original set *****
 -------------------------------------------------------------------
 Center     Atomic                   Forces (Hartrees/Bohr)
 Number     Number              X              Y              Z
 -------------------------------------------------------------------
      1        6           0.000134947    0.001174610    0.000000000
      2        6           0.000749891    0.000013512    0.000000000
      3        6           0.000521152   -0.000202016    0.000000000
      4        6           0.000752436   -0.002080155    0.000000000
      5        6          -0.001859571   -0.000196596   -0.000000000
      6        6          -0.001357758    0.000301825    0.000000000
      7       35           0.000074595    0.000872883   -0.000000000
      8       35           0.000789204    0.000490274   -0.000000000
      9        1          -0.000262312    0.000207501   -0.000000000
     10       35           0.000037241   -0.000674919   -0.000000000
     11        1           0.000254288    0.000195330   -0.000000000
     12        1           0.000165885   -0.000102248   -0.000000000
 -------------------------------------------------------------------
 Cartesian Forces:  Max     0.002080155 RMS     0.000644152

 GradGradGradGradGradGradGradGradGradGradGradGradGradGradGradGradGradGrad
 Berny optimization.
 Using GEDIIS/GDIIS optimizer.
 FormGI is forming the generalized inverse of G from B-inverse, IUseBI=4.
 Internal  Forces:  Max     0.002032466 RMS     0.000587891
 Search for a local minimum.
 Step number   3 out of a maximum of   64
 All quantities printed in internal units (Hartrees-Bohrs-Radians)
 Mixed Optimization -- En-DIIS/RFO-DIIS
 Update second derivatives using D2CorX and points    1    2    3
 DE= -2.12D-04 DEPred=-2.44D-04 R= 8.68D-01
 TightC=F SS=  1.41D+00  RLast= 3.07D-02 DXNew= 7.4270D-01 9.2149D-02
 Trust test= 8.68D-01 RLast= 3.07D-02 DXMaxT set to 4.42D-01
 ITU=  1  1  0
 Use linear search instead of GDIIS.
     Eigenvalues ---    0.02221   0.02221   0.02221   0.02221   0.02221
     Eigenvalues ---    0.02221   0.02221   0.02221   0.02221   0.15919
     Eigenvalues ---    0.16000   0.16002   0.18232   0.18262   0.18707
     Eigenvalues ---    0.20888   0.22700   0.24444   0.24997   0.25000
     Eigenvalues ---    0.25027   0.35800   0.35994   0.36017   0.42902
     Eigenvalues ---    0.43219   0.47140   0.47319   0.47322   0.77665
 RFO step:  Lambda=-2.97415727D-05 EMin= 2.22103665D-02
 Quartic linear search produced a step of -0.12154.
 Iteration  1 RMS(Cart)=  0.00217629 RMS(Int)=  0.00000114
 Iteration  2 RMS(Cart)=  0.00000181 RMS(Int)=  0.00000026
 Iteration  3 RMS(Cart)=  0.00000000 RMS(Int)=  0.00000026
 ClnCor:  largest displacement from symmetrization is 1.49D-13 for atom     7.
 Variable       Old X    -DE/DX   Delta X   Delta X   Delta X     New X
                                 (Linear)    (Quad)   (Total)
    R1        2.64777   0.00133   0.00109   0.00052   0.00161   2.64938
    R2        2.63973   0.00173   0.00117   0.00118   0.00234   2.64208
    R3        3.52770   0.00087   0.00020   0.00386   0.00407   3.53177
    R4        2.64081   0.00131   0.00090   0.00080   0.00170   2.64251
    R5        3.52800   0.00093  -0.00001   0.00448   0.00447   3.53247
    R6        2.63826   0.00129   0.00123   0.00024   0.00148   2.63973
    R7        2.08594  -0.00033   0.00020  -0.00124  -0.00103   2.08491
    R8        2.63790   0.00203   0.00140   0.00134   0.00274   2.64065
    R9        3.53431   0.00067  -0.00049   0.00409   0.00360   3.53791
   R10        2.63038   0.00144   0.00157   0.00004   0.00161   2.63199
   R11        2.08341  -0.00032   0.00020  -0.00119  -0.00099   2.08241
   R12        2.08356  -0.00019   0.00012  -0.00078  -0.00065   2.08290
    A1        2.08844  -0.00036   0.00060  -0.00230  -0.00170   2.08674
    A2        2.11062   0.00002  -0.00038   0.00072   0.00034   2.11096
    A3        2.08413   0.00034  -0.00022   0.00157   0.00136   2.08548
    A4        2.09313  -0.00002   0.00035  -0.00085  -0.00050   2.09262
    A5        2.11003  -0.00007  -0.00027   0.00028   0.00001   2.11003
    A6        2.08003   0.00009  -0.00008   0.00057   0.00050   2.08053
    A7        2.09463   0.00072  -0.00094   0.00408   0.00314   2.09778
    A8        2.09214  -0.00041   0.00045  -0.00227  -0.00182   2.09032
    A9        2.09641  -0.00031   0.00049  -0.00181  -0.00132   2.09509
   A10        2.09600  -0.00073   0.00094  -0.00412  -0.00318   2.09283
   A11        2.09182   0.00030  -0.00045   0.00181   0.00136   2.09318
   A12        2.09536   0.00043  -0.00049   0.00231   0.00182   2.09718
   A13        2.09247   0.00011  -0.00029   0.00096   0.00067   2.09314
   A14        2.10509  -0.00001   0.00003  -0.00007  -0.00003   2.10506
   A15        2.08562  -0.00010   0.00026  -0.00090  -0.00064   2.08498
   A16        2.10170   0.00028  -0.00066   0.00222   0.00156   2.10326
   A17        2.09833  -0.00013   0.00021  -0.00089  -0.00068   2.09765
   A18        2.08315  -0.00015   0.00045  -0.00133  -0.00088   2.08227
    D1        0.00000  -0.00000   0.00000  -0.00000  -0.00000   0.00000
    D2        3.14159  -0.00000   0.00000  -0.00000   0.00000   3.14159
    D3        3.14159   0.00000   0.00000   0.00000   0.00000   3.14159
    D4       -0.00000  -0.00000   0.00000  -0.00000   0.00000   0.00000
    D5       -0.00000   0.00000   0.00000   0.00000   0.00000   0.00000
    D6        3.14159   0.00000   0.00000   0.00000   0.00000   3.14159
    D7        3.14159  -0.00000   0.00000  -0.00000   0.00000   3.14159
    D8        0.00000   0.00000   0.00000   0.00000   0.00000   0.00000
    D9       -0.00000  -0.00000   0.00000  -0.00000   0.00000   0.00000
   D10        3.14159  -0.00000   0.00000  -0.00000   0.00000   3.14159
   D11        3.14159   0.00000   0.00000   0.00000   0.00000   3.14159
   D12        0.00000   0.00000   0.00000   0.00000  -0.00000   0.00000
   D13        0.00000   0.00000   0.00000   0.00000  -0.00000   0.00000
   D14        3.14159  -0.00000   0.00000  -0.00000   0.00000   3.14159
   D15        3.14159   0.00000   0.00000   0.00000   0.00000   3.14159
   D16       -0.00000   0.00000   0.00000   0.00000   0.00000   0.00000
   D17        0.00000  -0.00000   0.00000  -0.00000   0.00000   0.00000
   D18        3.14159  -0.00000   0.00000  -0.00000   0.00000   3.14159
   D19        3.14159   0.00000   0.00000   0.00000   0.00000   3.14159
   D20       -0.00000   0.00000   0.00000   0.00000   0.00000   0.00000
   D21       -0.00000  -0.00000   0.00000  -0.00000   0.00000   0.00000
   D22        3.14159  -0.00000   0.00000  -0.00000   0.00000   3.14159
   D23        3.14159   0.00000   0.00000   0.00000   0.00000   3.14159
   D24        0.00000  -0.00000   0.00000  -0.00000  -0.00000   0.00000
         Item               Value     Threshold  Converged?
 Maximum Force            0.002032     0.000450     NO 
 RMS     Force            0.000588     0.000300     NO 
 Maximum Displacement     0.009152     0.001800     NO 
 RMS     Displacement     0.002176     0.001200     NO 
 Predicted change in Energy=-1.900056D-05
 GradGradGradGradGradGradGradGradGradGradGradGradGradGradGradGradGradGrad

                          Input orientation:                          
 ---------------------------------------------------------------------
 Center     Atomic      Atomic             Coordinates (Angstroms)
 Number     Number       Type             X           Y           Z
 ---------------------------------------------------------------------
      1          6           0        0.004312    1.406131   -0.000000
      2          6           0        1.217705    0.703805    0.000000
      3          6           0        1.213693   -0.694544    0.000000
      4          6           0        0.004312   -1.393606    0.000000
      5          6           0       -1.205109   -0.693642   -0.000000
      6          6           0       -1.201892    0.699146   -0.000000
      7         35           0       -0.024596    3.274838   -0.000000
      8         35           0        2.851981    1.611235    0.000000
      9          1           0        2.169828   -1.245037    0.000000
     10         35           0        0.007546   -3.265785    0.000000
     11          1           0       -2.165831   -1.233403   -0.000000
     12          1           0       -2.161809    1.240862   -0.000000
 ---------------------------------------------------------------------
                    Distance matrix (angstroms):
                    1          2          3          4          5
     1  C    0.000000
     2  C    1.401993   0.000000
     3  C    2.423930   1.398355   0.000000
     4  C    2.799737   2.423109   1.396886   0.000000
     5  C    2.423169   2.796942   2.418802   1.397371   0.000000
     6  C    1.398127   2.419602   2.788803   2.415479   1.392792
     7  Br   1.868931   2.855437   4.158047   4.668533   4.140344
     8  Br   2.855046   1.869301   2.828534   4.139841   4.666094
     9  H    3.423178   2.168991   1.103284   2.170607   3.419683
    10  Br   4.671917   4.149956   2.840083   1.872182   2.843668
    11  H    3.417113   3.898858   3.422214   2.176048   1.101966
    12  H    2.172417   3.421921   3.890991   3.410645   2.158143
                    6          7          8          9         10
     6  C    0.000000
     7  Br   2.831999   0.000000
     8  Br   4.155213   3.322991   0.000000
     9  H    3.892087   5.024417   2.936600   0.000000
    10  Br   4.145289   6.540702   5.645896   2.959542   0.000000
    11  H    2.159612   4.990905   5.768050   4.335675   2.975591
    12  H    1.102224   2.950379   5.027452   4.994274   5.001597
                   11         12
    11  H    0.000000
    12  H    2.474269   0.000000
 Stoichiometry    C6H3Br3
 Framework group  CS[SG(C6H3Br3)]
 Deg. of freedom    21
 Full point group                 CS      NOp   2
 Largest Abelian subgroup         CS      NOp   2
 Largest concise Abelian subgroup C1      NOp   1
                         Standard orientation:                         
 ---------------------------------------------------------------------
 Center     Atomic      Atomic             Coordinates (Angstroms)
 Number     Number       Type             X           Y           Z
 ---------------------------------------------------------------------
      1          6           0        1.219114    0.063996    0.000000
      2          6           0        0.000000   -0.628351    0.000000
      3          6           0       -1.204752    0.081558   -0.000000
      4          6           0       -1.197065    1.478422   -0.000000
      5          6           0        0.018004    2.168534    0.000000
      6          6           0        1.218359    1.462122    0.000000
      7         35           0        2.846418   -0.855127    0.000000
      8         35           0       -0.042522   -2.497168   -0.000000
      9          1           0       -2.162868   -0.465481   -0.000000
     10         35           0       -2.814394    2.421456   -0.000000
     11          1           0        0.037546    3.270326    0.000000
     12          1           0        2.170811    2.016857    0.000000
 ---------------------------------------------------------------------
 Rotational constants (GHZ):           0.9728737           0.2571648           0.2033992
 Standard basis: VSTO-6G (5D, 7F)
 There are    30 symmetry adapted cartesian basis functions of A'  symmetry.
 There are     9 symmetry adapted cartesian basis functions of A"  symmetry.
 There are    30 symmetry adapted basis functions of A'  symmetry.
 There are     9 symmetry adapted basis functions of A"  symmetry.
    39 basis functions,   234 primitive gaussians,    39 cartesian basis functions
    24 alpha electrons       24 beta electrons
       nuclear repulsion energy       245.1511180369 Hartrees.
 Integral buffers will be    131072 words long.
 Regular integral format.
 Two-electron integral symmetry is turned off.
 Do NDO integrals.
 One-electron integrals computed using PRISM.
 NBasis=    39 RedAO= T EigKep=  1.00D+00  NBF=    30     9
 NBsUse=    39 1.00D-06 EigRej= -1.00D+00 NBFU=    30     9
 Initial guess from the checkpoint file:  "calcs/am1/chks/BrBz_124.chk"
 B after Tr=     0.000000    0.000000    0.000000
         Rot=    1.000000   -0.000000    0.000000    0.000766 Ang=   0.09 deg.
 Initial guess orbital symmetries:
       Occupied  (A') (A') (A') (A') (A') (A') (A') (A') (A') (A')
                 (A') (A") (A') (A') (A") (A') (A') (A") (A') (A')
                 (A") (A') (A") (A")
       Virtual   (A") (A") (A') (A') (A') (A") (A') (A') (A') (A')
                 (A') (A') (A') (A') (A')
 Keep J ints in memory in canonical form, NReq=863709.
 Overlap will be assumed to be unity.
 Requested convergence on RMS density matrix=1.00D-08 within  32 cycles.
 Requested convergence on MAX density matrix=1.00D-06.
 Requested convergence on             energy=1.00D-06.
 No special actions if energy rises.
 Fock symm off for IB=2 I1=    1 I=   31 J=    3 Cut=1.00D-07 Err=7.95D-05
 Fock matrix is not symmetric: symmetry in diagonalization turned off.
 SCF Done:  E(RAM1) =  0.605641001462E-01 A.U. after   11 cycles
            NFock= 10  Conv=0.30D-08     -V/T= 1.0005
 QCSCF skips out because SCF is already converged.
 Calling FoFJK, ICntrl=      2127 FMM=F ISym2X=1 I1Cent= 0 IOpClX= 0 NMat=1 NMatS=1 NMatT=0.
 ***** Axes restored to original set *****
 -------------------------------------------------------------------
 Center     Atomic                   Forces (Hartrees/Bohr)
 Number     Number              X              Y              Z
 -------------------------------------------------------------------
      1        6           0.000085662    0.000165002    0.000000000
      2        6          -0.000026951   -0.000105031   -0.000000000
      3        6          -0.000059579    0.000128914    0.000000000
      4        6           0.000265655   -0.000413037    0.000000000
      5        6          -0.000207994    0.000124401    0.000000000
      6        6           0.000012693   -0.000035071    0.000000000
      7       35           0.000057486   -0.000338210    0.000000000
      8       35          -0.000263916   -0.000099941    0.000000000
      9        1           0.000074263   -0.000001413   -0.000000000
     10       35          -0.000000669    0.000539665    0.000000000
     11        1           0.000043751    0.000018374   -0.000000000
     12        1           0.000019600    0.000016346   -0.000000000
 -------------------------------------------------------------------
 Cartesian Forces:  Max     0.000539665 RMS     0.000154989

 GradGradGradGradGradGradGradGradGradGradGradGradGradGradGradGradGradGrad
 Berny optimization.
 Using GEDIIS/GDIIS optimizer.
 FormGI is forming the generalized inverse of G from B-inverse, IUseBI=4.
 Internal  Forces:  Max     0.000539665 RMS     0.000121609
 Search for a local minimum.
 Step number   4 out of a maximum of   64
 All quantities printed in internal units (Hartrees-Bohrs-Radians)
 Mixed Optimization -- En-DIIS/RFO-DIIS
 Swapping is turned off.
 Update second derivatives using D2CorX and points    1    2    3    4
 DE= -1.56D-05 DEPred=-1.90D-05 R= 8.23D-01
 TightC=F SS=  1.41D+00  RLast= 1.07D-02 DXNew= 7.4270D-01 3.2216D-02
 Trust test= 8.23D-01 RLast= 1.07D-02 DXMaxT set to 4.42D-01
 ITU=  1  1  1  0
     Eigenvalues ---    0.02221   0.02221   0.02221   0.02221   0.02221
     Eigenvalues ---    0.02221   0.02221   0.02221   0.02221   0.15824
     Eigenvalues ---    0.15987   0.16000   0.18001   0.18193   0.18578
     Eigenvalues ---    0.22535   0.24296   0.24546   0.24984   0.25000
     Eigenvalues ---    0.25568   0.35164   0.35976   0.36102   0.43035
     Eigenvalues ---    0.43579   0.46684   0.47318   0.47425   0.79106
 En-DIIS/RFO-DIIS/Sim-DIIS IScMMF=       -3 using points:     4    3
 RFO step:  Lambda=-2.54682856D-06.
 DidBck=F Rises=F RFO-DIIS coefs:    0.82514    0.17486
 Iteration  1 RMS(Cart)=  0.00055119 RMS(Int)=  0.00000009
 Iteration  2 RMS(Cart)=  0.00000012 RMS(Int)=  0.00000004
 ClnCor:  largest displacement from symmetrization is 4.90D-13 for atom     8.
 Variable       Old X    -DE/DX   Delta X   Delta X   Delta X     New X
                                 (Linear)    (Quad)   (Total)
    R1        2.64938  -0.00022  -0.00028  -0.00002  -0.00030   2.64908
    R2        2.64208  -0.00009  -0.00041   0.00039  -0.00002   2.64206
    R3        3.53177  -0.00034  -0.00071  -0.00059  -0.00130   3.53047
    R4        2.64251  -0.00029  -0.00030  -0.00013  -0.00042   2.64208
    R5        3.53247  -0.00028  -0.00078  -0.00023  -0.00101   3.53146
    R6        2.63973  -0.00015  -0.00026   0.00011  -0.00015   2.63958
    R7        2.08491   0.00007   0.00018  -0.00009   0.00009   2.08500
    R8        2.64065   0.00018  -0.00048   0.00100   0.00052   2.64117
    R9        3.53791  -0.00054  -0.00063  -0.00163  -0.00226   3.53566
   R10        2.63199  -0.00011  -0.00028   0.00023  -0.00005   2.63195
   R11        2.08241  -0.00005   0.00017  -0.00034  -0.00017   2.08225
   R12        2.08290  -0.00001   0.00011  -0.00017  -0.00006   2.08284
    A1        2.08674   0.00007   0.00030  -0.00019   0.00011   2.08685
    A2        2.11096  -0.00013  -0.00006  -0.00033  -0.00039   2.11057
    A3        2.08548   0.00006  -0.00024   0.00052   0.00029   2.08577
    A4        2.09262   0.00013   0.00009   0.00024   0.00033   2.09295
    A5        2.11003  -0.00014  -0.00000  -0.00042  -0.00042   2.10961
    A6        2.08053   0.00001  -0.00009   0.00018   0.00009   2.08062
    A7        2.09778  -0.00010  -0.00055   0.00030  -0.00025   2.09752
    A8        2.09032   0.00001   0.00032  -0.00040  -0.00008   2.09024
    A9        2.09509   0.00009   0.00023   0.00010   0.00033   2.09542
   A10        2.09283   0.00006   0.00056  -0.00045   0.00010   2.09293
   A11        2.09318  -0.00003  -0.00024   0.00017  -0.00006   2.09311
   A12        2.09718  -0.00003  -0.00032   0.00028  -0.00004   2.09714
   A13        2.09314  -0.00006  -0.00012   0.00004  -0.00007   2.09307
   A14        2.10506   0.00002   0.00001   0.00001   0.00002   2.10508
   A15        2.08498   0.00004   0.00011  -0.00006   0.00006   2.08504
   A16        2.10326  -0.00009  -0.00027   0.00006  -0.00022   2.10304
   A17        2.09765   0.00002   0.00012  -0.00014  -0.00002   2.09764
   A18        2.08227   0.00007   0.00015   0.00008   0.00024   2.08251
    D1        0.00000  -0.00000   0.00000  -0.00000   0.00000   0.00000
    D2        3.14159  -0.00000   0.00000  -0.00000   0.00000   3.14159
    D3        3.14159  -0.00000   0.00000  -0.00000   0.00000   3.14159
    D4        0.00000   0.00000   0.00000   0.00000  -0.00000   0.00000
    D5       -0.00000   0.00000   0.00000   0.00000   0.00000   0.00000
    D6        3.14159   0.00000   0.00000   0.00000   0.00000   3.14159
    D7        3.14159   0.00000   0.00000   0.00000   0.00000   3.14159
    D8       -0.00000   0.00000   0.00000   0.00000   0.00000   0.00000
    D9       -0.00000   0.00000   0.00000   0.00000   0.00000   0.00000
   D10        3.14159  -0.00000   0.00000  -0.00000   0.00000   3.14159
   D11        3.14159   0.00000   0.00000   0.00000   0.00000   3.14159
   D12        0.00000  -0.00000   0.00000  -0.00000   0.00000   0.00000
   D13        0.00000   0.00000   0.00000   0.00000   0.00000   0.00000
   D14        3.14159   0.00000   0.00000   0.00000   0.00000   3.14159
   D15        3.14159   0.00000   0.00000   0.00000   0.00000   3.14159
   D16       -0.00000   0.00000   0.00000   0.00000   0.00000   0.00000
   D17       -0.00000  -0.00000   0.00000  -0.00000   0.00000   0.00000
   D18        3.14159  -0.00000   0.00000  -0.00000   0.00000   3.14159
   D19        3.14159  -0.00000   0.00000  -0.00000   0.00000   3.14159
   D20        0.00000  -0.00000   0.00000  -0.00000  -0.00000   0.00000
   D21        0.00000  -0.00000   0.00000  -0.00000   0.00000   0.00000
   D22        3.14159  -0.00000   0.00000  -0.00000   0.00000   3.14159
   D23        3.14159   0.00000   0.00000   0.00000   0.00000   3.14159
   D24        0.00000   0.00000   0.00000   0.00000   0.00000   0.00000
         Item               Value     Threshold  Converged?
 Maximum Force            0.000540     0.000450     NO 
 RMS     Force            0.000122     0.000300     YES
 Maximum Displacement     0.002230     0.001800     NO 
 RMS     Displacement     0.000551     0.001200     YES
 Predicted change in Energy=-1.273427D-06
 GradGradGradGradGradGradGradGradGradGradGradGradGradGradGradGradGradGrad

                          Input orientation:                          
 ---------------------------------------------------------------------
 Center     Atomic      Atomic             Coordinates (Angstroms)
 Number     Number       Type             X           Y           Z
 ---------------------------------------------------------------------
      1          6           0        0.004274    1.405873   -0.000000
      2          6           0        1.217463    0.703512    0.000000
      3          6           0        1.213783   -0.694615    0.000000
      4          6           0        0.004462   -1.393619    0.000000
      5          6           0       -1.205260   -0.693625   -0.000000
      6          6           0       -1.202065    0.699138   -0.000000
      7         35           0       -0.023712    3.273907   -0.000000
      8         35           0        2.850974    1.611219    0.000000
      9          1           0        2.170136   -1.244825    0.000000
     10         35           0        0.007789   -3.264605    0.000000
     11          1           0       -2.165868   -1.233411   -0.000000
     12          1           0       -2.161834    1.241052   -0.000000
 ---------------------------------------------------------------------
                    Distance matrix (angstroms):
                    1          2          3          4          5
     1  C    0.000000
     2  C    1.401834   0.000000
     3  C    2.423832   1.398131   0.000000
     4  C    2.799493   2.422670   1.396806   0.000000
     5  C    2.422987   2.796708   2.419043   1.397648   0.000000
     6  C    1.398116   2.419532   2.789062   2.415645   1.392767
     7  Br   1.868243   2.854374   4.156989   4.667612   4.139730
     8  Br   2.854096   1.868767   2.827943   4.139044   4.665333
     9  H    3.423034   2.168779   1.103333   2.170780   3.420105
    10  Br   4.670480   4.148405   2.838886   1.870989   2.842785
    11  H    3.416920   3.898538   3.422330   2.176235   1.101879
    12  H    2.172369   3.421782   3.891220   3.410913   2.158242
                    6          7          8          9         10
     6  C    0.000000
     7  Br   2.831599   0.000000
     8  Br   4.154397   3.320896   0.000000
     9  H    3.892394   5.023138   2.936073   0.000000
    10  Br   4.144273   6.538588   5.644232   2.958928   0.000000
    11  H    2.159551   4.990466   5.767202   4.336019   2.974985
    12  H    1.102192   2.950265   5.026456   4.994552   5.000820
                   11         12
    11  H    0.000000
    12  H    2.474466   0.000000
 Stoichiometry    C6H3Br3
 Framework group  CS[SG(C6H3Br3)]
 Deg. of freedom    21
 Full point group                 CS      NOp   2
 Largest Abelian subgroup         CS      NOp   2
 Largest concise Abelian subgroup C1      NOp   1
                         Standard orientation:                         
 ---------------------------------------------------------------------
 Center     Atomic      Atomic             Coordinates (Angstroms)
 Number     Number       Type             X           Y           Z
 ---------------------------------------------------------------------
      1          6           0        1.218875    0.064484    0.000000
      2          6           0        0.000000   -0.627963    0.000000
      3          6           0       -1.204899    0.081254   -0.000000
      4          6           0       -1.197531    1.478040   -0.000000
      5          6           0        0.017550    2.168690   -0.000000
      6          6           0        1.218064    1.462600    0.000000
      7         35           0        2.845354   -0.854701    0.000000
      8         35           0       -0.041444   -2.496270    0.000000
      9          1           0       -2.162749   -0.466346   -0.000000
     10         35           0       -2.814105    2.419999   -0.000000
     11          1           0        0.036746    3.270402   -0.000000
     12          1           0        2.170478    2.017338    0.000000
 ---------------------------------------------------------------------
 Rotational constants (GHZ):           0.9737828           0.2573072           0.2035280
 Standard basis: VSTO-6G (5D, 7F)
 There are    30 symmetry adapted cartesian basis functions of A'  symmetry.
 There are     9 symmetry adapted cartesian basis functions of A"  symmetry.
 There are    30 symmetry adapted basis functions of A'  symmetry.
 There are     9 symmetry adapted basis functions of A"  symmetry.
    39 basis functions,   234 primitive gaussians,    39 cartesian basis functions
    24 alpha electrons       24 beta electrons
       nuclear repulsion energy       245.1824145868 Hartrees.
 Integral buffers will be    131072 words long.
 Regular integral format.
 Two-electron integral symmetry is turned off.
 Do NDO integrals.
 One-electron integrals computed using PRISM.
 NBasis=    39 RedAO= T EigKep=  1.00D+00  NBF=    30     9
 NBsUse=    39 1.00D-06 EigRej= -1.00D+00 NBFU=    30     9
 Initial guess from the checkpoint file:  "calcs/am1/chks/BrBz_124.chk"
 B after Tr=     0.000000   -0.000000    0.000000
         Rot=    1.000000   -0.000000    0.000000   -0.000113 Ang=  -0.01 deg.
 Initial guess orbital symmetries:
       Occupied  (A') (A') (A') (A') (A') (A') (A') (A') (A') (A')
                 (A') (A") (A') (A') (A") (A') (A') (A") (A') (A')
                 (A") (A') (A") (A")
       Virtual   (A") (A") (A') (A') (A') (A") (A') (A') (A') (A')
                 (A') (A') (A') (A') (A')
 Keep J ints in memory in canonical form, NReq=863709.
 Overlap will be assumed to be unity.
 Requested convergence on RMS density matrix=1.00D-08 within  32 cycles.
 Requested convergence on MAX density matrix=1.00D-06.
 Requested convergence on             energy=1.00D-06.
 No special actions if energy rises.
 Fock symm off for IB=2 I1=    1 I=   31 J=   13 Cut=1.00D-07 Err=1.33D-05
 Fock matrix is not symmetric: symmetry in diagonalization turned off.
 SCF Done:  E(RAM1) =  0.605628313699E-01 A.U. after   10 cycles
            NFock=  9  Conv=0.78D-08     -V/T= 1.0005
 QCSCF skips out because SCF is already converged.
 Calling FoFJK, ICntrl=      2127 FMM=F ISym2X=1 I1Cent= 0 IOpClX= 0 NMat=1 NMatS=1 NMatT=0.
 ***** Axes restored to original set *****
 -------------------------------------------------------------------
 Center     Atomic                   Forces (Hartrees/Bohr)
 Number     Number              X              Y              Z
 -------------------------------------------------------------------
      1        6          -0.000049729    0.000070402    0.000000000
      2        6           0.000032229   -0.000012541    0.000000000
      3        6          -0.000043453   -0.000008059    0.000000000
      4        6          -0.000010312   -0.000037718   -0.000000000
      5        6           0.000028133    0.000113593    0.000000000
      6        6           0.000005070   -0.000118513   -0.000000000
      7       35          -0.000005427   -0.000011341   -0.000000000
      8       35           0.000012400    0.000004606    0.000000000
      9        1           0.000035915   -0.000015443   -0.000000000
     10       35          -0.000012690    0.000018187    0.000000000
     11        1           0.000009070   -0.000015207   -0.000000000
     12        1          -0.000001207    0.000012034   -0.000000000
 -------------------------------------------------------------------
 Cartesian Forces:  Max     0.000118513 RMS     0.000034435

 GradGradGradGradGradGradGradGradGradGradGradGradGradGradGradGradGradGrad
 Berny optimization.
 Using GEDIIS/GDIIS optimizer.
 FormGI is forming the generalized inverse of G from B-inverse, IUseBI=4.
 Internal  Forces:  Max     0.000086073 RMS     0.000019198
 Search for a local minimum.
 Step number   5 out of a maximum of   64
 All quantities printed in internal units (Hartrees-Bohrs-Radians)
 Mixed Optimization -- En-DIIS/RFO-DIIS
 Swapping is turned off.
 Update second derivatives using D2CorX and points    1    2    3    4    5
 DE= -1.27D-06 DEPred=-1.27D-06 R= 9.96D-01
 TightC=F SS=  1.41D+00  RLast= 3.04D-03 DXNew= 7.4270D-01 9.1287D-03
 Trust test= 9.96D-01 RLast= 3.04D-03 DXMaxT set to 4.42D-01
 ITU=  1  1  1  1  0
     Eigenvalues ---    0.02221   0.02221   0.02221   0.02221   0.02221
     Eigenvalues ---    0.02221   0.02221   0.02221   0.02221   0.15726
     Eigenvalues ---    0.15865   0.16003   0.16833   0.18250   0.18491
     Eigenvalues ---    0.22352   0.24113   0.24306   0.24850   0.25000
     Eigenvalues ---    0.26245   0.35746   0.35925   0.36054   0.43084
     Eigenvalues ---    0.45760   0.47251   0.47314   0.48039   0.79088
 En-DIIS/RFO-DIIS/Sim-DIIS IScMMF=       -3 using points:     5    4    3
 RFO step:  Lambda=-5.34086713D-08.
 DidBck=F Rises=F RFO-DIIS coefs:    1.04707   -0.04234   -0.00473
 Iteration  1 RMS(Cart)=  0.00009049 RMS(Int)=  0.00000000
 Iteration  2 RMS(Cart)=  0.00000001 RMS(Int)=  0.00000000
 ClnCor:  largest displacement from symmetrization is 5.52D-13 for atom     7.
 Variable       Old X    -DE/DX   Delta X   Delta X   Delta X     New X
                                 (Linear)    (Quad)   (Total)
    R1        2.64908   0.00006  -0.00001   0.00014   0.00013   2.64921
    R2        2.64206  -0.00000   0.00001  -0.00000   0.00001   2.64207
    R3        3.53047  -0.00001  -0.00004  -0.00006  -0.00010   3.53037
    R4        2.64208   0.00003  -0.00001   0.00008   0.00007   2.64216
    R5        3.53146   0.00001  -0.00003   0.00008   0.00005   3.53151
    R6        2.63958  -0.00000  -0.00000  -0.00000  -0.00000   2.63958
    R7        2.08500   0.00004  -0.00000   0.00012   0.00012   2.08511
    R8        2.64117  -0.00002   0.00004  -0.00006  -0.00002   2.64115
    R9        3.53566  -0.00002  -0.00009  -0.00008  -0.00017   3.53549
   R10        2.63195  -0.00009   0.00001  -0.00020  -0.00020   2.63175
   R11        2.08225  -0.00000  -0.00001   0.00001  -0.00000   2.08225
   R12        2.08284   0.00001  -0.00001   0.00003   0.00002   2.08287
    A1        2.08685  -0.00003  -0.00000  -0.00010  -0.00010   2.08675
    A2        2.11057   0.00002  -0.00002   0.00010   0.00008   2.11065
    A3        2.08577   0.00000   0.00002   0.00000   0.00002   2.08579
    A4        2.09295  -0.00001   0.00001  -0.00000   0.00001   2.09296
    A5        2.10961   0.00001  -0.00002   0.00002   0.00000   2.10962
    A6        2.08062   0.00000   0.00001  -0.00002  -0.00001   2.08061
    A7        2.09752  -0.00001   0.00000   0.00001   0.00001   2.09754
    A8        2.09024  -0.00000  -0.00001  -0.00003  -0.00005   2.09019
    A9        2.09542   0.00001   0.00001   0.00002   0.00003   2.09545
   A10        2.09293  -0.00001  -0.00001  -0.00008  -0.00009   2.09284
   A11        2.09311   0.00003   0.00000   0.00013   0.00013   2.09325
   A12        2.09714  -0.00002   0.00001  -0.00005  -0.00004   2.09710
   A13        2.09307   0.00004  -0.00000   0.00012   0.00012   2.09319
   A14        2.10508  -0.00004   0.00000  -0.00017  -0.00017   2.10491
   A15        2.08504   0.00000  -0.00000   0.00005   0.00005   2.08509
   A16        2.10304   0.00002  -0.00000   0.00005   0.00005   2.10309
   A17        2.09764  -0.00002  -0.00000  -0.00009  -0.00009   2.09754
   A18        2.08251   0.00000   0.00001   0.00003   0.00004   2.08255
    D1        0.00000  -0.00000   0.00000  -0.00000  -0.00000   0.00000
    D2        3.14159  -0.00000   0.00000  -0.00000   0.00000   3.14159
    D3        3.14159   0.00000   0.00000   0.00000   0.00000   3.14159
    D4       -0.00000  -0.00000   0.00000  -0.00000   0.00000   0.00000
    D5        0.00000   0.00000   0.00000   0.00000   0.00000   0.00000
    D6        3.14159   0.00000   0.00000   0.00000   0.00000   3.14159
    D7        3.14159   0.00000   0.00000   0.00000   0.00000   3.14159
    D8        0.00000   0.00000   0.00000   0.00000  -0.00000   0.00000
    D9       -0.00000  -0.00000   0.00000  -0.00000   0.00000   0.00000
   D10        3.14159  -0.00000   0.00000  -0.00000   0.00000   3.14159
   D11        3.14159   0.00000   0.00000   0.00000   0.00000   3.14159
   D12       -0.00000  -0.00000   0.00000  -0.00000   0.00000   0.00000
   D13        0.00000   0.00000   0.00000   0.00000   0.00000   0.00000
   D14        3.14159  -0.00000   0.00000  -0.00000   0.00000   3.14159
   D15        3.14159   0.00000   0.00000   0.00000   0.00000   3.14159
   D16       -0.00000   0.00000   0.00000   0.00000   0.00000   0.00000
   D17        0.00000   0.00000   0.00000   0.00000   0.00000   0.00000
   D18        3.14159  -0.00000   0.00000  -0.00000   0.00000   3.14159
   D19        3.14159   0.00000   0.00000   0.00000   0.00000   3.14159
   D20       -0.00000  -0.00000   0.00000  -0.00000   0.00000   0.00000
   D21       -0.00000  -0.00000   0.00000  -0.00000   0.00000   0.00000
   D22        3.14159  -0.00000   0.00000  -0.00000   0.00000   3.14159
   D23        3.14159   0.00000   0.00000   0.00000   0.00000   3.14159
   D24        0.00000   0.00000   0.00000   0.00000   0.00000   0.00000
         Item               Value     Threshold  Converged?
 Maximum Force            0.000086     0.000450     YES
 RMS     Force            0.000019     0.000300     YES
 Maximum Displacement     0.000425     0.001800     YES
 RMS     Displacement     0.000090     0.001200     YES
 Predicted change in Energy=-2.938076D-08
 Optimization completed.
    -- Stationary point found.
                           ----------------------------
                           !   Optimized Parameters   !
                           ! (Angstroms and Degrees)  !
 --------------------------                            --------------------------
 ! Name  Definition              Value          Derivative Info.                !
 --------------------------------------------------------------------------------
 ! R1    R(1,2)                  1.4018         -DE/DX =    0.0001              !
 ! R2    R(1,6)                  1.3981         -DE/DX =    0.0                 !
 ! R3    R(1,7)                  1.8682         -DE/DX =    0.0                 !
 ! R4    R(2,3)                  1.3981         -DE/DX =    0.0                 !
 ! R5    R(2,8)                  1.8688         -DE/DX =    0.0                 !
 ! R6    R(3,4)                  1.3968         -DE/DX =    0.0                 !
 ! R7    R(3,9)                  1.1033         -DE/DX =    0.0                 !
 ! R8    R(4,5)                  1.3976         -DE/DX =    0.0                 !
 ! R9    R(4,10)                 1.871          -DE/DX =    0.0                 !
 ! R10   R(5,6)                  1.3928         -DE/DX =   -0.0001              !
 ! R11   R(5,11)                 1.1019         -DE/DX =    0.0                 !
 ! R12   R(6,12)                 1.1022         -DE/DX =    0.0                 !
 ! A1    A(2,1,6)              119.5678         -DE/DX =    0.0                 !
 ! A2    A(2,1,7)              120.9265         -DE/DX =    0.0                 !
 ! A3    A(6,1,7)              119.5057         -DE/DX =    0.0                 !
 ! A4    A(1,2,3)              119.9174         -DE/DX =    0.0                 !
 ! A5    A(1,2,8)              120.8718         -DE/DX =    0.0                 !
 ! A6    A(3,2,8)              119.2108         -DE/DX =    0.0                 !
 ! A7    A(2,3,4)              120.1793         -DE/DX =    0.0                 !
 ! A8    A(2,3,9)              119.762          -DE/DX =    0.0                 !
 ! A9    A(4,3,9)              120.0587         -DE/DX =    0.0                 !
 ! A10   A(3,4,5)              119.9161         -DE/DX =    0.0                 !
 ! A11   A(3,4,10)             119.9266         -DE/DX =    0.0                 !
 ! A12   A(5,4,10)             120.1573         -DE/DX =    0.0                 !
 ! A13   A(4,5,6)              119.924          -DE/DX =    0.0                 !
 ! A14   A(4,5,11)             120.6121         -DE/DX =    0.0                 !
 ! A15   A(6,5,11)             119.464          -DE/DX =    0.0                 !
 ! A16   A(1,6,5)              120.4954         -DE/DX =    0.0                 !
 ! A17   A(1,6,12)             120.1856         -DE/DX =    0.0                 !
 ! A18   A(5,6,12)             119.3189         -DE/DX =    0.0                 !
 ! D1    D(6,1,2,3)              0.0            -DE/DX =    0.0                 !
 ! D2    D(6,1,2,8)            180.0            -DE/DX =    0.0                 !
 ! D3    D(7,1,2,3)            180.0            -DE/DX =    0.0                 !
 ! D4    D(7,1,2,8)              0.0            -DE/DX =    0.0                 !
 ! D5    D(2,1,6,5)              0.0            -DE/DX =    0.0                 !
 ! D6    D(2,1,6,12)           180.0            -DE/DX =    0.0                 !
 ! D7    D(7,1,6,5)            180.0            -DE/DX =    0.0                 !
 ! D8    D(7,1,6,12)             0.0            -DE/DX =    0.0                 !
 ! D9    D(1,2,3,4)              0.0            -DE/DX =    0.0                 !
 ! D10   D(1,2,3,9)            180.0            -DE/DX =    0.0                 !
 ! D11   D(8,2,3,4)            180.0            -DE/DX =    0.0                 !
 ! D12   D(8,2,3,9)              0.0            -DE/DX =    0.0                 !
 ! D13   D(2,3,4,5)              0.0            -DE/DX =    0.0                 !
 ! D14   D(2,3,4,10)           180.0            -DE/DX =    0.0                 !
 ! D15   D(9,3,4,5)            180.0            -DE/DX =    0.0                 !
 ! D16   D(9,3,4,10)             0.0            -DE/DX =    0.0                 !
 ! D17   D(3,4,5,6)              0.0            -DE/DX =    0.0                 !
 ! D18   D(3,4,5,11)           180.0            -DE/DX =    0.0                 !
 ! D19   D(10,4,5,6)           180.0            -DE/DX =    0.0                 !
 ! D20   D(10,4,5,11)            0.0            -DE/DX =    0.0                 !
 ! D21   D(4,5,6,1)              0.0            -DE/DX =    0.0                 !
 ! D22   D(4,5,6,12)           180.0            -DE/DX =    0.0                 !
 ! D23   D(11,5,6,1)           180.0            -DE/DX =    0.0                 !
 ! D24   D(11,5,6,12)            0.0            -DE/DX =    0.0                 !
 --------------------------------------------------------------------------------
 GradGradGradGradGradGradGradGradGradGradGradGradGradGradGradGradGradGrad

                          Input orientation:                          
 ---------------------------------------------------------------------
 Center     Atomic      Atomic             Coordinates (Angstroms)
 Number     Number       Type             X           Y           Z
 ---------------------------------------------------------------------
      1          6           0        0.004274    1.405873   -0.000000
      2          6           0        1.217463    0.703512    0.000000
      3          6           0        1.213783   -0.694615    0.000000
      4          6           0        0.004462   -1.393619    0.000000
      5          6           0       -1.205260   -0.693625   -0.000000
      6          6           0       -1.202065    0.699138   -0.000000
      7         35           0       -0.023712    3.273907   -0.000000
      8         35           0        2.850974    1.611219    0.000000
      9          1           0        2.170136   -1.244825    0.000000
     10         35           0        0.007789   -3.264605    0.000000
     11          1           0       -2.165868   -1.233411   -0.000000
     12          1           0       -2.161834    1.241052   -0.000000
 ---------------------------------------------------------------------
                    Distance matrix (angstroms):
                    1          2          3          4          5
     1  C    0.000000
     2  C    1.401834   0.000000
     3  C    2.423832   1.398131   0.000000
     4  C    2.799493   2.422670   1.396806   0.000000
     5  C    2.422987   2.796708   2.419043   1.397648   0.000000
     6  C    1.398116   2.419532   2.789062   2.415645   1.392767
     7  Br   1.868243   2.854374   4.156989   4.667612   4.139730
     8  Br   2.854096   1.868767   2.827943   4.139044   4.665333
     9  H    3.423034   2.168779   1.103333   2.170780   3.420105
    10  Br   4.670480   4.148405   2.838886   1.870989   2.842785
    11  H    3.416920   3.898538   3.422330   2.176235   1.101879
    12  H    2.172369   3.421782   3.891220   3.410913   2.158242
                    6          7          8          9         10
     6  C    0.000000
     7  Br   2.831599   0.000000
     8  Br   4.154397   3.320896   0.000000
     9  H    3.892394   5.023138   2.936073   0.000000
    10  Br   4.144273   6.538588   5.644232   2.958928   0.000000
    11  H    2.159551   4.990466   5.767202   4.336019   2.974985
    12  H    1.102192   2.950265   5.026456   4.994552   5.000820
                   11         12
    11  H    0.000000
    12  H    2.474466   0.000000
 Stoichiometry    C6H3Br3
 Framework group  CS[SG(C6H3Br3)]
 Deg. of freedom    21
 Full point group                 CS      NOp   2
 Largest Abelian subgroup         CS      NOp   2
 Largest concise Abelian subgroup C1      NOp   1
                         Standard orientation:                         
 ---------------------------------------------------------------------
 Center     Atomic      Atomic             Coordinates (Angstroms)
 Number     Number       Type             X           Y           Z
 ---------------------------------------------------------------------
      1          6           0        1.218875    0.064484    0.000000
      2          6           0        0.000000   -0.627963    0.000000
      3          6           0       -1.204899    0.081254    0.000000
      4          6           0       -1.197531    1.478040    0.000000
      5          6           0        0.017550    2.168690    0.000000
      6          6           0        1.218064    1.462600    0.000000
      7         35           0        2.845354   -0.854701    0.000000
      8         35           0       -0.041444   -2.496270    0.000000
      9          1           0       -2.162749   -0.466346    0.000000
     10         35           0       -2.814105    2.419999    0.000000
     11          1           0        0.036746    3.270402    0.000000
     12          1           0        2.170478    2.017338    0.000000
 ---------------------------------------------------------------------
 Rotational constants (GHZ):           0.9737828           0.2573072           0.2035280

 **********************************************************************

            Population analysis using the SCF Density.

 **********************************************************************

 Orbital symmetries:
       Occupied  (A') (A') (A') (A') (A') (A') (A') (A') (A') (A')
                 (A') (A") (A') (A') (A") (A') (A') (A") (A') (A')
                 (A") (A') (A") (A")
       Virtual   (A") (A") (A') (A') (A') (A") (A') (A') (A') (A')
                 (A') (A') (A') (A') (A')
 The electronic state is 1-A'.
 Alpha  occ. eigenvalues --   -1.47543  -1.27054  -1.23222  -1.18351  -1.13066
 Alpha  occ. eigenvalues --   -1.07793  -0.88352  -0.85309  -0.67058  -0.62922
 Alpha  occ. eigenvalues --   -0.60787  -0.55615  -0.55005  -0.54808  -0.47854
 Alpha  occ. eigenvalues --   -0.47844  -0.47076  -0.44640  -0.43862  -0.42309
 Alpha  occ. eigenvalues --   -0.42017  -0.40267  -0.37316  -0.35855
 Alpha virt. eigenvalues --   -0.02483  -0.01331   0.00659   0.00954   0.02410
 Alpha virt. eigenvalues --    0.06890   0.11499   0.12535   0.13260   0.13899
 Alpha virt. eigenvalues --    0.15204   0.15575   0.16416   0.16925   0.18359
          Condensed to atoms (all electrons):
               1          2          3          4          5          6
     1  C    4.139784   0.000000   0.000000   0.000000   0.000000   0.000000
     2  C    0.000000   4.151020   0.000000   0.000000   0.000000   0.000000
     3  C    0.000000   0.000000   4.079354   0.000000   0.000000   0.000000
     4  C    0.000000   0.000000   0.000000   4.160056   0.000000   0.000000
     5  C    0.000000   0.000000   0.000000   0.000000   4.093532   0.000000
     6  C    0.000000   0.000000   0.000000   0.000000   0.000000   4.104749
     7  Br   0.000000   0.000000   0.000000   0.000000   0.000000   0.000000
     8  Br   0.000000   0.000000   0.000000   0.000000   0.000000   0.000000
     9  H    0.000000   0.000000   0.000000   0.000000   0.000000   0.000000
    10  Br   0.000000   0.000000   0.000000   0.000000   0.000000   0.000000
    11  H    0.000000   0.000000   0.000000   0.000000   0.000000   0.000000
    12  H    0.000000   0.000000   0.000000   0.000000   0.000000   0.000000
               7          8          9         10         11         12
     1  C    0.000000   0.000000   0.000000   0.000000   0.000000   0.000000
     2  C    0.000000   0.000000   0.000000   0.000000   0.000000   0.000000
     3  C    0.000000   0.000000   0.000000   0.000000   0.000000   0.000000
     4  C    0.000000   0.000000   0.000000   0.000000   0.000000   0.000000
     5  C    0.000000   0.000000   0.000000   0.000000   0.000000   0.000000
     6  C    0.000000   0.000000   0.000000   0.000000   0.000000   0.000000
     7  Br   6.911160   0.000000   0.000000   0.000000   0.000000   0.000000
     8  Br   0.000000   6.910429   0.000000   0.000000   0.000000   0.000000
     9  H    0.000000   0.000000   0.834607   0.000000   0.000000   0.000000
    10  Br   0.000000   0.000000   0.000000   6.928256   0.000000   0.000000
    11  H    0.000000   0.000000   0.000000   0.000000   0.844092   0.000000
    12  H    0.000000   0.000000   0.000000   0.000000   0.000000   0.842960
 Mulliken charges:
               1
     1  C   -0.139784
     2  C   -0.151020
     3  C   -0.079354
     4  C   -0.160056
     5  C   -0.093532
     6  C   -0.104749
     7  Br   0.088840
     8  Br   0.089571
     9  H    0.165393
    10  Br   0.071744
    11  H    0.155908
    12  H    0.157040
 Sum of Mulliken charges =  -0.00000
 Mulliken charges with hydrogens summed into heavy atoms:
               1
     1  C   -0.139784
     2  C   -0.151020
     3  C    0.086039
     4  C   -0.160056
     5  C    0.062375
     6  C    0.052292
     7  Br   0.088840
     8  Br   0.089571
    10  Br   0.071744
 Charge=             -0.0000 electrons
 Dipole moment (field-independent basis, Debye):
    X=              0.1146    Y=              1.0919    Z=              0.0000  Tot=              1.0979
 N-N= 2.451824145868D+02 E-N=-3.461186334269D+02  KE=-1.102065983835D+02
 Symmetry A'   KE=-8.453564016220D+01
 Symmetry A"   KE=-2.567095822129D+01
 1\1\GINC-SH04-14N21\FOpt\RAM1\ZDO\C6H3Br3\JLAPIER\28-Sep-2026\0\\# Opt
  AM1 SCF=XQC\\BrBz_124 am1\\0,1\C,0.004274046,1.4058734363,0.\C,1.2174
 628726,0.7035117427,0.\C,1.2137829414,-0.6946145181,0.\C,0.0044617106,
 -1.3936194367,0.\C,-1.20526003,-0.6936251873,0.\C,-1.2020649419,0.6991
 376659,0.\Br,-0.0237122871,3.2739071042,0.\Br,2.8509736771,1.611218526
 9,0.\H,2.1701359841,-1.2448254045,0.\Br,0.0077888561,-3.2646050172,0.\
 H,-2.1658684026,-1.2334107857,0.\H,-2.1618335961,1.2410518733,0.\\Vers
 ion=ES64L-G16RevB.01\State=1-A'\HF=0.0605628\RMSD=7.768e-09\RMSF=3.443
 e-05\Dipole=-0.39357,-0.178015,0.\PG=CS [SG(C6H3Br3)]\\@


 AND HERE I AM, FOR ALL MY LORE,
 THE WRETCHED FOOL I WAS BEFORE.
 CALLED MASTER OF ARTS, AND DOCTOR TO BOOT,
 FOR TEN YEARS ALMOST I CONFUTE
 AND UP AND DOWN, WHEREVER IT GOES
 I DRAG MY STUDENTS BY THE NOSE --
 AND SEE THAT FOR ALL OUR SCIENCE AND ART
 WE CAN KNOW NOTHING.  IT BURNS MY HEART.

                                       -- FAUST
 Job cpu time:       0 days  0 hours  0 minutes  2.0 seconds.
 Elapsed time:       0 days  0 hours  0 minutes  2.1 seconds.
 File lengths (MBytes):  RWF=      6 Int=      0 D2E=      0 Chk=      3 Scr=      1
 Normal termination of Gaussian 16 at Mon Sep 28 01:24:06 2026.
