 Entering Gaussian System, Link 0=g16
 Initial command:
 /share/software/user/restricted/gaussian/g16.B01/l1.exe "/lscratch/jlapier/g16_45667973_111/Gau-23585.inp" -scrdir="/lscratch/jlapier/g16_45667973_111/"
 Entering Link 1 = /share/software/user/restricted/gaussian/g16.B01/l1.exe PID=     23586.
  
 Copyright (c) 1988-2017, Gaussian, Inc.  All Rights Reserved.
  
 This is part of the Gaussian(R) 16 program.  It is based on
 the Gaussian(R) 09 system (copyright 2009, Gaussian, Inc.),
 the Gaussian(R) 03 system (copyright 2003, Gaussian, Inc.),
 the Gaussian(R) 98 system (copyright 1998, Gaussian, Inc.),
 the Gaussian(R) 94 system (copyright 1995, Gaussian, Inc.),
 the Gaussian 92(TM) system (copyright 1992, Gaussian, Inc.),
 the Gaussian 90(TM) system (copyright 1990, Gaussian, Inc.),
 the Gaussian 88(TM) system (copyright 1988, Gaussian, Inc.),
 the Gaussian 86(TM) system (copyright 1986, Carnegie Mellon
 University), and the Gaussian 82(TM) system (copyright 1983,
 Carnegie Mellon University). Gaussian is a federally registered
 trademark of Gaussian, Inc.
  
 This software contains proprietary and confidential information,
 including trade secrets, belonging to Gaussian, Inc.
  
 This software is provided under written license and may be
 used, copied, transmitted, or stored only in accord with that
 written license.
  
 The following legend is applicable only to US Government
 contracts under FAR:
  
                    RESTRICTED RIGHTS LEGEND
  
 Use, reproduction and disclosure by the US Government is
 subject to restrictions as set forth in subparagraphs (a)
 and (c) of the Commercial Computer Software - Restricted
 Rights clause in FAR 52.227-19.
  
 Gaussian, Inc.
 340 Quinnipiac St., Bldg. 40, Wallingford CT 06492
  
  
 ---------------------------------------------------------------
 Warning -- This program may not be used in any manner that
 competes with the business of Gaussian, Inc. or will provide
 assistance to any competitor of Gaussian, Inc.  The licensee
 of this program is prohibited from giving any competitor of
 Gaussian, Inc. access to this program.  By using this program,
 the user acknowledges that Gaussian, Inc. is engaged in the
 business of creating and licensing software in the field of
 computational chemistry and represents and warrants to the
 licensee that it is not a competitor of Gaussian, Inc. and that
 it will not use this program in any manner prohibited above.
 ---------------------------------------------------------------
  

 Cite this work as:
 Gaussian 16, Revision B.01,
 M. J. Frisch, G. W. Trucks, H. B. Schlegel, G. E. Scuseria, 
 M. A. Robb, J. R. Cheeseman, G. Scalmani, V. Barone, 
 G. A. Petersson, H. Nakatsuji, X. Li, M. Caricato, A. V. Marenich, 
 J. Bloino, B. G. Janesko, R. Gomperts, B. Mennucci, H. P. Hratchian, 
 J. V. Ortiz, A. F. Izmaylov, J. L. Sonnenberg, D. Williams-Young, 
 F. Ding, F. Lipparini, F. Egidi, J. Goings, B. Peng, A. Petrone, 
 T. Henderson, D. Ranasinghe, V. G. Zakrzewski, J. Gao, N. Rega, 
 G. Zheng, W. Liang, M. Hada, M. Ehara, K. Toyota, R. Fukuda, 
 J. Hasegawa, M. Ishida, T. Nakajima, Y. Honda, O. Kitao, H. Nakai, 
 T. Vreven, K. Throssell, J. A. Montgomery, Jr., J. E. Peralta, 
 F. Ogliaro, M. J. Bearpark, J. J. Heyd, E. N. Brothers, K. N. Kudin, 
 V. N. Staroverov, T. A. Keith, R. Kobayashi, J. Normand, 
 K. Raghavachari, A. P. Rendell, J. C. Burant, S. S. Iyengar, 
 J. Tomasi, M. Cossi, J. M. Millam, M. Klene, C. Adamo, R. Cammi, 
 J. W. Ochterski, R. L. Martin, K. Morokuma, O. Farkas, 
 J. B. Foresman, and D. J. Fox, Gaussian, Inc., Wallingford CT, 2016.
 
 ******************************************
 Gaussian 16:  ES64L-G16RevB.01 20-Dec-2017
                28-Sep-2026 
 ******************************************
 %nprocshared=1
 Will use up to    1 processors via shared memory.
 %mem=1GB
 %chk=calcs/am1/chks/BrBz_1245_RA.chk
 -----------------
 # Opt AM1 SCF=XQC
 -----------------
 1/18=20,19=15,26=1,38=1/1,3;
 2/9=110,12=2,17=6,18=5,40=1/2;
 3/5=2,25=1,41=700000,71=1/1,2,3;
 4/35=1/1;
 5/5=2,8=3,13=1,35=1,38=5/2,8;
 6/7=2,8=2,9=2,10=2,28=1/1;
 7//1,2,3,16;
 1/18=20,19=15,26=1/3(2);
 2/9=110/2;
 99//99;
 2/9=110/2;
 3/5=2,25=1,41=700000,71=1,135=20/1,2,3;
 4/5=5,16=3,35=1/1;
 5/5=2,8=3,13=1,35=1,38=5/2,8;
 7//1,2,3,16;
 1/18=20,19=15,26=1/3(-5);
 2/9=110/2;
 6/7=2,8=2,9=2,10=2,19=2,28=1/1;
 99/9=1/99;
 ----------------
 BrBz_1245_RA am1
 ----------------
 Symbolic Z-matrix:
 Charge = -1 Multiplicity = 2
 C                     0.        1.39      0. 
 C                     1.20378   0.695     0. 
 C                     1.20378  -0.695     0. 
 C                     0.       -1.39      0. 
 C                    -1.20378  -0.695     0. 
 C                    -1.20378   0.695     0. 
 Br                    0.        3.29      0. 
 Br                    2.84922   1.645     0. 
 H                     2.13908  -1.235     0. 
 Br                    0.       -3.29      0. 
 Br                   -2.84922  -1.645     0. 
 H                    -2.13908   1.235     0. 
 

 GradGradGradGradGradGradGradGradGradGradGradGradGradGradGradGradGradGrad
 Berny optimization.
 Initialization pass.
                           ----------------------------
                           !    Initial Parameters    !
                           ! (Angstroms and Degrees)  !
 --------------------------                            --------------------------
 ! Name  Definition              Value          Derivative Info.                !
 --------------------------------------------------------------------------------
 ! R1    R(1,2)                  1.39           estimate D2E/DX2                !
 ! R2    R(1,6)                  1.39           estimate D2E/DX2                !
 ! R3    R(1,7)                  1.9            estimate D2E/DX2                !
 ! R4    R(2,3)                  1.39           estimate D2E/DX2                !
 ! R5    R(2,8)                  1.9            estimate D2E/DX2                !
 ! R6    R(3,4)                  1.39           estimate D2E/DX2                !
 ! R7    R(3,9)                  1.08           estimate D2E/DX2                !
 ! R8    R(4,5)                  1.39           estimate D2E/DX2                !
 ! R9    R(4,10)                 1.9            estimate D2E/DX2                !
 ! R10   R(5,6)                  1.39           estimate D2E/DX2                !
 ! R11   R(5,11)                 1.9            estimate D2E/DX2                !
 ! R12   R(6,12)                 1.08           estimate D2E/DX2                !
 ! A1    A(2,1,6)              120.0            estimate D2E/DX2                !
 ! A2    A(2,1,7)              120.0            estimate D2E/DX2                !
 ! A3    A(6,1,7)              120.0            estimate D2E/DX2                !
 ! A4    A(1,2,3)              120.0            estimate D2E/DX2                !
 ! A5    A(1,2,8)              120.0            estimate D2E/DX2                !
 ! A6    A(3,2,8)              120.0            estimate D2E/DX2                !
 ! A7    A(2,3,4)              120.0            estimate D2E/DX2                !
 ! A8    A(2,3,9)              120.0            estimate D2E/DX2                !
 ! A9    A(4,3,9)              120.0            estimate D2E/DX2                !
 ! A10   A(3,4,5)              120.0            estimate D2E/DX2                !
 ! A11   A(3,4,10)             120.0            estimate D2E/DX2                !
 ! A12   A(5,4,10)             120.0            estimate D2E/DX2                !
 ! A13   A(4,5,6)              120.0            estimate D2E/DX2                !
 ! A14   A(4,5,11)             120.0            estimate D2E/DX2                !
 ! A15   A(6,5,11)             120.0            estimate D2E/DX2                !
 ! A16   A(1,6,5)              120.0            estimate D2E/DX2                !
 ! A17   A(1,6,12)             120.0            estimate D2E/DX2                !
 ! A18   A(5,6,12)             120.0            estimate D2E/DX2                !
 ! D1    D(6,1,2,3)              0.0            estimate D2E/DX2                !
 ! D2    D(6,1,2,8)            180.0            estimate D2E/DX2                !
 ! D3    D(7,1,2,3)            180.0            estimate D2E/DX2                !
 ! D4    D(7,1,2,8)              0.0            estimate D2E/DX2                !
 ! D5    D(2,1,6,5)              0.0            estimate D2E/DX2                !
 ! D6    D(2,1,6,12)           180.0            estimate D2E/DX2                !
 ! D7    D(7,1,6,5)            180.0            estimate D2E/DX2                !
 ! D8    D(7,1,6,12)             0.0            estimate D2E/DX2                !
 ! D9    D(1,2,3,4)              0.0            estimate D2E/DX2                !
 ! D10   D(1,2,3,9)            180.0            estimate D2E/DX2                !
 ! D11   D(8,2,3,4)            180.0            estimate D2E/DX2                !
 ! D12   D(8,2,3,9)              0.0            estimate D2E/DX2                !
 ! D13   D(2,3,4,5)              0.0            estimate D2E/DX2                !
 ! D14   D(2,3,4,10)           180.0            estimate D2E/DX2                !
 ! D15   D(9,3,4,5)            180.0            estimate D2E/DX2                !
 ! D16   D(9,3,4,10)             0.0            estimate D2E/DX2                !
 ! D17   D(3,4,5,6)              0.0            estimate D2E/DX2                !
 ! D18   D(3,4,5,11)           180.0            estimate D2E/DX2                !
 ! D19   D(10,4,5,6)           180.0            estimate D2E/DX2                !
 ! D20   D(10,4,5,11)            0.0            estimate D2E/DX2                !
 ! D21   D(4,5,6,1)              0.0            estimate D2E/DX2                !
 ! D22   D(4,5,6,12)           180.0            estimate D2E/DX2                !
 ! D23   D(11,5,6,1)           180.0            estimate D2E/DX2                !
 ! D24   D(11,5,6,12)            0.0            estimate D2E/DX2                !
 --------------------------------------------------------------------------------
 Trust Radius=3.00D-01 FncErr=1.00D-07 GrdErr=1.00D-07 EigMax=2.50D+02 EigMin=1.00D-04
 Number of steps in this run=     64 maximum allowed number of steps=    100.
 GradGradGradGradGradGradGradGradGradGradGradGradGradGradGradGradGradGrad

                          Input orientation:                          
 ---------------------------------------------------------------------
 Center     Atomic      Atomic             Coordinates (Angstroms)
 Number     Number       Type             X           Y           Z
 ---------------------------------------------------------------------
      1          6           0        0.000000    1.390000    0.000000
      2          6           0        1.203775    0.695000    0.000000
      3          6           0        1.203775   -0.695000    0.000000
      4          6           0        0.000000   -1.390000    0.000000
      5          6           0       -1.203775   -0.695000    0.000000
      6          6           0       -1.203775    0.695000    0.000000
      7         35           0        0.000000    3.290000    0.000000
      8         35           0        2.849224    1.645000    0.000000
      9          1           0        2.139083   -1.235000    0.000000
     10         35           0        0.000000   -3.290000    0.000000
     11         35           0       -2.849224   -1.645000    0.000000
     12          1           0       -2.139083    1.235000    0.000000
 ---------------------------------------------------------------------
                    Distance matrix (angstroms):
                    1          2          3          4          5
     1  C    0.000000
     2  C    1.390000   0.000000
     3  C    2.407551   1.390000   0.000000
     4  C    2.780000   2.407551   1.390000   0.000000
     5  C    2.407551   2.780000   2.407551   1.390000   0.000000
     6  C    1.390000   2.407551   2.780000   2.407551   1.390000
     7  Br   1.900000   2.860612   4.162848   4.680000   4.162848
     8  Br   2.860612   1.900000   2.860612   4.162848   4.680000
     9  H    3.386193   2.144691   1.080000   2.144691   3.386193
    10  Br   4.680000   4.162848   2.860612   1.900000   2.860612
    11  Br   4.162848   4.680000   4.162848   2.860612   1.900000
    12  H    2.144691   3.386193   3.860000   3.386193   2.144691
                    6          7          8          9         10
     6  C    0.000000
     7  Br   2.860612   0.000000
     8  Br   4.162848   3.290000   0.000000
     9  H    3.860000   5.005127   2.966260   0.000000
    10  Br   4.162848   6.580000   5.698447   2.966260   0.000000
    11  Br   2.860612   5.698447   6.580000   5.005127   3.290000
    12  H    1.080000   2.966260   5.005127   4.940000   5.005127
                   11         12
    11  Br   0.000000
    12  H    2.966260   0.000000
 Stoichiometry    C6H2Br4(1-,2)
 Framework group  D2H[C2"(HC.CH),SG(C4Br4)]
 Deg. of freedom     6
 Full point group                 D2H     NOp   8
 Largest Abelian subgroup         D2H     NOp   8
 Largest concise Abelian subgroup D2      NOp   4
                         Standard orientation:                         
 ---------------------------------------------------------------------
 Center     Atomic      Atomic             Coordinates (Angstroms)
 Number     Number       Type             X           Y           Z
 ---------------------------------------------------------------------
      1          6           0       -0.000000    1.203775    0.695000
      2          6           0        0.000000    1.203775   -0.695000
      3          6           0        0.000000    0.000000   -1.390000
      4          6           0       -0.000000   -1.203775   -0.695000
      5          6           0       -0.000000   -1.203775    0.695000
      6          6           0       -0.000000   -0.000000    1.390000
      7         35           0       -0.000000    2.849224    1.645000
      8         35           0        0.000000    2.849224   -1.645000
      9          1           0        0.000000    0.000000   -2.470000
     10         35           0       -0.000000   -2.849224   -1.645000
     11         35           0       -0.000000   -2.849224    1.645000
     12          1           0       -0.000000   -0.000000    2.470000
 ---------------------------------------------------------------------
 Rotational constants (GHZ):           0.5398928           0.1919976           0.1416307
 Standard basis: VSTO-6G (5D, 7F)
 There are     9 symmetry adapted cartesian basis functions of AG  symmetry.
 There are     2 symmetry adapted cartesian basis functions of B1G symmetry.
 There are     3 symmetry adapted cartesian basis functions of B2G symmetry.
 There are     7 symmetry adapted cartesian basis functions of B3G symmetry.
 There are     2 symmetry adapted cartesian basis functions of AU  symmetry.
 There are     9 symmetry adapted cartesian basis functions of B1U symmetry.
 There are     7 symmetry adapted cartesian basis functions of B2U symmetry.
 There are     3 symmetry adapted cartesian basis functions of B3U symmetry.
 There are     9 symmetry adapted basis functions of AG  symmetry.
 There are     2 symmetry adapted basis functions of B1G symmetry.
 There are     3 symmetry adapted basis functions of B2G symmetry.
 There are     7 symmetry adapted basis functions of B3G symmetry.
 There are     2 symmetry adapted basis functions of AU  symmetry.
 There are     9 symmetry adapted basis functions of B1U symmetry.
 There are     7 symmetry adapted basis functions of B2U symmetry.
 There are     3 symmetry adapted basis functions of B3U symmetry.
    42 basis functions,   252 primitive gaussians,    42 cartesian basis functions
    28 alpha electrons       27 beta electrons
       nuclear repulsion energy       294.1981202744 Hartrees.
 Integral buffers will be    131072 words long.
 Regular integral format.
 Two-electron integral symmetry is turned off.
 Do NDO integrals.
 One-electron integrals computed using PRISM.
 NBasis=    42 RedAO= T EigKep=  1.00D+00  NBF=     9     2     3     7     2     9     7     3
 NBsUse=    42 1.00D-06 EigRej= -1.00D+00 NBFU=     9     2     3     7     2     9     7     3
 Nonelectrostatic core Hamiltonian diagonalized for initial guess.
 Initial guess orbital symmetries:
 Alpha Orbitals:
       Occupied  (AG) (B2U) (B1U) (B3G) (AG) (B1U) (B2U) (AG) (B3G)
                 (AG) (B1U) (B2U) (B3U) (B1U) (B2U) (AG) (B1G)
                 (B2G) (B3G) (AG) (AU) (B2U) (B3U) (B2G) (B3G)
                 (B1U) (B1G) (B1U)
       Virtual   (B3U) (AG) (AU) (B1U) (B3G) (AG) (B2G) (B2U) (AG)
                 (B3G) (B1U) (B2U) (B1U) (B3G)
 Beta  Orbitals:
       Occupied  (AG) (B2U) (B1U) (B3G) (AG) (B1U) (B2U) (AG) (B3G)
                 (AG) (B1U) (B2U) (B3U) (B1U) (B2U) (AG) (B1G)
                 (B2G) (B3G) (AG) (AU) (B2U) (B3U) (B2G) (B3G)
                 (B1U) (B1G)
       Virtual   (B1U) (B3U) (AG) (AU) (B1U) (B3G) (AG) (B2G) (B2U)
                 (AG) (B3G) (B1U) (B2U) (B1U) (B3G)
 The electronic state of the initial guess is 2-B1U.
 Initial guess <Sx>= 0.0000 <Sy>= 0.0000 <Sz>= 0.5000 <S**2>= 0.7500 S= 0.5000
 Keep J ints in memory in canonical form, NReq=864594.
 Overlap will be assumed to be unity.
 Requested convergence on RMS density matrix=1.00D-08 within  32 cycles.
 Requested convergence on MAX density matrix=1.00D-06.
 Requested convergence on             energy=1.00D-06.
 No special actions if energy rises.
 Fock symm off for IB=2 I1=    1 I=   10 J=    1 Cut=1.00D-07 Err=2.38D-03
 Fock matrix is not symmetric: symmetry in diagonalization turned off.
 SCF Done:  E(UAM1) =  0.645751197838E-01 A.U. after   18 cycles
            NFock= 17  Conv=0.86D-08     -V/T= 1.0005
 <Sx>= 0.0000 <Sy>= 0.0000 <Sz>= 0.5000 <S**2>= 0.7575 S= 0.5038
 <L.S>=  0.00000000000    
 Annihilation of the first spin contaminant:
 S**2 before annihilation     0.7575,   after     0.7500
 QCSCF skips out because SCF is already converged.

 **********************************************************************

            Population analysis using the SCF Density.

 **********************************************************************

 Orbital symmetries:
 Alpha Orbitals:
       Occupied  (AG) (B2U) (B1U) (B3G) (AG) (B1U) (B2U) (AG) (B3G)
                 (AG) (B2U) (B1U) (B3U) (B1U) (B2U) (B1G) (AG)
                 (B3G) (B2G) (AG) (B2U) (AU) (B3U) (B1U) (B3G)
                 (B2G) (B1G) (B1U)
       Virtual   (AG) (B3G) (AU) (B2U) (B3U) (B2G) (B1U) (AG) (B3G)
                 (AG) (B2U) (B1U) (B3G) (B1U)
 Beta  Orbitals:
       Occupied  (AG) (B2U) (B1U) (B3G) (AG) (B1U) (B2U) (AG) (B3G)
                 (AG) (B2U) (B1U) (B3U) (B1U) (B2U) (B1G) (AG)
                 (B3G) (B2G) (AG) (B2U) (AU) (B3U) (B1U) (B3G)
                 (B2G) (B1G)
       Virtual   (B3U) (AU) (AG) (B2U) (B1U) (B3G) (B2G) (B1U)
                 (AG) (B3G) (AG) (B2U) (B1U) (B3G) (B1U)
 The electronic state is 2-B1U.
 Alpha  occ. eigenvalues --   -1.31722  -1.09800  -1.06923  -1.00900  -0.99685
 Alpha  occ. eigenvalues --   -0.94954  -0.90069  -0.72342  -0.68301  -0.50510
 Alpha  occ. eigenvalues --   -0.46894  -0.44502  -0.39994  -0.39422  -0.38071
 Alpha  occ. eigenvalues --   -0.32326  -0.32210  -0.30602  -0.29122  -0.28368
 Alpha  occ. eigenvalues --   -0.27665  -0.27484  -0.25635  -0.24136  -0.24053
 Alpha  occ. eigenvalues --   -0.21146  -0.19687  -0.01834
 Alpha virt. eigenvalues --    0.12632   0.13198   0.13872   0.14442   0.14488
 Alpha virt. eigenvalues --    0.22827   0.27516   0.29114   0.30322   0.30870
 Alpha virt. eigenvalues --    0.31476   0.31812   0.33023   0.34165
  Beta  occ. eigenvalues --   -1.31389  -1.08894  -1.06294  -0.99747  -0.98603
  Beta  occ. eigenvalues --   -0.94064  -0.89170  -0.72123  -0.67200  -0.49780
  Beta  occ. eigenvalues --   -0.46709  -0.43681  -0.39644  -0.38264  -0.37338
  Beta  occ. eigenvalues --   -0.31912  -0.31736  -0.29708  -0.28816  -0.27918
  Beta  occ. eigenvalues --   -0.27244  -0.27077  -0.25186  -0.23701  -0.23587
  Beta  occ. eigenvalues --   -0.20939  -0.18903
  Beta virt. eigenvalues --    0.14660   0.14778   0.18339   0.18778   0.18989
  Beta virt. eigenvalues --    0.21257   0.23490   0.27624   0.29681   0.30381
  Beta virt. eigenvalues --    0.31245   0.32205   0.32686   0.33589   0.34394
          Condensed to atoms (all electrons):
               1          2          3          4          5          6
     1  C    4.141494   0.000000   0.000000   0.000000   0.000000   0.000000
     2  C    0.000000   4.141494   0.000000   0.000000   0.000000   0.000000
     3  C    0.000000   0.000000   4.123456   0.000000   0.000000   0.000000
     4  C    0.000000   0.000000   0.000000   4.141494   0.000000   0.000000
     5  C    0.000000   0.000000   0.000000   0.000000   4.141494   0.000000
     6  C    0.000000   0.000000   0.000000   0.000000   0.000000   4.123456
     7  Br   0.000000   0.000000   0.000000   0.000000   0.000000   0.000000
     8  Br   0.000000   0.000000   0.000000   0.000000   0.000000   0.000000
     9  H    0.000000   0.000000   0.000000   0.000000   0.000000   0.000000
    10  Br   0.000000   0.000000   0.000000   0.000000   0.000000   0.000000
    11  Br   0.000000   0.000000   0.000000   0.000000   0.000000   0.000000
    12  H    0.000000   0.000000   0.000000   0.000000   0.000000   0.000000
               7          8          9         10         11         12
     1  C    0.000000   0.000000   0.000000   0.000000   0.000000   0.000000
     2  C    0.000000   0.000000   0.000000   0.000000   0.000000   0.000000
     3  C    0.000000   0.000000   0.000000   0.000000   0.000000   0.000000
     4  C    0.000000   0.000000   0.000000   0.000000   0.000000   0.000000
     5  C    0.000000   0.000000   0.000000   0.000000   0.000000   0.000000
     6  C    0.000000   0.000000   0.000000   0.000000   0.000000   0.000000
     7  Br   7.112911   0.000000   0.000000   0.000000   0.000000   0.000000
     8  Br   0.000000   7.112911   0.000000   0.000000   0.000000   0.000000
     9  H    0.000000   0.000000   0.867734   0.000000   0.000000   0.000000
    10  Br   0.000000   0.000000   0.000000   7.112911   0.000000   0.000000
    11  Br   0.000000   0.000000   0.000000   0.000000   7.112911   0.000000
    12  H    0.000000   0.000000   0.000000   0.000000   0.000000   0.867734
          Atomic-Atomic Spin Densities.
               1          2          3          4          5          6
     1  C    0.099679   0.000000   0.000000   0.000000   0.000000   0.000000
     2  C    0.000000   0.099679   0.000000   0.000000   0.000000   0.000000
     3  C    0.000000   0.000000   0.002927   0.000000   0.000000   0.000000
     4  C    0.000000   0.000000   0.000000   0.099679   0.000000   0.000000
     5  C    0.000000   0.000000   0.000000   0.000000   0.099679   0.000000
     6  C    0.000000   0.000000   0.000000   0.000000   0.000000   0.002927
     7  Br   0.000000   0.000000   0.000000   0.000000   0.000000   0.000000
     8  Br   0.000000   0.000000   0.000000   0.000000   0.000000   0.000000
     9  H    0.000000   0.000000   0.000000   0.000000   0.000000   0.000000
    10  Br   0.000000   0.000000   0.000000   0.000000   0.000000   0.000000
    11  Br   0.000000   0.000000   0.000000   0.000000   0.000000   0.000000
    12  H    0.000000   0.000000   0.000000   0.000000   0.000000   0.000000
               7          8          9         10         11         12
     1  C    0.000000   0.000000   0.000000   0.000000   0.000000   0.000000
     2  C    0.000000   0.000000   0.000000   0.000000   0.000000   0.000000
     3  C    0.000000   0.000000   0.000000   0.000000   0.000000   0.000000
     4  C    0.000000   0.000000   0.000000   0.000000   0.000000   0.000000
     5  C    0.000000   0.000000   0.000000   0.000000   0.000000   0.000000
     6  C    0.000000   0.000000   0.000000   0.000000   0.000000   0.000000
     7  Br   0.148955   0.000000   0.000000   0.000000   0.000000   0.000000
     8  Br   0.000000   0.148955   0.000000   0.000000   0.000000   0.000000
     9  H    0.000000   0.000000  -0.000195   0.000000   0.000000   0.000000
    10  Br   0.000000   0.000000   0.000000   0.148955   0.000000   0.000000
    11  Br   0.000000   0.000000   0.000000   0.000000   0.148955   0.000000
    12  H    0.000000   0.000000   0.000000   0.000000   0.000000  -0.000195
 Mulliken charges and spin densities:
               1          2
     1  C   -0.141494   0.099679
     2  C   -0.141494   0.099679
     3  C   -0.123456   0.002927
     4  C   -0.141494   0.099679
     5  C   -0.141494   0.099679
     6  C   -0.123456   0.002927
     7  Br  -0.112911   0.148955
     8  Br  -0.112911   0.148955
     9  H    0.132266  -0.000195
    10  Br  -0.112911   0.148955
    11  Br  -0.112911   0.148955
    12  H    0.132266  -0.000195
 Sum of Mulliken charges =  -1.00000   1.00000
 Mulliken charges and spin densities with hydrogens summed into heavy atoms:
               1          2
     1  C   -0.141494   0.099679
     2  C   -0.141494   0.099679
     3  C    0.008810   0.002732
     4  C   -0.141494   0.099679
     5  C   -0.141494   0.099679
     6  C    0.008810   0.002732
     7  Br  -0.112911   0.148955
     8  Br  -0.112911   0.148955
    10  Br  -0.112911   0.148955
    11  Br  -0.112911   0.148955
 Charge=             -1.0000 electrons
 Dipole moment (field-independent basis, Debye):
    X=             -0.0000    Y=              0.0000    Z=              0.0000  Tot=              0.0000
 N-N= 2.941981202744D+02 E-N=-4.260371793099D+02  KE=-1.332500898427D+02
 Symmetry AG   KE=-2.884032862597D+01
 Symmetry B1G  KE=-8.536438789425D+00
 Symmetry B2G  KE=-8.491303986201D+00
 Symmetry B3G  KE=-2.141445327996D+01
 Symmetry AU   KE=-5.434722775475D+00
 Symmetry B1U  KE=-2.647611763514D+01
 Symmetry B2U  KE=-2.534600791009D+01
 Symmetry B3U  KE=-8.710716840415D+00
 Symmetry AG   SP=-1.904509536188D-15
 Symmetry B1G  SP=-1.013078509970D-15
 Symmetry B2G  SP=-1.020017403874D-15
 Symmetry B3G  SP= 1.793704074160D-15
 Symmetry AU   SP=-1.151856388049D-15
 Symmetry B1U  SP= 1.000000000000D+00
 Symmetry B2U  SP=-1.325328735646D-15
 Symmetry B3U  SP=-2.154526557163D-15
 Calling FoFJK, ICntrl=      2127 FMM=F ISym2X=1 I1Cent= 0 IOpClX= 1 NMat=1 NMatS=1 NMatT=0.
 ***** Axes restored to original set *****
 -------------------------------------------------------------------
 Center     Atomic                   Forces (Hartrees/Bohr)
 Number     Number              X              Y              Z
 -------------------------------------------------------------------
      1        6          -0.001161301    0.007165993   -0.000000000
      2        6           0.006786582    0.002577280   -0.000000000
      3        6          -0.004819511    0.002782546   -0.000000000
      4        6           0.001161301   -0.007165993   -0.000000000
      5        6          -0.006786582   -0.002577280   -0.000000000
      6        6           0.004819511   -0.002782546    0.000000000
      7       35          -0.002204878    0.008905128    0.000000000
      8       35           0.008814506    0.002543084   -0.000000000
      9        1           0.012774479   -0.007375349   -0.000000000
     10       35           0.002204878   -0.008905128    0.000000000
     11       35          -0.008814506   -0.002543084    0.000000000
     12        1          -0.012774479    0.007375349    0.000000000
 -------------------------------------------------------------------
 Cartesian Forces:  Max     0.012774479 RMS     0.005386604

 GradGradGradGradGradGradGradGradGradGradGradGradGradGradGradGradGradGrad
 Berny optimization.
 FormGI is forming the generalized inverse of G from B-inverse, IUseBI=4.
 Internal  Forces:  Max     0.015543559 RMS     0.006246952
 Search for a local minimum.
 Step number   1 out of a maximum of   64
 All quantities printed in internal units (Hartrees-Bohrs-Radians)
 Mixed Optimization -- RFO/linear search
 Second derivative matrix not updated -- first step.
 ITU=  0
     Eigenvalues ---    0.02221   0.02221   0.02221   0.02221   0.02221
     Eigenvalues ---    0.02221   0.02221   0.02221   0.02221   0.16000
     Eigenvalues ---    0.16000   0.18251   0.18251   0.18251   0.18251
     Eigenvalues ---    0.23000   0.23981   0.25000   0.25000   0.25000
     Eigenvalues ---    0.25000   0.25000   0.35994   0.35994   0.42995
     Eigenvalues ---    0.43333   0.47319   0.47319   0.47319   0.47319
 RFO step:  Lambda=-6.10084653D-03 EMin= 2.22103664D-02
 Linear search not attempted -- first point.
 Iteration  1 RMS(Cart)=  0.03289769 RMS(Int)=  0.00019264
 Iteration  2 RMS(Cart)=  0.00036100 RMS(Int)=  0.00000007
 Iteration  3 RMS(Cart)=  0.00000008 RMS(Int)=  0.00000000
 ClnCor:  largest displacement from symmetrization is 1.39D-11 for atom     9.
 Variable       Old X    -DE/DX   Delta X   Delta X   Delta X     New X
                                 (Linear)    (Quad)   (Total)
    R1        2.62672   0.01554   0.00000   0.03243   0.03243   2.65915
    R2        2.62672   0.01289   0.00000   0.02690   0.02690   2.65362
    R3        3.59048   0.00891   0.00000   0.04721   0.04721   3.63769
    R4        2.62672   0.01289   0.00000   0.02690   0.02690   2.65362
    R5        3.59048   0.00891   0.00000   0.04721   0.04721   3.63769
    R6        2.62672   0.01289   0.00000   0.02690   0.02690   2.65362
    R7        2.04090   0.01475   0.00000   0.04030   0.04030   2.08120
    R8        2.62672   0.01554   0.00000   0.03243   0.03243   2.65915
    R9        3.59048   0.00891   0.00000   0.04721   0.04721   3.63769
   R10        2.62672   0.01289   0.00000   0.02690   0.02690   2.65362
   R11        3.59048   0.00891   0.00000   0.04721   0.04721   3.63769
   R12        2.04090   0.01475   0.00000   0.04030   0.04030   2.08120
    A1        2.09440  -0.00213   0.00000  -0.00902  -0.00902   2.08538
    A2        2.09440   0.00502   0.00000   0.01996   0.01996   2.11436
    A3        2.09440  -0.00289   0.00000  -0.01095  -0.01095   2.08345
    A4        2.09440  -0.00213   0.00000  -0.00902  -0.00902   2.08538
    A5        2.09440   0.00502   0.00000   0.01996   0.01996   2.11436
    A6        2.09440  -0.00289   0.00000  -0.01095  -0.01095   2.08345
    A7        2.09440   0.00426   0.00000   0.01803   0.01803   2.11243
    A8        2.09440  -0.00213   0.00000  -0.00902  -0.00902   2.08538
    A9        2.09440  -0.00213   0.00000  -0.00902  -0.00902   2.08538
   A10        2.09440  -0.00213   0.00000  -0.00902  -0.00902   2.08538
   A11        2.09440  -0.00289   0.00000  -0.01095  -0.01095   2.08345
   A12        2.09440   0.00502   0.00000   0.01996   0.01996   2.11436
   A13        2.09440  -0.00213   0.00000  -0.00902  -0.00902   2.08538
   A14        2.09440   0.00502   0.00000   0.01996   0.01996   2.11436
   A15        2.09440  -0.00289   0.00000  -0.01095  -0.01095   2.08345
   A16        2.09440   0.00426   0.00000   0.01803   0.01803   2.11243
   A17        2.09440  -0.00213   0.00000  -0.00902  -0.00902   2.08538
   A18        2.09440  -0.00213   0.00000  -0.00902  -0.00902   2.08538
    D1        0.00000  -0.00000   0.00000  -0.00000   0.00000   0.00000
    D2        3.14159   0.00000   0.00000   0.00000   0.00000   3.14159
    D3        3.14159  -0.00000   0.00000  -0.00000   0.00000   3.14159
    D4        0.00000  -0.00000   0.00000  -0.00000  -0.00000   0.00000
    D5        0.00000   0.00000   0.00000   0.00000   0.00000   0.00000
    D6        3.14159  -0.00000   0.00000  -0.00000   0.00000   3.14159
    D7        3.14159   0.00000   0.00000   0.00000   0.00000   3.14159
    D8       -0.00000   0.00000   0.00000   0.00000   0.00000   0.00000
    D9       -0.00000  -0.00000   0.00000  -0.00000   0.00000   0.00000
   D10        3.14159   0.00000   0.00000   0.00000   0.00000   3.14159
   D11        3.14159  -0.00000   0.00000  -0.00000   0.00000   3.14159
   D12       -0.00000   0.00000   0.00000   0.00000   0.00000   0.00000
   D13       -0.00000   0.00000   0.00000   0.00000   0.00000   0.00000
   D14        3.14159   0.00000   0.00000   0.00000   0.00000   3.14159
   D15        3.14159  -0.00000   0.00000  -0.00000   0.00000   3.14159
   D16        0.00000   0.00000   0.00000   0.00000  -0.00000   0.00000
   D17        0.00000  -0.00000   0.00000  -0.00000   0.00000   0.00000
   D18        3.14159   0.00000   0.00000   0.00000   0.00000   3.14159
   D19        3.14159  -0.00000   0.00000  -0.00000   0.00000   3.14159
   D20       -0.00000  -0.00000   0.00000  -0.00000   0.00000   0.00000
   D21       -0.00000  -0.00000   0.00000  -0.00000   0.00000   0.00000
   D22        3.14159   0.00000   0.00000   0.00000   0.00000   3.14159
   D23        3.14159  -0.00000   0.00000  -0.00000   0.00000   3.14159
   D24        0.00000  -0.00000   0.00000  -0.00000  -0.00000   0.00000
         Item               Value     Threshold  Converged?
 Maximum Force            0.015544     0.000450     NO 
 RMS     Force            0.006247     0.000300     NO 
 Maximum Displacement     0.108195     0.001800     NO 
 RMS     Displacement     0.033059     0.001200     NO 
 Predicted change in Energy=-3.113069D-03
 GradGradGradGradGradGradGradGradGradGradGradGradGradGradGradGradGradGrad

                          Input orientation:                          
 ---------------------------------------------------------------------
 Center     Atomic      Atomic             Coordinates (Angstroms)
 Number     Number       Type             X           Y           Z
 ---------------------------------------------------------------------
      1          6           0        0.001873    1.410405   -0.000000
      2          6           0        1.220510    0.706825    0.000000
      3          6           0        1.207850   -0.697352   -0.000000
      4          6           0       -0.001873   -1.410405   -0.000000
      5          6           0       -1.220510   -0.706825   -0.000000
      6          6           0       -1.207850    0.697352   -0.000000
      7         35           0       -0.036555    3.335007   -0.000000
      8         35           0        2.906478    1.635846    0.000000
      9          1           0        2.161625   -1.248015   -0.000000
     10         35           0        0.036555   -3.335007   -0.000000
     11         35           0       -2.906478   -1.635846   -0.000000
     12          1           0       -2.161625    1.248015   -0.000000
 ---------------------------------------------------------------------
                    Distance matrix (angstroms):
                    1          2          3          4          5
     1  C    0.000000
     2  C    1.407161   0.000000
     3  C    2.428379   1.404234   0.000000
     4  C    2.820813   2.444767   1.404234   0.000000
     5  C    2.444767   2.820813   2.428379   1.407161   0.000000
     6  C    1.404234   2.428379   2.789409   2.428379   1.404234
     7  Br   1.924985   2.913341   4.220007   4.745539   4.211668
     8  Br   2.913341   1.924985   2.886027   4.211668   4.745539
     9  H    3.425161   2.169584   1.101325   2.169584   3.425161
    10  Br   4.745539   4.211668   2.886027   1.924985   2.913341
    11  Br   4.211668   4.745539   4.220007   2.913341   1.924985
    12  H    2.169584   3.425161   3.890734   3.425161   2.169584
                    6          7          8          9         10
     6  C    0.000000
     7  Br   2.886027   0.000000
     8  Br   4.220007   3.398322   0.000000
     9  H    3.890734   5.082920   2.978499   0.000000
    10  Br   4.220007   6.670414   5.739846   2.978499   0.000000
    11  Br   2.886027   5.739846   6.670414   5.082920   3.398322
    12  H    1.101325   2.978499   5.082920   4.992058   5.082920
                   11         12
    11  Br   0.000000
    12  H    2.978499   0.000000
 Stoichiometry    C6H2Br4(1-,2)
 Framework group  D2H[C2"(HC.CH),SG(C4Br4)]
 Deg. of freedom     6
 Full point group                 D2H     NOp   8
 Largest Abelian subgroup         D2H     NOp   8
 Largest concise Abelian subgroup D2      NOp   4
                         Standard orientation:                         
 ---------------------------------------------------------------------
 Center     Atomic      Atomic             Coordinates (Angstroms)
 Number     Number       Type             X           Y           Z
 ---------------------------------------------------------------------
      1          6           0        0.000000    1.222383    0.703581
      2          6           0        0.000000    1.222383   -0.703581
      3          6           0       -0.000000   -0.000000   -1.394705
      4          6           0       -0.000000   -1.222383   -0.703581
      5          6           0       -0.000000   -1.222383    0.703581
      6          6           0       -0.000000    0.000000    1.394705
      7         35           0        0.000000    2.869923    1.699161
      8         35           0        0.000000    2.869923   -1.699161
      9          1           0       -0.000000   -0.000000   -2.496029
     10         35           0       -0.000000   -2.869923   -1.699161
     11         35           0       -0.000000   -2.869923    1.699161
     12          1           0       -0.000000    0.000000    2.496029
 ---------------------------------------------------------------------
 Rotational constants (GHZ):           0.5082253           0.1891564           0.1378500
 Standard basis: VSTO-6G (5D, 7F)
 There are     9 symmetry adapted cartesian basis functions of AG  symmetry.
 There are     2 symmetry adapted cartesian basis functions of B1G symmetry.
 There are     3 symmetry adapted cartesian basis functions of B2G symmetry.
 There are     7 symmetry adapted cartesian basis functions of B3G symmetry.
 There are     2 symmetry adapted cartesian basis functions of AU  symmetry.
 There are     9 symmetry adapted cartesian basis functions of B1U symmetry.
 There are     7 symmetry adapted cartesian basis functions of B2U symmetry.
 There are     3 symmetry adapted cartesian basis functions of B3U symmetry.
 There are     9 symmetry adapted basis functions of AG  symmetry.
 There are     2 symmetry adapted basis functions of B1G symmetry.
 There are     3 symmetry adapted basis functions of B2G symmetry.
 There are     7 symmetry adapted basis functions of B3G symmetry.
 There are     2 symmetry adapted basis functions of AU  symmetry.
 There are     9 symmetry adapted basis functions of B1U symmetry.
 There are     7 symmetry adapted basis functions of B2U symmetry.
 There are     3 symmetry adapted basis functions of B3U symmetry.
    42 basis functions,   252 primitive gaussians,    42 cartesian basis functions
    28 alpha electrons       27 beta electrons
       nuclear repulsion energy       291.6655978105 Hartrees.
 Integral buffers will be    131072 words long.
 Regular integral format.
 Two-electron integral symmetry is turned off.
 Do NDO integrals.
 One-electron integrals computed using PRISM.
 NBasis=    42 RedAO= T EigKep=  1.00D+00  NBF=     9     2     3     7     2     9     7     3
 NBsUse=    42 1.00D-06 EigRej= -1.00D+00 NBFU=     9     2     3     7     2     9     7     3
 Initial guess from the checkpoint file:  "calcs/am1/chks/BrBz_1245_RA.chk"
 B after Tr=     0.000000    0.000000   -0.000000
         Rot=    1.000000    0.000000    0.000000    0.000000 Ang=   0.00 deg.
 Initial guess orbital symmetries:
 Alpha Orbitals:
       Occupied  (AG) (B2U) (B1U) (B3G) (AG) (B1U) (B2U) (AG) (B3G)
                 (AG) (B2U) (B1U) (B3U) (B1U) (B2U) (B1G) (AG)
                 (B3G) (B2G) (AG) (B2U) (AU) (B3U) (B1U) (B3G)
                 (B2G) (B1G) (B1U)
       Virtual   (AG) (B3G) (AU) (B2U) (B3U) (B2G) (B1U) (AG) (B3G)
                 (AG) (B2U) (B1U) (B3G) (B1U)
 Beta  Orbitals:
       Occupied  (AG) (B2U) (B1U) (B3G) (AG) (B1U) (B2U) (AG) (B3G)
                 (AG) (B2U) (B1U) (B3U) (B1U) (B2U) (B1G) (AG)
                 (B3G) (B2G) (AG) (B2U) (AU) (B3U) (B1U) (B3G)
                 (B2G) (B1G)
       Virtual   (B3U) (AU) (AG) (B2U) (B1U) (B3G) (B2G) (B1U)
                 (AG) (B3G) (AG) (B2U) (B1U) (B3G) (B1U)
 Initial guess <Sx>= 0.0000 <Sy>= 0.0000 <Sz>= 0.5000 <S**2>= 0.7575 S= 0.5038
 Keep J ints in memory in canonical form, NReq=864594.
 Overlap will be assumed to be unity.
 Requested convergence on RMS density matrix=1.00D-08 within  32 cycles.
 Requested convergence on MAX density matrix=1.00D-06.
 Requested convergence on             energy=1.00D-06.
 No special actions if energy rises.
 Fock symm off for IB=2 I1=    1 I=   10 J=    8 Cut=1.00D-07 Err=4.48D-04
 Fock matrix is not symmetric: symmetry in diagonalization turned off.
 SCF Done:  E(UAM1) =  0.629253635647E-01 A.U. after   14 cycles
            NFock= 13  Conv=0.59D-08     -V/T= 1.0005
 <Sx>= 0.0000 <Sy>= 0.0000 <Sz>= 0.5000 <S**2>= 0.7582 S= 0.5041
 <L.S>=  0.00000000000    
 Annihilation of the first spin contaminant:
 S**2 before annihilation     0.7582,   after     0.7500
 QCSCF skips out because SCF is already converged.
 Calling FoFJK, ICntrl=      2127 FMM=F ISym2X=1 I1Cent= 0 IOpClX= 1 NMat=1 NMatS=1 NMatT=0.
 ***** Axes restored to original set *****
 -------------------------------------------------------------------
 Center     Atomic                   Forces (Hartrees/Bohr)
 Number     Number              X              Y              Z
 -------------------------------------------------------------------
      1        6           0.001948383   -0.008670620   -0.000000000
      2        6          -0.008483169   -0.002647961   -0.000000000
      3        6          -0.007258308    0.004190586   -0.000000000
      4        6          -0.001948383    0.008670620   -0.000000000
      5        6           0.008483169    0.002647961   -0.000000000
      6        6           0.007258308   -0.004190586    0.000000000
      7       35           0.000261540   -0.002919861    0.000000000
      8       35          -0.002659443   -0.001233430    0.000000000
      9        1          -0.000902010    0.000520776   -0.000000000
     10       35          -0.000261540    0.002919861    0.000000000
     11       35           0.002659443    0.001233430    0.000000000
     12        1           0.000902010   -0.000520776    0.000000000
 -------------------------------------------------------------------
 Cartesian Forces:  Max     0.008670620 RMS     0.003700365

 GradGradGradGradGradGradGradGradGradGradGradGradGradGradGradGradGradGrad
 Berny optimization.
 Using GEDIIS/GDIIS optimizer.
 FormGI is forming the generalized inverse of G from B-inverse, IUseBI=4.
 Internal  Forces:  Max     0.012420452 RMS     0.003738689
 Search for a local minimum.
 Step number   2 out of a maximum of   64
 All quantities printed in internal units (Hartrees-Bohrs-Radians)
 Mixed Optimization -- RFO/linear search
 Update second derivatives using D2CorX and points    1    2
 DE= -1.65D-03 DEPred=-3.11D-03 R= 5.30D-01
 TightC=F SS=  1.41D+00  RLast= 1.43D-01 DXNew= 5.0454D-01 4.2992D-01
 Trust test= 5.30D-01 RLast= 1.43D-01 DXMaxT set to 4.30D-01
 ITU=  1  0
 Use linear search instead of GDIIS.
     Eigenvalues ---    0.02221   0.02221   0.02221   0.02221   0.02221
     Eigenvalues ---    0.02221   0.02221   0.02221   0.02221   0.16000
     Eigenvalues ---    0.16000   0.18251   0.18251   0.18251   0.18793
     Eigenvalues ---    0.22699   0.23969   0.24598   0.25000   0.25000
     Eigenvalues ---    0.25000   0.25000   0.34359   0.35994   0.43006
     Eigenvalues ---    0.43466   0.47318   0.47319   0.47319   0.72314
 RFO step:  Lambda=-2.61891096D-04 EMin= 2.22103664D-02
 Quartic linear search produced a step of -0.31378.
 Iteration  1 RMS(Cart)=  0.00893411 RMS(Int)=  0.00000166
 Iteration  2 RMS(Cart)=  0.00000272 RMS(Int)=  0.00000000
 Iteration  3 RMS(Cart)=  0.00000000 RMS(Int)=  0.00000000
 ClnCor:  largest displacement from symmetrization is 6.75D-12 for atom    12.
 Variable       Old X    -DE/DX   Delta X   Delta X   Delta X     New X
                                 (Linear)    (Quad)   (Total)
    R1        2.65915  -0.01242  -0.01018  -0.00668  -0.01686   2.64229
    R2        2.65362  -0.01009  -0.00844  -0.00524  -0.01368   2.63994
    R3        3.63769  -0.00292  -0.01482   0.00487  -0.00995   3.62775
    R4        2.65362  -0.01009  -0.00844  -0.00524  -0.01368   2.63994
    R5        3.63769  -0.00292  -0.01482   0.00487  -0.00995   3.62775
    R6        2.65362  -0.01009  -0.00844  -0.00524  -0.01368   2.63994
    R7        2.08120  -0.00104  -0.01264   0.01198  -0.00067   2.08053
    R8        2.65915  -0.01242  -0.01018  -0.00668  -0.01686   2.64229
    R9        3.63769  -0.00292  -0.01482   0.00487  -0.00995   3.62775
   R10        2.65362  -0.01009  -0.00844  -0.00524  -0.01368   2.63994
   R11        3.63769  -0.00292  -0.01482   0.00487  -0.00995   3.62775
   R12        2.08120  -0.00104  -0.01264   0.01198  -0.00067   2.08053
    A1        2.08538   0.00026   0.00283  -0.00230   0.00053   2.08590
    A2        2.11436  -0.00050  -0.00626   0.00542  -0.00085   2.11351
    A3        2.08345   0.00024   0.00344  -0.00311   0.00032   2.08377
    A4        2.08538   0.00026   0.00283  -0.00230   0.00053   2.08590
    A5        2.11436  -0.00050  -0.00626   0.00542  -0.00085   2.11351
    A6        2.08345   0.00024   0.00344  -0.00311   0.00032   2.08377
    A7        2.11243  -0.00051  -0.00566   0.00461  -0.00105   2.11138
    A8        2.08538   0.00026   0.00283  -0.00230   0.00053   2.08590
    A9        2.08538   0.00026   0.00283  -0.00230   0.00053   2.08590
   A10        2.08538   0.00026   0.00283  -0.00230   0.00053   2.08590
   A11        2.08345   0.00024   0.00344  -0.00311   0.00032   2.08377
   A12        2.11436  -0.00050  -0.00626   0.00542  -0.00085   2.11351
   A13        2.08538   0.00026   0.00283  -0.00230   0.00053   2.08590
   A14        2.11436  -0.00050  -0.00626   0.00542  -0.00085   2.11351
   A15        2.08345   0.00024   0.00344  -0.00311   0.00032   2.08377
   A16        2.11243  -0.00051  -0.00566   0.00461  -0.00105   2.11138
   A17        2.08538   0.00026   0.00283  -0.00230   0.00053   2.08590
   A18        2.08538   0.00026   0.00283  -0.00230   0.00053   2.08590
    D1       -0.00000  -0.00000   0.00000  -0.00000   0.00000   0.00000
    D2        3.14159   0.00000   0.00000   0.00000   0.00000   3.14159
    D3        3.14159  -0.00000   0.00000  -0.00000   0.00000   3.14159
    D4        0.00000  -0.00000   0.00000  -0.00000   0.00000   0.00000
    D5        0.00000   0.00000   0.00000   0.00000   0.00000   0.00000
    D6        3.14159  -0.00000   0.00000  -0.00000   0.00000   3.14159
    D7        3.14159   0.00000   0.00000   0.00000   0.00000   3.14159
    D8        0.00000   0.00000   0.00000   0.00000   0.00000   0.00000
    D9       -0.00000  -0.00000   0.00000  -0.00000   0.00000   0.00000
   D10        3.14159   0.00000   0.00000   0.00000   0.00000   3.14159
   D11        3.14159  -0.00000   0.00000  -0.00000   0.00000   3.14159
   D12       -0.00000  -0.00000   0.00000  -0.00000   0.00000   0.00000
   D13       -0.00000   0.00000   0.00000   0.00000   0.00000   0.00000
   D14        3.14159   0.00000   0.00000   0.00000   0.00000   3.14159
   D15        3.14159  -0.00000   0.00000  -0.00000   0.00000   3.14159
   D16       -0.00000   0.00000   0.00000   0.00000   0.00000   0.00000
   D17        0.00000  -0.00000   0.00000  -0.00000   0.00000   0.00000
   D18        3.14159   0.00000   0.00000   0.00000   0.00000   3.14159
   D19        3.14159  -0.00000   0.00000  -0.00000   0.00000   3.14159
   D20        0.00000  -0.00000   0.00000  -0.00000   0.00000   0.00000
   D21       -0.00000  -0.00000   0.00000  -0.00000   0.00000   0.00000
   D22        3.14159   0.00000   0.00000   0.00000   0.00000   3.14159
   D23        3.14159  -0.00000   0.00000  -0.00000   0.00000   3.14159
   D24       -0.00000  -0.00000   0.00000  -0.00000   0.00000   0.00000
         Item               Value     Threshold  Converged?
 Maximum Force            0.012420     0.000450     NO 
 RMS     Force            0.003739     0.000300     NO 
 Maximum Displacement     0.025007     0.001800     NO 
 RMS     Displacement     0.008934     0.001200     NO 
 Predicted change in Energy=-5.330103D-04
 GradGradGradGradGradGradGradGradGradGradGradGradGradGradGradGradGradGrad

                          Input orientation:                          
 ---------------------------------------------------------------------
 Center     Atomic      Atomic             Coordinates (Angstroms)
 Number     Number       Type             X           Y           Z
 ---------------------------------------------------------------------
      1          6           0        0.002403    1.402404   -0.000000
      2          6           0        1.213316    0.703284   -0.000000
      3          6           0        1.201455   -0.693660   -0.000000
      4          6           0       -0.002403   -1.402404   -0.000000
      5          6           0       -1.213316   -0.703284   -0.000000
      6          6           0       -1.201455    0.693660   -0.000000
      7         35           0       -0.034292    3.321773   -0.000000
      8         35           0        2.893886    1.631189   -0.000000
      9          1           0        2.154923   -1.244146   -0.000000
     10         35           0        0.034292   -3.321773   -0.000000
     11         35           0       -2.893886   -1.631189   -0.000000
     12          1           0       -2.154923    1.244146   -0.000000
 ---------------------------------------------------------------------
                    Distance matrix (angstroms):
                    1          2          3          4          5
     1  C    0.000000
     2  C    1.398241   0.000000
     3  C    2.414790   1.396994   0.000000
     4  C    2.804813   2.431439   1.396994   0.000000
     5  C    2.431439   2.804813   2.414790   1.398241   0.000000
     6  C    1.396994   2.414790   2.774642   2.414790   1.396994
     7  Br   1.919720   2.900520   4.201283   4.724285   4.194184
     8  Br   2.900520   1.919720   2.875630   4.194184   4.724285
     9  H    3.411388   2.163124   1.100970   2.163124   3.411388
    10  Br   4.724285   4.194184   2.875630   1.919720   2.900520
    11  Br   4.194184   4.724285   4.201283   2.900520   1.919720
    12  H    2.163124   3.411388   3.875612   3.411388   2.163124
                    6          7          8          9         10
     6  C    0.000000
     7  Br   2.875630   0.000000
     8  Br   4.201283   3.381170   0.000000
     9  H    3.875612   5.063623   2.968773   0.000000
    10  Br   4.201283   6.643901   5.719188   2.968773   0.000000
    11  Br   2.875630   5.719188   6.643901   5.063623   3.381170
    12  H    1.100970   2.968773   5.063623   4.976582   5.063623
                   11         12
    11  Br   0.000000
    12  H    2.968773   0.000000
 Stoichiometry    C6H2Br4(1-,2)
 Framework group  D2H[C2"(HC.CH),SG(C4Br4)]
 Deg. of freedom     6
 Full point group                 D2H     NOp   8
 Largest Abelian subgroup         D2H     NOp   8
 Largest concise Abelian subgroup D2      NOp   4
                         Standard orientation:                         
 ---------------------------------------------------------------------
 Center     Atomic      Atomic             Coordinates (Angstroms)
 Number     Number       Type             X           Y           Z
 ---------------------------------------------------------------------
      1          6           0       -0.000000    1.215719    0.699121
      2          6           0        0.000000    1.215719   -0.699121
      3          6           0        0.000000    0.000000   -1.387321
      4          6           0       -0.000000   -1.215719   -0.699121
      5          6           0       -0.000000   -1.215719    0.699121
      6          6           0       -0.000000   -0.000000    1.387321
      7         35           0       -0.000000    2.859594    1.690585
      8         35           0        0.000000    2.859594   -1.690585
      9          1           0        0.000000    0.000000   -2.488291
     10         35           0       -0.000000   -2.859594   -1.690585
     11         35           0       -0.000000   -2.859594    1.690585
     12          1           0       -0.000000   -0.000000    2.488291
 ---------------------------------------------------------------------
 Rotational constants (GHZ):           0.5134131           0.1905443           0.1389686
 Standard basis: VSTO-6G (5D, 7F)
 There are     9 symmetry adapted cartesian basis functions of AG  symmetry.
 There are     2 symmetry adapted cartesian basis functions of B1G symmetry.
 There are     3 symmetry adapted cartesian basis functions of B2G symmetry.
 There are     7 symmetry adapted cartesian basis functions of B3G symmetry.
 There are     2 symmetry adapted cartesian basis functions of AU  symmetry.
 There are     9 symmetry adapted cartesian basis functions of B1U symmetry.
 There are     7 symmetry adapted cartesian basis functions of B2U symmetry.
 There are     3 symmetry adapted cartesian basis functions of B3U symmetry.
 There are     9 symmetry adapted basis functions of AG  symmetry.
 There are     2 symmetry adapted basis functions of B1G symmetry.
 There are     3 symmetry adapted basis functions of B2G symmetry.
 There are     7 symmetry adapted basis functions of B3G symmetry.
 There are     2 symmetry adapted basis functions of AU  symmetry.
 There are     9 symmetry adapted basis functions of B1U symmetry.
 There are     7 symmetry adapted basis functions of B2U symmetry.
 There are     3 symmetry adapted basis functions of B3U symmetry.
    42 basis functions,   252 primitive gaussians,    42 cartesian basis functions
    28 alpha electrons       27 beta electrons
       nuclear repulsion energy       292.4554226909 Hartrees.
 Integral buffers will be    131072 words long.
 Regular integral format.
 Two-electron integral symmetry is turned off.
 Do NDO integrals.
 One-electron integrals computed using PRISM.
 NBasis=    42 RedAO= T EigKep=  1.00D+00  NBF=     9     2     3     7     2     9     7     3
 NBsUse=    42 1.00D-06 EigRej= -1.00D+00 NBFU=     9     2     3     7     2     9     7     3
 Initial guess from the checkpoint file:  "calcs/am1/chks/BrBz_1245_RA.chk"
 B after Tr=     0.000000   -0.000000    0.000000
         Rot=    1.000000   -0.000000    0.000000   -0.000000 Ang=   0.00 deg.
 Initial guess orbital symmetries:
 Alpha Orbitals:
       Occupied  (AG) (B2U) (B1U) (B3G) (AG) (B1U) (B2U) (AG) (B3G)
                 (AG) (B2U) (B1U) (B3U) (B1U) (B2U) (AG) (B1G)
                 (B3G) (B2G) (AG) (AU) (B2U) (B3U) (B1U) (B3G)
                 (B2G) (B1G) (B1U)
       Virtual   (AG) (B3G) (AU) (B2U) (B3U) (B2G) (B1U) (AG) (B3G)
                 (AG) (B2U) (B1U) (B3G) (B1U)
 Beta  Orbitals:
       Occupied  (AG) (B2U) (B1U) (B3G) (AG) (B1U) (B2U) (AG) (B3G)
                 (AG) (B2U) (B1U) (B3U) (B1U) (B2U) (B1G) (AG)
                 (B3G) (B2G) (AG) (AU) (B2U) (B3U) (B1U) (B3G)
                 (B2G) (B1G)
       Virtual   (B3U) (AU) (AG) (B1U) (B2U) (B3G) (B2G) (B1U)
                 (AG) (B3G) (AG) (B2U) (B1U) (B3G) (B1U)
 Initial guess <Sx>= 0.0000 <Sy>= 0.0000 <Sz>= 0.5000 <S**2>= 0.7582 S= 0.5041
 Keep J ints in memory in canonical form, NReq=864594.
 Overlap will be assumed to be unity.
 Requested convergence on RMS density matrix=1.00D-08 within  32 cycles.
 Requested convergence on MAX density matrix=1.00D-06.
 Requested convergence on             energy=1.00D-06.
 No special actions if energy rises.
 Fock symm off for IB=2 I1=    1 I=   10 J=    1 Cut=1.00D-07 Err=1.31D-04
 Fock matrix is not symmetric: symmetry in diagonalization turned off.
 SCF Done:  E(UAM1) =  0.623955628751E-01 A.U. after   13 cycles
            NFock= 12  Conv=0.29D-08     -V/T= 1.0005
 <Sx>= 0.0000 <Sy>= 0.0000 <Sz>= 0.5000 <S**2>= 0.7580 S= 0.5040
 <L.S>=  0.00000000000    
 Annihilation of the first spin contaminant:
 S**2 before annihilation     0.7580,   after     0.7500
 QCSCF skips out because SCF is already converged.
 Calling FoFJK, ICntrl=      2127 FMM=F ISym2X=1 I1Cent= 0 IOpClX= 1 NMat=1 NMatS=1 NMatT=0.
 ***** Axes restored to original set *****
 -------------------------------------------------------------------
 Center     Atomic                   Forces (Hartrees/Bohr)
 Number     Number              X              Y              Z
 -------------------------------------------------------------------
      1        6           0.000299209    0.000616087   -0.000000000
      2        6           0.000383942    0.000567166   -0.000000000
      3        6           0.000895318   -0.000516912   -0.000000000
      4        6          -0.000299209   -0.000616087    0.000000000
      5        6          -0.000383942   -0.000567166   -0.000000000
      6        6          -0.000895318    0.000516912   -0.000000000
      7       35           0.000045856   -0.000170621    0.000000000
      8       35          -0.000170690   -0.000045598   -0.000000000
      9        1          -0.000160889    0.000092889   -0.000000000
     10       35          -0.000045856    0.000170621    0.000000000
     11       35           0.000170690    0.000045598    0.000000000
     12        1           0.000160889   -0.000092889    0.000000000
 -------------------------------------------------------------------
 Cartesian Forces:  Max     0.000895318 RMS     0.000341883

 GradGradGradGradGradGradGradGradGradGradGradGradGradGradGradGradGradGrad
 Berny optimization.
 Using GEDIIS/GDIIS optimizer.
 FormGI is forming the generalized inverse of G from B-inverse, IUseBI=4.
 Internal  Forces:  Max     0.000694756 RMS     0.000215220
 Search for a local minimum.
 Step number   3 out of a maximum of   64
 All quantities printed in internal units (Hartrees-Bohrs-Radians)
 Mixed Optimization -- En-DIIS/RFO-DIIS
 Update second derivatives using D2CorX and points    1    2    3
 DE= -5.30D-04 DEPred=-5.33D-04 R= 9.94D-01
 TightC=F SS=  1.41D+00  RLast= 4.15D-02 DXNew= 7.2303D-01 1.2447D-01
 Trust test= 9.94D-01 RLast= 4.15D-02 DXMaxT set to 4.30D-01
 ITU=  1  1  0
 Use linear search instead of GDIIS.
     Eigenvalues ---    0.02221   0.02221   0.02221   0.02221   0.02221
     Eigenvalues ---    0.02221   0.02221   0.02221   0.02221   0.16000
     Eigenvalues ---    0.16000   0.18251   0.18251   0.18251   0.18651
     Eigenvalues ---    0.22896   0.23970   0.24747   0.25000   0.25000
     Eigenvalues ---    0.25000   0.25000   0.34739   0.35994   0.42967
     Eigenvalues ---    0.43429   0.47272   0.47319   0.47319   0.75422
 RFO step:  Lambda=-3.53181439D-06 EMin= 2.22103664D-02
 Quartic linear search produced a step of -0.03594.
 Iteration  1 RMS(Cart)=  0.00067486 RMS(Int)=  0.00000018
 Iteration  2 RMS(Cart)=  0.00000031 RMS(Int)=  0.00000000
 ClnCor:  largest displacement from symmetrization is 6.45D-11 for atom    12.
 Variable       Old X    -DE/DX   Delta X   Delta X   Delta X     New X
                                 (Linear)    (Quad)   (Total)
    R1        2.64229   0.00035   0.00061  -0.00026   0.00035   2.64264
    R2        2.63994   0.00069   0.00049   0.00062   0.00111   2.64104
    R3        3.62775  -0.00017   0.00036  -0.00153  -0.00117   3.62658
    R4        2.63994   0.00069   0.00049   0.00062   0.00111   2.64104
    R5        3.62775  -0.00017   0.00036  -0.00153  -0.00117   3.62658
    R6        2.63994   0.00069   0.00049   0.00062   0.00111   2.64104
    R7        2.08053  -0.00019   0.00002  -0.00066  -0.00064   2.07989
    R8        2.64229   0.00035   0.00061  -0.00026   0.00035   2.64264
    R9        3.62775  -0.00017   0.00036  -0.00153  -0.00117   3.62658
   R10        2.63994   0.00069   0.00049   0.00062   0.00111   2.64104
   R11        3.62775  -0.00017   0.00036  -0.00153  -0.00117   3.62658
   R12        2.08053  -0.00019   0.00002  -0.00066  -0.00064   2.07989
    A1        2.08590   0.00007  -0.00002   0.00035   0.00033   2.08624
    A2        2.11351  -0.00011   0.00003  -0.00055  -0.00052   2.11300
    A3        2.08377   0.00004  -0.00001   0.00019   0.00018   2.08395
    A4        2.08590   0.00007  -0.00002   0.00035   0.00033   2.08624
    A5        2.11351  -0.00011   0.00003  -0.00055  -0.00052   2.11300
    A6        2.08377   0.00004  -0.00001   0.00019   0.00018   2.08395
    A7        2.11138  -0.00014   0.00004  -0.00070  -0.00067   2.11071
    A8        2.08590   0.00007  -0.00002   0.00035   0.00033   2.08624
    A9        2.08590   0.00007  -0.00002   0.00035   0.00033   2.08624
   A10        2.08590   0.00007  -0.00002   0.00035   0.00033   2.08624
   A11        2.08377   0.00004  -0.00001   0.00019   0.00018   2.08395
   A12        2.11351  -0.00011   0.00003  -0.00055  -0.00052   2.11300
   A13        2.08590   0.00007  -0.00002   0.00035   0.00033   2.08624
   A14        2.11351  -0.00011   0.00003  -0.00055  -0.00052   2.11300
   A15        2.08377   0.00004  -0.00001   0.00019   0.00018   2.08395
   A16        2.11138  -0.00014   0.00004  -0.00070  -0.00067   2.11071
   A17        2.08590   0.00007  -0.00002   0.00035   0.00033   2.08624
   A18        2.08590   0.00007  -0.00002   0.00035   0.00033   2.08624
    D1        0.00000  -0.00000   0.00000  -0.00000   0.00000   0.00000
    D2        3.14159   0.00000   0.00000   0.00000   0.00000   3.14159
    D3        3.14159  -0.00000   0.00000  -0.00000   0.00000   3.14159
    D4        0.00000  -0.00000   0.00000  -0.00000  -0.00000   0.00000
    D5        0.00000   0.00000   0.00000   0.00000   0.00000   0.00000
    D6        3.14159  -0.00000   0.00000  -0.00000   0.00000   3.14159
    D7        3.14159   0.00000   0.00000   0.00000   0.00000   3.14159
    D8        0.00000   0.00000   0.00000   0.00000   0.00000   0.00000
    D9       -0.00000  -0.00000   0.00000  -0.00000   0.00000   0.00000
   D10        3.14159   0.00000   0.00000   0.00000   0.00000   3.14159
   D11        3.14159  -0.00000   0.00000  -0.00000   0.00000   3.14159
   D12       -0.00000  -0.00000   0.00000  -0.00000   0.00000   0.00000
   D13       -0.00000   0.00000   0.00000   0.00000   0.00000   0.00000
   D14        3.14159   0.00000   0.00000   0.00000   0.00000   3.14159
   D15        3.14159  -0.00000   0.00000  -0.00000   0.00000   3.14159
   D16       -0.00000   0.00000   0.00000   0.00000   0.00000   0.00000
   D17        0.00000  -0.00000   0.00000  -0.00000   0.00000   0.00000
   D18        3.14159   0.00000   0.00000   0.00000   0.00000   3.14159
   D19        3.14159  -0.00000   0.00000  -0.00000   0.00000   3.14159
   D20        0.00000  -0.00000   0.00000  -0.00000  -0.00000   0.00000
   D21       -0.00000  -0.00000   0.00000  -0.00000   0.00000   0.00000
   D22        3.14159   0.00000   0.00000   0.00000   0.00000   3.14159
   D23        3.14159  -0.00000   0.00000  -0.00000   0.00000   3.14159
   D24       -0.00000  -0.00000   0.00000  -0.00000   0.00000   0.00000
         Item               Value     Threshold  Converged?
 Maximum Force            0.000695     0.000450     NO 
 RMS     Force            0.000215     0.000300     YES
 Maximum Displacement     0.002007     0.001800     NO 
 RMS     Displacement     0.000675     0.001200     YES
 Predicted change in Energy=-2.508706D-06
 GradGradGradGradGradGradGradGradGradGradGradGradGradGradGradGradGradGrad

                          Input orientation:                          
 ---------------------------------------------------------------------
 Center     Atomic      Atomic             Coordinates (Angstroms)
 Number     Number       Type             X           Y           Z
 ---------------------------------------------------------------------
      1          6           0        0.002464    1.402693   -0.000000
      2          6           0        1.213536    0.703481   -0.000000
      3          6           0        1.202135   -0.694053   -0.000000
      4          6           0       -0.002464   -1.402693   -0.000000
      5          6           0       -1.213536   -0.703481   -0.000000
      6          6           0       -1.202135    0.694053   -0.000000
      7         35           0       -0.033230    3.321463   -0.000000
      8         35           0        2.893086    1.631953   -0.000000
      9          1           0        2.155311   -1.244369   -0.000000
     10         35           0        0.033230   -3.321463   -0.000000
     11         35           0       -2.893086   -1.631953   -0.000000
     12          1           0       -2.155311    1.244369   -0.000000
 ---------------------------------------------------------------------
                    Distance matrix (angstroms):
                    1          2          3          4          5
     1  C    0.000000
     2  C    1.398426   0.000000
     3  C    2.415690   1.397580   0.000000
     4  C    2.805391   2.432000   1.397580   0.000000
     5  C    2.432000   2.805391   2.415690   1.398426   0.000000
     6  C    1.397580   2.415690   2.776213   2.415690   1.397580
     7  Br   1.919101   2.899699   4.201249   4.724256   4.194435
     8  Br   2.899699   1.919101   2.875695   4.194435   4.724256
     9  H    3.411992   2.163576   1.100632   2.163576   3.411992
    10  Br   4.724256   4.194435   2.875695   1.919101   2.899699
    11  Br   4.194435   4.724256   4.201249   2.899699   1.919101
    12  H    2.163576   3.411992   3.876845   3.411992   2.163576
                    6          7          8          9         10
     6  C    0.000000
     7  Br   2.875695   0.000000
     8  Br   4.201249   3.379019   0.000000
     9  H    3.876845   5.063253   2.969435   0.000000
    10  Br   4.201249   6.643257   5.719712   2.969435   0.000000
    11  Br   2.875695   5.719712   6.643257   5.063253   3.379019
    12  H    1.100632   2.969435   5.063253   4.977478   5.063253
                   11         12
    11  Br   0.000000
    12  H    2.969435   0.000000
 Stoichiometry    C6H2Br4(1-,2)
 Framework group  D2H[C2"(HC.CH),SG(C4Br4)]
 Deg. of freedom     6
 Full point group                 D2H     NOp   8
 Largest Abelian subgroup         D2H     NOp   8
 Largest concise Abelian subgroup D2      NOp   4
                         Standard orientation:                         
 ---------------------------------------------------------------------
 Center     Atomic      Atomic             Coordinates (Angstroms)
 Number     Number       Type             X           Y           Z
 ---------------------------------------------------------------------
      1          6           0       -0.000000    1.216000    0.699213
      2          6           0        0.000000    1.216000   -0.699213
      3          6           0       -0.000000    0.000000   -1.388107
      4          6           0       -0.000000   -1.216000   -0.699213
      5          6           0       -0.000000   -1.216000    0.699213
      6          6           0       -0.000000    0.000000    1.388107
      7         35           0       -0.000000    2.859856    1.689509
      8         35           0        0.000000    2.859856   -1.689509
      9          1           0       -0.000000    0.000000   -2.488739
     10         35           0       -0.000000   -2.859856   -1.689509
     11         35           0       -0.000000   -2.859856    1.689509
     12          1           0       -0.000000    0.000000    2.488739
 ---------------------------------------------------------------------
 Rotational constants (GHZ):           0.5139794           0.1905080           0.1389907
 Standard basis: VSTO-6G (5D, 7F)
 There are     9 symmetry adapted cartesian basis functions of AG  symmetry.
 There are     2 symmetry adapted cartesian basis functions of B1G symmetry.
 There are     3 symmetry adapted cartesian basis functions of B2G symmetry.
 There are     7 symmetry adapted cartesian basis functions of B3G symmetry.
 There are     2 symmetry adapted cartesian basis functions of AU  symmetry.
 There are     9 symmetry adapted cartesian basis functions of B1U symmetry.
 There are     7 symmetry adapted cartesian basis functions of B2U symmetry.
 There are     3 symmetry adapted cartesian basis functions of B3U symmetry.
 There are     9 symmetry adapted basis functions of AG  symmetry.
 There are     2 symmetry adapted basis functions of B1G symmetry.
 There are     3 symmetry adapted basis functions of B2G symmetry.
 There are     7 symmetry adapted basis functions of B3G symmetry.
 There are     2 symmetry adapted basis functions of AU  symmetry.
 There are     9 symmetry adapted basis functions of B1U symmetry.
 There are     7 symmetry adapted basis functions of B2U symmetry.
 There are     3 symmetry adapted basis functions of B3U symmetry.
    42 basis functions,   252 primitive gaussians,    42 cartesian basis functions
    28 alpha electrons       27 beta electrons
       nuclear repulsion energy       292.4596288947 Hartrees.
 Integral buffers will be    131072 words long.
 Regular integral format.
 Two-electron integral symmetry is turned off.
 Do NDO integrals.
 One-electron integrals computed using PRISM.
 NBasis=    42 RedAO= T EigKep=  1.00D+00  NBF=     9     2     3     7     2     9     7     3
 NBsUse=    42 1.00D-06 EigRej= -1.00D+00 NBFU=     9     2     3     7     2     9     7     3
 Initial guess from the checkpoint file:  "calcs/am1/chks/BrBz_1245_RA.chk"
 B after Tr=    -0.000000    0.000000    0.000000
         Rot=    1.000000    0.000000   -0.000000   -0.000000 Ang=   0.00 deg.
 Initial guess orbital symmetries:
 Alpha Orbitals:
       Occupied  (AG) (B2U) (B1U) (B3G) (AG) (B1U) (B2U) (AG) (B3G)
                 (AG) (B2U) (B1U) (B3U) (B1U) (B2U) (B1G) (AG)
                 (B3G) (B2G) (AG) (AU) (B2U) (B3U) (B1U) (B3G)
                 (B2G) (B1G) (B1U)
       Virtual   (AG) (B3G) (AU) (B2U) (B3U) (B2G) (B1U) (AG) (B3G)
                 (AG) (B2U) (B1U) (B3G) (B1U)
 Beta  Orbitals:
       Occupied  (AG) (B2U) (B1U) (B3G) (AG) (B1U) (B2U) (AG) (B3G)
                 (AG) (B2U) (B1U) (B3U) (B1U) (B2U) (B1G) (AG)
                 (B3G) (B2G) (AG) (AU) (B2U) (B3U) (B1U) (B3G)
                 (B2G) (B1G)
       Virtual   (B3U) (AU) (AG) (B2U) (B1U) (B3G) (B2G) (B1U)
                 (AG) (B3G) (AG) (B2U) (B1U) (B3G) (B1U)
 Initial guess <Sx>= 0.0000 <Sy>= 0.0000 <Sz>= 0.5000 <S**2>= 0.7580 S= 0.5040
 Keep J ints in memory in canonical form, NReq=864594.
 Overlap will be assumed to be unity.
 Requested convergence on RMS density matrix=1.00D-08 within  32 cycles.
 Requested convergence on MAX density matrix=1.00D-06.
 Requested convergence on             energy=1.00D-06.
 No special actions if energy rises.
 Fock symm off for IB=2 I1=    1 I=   10 J=    1 Cut=1.00D-07 Err=3.34D-05
 Fock matrix is not symmetric: symmetry in diagonalization turned off.
 SCF Done:  E(UAM1) =  0.623933052010E-01 A.U. after   10 cycles
            NFock=  9  Conv=0.71D-08     -V/T= 1.0005
 <Sx>= 0.0000 <Sy>= 0.0000 <Sz>= 0.5000 <S**2>= 0.7580 S= 0.5040
 <L.S>=  0.00000000000    
 Annihilation of the first spin contaminant:
 S**2 before annihilation     0.7580,   after     0.7500
 QCSCF skips out because SCF is already converged.
 Calling FoFJK, ICntrl=      2127 FMM=F ISym2X=1 I1Cent= 0 IOpClX= 1 NMat=1 NMatS=1 NMatT=0.
 ***** Axes restored to original set *****
 -------------------------------------------------------------------
 Center     Atomic                   Forces (Hartrees/Bohr)
 Number     Number              X              Y              Z
 -------------------------------------------------------------------
      1        6          -0.000082185   -0.000055756   -0.000000000
      2        6          -0.000007194   -0.000099052   -0.000000000
      3        6          -0.000019431    0.000011218   -0.000000000
      4        6           0.000082185    0.000055756   -0.000000000
      5        6           0.000007194    0.000099052   -0.000000000
      6        6           0.000019431   -0.000011218    0.000000000
      7       35          -0.000012928    0.000043953    0.000000000
      8       35           0.000044528    0.000010780    0.000000000
      9        1          -0.000029586    0.000017081   -0.000000000
     10       35           0.000012928   -0.000043953    0.000000000
     11       35          -0.000044528   -0.000010780    0.000000000
     12        1           0.000029586   -0.000017081    0.000000000
 -------------------------------------------------------------------
 Cartesian Forces:  Max     0.000099052 RMS     0.000037708

 GradGradGradGradGradGradGradGradGradGradGradGradGradGradGradGradGradGrad
 Berny optimization.
 Using GEDIIS/GDIIS optimizer.
 FormGI is forming the generalized inverse of G from B-inverse, IUseBI=4.
 Internal  Forces:  Max     0.000064221 RMS     0.000025553
 Search for a local minimum.
 Step number   4 out of a maximum of   64
 All quantities printed in internal units (Hartrees-Bohrs-Radians)
 Mixed Optimization -- En-DIIS/RFO-DIIS
 Swapping is turned off.
 Update second derivatives using D2CorX and points    1    2    3    4
 DE= -2.26D-06 DEPred=-2.51D-06 R= 9.00D-01
 TightC=F SS=  1.41D+00  RLast= 3.80D-03 DXNew= 7.2303D-01 1.1385D-02
 Trust test= 9.00D-01 RLast= 3.80D-03 DXMaxT set to 4.30D-01
 ITU=  1  1  1  0
     Eigenvalues ---    0.02221   0.02221   0.02221   0.02221   0.02221
     Eigenvalues ---    0.02221   0.02221   0.02221   0.02221   0.16000
     Eigenvalues ---    0.16000   0.18251   0.18251   0.18251   0.19655
     Eigenvalues ---    0.22814   0.23971   0.25000   0.25000   0.25000
     Eigenvalues ---    0.25000   0.25304   0.33800   0.35994   0.42971
     Eigenvalues ---    0.43429   0.47319   0.47319   0.49353   0.76951
 En-DIIS/RFO-DIIS/Sim-DIIS IScMMF=       -3 using points:     4    3
 RFO step:  Lambda=-8.73143674D-08.
 DidBck=F Rises=F RFO-DIIS coefs:    0.89313    0.10687
 Iteration  1 RMS(Cart)=  0.00011733 RMS(Int)=  0.00000000
 Iteration  2 RMS(Cart)=  0.00000001 RMS(Int)=  0.00000000
 ClnCor:  largest displacement from symmetrization is 1.10D-11 for atom     9.
 Variable       Old X    -DE/DX   Delta X   Delta X   Delta X     New X
                                 (Linear)    (Quad)   (Total)
    R1        2.64264   0.00005  -0.00004   0.00014   0.00010   2.64274
    R2        2.64104  -0.00006  -0.00012   0.00001  -0.00011   2.64094
    R3        3.62658   0.00004   0.00012   0.00009   0.00021   3.62679
    R4        2.64104  -0.00006  -0.00012   0.00001  -0.00011   2.64094
    R5        3.62658   0.00004   0.00012   0.00009   0.00021   3.62679
    R6        2.64104  -0.00006  -0.00012   0.00001  -0.00011   2.64094
    R7        2.07989  -0.00003   0.00007  -0.00016  -0.00009   2.07980
    R8        2.64264   0.00005  -0.00004   0.00014   0.00010   2.64274
    R9        3.62658   0.00004   0.00012   0.00009   0.00021   3.62679
   R10        2.64104  -0.00006  -0.00012   0.00001  -0.00011   2.64094
   R11        3.62658   0.00004   0.00012   0.00009   0.00021   3.62679
   R12        2.07989  -0.00003   0.00007  -0.00016  -0.00009   2.07980
    A1        2.08624  -0.00000  -0.00004   0.00003  -0.00001   2.08623
    A2        2.11300   0.00002   0.00006   0.00002   0.00008   2.11308
    A3        2.08395  -0.00002  -0.00002  -0.00005  -0.00007   2.08388
    A4        2.08624  -0.00000  -0.00004   0.00003  -0.00001   2.08623
    A5        2.11300   0.00002   0.00006   0.00002   0.00008   2.11308
    A6        2.08395  -0.00002  -0.00002  -0.00005  -0.00007   2.08388
    A7        2.11071   0.00001   0.00007  -0.00006   0.00001   2.11072
    A8        2.08624  -0.00000  -0.00004   0.00003  -0.00001   2.08623
    A9        2.08624  -0.00000  -0.00004   0.00003  -0.00001   2.08623
   A10        2.08624  -0.00000  -0.00004   0.00003  -0.00001   2.08623
   A11        2.08395  -0.00002  -0.00002  -0.00005  -0.00007   2.08388
   A12        2.11300   0.00002   0.00006   0.00002   0.00008   2.11308
   A13        2.08624  -0.00000  -0.00004   0.00003  -0.00001   2.08623
   A14        2.11300   0.00002   0.00006   0.00002   0.00008   2.11308
   A15        2.08395  -0.00002  -0.00002  -0.00005  -0.00007   2.08388
   A16        2.11071   0.00001   0.00007  -0.00006   0.00001   2.11072
   A17        2.08624  -0.00000  -0.00004   0.00003  -0.00001   2.08623
   A18        2.08624  -0.00000  -0.00004   0.00003  -0.00001   2.08623
    D1        0.00000  -0.00000   0.00000  -0.00000   0.00000   0.00000
    D2        3.14159   0.00000   0.00000   0.00000   0.00000   3.14159
    D3        3.14159  -0.00000   0.00000  -0.00000   0.00000   3.14159
    D4        0.00000  -0.00000   0.00000  -0.00000   0.00000   0.00000
    D5        0.00000   0.00000   0.00000   0.00000   0.00000   0.00000
    D6        3.14159  -0.00000   0.00000  -0.00000   0.00000   3.14159
    D7        3.14159   0.00000   0.00000   0.00000   0.00000   3.14159
    D8        0.00000   0.00000   0.00000   0.00000   0.00000   0.00000
    D9       -0.00000  -0.00000   0.00000  -0.00000   0.00000   0.00000
   D10        3.14159   0.00000   0.00000   0.00000   0.00000   3.14159
   D11        3.14159  -0.00000   0.00000  -0.00000   0.00000   3.14159
   D12       -0.00000  -0.00000   0.00000  -0.00000   0.00000   0.00000
   D13       -0.00000   0.00000   0.00000   0.00000   0.00000   0.00000
   D14        3.14159   0.00000   0.00000   0.00000   0.00000   3.14159
   D15        3.14159  -0.00000   0.00000  -0.00000   0.00000   3.14159
   D16       -0.00000   0.00000   0.00000   0.00000   0.00000   0.00000
   D17        0.00000  -0.00000   0.00000  -0.00000   0.00000   0.00000
   D18        3.14159   0.00000   0.00000   0.00000   0.00000   3.14159
   D19        3.14159  -0.00000   0.00000  -0.00000   0.00000   3.14159
   D20       -0.00000  -0.00000   0.00000  -0.00000   0.00000   0.00000
   D21       -0.00000  -0.00000   0.00000  -0.00000   0.00000   0.00000
   D22        3.14159   0.00000   0.00000   0.00000   0.00000   3.14159
   D23        3.14159  -0.00000   0.00000  -0.00000   0.00000   3.14159
   D24       -0.00000  -0.00000   0.00000  -0.00000   0.00000   0.00000
         Item               Value     Threshold  Converged?
 Maximum Force            0.000064     0.000450     YES
 RMS     Force            0.000026     0.000300     YES
 Maximum Displacement     0.000380     0.001800     YES
 RMS     Displacement     0.000117     0.001200     YES
 Predicted change in Energy=-4.759161D-08
 Optimization completed.
    -- Stationary point found.
                           ----------------------------
                           !   Optimized Parameters   !
                           ! (Angstroms and Degrees)  !
 --------------------------                            --------------------------
 ! Name  Definition              Value          Derivative Info.                !
 --------------------------------------------------------------------------------
 ! R1    R(1,2)                  1.3984         -DE/DX =    0.0                 !
 ! R2    R(1,6)                  1.3976         -DE/DX =   -0.0001              !
 ! R3    R(1,7)                  1.9191         -DE/DX =    0.0                 !
 ! R4    R(2,3)                  1.3976         -DE/DX =   -0.0001              !
 ! R5    R(2,8)                  1.9191         -DE/DX =    0.0                 !
 ! R6    R(3,4)                  1.3976         -DE/DX =   -0.0001              !
 ! R7    R(3,9)                  1.1006         -DE/DX =    0.0                 !
 ! R8    R(4,5)                  1.3984         -DE/DX =    0.0                 !
 ! R9    R(4,10)                 1.9191         -DE/DX =    0.0                 !
 ! R10   R(5,6)                  1.3976         -DE/DX =   -0.0001              !
 ! R11   R(5,11)                 1.9191         -DE/DX =    0.0                 !
 ! R12   R(6,12)                 1.1006         -DE/DX =    0.0                 !
 ! A1    A(2,1,6)              119.5326         -DE/DX =    0.0                 !
 ! A2    A(2,1,7)              121.0657         -DE/DX =    0.0                 !
 ! A3    A(6,1,7)              119.4017         -DE/DX =    0.0                 !
 ! A4    A(1,2,3)              119.5326         -DE/DX =    0.0                 !
 ! A5    A(1,2,8)              121.0657         -DE/DX =    0.0                 !
 ! A6    A(3,2,8)              119.4017         -DE/DX =    0.0                 !
 ! A7    A(2,3,4)              120.9348         -DE/DX =    0.0                 !
 ! A8    A(2,3,9)              119.5326         -DE/DX =    0.0                 !
 ! A9    A(4,3,9)              119.5326         -DE/DX =    0.0                 !
 ! A10   A(3,4,5)              119.5326         -DE/DX =    0.0                 !
 ! A11   A(3,4,10)             119.4017         -DE/DX =    0.0                 !
 ! A12   A(5,4,10)             121.0657         -DE/DX =    0.0                 !
 ! A13   A(4,5,6)              119.5326         -DE/DX =    0.0                 !
 ! A14   A(4,5,11)             121.0657         -DE/DX =    0.0                 !
 ! A15   A(6,5,11)             119.4017         -DE/DX =    0.0                 !
 ! A16   A(1,6,5)              120.9348         -DE/DX =    0.0                 !
 ! A17   A(1,6,12)             119.5326         -DE/DX =    0.0                 !
 ! A18   A(5,6,12)             119.5326         -DE/DX =    0.0                 !
 ! D1    D(6,1,2,3)              0.0            -DE/DX =    0.0                 !
 ! D2    D(6,1,2,8)            180.0            -DE/DX =    0.0                 !
 ! D3    D(7,1,2,3)            180.0            -DE/DX =    0.0                 !
 ! D4    D(7,1,2,8)              0.0            -DE/DX =    0.0                 !
 ! D5    D(2,1,6,5)              0.0            -DE/DX =    0.0                 !
 ! D6    D(2,1,6,12)           180.0            -DE/DX =    0.0                 !
 ! D7    D(7,1,6,5)            180.0            -DE/DX =    0.0                 !
 ! D8    D(7,1,6,12)             0.0            -DE/DX =    0.0                 !
 ! D9    D(1,2,3,4)              0.0            -DE/DX =    0.0                 !
 ! D10   D(1,2,3,9)            180.0            -DE/DX =    0.0                 !
 ! D11   D(8,2,3,4)            180.0            -DE/DX =    0.0                 !
 ! D12   D(8,2,3,9)              0.0            -DE/DX =    0.0                 !
 ! D13   D(2,3,4,5)              0.0            -DE/DX =    0.0                 !
 ! D14   D(2,3,4,10)           180.0            -DE/DX =    0.0                 !
 ! D15   D(9,3,4,5)            180.0            -DE/DX =    0.0                 !
 ! D16   D(9,3,4,10)             0.0            -DE/DX =    0.0                 !
 ! D17   D(3,4,5,6)              0.0            -DE/DX =    0.0                 !
 ! D18   D(3,4,5,11)           180.0            -DE/DX =    0.0                 !
 ! D19   D(10,4,5,6)           180.0            -DE/DX =    0.0                 !
 ! D20   D(10,4,5,11)            0.0            -DE/DX =    0.0                 !
 ! D21   D(4,5,6,1)              0.0            -DE/DX =    0.0                 !
 ! D22   D(4,5,6,12)           180.0            -DE/DX =    0.0                 !
 ! D23   D(11,5,6,1)           180.0            -DE/DX =    0.0                 !
 ! D24   D(11,5,6,12)            0.0            -DE/DX =    0.0                 !
 --------------------------------------------------------------------------------
 GradGradGradGradGradGradGradGradGradGradGradGradGradGradGradGradGradGrad

                          Input orientation:                          
 ---------------------------------------------------------------------
 Center     Atomic      Atomic             Coordinates (Angstroms)
 Number     Number       Type             X           Y           Z
 ---------------------------------------------------------------------
      1          6           0        0.002464    1.402693   -0.000000
      2          6           0        1.213536    0.703481   -0.000000
      3          6           0        1.202135   -0.694053   -0.000000
      4          6           0       -0.002464   -1.402693   -0.000000
      5          6           0       -1.213536   -0.703481   -0.000000
      6          6           0       -1.202135    0.694053   -0.000000
      7         35           0       -0.033230    3.321463   -0.000000
      8         35           0        2.893086    1.631953   -0.000000
      9          1           0        2.155311   -1.244369   -0.000000
     10         35           0        0.033230   -3.321463   -0.000000
     11         35           0       -2.893086   -1.631953   -0.000000
     12          1           0       -2.155311    1.244369   -0.000000
 ---------------------------------------------------------------------
                    Distance matrix (angstroms):
                    1          2          3          4          5
     1  C    0.000000
     2  C    1.398426   0.000000
     3  C    2.415690   1.397580   0.000000
     4  C    2.805391   2.432000   1.397580   0.000000
     5  C    2.432000   2.805391   2.415690   1.398426   0.000000
     6  C    1.397580   2.415690   2.776213   2.415690   1.397580
     7  Br   1.919101   2.899699   4.201249   4.724256   4.194435
     8  Br   2.899699   1.919101   2.875695   4.194435   4.724256
     9  H    3.411992   2.163576   1.100632   2.163576   3.411992
    10  Br   4.724256   4.194435   2.875695   1.919101   2.899699
    11  Br   4.194435   4.724256   4.201249   2.899699   1.919101
    12  H    2.163576   3.411992   3.876845   3.411992   2.163576
                    6          7          8          9         10
     6  C    0.000000
     7  Br   2.875695   0.000000
     8  Br   4.201249   3.379019   0.000000
     9  H    3.876845   5.063253   2.969435   0.000000
    10  Br   4.201249   6.643257   5.719712   2.969435   0.000000
    11  Br   2.875695   5.719712   6.643257   5.063253   3.379019
    12  H    1.100632   2.969435   5.063253   4.977478   5.063253
                   11         12
    11  Br   0.000000
    12  H    2.969435   0.000000
 Stoichiometry    C6H2Br4(1-,2)
 Framework group  D2H[C2"(HC.CH),SG(C4Br4)]
 Deg. of freedom     6
 Full point group                 D2H     NOp   8
 Largest Abelian subgroup         D2H     NOp   8
 Largest concise Abelian subgroup D2      NOp   4
                         Standard orientation:                         
 ---------------------------------------------------------------------
 Center     Atomic      Atomic             Coordinates (Angstroms)
 Number     Number       Type             X           Y           Z
 ---------------------------------------------------------------------
      1          6           0       -0.000000    1.216000    0.699213
      2          6           0        0.000000    1.216000   -0.699213
      3          6           0       -0.000000    0.000000   -1.388107
      4          6           0       -0.000000   -1.216000   -0.699213
      5          6           0       -0.000000   -1.216000    0.699213
      6          6           0       -0.000000   -0.000000    1.388107
      7         35           0       -0.000000    2.859856    1.689509
      8         35           0        0.000000    2.859856   -1.689509
      9          1           0       -0.000000    0.000000   -2.488739
     10         35           0       -0.000000   -2.859856   -1.689509
     11         35           0       -0.000000   -2.859856    1.689509
     12          1           0       -0.000000   -0.000000    2.488739
 ---------------------------------------------------------------------
 Rotational constants (GHZ):           0.5139794           0.1905080           0.1389907

 **********************************************************************

            Population analysis using the SCF Density.

 **********************************************************************

 Orbital symmetries:
 Alpha Orbitals:
       Occupied  (AG) (B2U) (B1U) (B3G) (AG) (B1U) (B2U) (AG) (B3G)
                 (AG) (B2U) (B1U) (B3U) (B1U) (B2U) (B1G) (AG)
                 (B3G) (B2G) (AG) (AU) (B2U) (B3U) (B1U) (B3G)
                 (B2G) (B1G) (B1U)
       Virtual   (AG) (B3G) (AU) (B2U) (B3U) (B2G) (B1U) (AG) (B3G)
                 (AG) (B2U) (B1U) (B3G) (B1U)
 Beta  Orbitals:
       Occupied  (AG) (B2U) (B1U) (B3G) (AG) (B1U) (B2U) (AG) (B3G)
                 (AG) (B2U) (B1U) (B3U) (B1U) (B2U) (B1G) (AG)
                 (B3G) (B2G) (AG) (AU) (B2U) (B3U) (B1U) (B3G)
                 (B2G) (B1G)
       Virtual   (B3U) (AU) (AG) (B2U) (B1U) (B3G) (B2G) (B1U)
                 (AG) (B3G) (AG) (B2U) (B1U) (B3G) (B1U)
 The electronic state is 2-B1U.
 Alpha  occ. eigenvalues --   -1.30481  -1.08889  -1.06230  -1.00712  -0.99402
 Alpha  occ. eigenvalues --   -0.94758  -0.90310  -0.71806  -0.68264  -0.50089
 Alpha  occ. eigenvalues --   -0.46561  -0.44286  -0.39562  -0.39210  -0.38020
 Alpha  occ. eigenvalues --   -0.32040  -0.31937  -0.30699  -0.29121  -0.28201
 Alpha  occ. eigenvalues --   -0.27615  -0.27475  -0.25693  -0.24659  -0.24561
 Alpha  occ. eigenvalues --   -0.21199  -0.19808  -0.02201
 Alpha virt. eigenvalues --    0.12285   0.12820   0.13695   0.14095   0.14343
 Alpha virt. eigenvalues --    0.22622   0.27147   0.28650   0.30124   0.30464
 Alpha virt. eigenvalues --    0.31374   0.31501   0.32960   0.33852
  Beta  occ. eigenvalues --   -1.30146  -1.07975  -1.05579  -0.99544  -0.98297
  Beta  occ. eigenvalues --   -0.93875  -0.89398  -0.71572  -0.67164  -0.49338
  Beta  occ. eigenvalues --   -0.46384  -0.43386  -0.39206  -0.38087  -0.37253
  Beta  occ. eigenvalues --   -0.31621  -0.31459  -0.29771  -0.28804  -0.27750
  Beta  occ. eigenvalues --   -0.27206  -0.27052  -0.25243  -0.24228  -0.24093
  Beta  occ. eigenvalues --   -0.20996  -0.19021
  Beta virt. eigenvalues --    0.14525   0.14615   0.17966   0.18432   0.18487
  Beta virt. eigenvalues --    0.20806   0.23301   0.27235   0.29184   0.30210
  Beta virt. eigenvalues --    0.30897   0.32087   0.32420   0.33532   0.34121
          Condensed to atoms (all electrons):
               1          2          3          4          5          6
     1  C    4.133104   0.000000   0.000000   0.000000   0.000000   0.000000
     2  C    0.000000   4.133104   0.000000   0.000000   0.000000   0.000000
     3  C    0.000000   0.000000   4.129808   0.000000   0.000000   0.000000
     4  C    0.000000   0.000000   0.000000   4.133104   0.000000   0.000000
     5  C    0.000000   0.000000   0.000000   0.000000   4.133104   0.000000
     6  C    0.000000   0.000000   0.000000   0.000000   0.000000   4.129808
     7  Br   0.000000   0.000000   0.000000   0.000000   0.000000   0.000000
     8  Br   0.000000   0.000000   0.000000   0.000000   0.000000   0.000000
     9  H    0.000000   0.000000   0.000000   0.000000   0.000000   0.000000
    10  Br   0.000000   0.000000   0.000000   0.000000   0.000000   0.000000
    11  Br   0.000000   0.000000   0.000000   0.000000   0.000000   0.000000
    12  H    0.000000   0.000000   0.000000   0.000000   0.000000   0.000000
               7          8          9         10         11         12
     1  C    0.000000   0.000000   0.000000   0.000000   0.000000   0.000000
     2  C    0.000000   0.000000   0.000000   0.000000   0.000000   0.000000
     3  C    0.000000   0.000000   0.000000   0.000000   0.000000   0.000000
     4  C    0.000000   0.000000   0.000000   0.000000   0.000000   0.000000
     5  C    0.000000   0.000000   0.000000   0.000000   0.000000   0.000000
     6  C    0.000000   0.000000   0.000000   0.000000   0.000000   0.000000
     7  Br   7.118766   0.000000   0.000000   0.000000   0.000000   0.000000
     8  Br   0.000000   7.118766   0.000000   0.000000   0.000000   0.000000
     9  H    0.000000   0.000000   0.866452   0.000000   0.000000   0.000000
    10  Br   0.000000   0.000000   0.000000   7.118766   0.000000   0.000000
    11  Br   0.000000   0.000000   0.000000   0.000000   7.118766   0.000000
    12  H    0.000000   0.000000   0.000000   0.000000   0.000000   0.866452
          Atomic-Atomic Spin Densities.
               1          2          3          4          5          6
     1  C    0.097714   0.000000   0.000000   0.000000   0.000000   0.000000
     2  C    0.000000   0.097714   0.000000   0.000000   0.000000   0.000000
     3  C    0.000000   0.000000   0.004794   0.000000   0.000000   0.000000
     4  C    0.000000   0.000000   0.000000   0.097714   0.000000   0.000000
     5  C    0.000000   0.000000   0.000000   0.000000   0.097714   0.000000
     6  C    0.000000   0.000000   0.000000   0.000000   0.000000   0.004794
     7  Br   0.000000   0.000000   0.000000   0.000000   0.000000   0.000000
     8  Br   0.000000   0.000000   0.000000   0.000000   0.000000   0.000000
     9  H    0.000000   0.000000   0.000000   0.000000   0.000000   0.000000
    10  Br   0.000000   0.000000   0.000000   0.000000   0.000000   0.000000
    11  Br   0.000000   0.000000   0.000000   0.000000   0.000000   0.000000
    12  H    0.000000   0.000000   0.000000   0.000000   0.000000   0.000000
               7          8          9         10         11         12
     1  C    0.000000   0.000000   0.000000   0.000000   0.000000   0.000000
     2  C    0.000000   0.000000   0.000000   0.000000   0.000000   0.000000
     3  C    0.000000   0.000000   0.000000   0.000000   0.000000   0.000000
     4  C    0.000000   0.000000   0.000000   0.000000   0.000000   0.000000
     5  C    0.000000   0.000000   0.000000   0.000000   0.000000   0.000000
     6  C    0.000000   0.000000   0.000000   0.000000   0.000000   0.000000
     7  Br   0.150045   0.000000   0.000000   0.000000   0.000000   0.000000
     8  Br   0.000000   0.150045   0.000000   0.000000   0.000000   0.000000
     9  H    0.000000   0.000000  -0.000312   0.000000   0.000000   0.000000
    10  Br   0.000000   0.000000   0.000000   0.150045   0.000000   0.000000
    11  Br   0.000000   0.000000   0.000000   0.000000   0.150045   0.000000
    12  H    0.000000   0.000000   0.000000   0.000000   0.000000  -0.000312
 Mulliken charges and spin densities:
               1          2
     1  C   -0.133104   0.097714
     2  C   -0.133104   0.097714
     3  C   -0.129808   0.004794
     4  C   -0.133104   0.097714
     5  C   -0.133104   0.097714
     6  C   -0.129808   0.004794
     7  Br  -0.118766   0.150045
     8  Br  -0.118766   0.150045
     9  H    0.133548  -0.000312
    10  Br  -0.118766   0.150045
    11  Br  -0.118766   0.150045
    12  H    0.133548  -0.000312
 Sum of Mulliken charges =  -1.00000   1.00000
 Mulliken charges and spin densities with hydrogens summed into heavy atoms:
               1          2
     1  C   -0.133104   0.097714
     2  C   -0.133104   0.097714
     3  C    0.003740   0.004483
     4  C   -0.133104   0.097714
     5  C   -0.133104   0.097714
     6  C    0.003740   0.004483
     7  Br  -0.118766   0.150045
     8  Br  -0.118766   0.150045
    10  Br  -0.118766   0.150045
    11  Br  -0.118766   0.150045
 Charge=             -1.0000 electrons
 Dipole moment (field-independent basis, Debye):
    X=              0.0000    Y=             -0.0000    Z=             -0.0000  Tot=              0.0000
 N-N= 2.924596288947D+02 E-N=-4.226868083632D+02  KE=-1.332253036886D+02
 Symmetry AG   KE=-2.880563287151D+01
 Symmetry B1G  KE=-8.533692399894D+00
 Symmetry B2G  KE=-8.493209376765D+00
 Symmetry B3G  KE=-2.143434839128D+01
 Symmetry AU   KE=-5.440553776236D+00
 Symmetry B1U  KE=-2.647726857735D+01
 Symmetry B2U  KE=-2.533555227927D+01
 Symmetry B3U  KE=-8.705046016269D+00
 Symmetry AG   SP= 1.331400267812D-16
 Symmetry B1G  SP= 1.221245327088D-15
 Symmetry B2G  SP= 9.020562075079D-17
 Symmetry B3G  SP= 4.614364446098D-16
 Symmetry AU   SP=-1.665334536938D-15
 Symmetry B1U  SP= 1.000000000000D+00
 Symmetry B2U  SP=-1.155325835001D-15
 Symmetry B3U  SP= 2.338407245617D-15
 1\1\GINC-SH02-01N26\FOpt\UAM1\ZDO\C6H2Br4(1-,2)\JLAPIER\28-Sep-2026\0\
 \# Opt AM1 SCF=XQC\\BrBz_1245_RA am1\\-1,2\C,0.0024639752,1.4026932783
 ,0.\C,1.2135360258,0.7034805032,0.\C,1.202135497,-0.6940532535,0.\C,-0
 .0024639752,-1.4026932783,0.\C,-1.2135360258,-0.7034805032,0.\C,-1.202
 135497,0.6940532535,0.\Br,-0.0332301012,3.3214625021,0.\Br,2.893085956
 6,1.6319531367,0.\H,2.1553110448,-1.2443694132,0.\Br,0.0332301012,-3.3
 214625021,0.\Br,-2.8930859566,-1.6319531367,0.\H,-2.1553110448,1.24436
 94132,0.\\Version=ES64L-G16RevB.01\State=2-B1U\HF=0.0623933\S2=0.75796
 6\S2-1=0.\S2A=0.750042\RMSD=7.145e-09\RMSF=3.771e-05\Dipole=0.,0.,0.\P
 G=D02H [C2"(H1C1.C1H1),SG(C4Br4)]\\@


 OPTIMIST - A PESSIMIST WHO LACKS EXPERIENCE
 Job cpu time:       0 days  0 hours  0 minutes  2.6 seconds.
 Elapsed time:       0 days  0 hours  0 minutes  2.4 seconds.
 File lengths (MBytes):  RWF=      6 Int=      0 D2E=      0 Chk=      3 Scr=      1
 Normal termination of Gaussian 16 at Mon Sep 28 01:25:36 2026.
