 Entering Gaussian System, Link 0=g16
 Initial command:
 /share/software/user/restricted/gaussian/g16.B01/l1.exe "/lscratch/jlapier/g16_45667801_83/Gau-5850.inp" -scrdir="/lscratch/jlapier/g16_45667801_83/"
 Entering Link 1 = /share/software/user/restricted/gaussian/g16.B01/l1.exe PID=      5853.
  
 Copyright (c) 1988-2017, Gaussian, Inc.  All Rights Reserved.
  
 This is part of the Gaussian(R) 16 program.  It is based on
 the Gaussian(R) 09 system (copyright 2009, Gaussian, Inc.),
 the Gaussian(R) 03 system (copyright 2003, Gaussian, Inc.),
 the Gaussian(R) 98 system (copyright 1998, Gaussian, Inc.),
 the Gaussian(R) 94 system (copyright 1995, Gaussian, Inc.),
 the Gaussian 92(TM) system (copyright 1992, Gaussian, Inc.),
 the Gaussian 90(TM) system (copyright 1990, Gaussian, Inc.),
 the Gaussian 88(TM) system (copyright 1988, Gaussian, Inc.),
 the Gaussian 86(TM) system (copyright 1986, Carnegie Mellon
 University), and the Gaussian 82(TM) system (copyright 1983,
 Carnegie Mellon University). Gaussian is a federally registered
 trademark of Gaussian, Inc.
  
 This software contains proprietary and confidential information,
 including trade secrets, belonging to Gaussian, Inc.
  
 This software is provided under written license and may be
 used, copied, transmitted, or stored only in accord with that
 written license.
  
 The following legend is applicable only to US Government
 contracts under FAR:
  
                    RESTRICTED RIGHTS LEGEND
  
 Use, reproduction and disclosure by the US Government is
 subject to restrictions as set forth in subparagraphs (a)
 and (c) of the Commercial Computer Software - Restricted
 Rights clause in FAR 52.227-19.
  
 Gaussian, Inc.
 340 Quinnipiac St., Bldg. 40, Wallingford CT 06492
  
  
 ---------------------------------------------------------------
 Warning -- This program may not be used in any manner that
 competes with the business of Gaussian, Inc. or will provide
 assistance to any competitor of Gaussian, Inc.  The licensee
 of this program is prohibited from giving any competitor of
 Gaussian, Inc. access to this program.  By using this program,
 the user acknowledges that Gaussian, Inc. is engaged in the
 business of creating and licensing software in the field of
 computational chemistry and represents and warrants to the
 licensee that it is not a competitor of Gaussian, Inc. and that
 it will not use this program in any manner prohibited above.
 ---------------------------------------------------------------
  

 Cite this work as:
 Gaussian 16, Revision B.01,
 M. J. Frisch, G. W. Trucks, H. B. Schlegel, G. E. Scuseria, 
 M. A. Robb, J. R. Cheeseman, G. Scalmani, V. Barone, 
 G. A. Petersson, H. Nakatsuji, X. Li, M. Caricato, A. V. Marenich, 
 J. Bloino, B. G. Janesko, R. Gomperts, B. Mennucci, H. P. Hratchian, 
 J. V. Ortiz, A. F. Izmaylov, J. L. Sonnenberg, D. Williams-Young, 
 F. Ding, F. Lipparini, F. Egidi, J. Goings, B. Peng, A. Petrone, 
 T. Henderson, D. Ranasinghe, V. G. Zakrzewski, J. Gao, N. Rega, 
 G. Zheng, W. Liang, M. Hada, M. Ehara, K. Toyota, R. Fukuda, 
 J. Hasegawa, M. Ishida, T. Nakajima, Y. Honda, O. Kitao, H. Nakai, 
 T. Vreven, K. Throssell, J. A. Montgomery, Jr., J. E. Peralta, 
 F. Ogliaro, M. J. Bearpark, J. J. Heyd, E. N. Brothers, K. N. Kudin, 
 V. N. Staroverov, T. A. Keith, R. Kobayashi, J. Normand, 
 K. Raghavachari, A. P. Rendell, J. C. Burant, S. S. Iyengar, 
 J. Tomasi, M. Cossi, J. M. Millam, M. Klene, C. Adamo, R. Cammi, 
 J. W. Ochterski, R. L. Martin, K. Morokuma, O. Farkas, 
 J. B. Foresman, and D. J. Fox, Gaussian, Inc., Wallingford CT, 2016.
 
 ******************************************
 Gaussian 16:  ES64L-G16RevB.01 20-Dec-2017
                28-Sep-2026 
 ******************************************
 %nprocshared=1
 Will use up to    1 processors via shared memory.
 %mem=1GB
 %chk=calcs/am1/chks/BrPh_26_anion.chk
 -----------------
 # Opt AM1 SCF=XQC
 -----------------
 1/18=20,19=15,26=1,38=1/1,3;
 2/9=110,12=2,17=6,18=5,40=1/2;
 3/5=2,25=1,41=700000,71=1/1,2,3;
 4/35=1/1;
 5/5=2,8=3,13=1,35=1,38=5/2,8;
 6/7=2,8=2,9=2,10=2,28=1/1;
 7//1,2,3,16;
 1/18=20,19=15,26=1/3(2);
 2/9=110/2;
 99//99;
 2/9=110/2;
 3/5=2,25=1,41=700000,71=1,135=20/1,2,3;
 4/5=5,16=3,35=1/1;
 5/5=2,8=3,13=1,35=1,38=5/2,8;
 7//1,2,3,16;
 1/18=20,19=15,26=1/3(-5);
 2/9=110/2;
 6/7=2,8=2,9=2,10=2,19=2,28=1/1;
 99/9=1/99;
 -----------------
 BrPh_26_anion am1
 -----------------
 Symbolic Z-matrix:
 Charge = -1 Multiplicity = 1
 C                     0.        1.39      0. 
 C                     1.20378   0.695     0. 
 C                     1.20378  -0.695     0. 
 C                     0.       -1.39      0. 
 C                    -1.20378  -0.695     0. 
 C                    -1.20378   0.695     0. 
 Br                    2.84922   1.645     0. 
 H                     2.13908  -1.235     0. 
 H                     0.       -2.47      0. 
 H                    -2.13908  -1.235     0. 
 Br                   -2.84922   1.645     0. 
 

 GradGradGradGradGradGradGradGradGradGradGradGradGradGradGradGradGradGrad
 Berny optimization.
 Initialization pass.
                           ----------------------------
                           !    Initial Parameters    !
                           ! (Angstroms and Degrees)  !
 --------------------------                            --------------------------
 ! Name  Definition              Value          Derivative Info.                !
 --------------------------------------------------------------------------------
 ! R1    R(1,2)                  1.39           estimate D2E/DX2                !
 ! R2    R(1,6)                  1.39           estimate D2E/DX2                !
 ! R3    R(2,3)                  1.39           estimate D2E/DX2                !
 ! R4    R(2,7)                  1.9            estimate D2E/DX2                !
 ! R5    R(3,4)                  1.39           estimate D2E/DX2                !
 ! R6    R(3,8)                  1.08           estimate D2E/DX2                !
 ! R7    R(4,5)                  1.39           estimate D2E/DX2                !
 ! R8    R(4,9)                  1.08           estimate D2E/DX2                !
 ! R9    R(5,6)                  1.39           estimate D2E/DX2                !
 ! R10   R(5,10)                 1.08           estimate D2E/DX2                !
 ! R11   R(6,11)                 1.9            estimate D2E/DX2                !
 ! A1    A(2,1,6)              120.0            estimate D2E/DX2                !
 ! A2    A(1,2,3)              120.0            estimate D2E/DX2                !
 ! A3    A(1,2,7)              120.0            estimate D2E/DX2                !
 ! A4    A(3,2,7)              120.0            estimate D2E/DX2                !
 ! A5    A(2,3,4)              120.0            estimate D2E/DX2                !
 ! A6    A(2,3,8)              120.0            estimate D2E/DX2                !
 ! A7    A(4,3,8)              120.0            estimate D2E/DX2                !
 ! A8    A(3,4,5)              120.0            estimate D2E/DX2                !
 ! A9    A(3,4,9)              120.0            estimate D2E/DX2                !
 ! A10   A(5,4,9)              120.0            estimate D2E/DX2                !
 ! A11   A(4,5,6)              120.0            estimate D2E/DX2                !
 ! A12   A(4,5,10)             120.0            estimate D2E/DX2                !
 ! A13   A(6,5,10)             120.0            estimate D2E/DX2                !
 ! A14   A(1,6,5)              120.0            estimate D2E/DX2                !
 ! A15   A(1,6,11)             120.0            estimate D2E/DX2                !
 ! A16   A(5,6,11)             120.0            estimate D2E/DX2                !
 ! D1    D(6,1,2,3)              0.0            estimate D2E/DX2                !
 ! D2    D(6,1,2,7)            180.0            estimate D2E/DX2                !
 ! D3    D(2,1,6,5)              0.0            estimate D2E/DX2                !
 ! D4    D(2,1,6,11)           180.0            estimate D2E/DX2                !
 ! D5    D(1,2,3,4)              0.0            estimate D2E/DX2                !
 ! D6    D(1,2,3,8)            180.0            estimate D2E/DX2                !
 ! D7    D(7,2,3,4)            180.0            estimate D2E/DX2                !
 ! D8    D(7,2,3,8)              0.0            estimate D2E/DX2                !
 ! D9    D(2,3,4,5)              0.0            estimate D2E/DX2                !
 ! D10   D(2,3,4,9)            180.0            estimate D2E/DX2                !
 ! D11   D(8,3,4,5)            180.0            estimate D2E/DX2                !
 ! D12   D(8,3,4,9)              0.0            estimate D2E/DX2                !
 ! D13   D(3,4,5,6)              0.0            estimate D2E/DX2                !
 ! D14   D(3,4,5,10)           180.0            estimate D2E/DX2                !
 ! D15   D(9,4,5,6)            180.0            estimate D2E/DX2                !
 ! D16   D(9,4,5,10)             0.0            estimate D2E/DX2                !
 ! D17   D(4,5,6,1)              0.0            estimate D2E/DX2                !
 ! D18   D(4,5,6,11)           180.0            estimate D2E/DX2                !
 ! D19   D(10,5,6,1)           180.0            estimate D2E/DX2                !
 ! D20   D(10,5,6,11)            0.0            estimate D2E/DX2                !
 --------------------------------------------------------------------------------
 Trust Radius=3.00D-01 FncErr=1.00D-07 GrdErr=1.00D-07 EigMax=2.50D+02 EigMin=1.00D-04
 Number of steps in this run=     57 maximum allowed number of steps=    100.
 GradGradGradGradGradGradGradGradGradGradGradGradGradGradGradGradGradGrad

                          Input orientation:                          
 ---------------------------------------------------------------------
 Center     Atomic      Atomic             Coordinates (Angstroms)
 Number     Number       Type             X           Y           Z
 ---------------------------------------------------------------------
      1          6           0        0.000000    1.390000    0.000000
      2          6           0        1.203775    0.695000    0.000000
      3          6           0        1.203775   -0.695000    0.000000
      4          6           0        0.000000   -1.390000    0.000000
      5          6           0       -1.203775   -0.695000    0.000000
      6          6           0       -1.203775    0.695000    0.000000
      7         35           0        2.849224    1.645000    0.000000
      8          1           0        2.139083   -1.235000    0.000000
      9          1           0        0.000000   -2.470000    0.000000
     10          1           0       -2.139083   -1.235000    0.000000
     11         35           0       -2.849224    1.645000    0.000000
 ---------------------------------------------------------------------
                    Distance matrix (angstroms):
                    1          2          3          4          5
     1  C    0.000000
     2  C    1.390000   0.000000
     3  C    2.407551   1.390000   0.000000
     4  C    2.780000   2.407551   1.390000   0.000000
     5  C    2.407551   2.780000   2.407551   1.390000   0.000000
     6  C    1.390000   2.407551   2.780000   2.407551   1.390000
     7  Br   2.860612   1.900000   2.860612   4.162848   4.680000
     8  H    3.386193   2.144691   1.080000   2.144691   3.386193
     9  H    3.860000   3.386193   2.144691   1.080000   2.144691
    10  H    3.386193   3.860000   3.386193   2.144691   1.080000
    11  Br   2.860612   4.162848   4.680000   4.162848   2.860612
                    6          7          8          9         10
     6  C    0.000000
     7  Br   4.162848   0.000000
     8  H    3.860000   2.966260   0.000000
     9  H    3.386193   5.005127   2.470000   0.000000
    10  H    2.144691   5.760000   4.278166   2.470000   0.000000
    11  Br   1.900000   5.698447   5.760000   5.005127   2.966260
                   11
    11  Br   0.000000
 Stoichiometry    C6H3Br2(1-)
 Framework group  C2V[C2(CCH),SGV(C4H2Br2)]
 Deg. of freedom    10
 Full point group                 C2V     NOp   4
 Largest Abelian subgroup         C2V     NOp   4
 Largest concise Abelian subgroup C2      NOp   2
                         Standard orientation:                         
 ---------------------------------------------------------------------
 Center     Atomic      Atomic             Coordinates (Angstroms)
 Number     Number       Type             X           Y           Z
 ---------------------------------------------------------------------
      1          6           0        0.000000   -0.000000   -0.378899
      2          6           0        0.000000    1.203775    0.316101
      3          6           0        0.000000    1.203775    1.706101
      4          6           0       -0.000000    0.000000    2.401101
      5          6           0       -0.000000   -1.203775    1.706101
      6          6           0       -0.000000   -1.203775    0.316101
      7         35           0        0.000000    2.849224   -0.633899
      8          1           0        0.000000    2.139083    2.246101
      9          1           0       -0.000000    0.000000    3.481101
     10          1           0       -0.000000   -2.139083    2.246101
     11         35           0       -0.000000   -2.849224   -0.633899
 ---------------------------------------------------------------------
 Rotational constants (GHZ):           2.2225991           0.3715726           0.3183509
 Standard basis: VSTO-6G (5D, 7F)
 There are    15 symmetry adapted cartesian basis functions of A1  symmetry.
 There are     3 symmetry adapted cartesian basis functions of A2  symmetry.
 There are     5 symmetry adapted cartesian basis functions of B1  symmetry.
 There are    12 symmetry adapted cartesian basis functions of B2  symmetry.
 There are    15 symmetry adapted basis functions of A1  symmetry.
 There are     3 symmetry adapted basis functions of A2  symmetry.
 There are     5 symmetry adapted basis functions of B1  symmetry.
 There are    12 symmetry adapted basis functions of B2  symmetry.
    35 basis functions,   210 primitive gaussians,    35 cartesian basis functions
    21 alpha electrons       21 beta electrons
       nuclear repulsion energy       190.8229744249 Hartrees.
 Integral buffers will be    131072 words long.
 Regular integral format.
 Two-electron integral symmetry is turned off.
 Do NDO integrals.
 One-electron integrals computed using PRISM.
 NBasis=    35 RedAO= T EigKep=  1.00D+00  NBF=    15     3     5    12
 NBsUse=    35 1.00D-06 EigRej= -1.00D+00 NBFU=    15     3     5    12
 Nonelectrostatic core Hamiltonian diagonalized for initial guess.
 Initial guess orbital symmetries:
       Occupied  (A1) (B2) (A1) (A1) (B2) (A1) (B2) (A1) (A1) (B2)
                 (B2) (B1) (A1) (A2) (B2) (B1) (A1) (A1) (B1) (B2)
                 (A2)
       Virtual   (A1) (B1) (A1) (A2) (B2) (A1) (B2) (B1) (A1) (B2)
                 (A1) (A1) (B2) (B2)
 The electronic state of the initial guess is 1-A1.
 Keep J ints in memory in canonical form, NReq=862793.
 Overlap will be assumed to be unity.
 Requested convergence on RMS density matrix=1.00D-08 within  32 cycles.
 Requested convergence on MAX density matrix=1.00D-06.
 Requested convergence on             energy=1.00D-06.
 No special actions if energy rises.
 Fock symm off for IB=2 I1=    1 I=   16 J=   12 Cut=1.00D-07 Err=1.23D-02
 Fock matrix is not symmetric: symmetry in diagonalization turned off.
 SCF Done:  E(RAM1) =  0.783610957090E-01 A.U. after   15 cycles
            NFock= 14  Conv=0.87D-08     -V/T= 1.0009
 QCSCF skips out because SCF is already converged.

 **********************************************************************

            Population analysis using the SCF Density.

 **********************************************************************

 Orbital symmetries:
       Occupied  (A1) (B2) (A1) (B2) (A1) (A1) (B2) (A1) (B2) (A1)
                 (B2) (B1) (A1) (A2) (B2) (B1) (A1) (B2) (A2) (B1)
                 (A1)
       Virtual   (A2) (A1) (B1) (B2) (B1) (A1) (A1) (B2) (B2) (A1)
                 (B2) (A1) (A1) (B2)
 The electronic state is 1-A1.
 Alpha  occ. eigenvalues --   -1.26890  -1.05431  -1.01357  -0.92396  -0.91774
 Alpha  occ. eigenvalues --   -0.66117  -0.66049  -0.47641  -0.41108  -0.41003
 Alpha  occ. eigenvalues --   -0.36296  -0.34840  -0.32886  -0.28728  -0.27998
 Alpha  occ. eigenvalues --   -0.26013  -0.25144  -0.23993  -0.18465  -0.16471
 Alpha  occ. eigenvalues --   -0.10855
 Alpha virt. eigenvalues --    0.17431   0.19810   0.19949   0.20693   0.28801
 Alpha virt. eigenvalues --    0.29719   0.30936   0.31298   0.34093   0.34834
 Alpha virt. eigenvalues --    0.35872   0.36280   0.39315   0.40791
          Condensed to atoms (all electrons):
               1          2          3          4          5          6
     1  C    4.355061   0.000000   0.000000   0.000000   0.000000   0.000000
     2  C    0.000000   4.146077   0.000000   0.000000   0.000000   0.000000
     3  C    0.000000   0.000000   4.120699   0.000000   0.000000   0.000000
     4  C    0.000000   0.000000   0.000000   4.223950   0.000000   0.000000
     5  C    0.000000   0.000000   0.000000   0.000000   4.120699   0.000000
     6  C    0.000000   0.000000   0.000000   0.000000   0.000000   4.146077
     7  Br   0.000000   0.000000   0.000000   0.000000   0.000000   0.000000
     8  H    0.000000   0.000000   0.000000   0.000000   0.000000   0.000000
     9  H    0.000000   0.000000   0.000000   0.000000   0.000000   0.000000
    10  H    0.000000   0.000000   0.000000   0.000000   0.000000   0.000000
    11  Br   0.000000   0.000000   0.000000   0.000000   0.000000   0.000000
               7          8          9         10         11
     1  C    0.000000   0.000000   0.000000   0.000000   0.000000
     2  C    0.000000   0.000000   0.000000   0.000000   0.000000
     3  C    0.000000   0.000000   0.000000   0.000000   0.000000
     4  C    0.000000   0.000000   0.000000   0.000000   0.000000
     5  C    0.000000   0.000000   0.000000   0.000000   0.000000
     6  C    0.000000   0.000000   0.000000   0.000000   0.000000
     7  Br   7.080618   0.000000   0.000000   0.000000   0.000000
     8  H    0.000000   0.908961   0.000000   0.000000   0.000000
     9  H    0.000000   0.000000   0.908281   0.000000   0.000000
    10  H    0.000000   0.000000   0.000000   0.908961   0.000000
    11  Br   0.000000   0.000000   0.000000   0.000000   7.080618
 Mulliken charges:
               1
     1  C   -0.355061
     2  C   -0.146077
     3  C   -0.120699
     4  C   -0.223950
     5  C   -0.120699
     6  C   -0.146077
     7  Br  -0.080618
     8  H    0.091039
     9  H    0.091719
    10  H    0.091039
    11  Br  -0.080618
 Sum of Mulliken charges =  -1.00000
 Mulliken charges with hydrogens summed into heavy atoms:
               1
     1  C   -0.355061
     2  C   -0.146077
     3  C   -0.029660
     4  C   -0.132231
     5  C   -0.029660
     6  C   -0.146077
     7  Br  -0.080618
    11  Br  -0.080618
 Charge=             -1.0000 electrons
 Dipole moment (field-independent basis, Debye):
    X=             -0.0000    Y=             -0.0000    Z=              1.9322  Tot=              1.9322
 N-N= 1.908229744249D+02 E-N=-2.700073203693D+02  KE=-9.025279251251D+01
 Symmetry A1   KE=-3.870211463458D+01
 Symmetry A2   KE=-8.500555384677D+00
 Symmetry B1   KE=-1.171574043486D+01
 Symmetry B2   KE=-3.133438205840D+01
 Calling FoFJK, ICntrl=      2127 FMM=F ISym2X=1 I1Cent= 0 IOpClX= 0 NMat=1 NMatS=1 NMatT=0.
 ***** Axes restored to original set *****
 -------------------------------------------------------------------
 Center     Atomic                   Forces (Hartrees/Bohr)
 Number     Number              X              Y              Z
 -------------------------------------------------------------------
      1        6          -0.000000000    0.009215660    0.000000000
      2        6          -0.015720140    0.007934020    0.000000000
      3        6           0.007061657    0.003571441   -0.000000000
      4        6           0.000000000    0.005189774   -0.000000000
      5        6          -0.007061657    0.003571441    0.000000000
      6        6           0.015720140    0.007934020    0.000000000
      7       35          -0.002899663   -0.002387107   -0.000000000
      8        1           0.011860574   -0.009994860   -0.000000000
      9        1           0.000000000   -0.012652424   -0.000000000
     10        1          -0.011860574   -0.009994860   -0.000000000
     11       35           0.002899663   -0.002387107   -0.000000000
 -------------------------------------------------------------------
 Cartesian Forces:  Max     0.015720140 RMS     0.006801708

 GradGradGradGradGradGradGradGradGradGradGradGradGradGradGradGradGradGrad
 Berny optimization.
 FormGI is forming the generalized inverse of G from B-inverse, IUseBI=4.
 Internal  Forces:  Max     0.015268989 RMS     0.005775719
 Search for a local minimum.
 Step number   1 out of a maximum of   57
 All quantities printed in internal units (Hartrees-Bohrs-Radians)
 Mixed Optimization -- RFO/linear search
 Second derivative matrix not updated -- first step.
 ITU=  0
     Eigenvalues ---    0.02221   0.02221   0.02221   0.02221   0.02221
     Eigenvalues ---    0.02221   0.02221   0.02221   0.16000   0.16000
     Eigenvalues ---    0.16000   0.18251   0.18251   0.22068   0.23479
     Eigenvalues ---    0.24896   0.25000   0.25000   0.35994   0.35994
     Eigenvalues ---    0.35994   0.43086   0.43531   0.47319   0.47319
     Eigenvalues ---    0.47319   0.47319
 RFO step:  Lambda=-4.73324605D-03 EMin= 2.22103665D-02
 Linear search not attempted -- first point.
 Iteration  1 RMS(Cart)=  0.02051848 RMS(Int)=  0.00016273
 Iteration  2 RMS(Cart)=  0.00017075 RMS(Int)=  0.00001045
 Iteration  3 RMS(Cart)=  0.00000001 RMS(Int)=  0.00001045
 ClnCor:  largest displacement from symmetrization is 2.01D-12 for atom     2.
 Variable       Old X    -DE/DX   Delta X   Delta X   Delta X     New X
                                 (Linear)    (Quad)   (Total)
    R1        2.62672  -0.00493   0.00000  -0.01170  -0.01171   2.61501
    R2        2.62672  -0.00493   0.00000  -0.01170  -0.01171   2.61501
    R3        2.62672   0.01015   0.00000   0.02125   0.02125   2.64797
    R4        3.59048  -0.00370   0.00000  -0.01979  -0.01979   3.57069
    R5        2.62672   0.00936   0.00000   0.02097   0.02099   2.64770
    R6        2.04090   0.01527   0.00000   0.04187   0.04187   2.08277
    R7        2.62672   0.00936   0.00000   0.02097   0.02099   2.64770
    R8        2.04090   0.01265   0.00000   0.03469   0.03469   2.07560
    R9        2.62672   0.01015   0.00000   0.02125   0.02125   2.64797
   R10        2.04090   0.01527   0.00000   0.04187   0.04187   2.08277
   R11        3.59048  -0.00370   0.00000  -0.01979  -0.01979   3.57069
    A1        2.09440  -0.00758   0.00000  -0.03593  -0.03597   2.05843
    A2        2.09440   0.00999   0.00000   0.03772   0.03771   2.13210
    A3        2.09440  -0.00389   0.00000  -0.01451  -0.01450   2.07989
    A4        2.09440  -0.00610   0.00000  -0.02321  -0.02320   2.07119
    A5        2.09440  -0.00539   0.00000  -0.01976  -0.01974   2.07465
    A6        2.09440   0.00548   0.00000   0.02676   0.02675   2.12115
    A7        2.09440  -0.00008   0.00000  -0.00700  -0.00701   2.08738
    A8        2.09440  -0.00162   0.00000   0.00001   0.00004   2.09443
    A9        2.09440   0.00081   0.00000  -0.00000  -0.00002   2.09438
   A10        2.09440   0.00081   0.00000  -0.00000  -0.00002   2.09438
   A11        2.09440  -0.00539   0.00000  -0.01976  -0.01974   2.07465
   A12        2.09440  -0.00008   0.00000  -0.00700  -0.00701   2.08738
   A13        2.09440   0.00548   0.00000   0.02676   0.02675   2.12115
   A14        2.09440   0.00999   0.00000   0.03772   0.03771   2.13210
   A15        2.09440  -0.00389   0.00000  -0.01451  -0.01450   2.07989
   A16        2.09440  -0.00610   0.00000  -0.02321  -0.02320   2.07119
    D1        0.00000  -0.00000   0.00000  -0.00000   0.00000   0.00000
    D2        3.14159  -0.00000   0.00000  -0.00000   0.00000   3.14159
    D3       -0.00000   0.00000   0.00000   0.00000   0.00000   0.00000
    D4        3.14159   0.00000   0.00000   0.00000   0.00000   3.14159
    D5       -0.00000  -0.00000   0.00000  -0.00000   0.00000   0.00000
    D6        3.14159  -0.00000   0.00000  -0.00000   0.00000   3.14159
    D7        3.14159   0.00000   0.00000   0.00000   0.00000   3.14159
    D8        0.00000   0.00000   0.00000   0.00000  -0.00000   0.00000
    D9       -0.00000   0.00000   0.00000   0.00000   0.00000   0.00000
   D10        3.14159  -0.00000   0.00000   0.00000   0.00000   3.14159
   D11        3.14159   0.00000   0.00000   0.00000   0.00000   3.14159
   D12        0.00000   0.00000   0.00000   0.00000   0.00000   0.00000
   D13        0.00000  -0.00000   0.00000  -0.00000   0.00000   0.00000
   D14        3.14159  -0.00000   0.00000  -0.00000   0.00000   3.14159
   D15        3.14159   0.00000   0.00000   0.00000   0.00000   3.14159
   D16       -0.00000  -0.00000   0.00000  -0.00000   0.00000   0.00000
   D17        0.00000  -0.00000   0.00000  -0.00000   0.00000   0.00000
   D18        3.14159  -0.00000   0.00000  -0.00000   0.00000   3.14159
   D19        3.14159   0.00000   0.00000   0.00000   0.00000   3.14159
   D20        0.00000  -0.00000   0.00000  -0.00000   0.00000   0.00000
         Item               Value     Threshold  Converged?
 Maximum Force            0.015269     0.000450     NO 
 RMS     Force            0.005776     0.000300     NO 
 Maximum Displacement     0.057733     0.001800     NO 
 RMS     Displacement     0.020487     0.001200     NO 
 Predicted change in Energy=-2.403056D-03
 GradGradGradGradGradGradGradGradGradGradGradGradGradGradGradGradGradGrad

                          Input orientation:                          
 ---------------------------------------------------------------------
 Center     Atomic      Atomic             Coordinates (Angstroms)
 Number     Number       Type             X           Y           Z
 ---------------------------------------------------------------------
      1          6           0        0.000000    1.420551    0.000000
      2          6           0        1.185772    0.707212   -0.000000
      3          6           0        1.213406   -0.693759   -0.000000
      4          6           0       -0.000000   -1.394288   -0.000000
      5          6           0       -1.213406   -0.693759    0.000000
      6          6           0       -1.185772    0.707212    0.000000
      7         35           0        2.825432    1.646274   -0.000000
      8          1           0        2.164003   -1.251535   -0.000000
      9          1           0       -0.000000   -2.492647   -0.000000
     10          1           0       -2.164003   -1.251535    0.000000
     11         35           0       -2.825432    1.646274    0.000000
 ---------------------------------------------------------------------
                    Distance matrix (angstroms):
                    1          2          3          4          5
     1  C    0.000000
     2  C    1.383802   0.000000
     3  C    2.437758   1.401244   0.000000
     4  C    2.814839   2.412956   1.401105   0.000000
     5  C    2.437758   2.778269   2.426813   1.401105   0.000000
     6  C    1.383802   2.371544   2.778269   2.412956   1.401244
     7  Br   2.834434   1.889530   2.841545   4.150672   4.667759
     8  H    3.438453   2.189436   1.102157   2.168707   3.423158
     9  H    3.913198   3.412500   2.169874   1.098360   2.169874
    10  H    3.438453   3.880423   3.423158   2.168707   1.102157
    11  Br   2.834434   4.119660   4.667759   4.150672   2.841545
                    6          7          8          9         10
     6  C    0.000000
     7  Br   4.119660   0.000000
     8  H    3.880423   2.972337   0.000000
     9  H    3.412500   5.011361   2.494648   0.000000
    10  H    2.189436   5.769902   4.328007   2.494648   0.000000
    11  Br   1.889530   5.650864   5.769902   5.011361   2.972337
                   11
    11  Br   0.000000
 Stoichiometry    C6H3Br2(1-)
 Framework group  C2V[C2(CCH),SGV(C4H2Br2)]
 Deg. of freedom    10
 Full point group                 C2V     NOp   4
 Largest Abelian subgroup         C2V     NOp   4
 Largest concise Abelian subgroup C2      NOp   2
                         Standard orientation:                         
 ---------------------------------------------------------------------
 Center     Atomic      Atomic             Coordinates (Angstroms)
 Number     Number       Type             X           Y           Z
 ---------------------------------------------------------------------
      1          6           0        0.000000   -0.000000   -0.406217
      2          6           0       -0.000000    1.185772    0.307122
      3          6           0       -0.000000    1.213406    1.708094
      4          6           0        0.000000    0.000000    2.408622
      5          6           0       -0.000000   -1.213406    1.708094
      6          6           0       -0.000000   -1.185772    0.307122
      7         35           0       -0.000000    2.825432   -0.631939
      8          1           0       -0.000000    2.164003    2.265870
      9          1           0        0.000000    0.000000    3.506982
     10          1           0       -0.000000   -2.164003    2.265870
     11         35           0       -0.000000   -2.825432   -0.631939
 ---------------------------------------------------------------------
 Rotational constants (GHZ):           2.2159138           0.3775594           0.3225941
 Standard basis: VSTO-6G (5D, 7F)
 There are    15 symmetry adapted cartesian basis functions of A1  symmetry.
 There are     3 symmetry adapted cartesian basis functions of A2  symmetry.
 There are     5 symmetry adapted cartesian basis functions of B1  symmetry.
 There are    12 symmetry adapted cartesian basis functions of B2  symmetry.
 There are    15 symmetry adapted basis functions of A1  symmetry.
 There are     3 symmetry adapted basis functions of A2  symmetry.
 There are     5 symmetry adapted basis functions of B1  symmetry.
 There are    12 symmetry adapted basis functions of B2  symmetry.
    35 basis functions,   210 primitive gaussians,    35 cartesian basis functions
    21 alpha electrons       21 beta electrons
       nuclear repulsion energy       190.8114902544 Hartrees.
 Integral buffers will be    131072 words long.
 Regular integral format.
 Two-electron integral symmetry is turned off.
 Do NDO integrals.
 One-electron integrals computed using PRISM.
 NBasis=    35 RedAO= T EigKep=  1.00D+00  NBF=    15     3     5    12
 NBsUse=    35 1.00D-06 EigRej= -1.00D+00 NBFU=    15     3     5    12
 Initial guess from the checkpoint file:  "calcs/am1/chks/BrPh_26_anion.chk"
 B after Tr=     0.000000    0.000000   -0.000000
         Rot=    1.000000    0.000000    0.000000   -0.000000 Ang=   0.00 deg.
 Initial guess orbital symmetries:
       Occupied  (A1) (B2) (A1) (B2) (A1) (A1) (B2) (A1) (B2) (A1)
                 (B2) (B1) (A1) (A2) (B2) (B1) (A1) (B2) (A2) (B1)
                 (A1)
       Virtual   (A2) (A1) (B1) (B2) (B1) (A1) (A1) (B2) (B2) (A1)
                 (B2) (A1) (A1) (B2)
 Keep J ints in memory in canonical form, NReq=862793.
 Overlap will be assumed to be unity.
 Requested convergence on RMS density matrix=1.00D-08 within  32 cycles.
 Requested convergence on MAX density matrix=1.00D-06.
 Requested convergence on             energy=1.00D-06.
 No special actions if energy rises.
 Fock symm off for IB=2 I1=    1 I=   16 J=   12 Cut=1.00D-07 Err=2.83D-04
 Fock matrix is not symmetric: symmetry in diagonalization turned off.
 SCF Done:  E(RAM1) =  0.764106886223E-01 A.U. after   12 cycles
            NFock= 11  Conv=0.64D-08     -V/T= 1.0008
 QCSCF skips out because SCF is already converged.
 Calling FoFJK, ICntrl=      2127 FMM=F ISym2X=1 I1Cent= 0 IOpClX= 0 NMat=1 NMatS=1 NMatT=0.
 ***** Axes restored to original set *****
 -------------------------------------------------------------------
 Center     Atomic                   Forces (Hartrees/Bohr)
 Number     Number              X              Y              Z
 -------------------------------------------------------------------
      1        6           0.000000000    0.003443861    0.000000000
      2        6          -0.000994406   -0.008308572    0.000000000
      3        6          -0.001573783    0.001807634   -0.000000000
      4        6           0.000000000    0.005379032    0.000000000
      5        6           0.001573783    0.001807634    0.000000000
      6        6           0.000994406   -0.008308572    0.000000000
      7       35           0.003044986    0.000789048   -0.000000000
      8        1          -0.002340833    0.000662745   -0.000000000
      9        1          -0.000000000    0.001275397    0.000000000
     10        1           0.002340833    0.000662745   -0.000000000
     11       35          -0.003044986    0.000789048   -0.000000000
 -------------------------------------------------------------------
 Cartesian Forces:  Max     0.008308572 RMS     0.002614519

 GradGradGradGradGradGradGradGradGradGradGradGradGradGradGradGradGradGrad
 Berny optimization.
 Using GEDIIS/GDIIS optimizer.
 FormGI is forming the generalized inverse of G from B-inverse, IUseBI=4.
 Internal  Forces:  Max     0.005789992 RMS     0.002044682
 Search for a local minimum.
 Step number   2 out of a maximum of   57
 All quantities printed in internal units (Hartrees-Bohrs-Radians)
 Mixed Optimization -- RFO/linear search
 Update second derivatives using D2CorX and points    1    2
 DE= -1.95D-03 DEPred=-2.40D-03 R= 8.12D-01
 TightC=F SS=  1.41D+00  RLast= 1.24D-01 DXNew= 5.0454D-01 3.7344D-01
 Trust test= 8.12D-01 RLast= 1.24D-01 DXMaxT set to 3.73D-01
 ITU=  1  0
 Use linear search instead of GDIIS.
     Eigenvalues ---    0.02221   0.02221   0.02221   0.02221   0.02221
     Eigenvalues ---    0.02221   0.02221   0.02221   0.15519   0.16000
     Eigenvalues ---    0.16000   0.18251   0.18656   0.21408   0.23241
     Eigenvalues ---    0.23514   0.25000   0.25317   0.35854   0.35994
     Eigenvalues ---    0.36190   0.43020   0.45326   0.47319   0.47319
     Eigenvalues ---    0.47319   0.59292
 RFO step:  Lambda=-2.85627393D-04 EMin= 2.22103665D-02
 Quartic linear search produced a step of -0.14606.
 Iteration  1 RMS(Cart)=  0.00832503 RMS(Int)=  0.00002460
 Iteration  2 RMS(Cart)=  0.00004202 RMS(Int)=  0.00000101
 Iteration  3 RMS(Cart)=  0.00000000 RMS(Int)=  0.00000101
 ClnCor:  largest displacement from symmetrization is 1.95D-12 for atom     9.
 Variable       Old X    -DE/DX   Delta X   Delta X   Delta X     New X
                                 (Linear)    (Quad)   (Total)
    R1        2.61501   0.00293   0.00171   0.00349   0.00521   2.62021
    R2        2.61501   0.00293   0.00171   0.00349   0.00521   2.62021
    R3        2.64797  -0.00579  -0.00310  -0.00607  -0.00917   2.63879
    R4        3.57069   0.00303   0.00289   0.01014   0.01303   3.58372
    R5        2.64770  -0.00534  -0.00307  -0.00595  -0.00901   2.63869
    R6        2.08277  -0.00235  -0.00612   0.00300  -0.00311   2.07966
    R7        2.64770  -0.00534  -0.00307  -0.00595  -0.00901   2.63869
    R8        2.07560  -0.00128  -0.00507   0.00409  -0.00098   2.07462
    R9        2.64797  -0.00579  -0.00310  -0.00607  -0.00917   2.63879
   R10        2.08277  -0.00235  -0.00612   0.00300  -0.00311   2.07966
   R11        3.57069   0.00303   0.00289   0.01014   0.01303   3.58372
    A1        2.05843  -0.00248   0.00525  -0.01263  -0.00737   2.05106
    A2        2.13210  -0.00024  -0.00551   0.00783   0.00233   2.13443
    A3        2.07989   0.00160   0.00212   0.00202   0.00414   2.08403
    A4        2.07119  -0.00136   0.00339  -0.00985  -0.00646   2.06473
    A5        2.07465   0.00040   0.00288  -0.00419  -0.00131   2.07335
    A6        2.12115   0.00044  -0.00391   0.00894   0.00503   2.12618
    A7        2.08738  -0.00084   0.00102  -0.00475  -0.00372   2.08366
    A8        2.09443   0.00216  -0.00001   0.00534   0.00533   2.09977
    A9        2.09438  -0.00108   0.00000  -0.00267  -0.00267   2.09171
   A10        2.09438  -0.00108   0.00000  -0.00267  -0.00267   2.09171
   A11        2.07465   0.00040   0.00288  -0.00419  -0.00131   2.07335
   A12        2.08738  -0.00084   0.00102  -0.00475  -0.00372   2.08366
   A13        2.12115   0.00044  -0.00391   0.00894   0.00503   2.12618
   A14        2.13210  -0.00024  -0.00551   0.00783   0.00233   2.13443
   A15        2.07989   0.00160   0.00212   0.00202   0.00414   2.08403
   A16        2.07119  -0.00136   0.00339  -0.00985  -0.00646   2.06473
    D1        0.00000  -0.00000   0.00000  -0.00000   0.00000   0.00000
    D2        3.14159  -0.00000   0.00000  -0.00000   0.00000   3.14159
    D3       -0.00000   0.00000   0.00000   0.00000   0.00000   0.00000
    D4        3.14159   0.00000   0.00000   0.00000   0.00000   3.14159
    D5        0.00000   0.00000   0.00000   0.00000   0.00000   0.00000
    D6        3.14159  -0.00000   0.00000  -0.00000   0.00000   3.14159
    D7        3.14159   0.00000   0.00000   0.00000   0.00000   3.14159
    D8       -0.00000   0.00000   0.00000   0.00000   0.00000   0.00000
    D9       -0.00000   0.00000   0.00000   0.00000   0.00000   0.00000
   D10        3.14159  -0.00000   0.00000  -0.00000   0.00000   3.14159
   D11        3.14159   0.00000   0.00000   0.00000   0.00000   3.14159
   D12        0.00000  -0.00000   0.00000   0.00000   0.00000   0.00000
   D13        0.00000  -0.00000   0.00000  -0.00000   0.00000   0.00000
   D14        3.14159  -0.00000   0.00000  -0.00000   0.00000   3.14159
   D15        3.14159   0.00000   0.00000   0.00000   0.00000   3.14159
   D16       -0.00000  -0.00000   0.00000  -0.00000   0.00000   0.00000
   D17        0.00000  -0.00000   0.00000  -0.00000  -0.00000   0.00000
   D18        3.14159  -0.00000   0.00000  -0.00000   0.00000   3.14159
   D19        3.14159   0.00000   0.00000   0.00000   0.00000   3.14159
   D20        0.00000  -0.00000   0.00000  -0.00000   0.00000   0.00000
         Item               Value     Threshold  Converged?
 Maximum Force            0.005790     0.000450     NO 
 RMS     Force            0.002045     0.000300     NO 
 Maximum Displacement     0.024613     0.001800     NO 
 RMS     Displacement     0.008350     0.001200     NO 
 Predicted change in Energy=-2.012149D-04
 GradGradGradGradGradGradGradGradGradGradGradGradGradGradGradGradGradGrad

                          Input orientation:                          
 ---------------------------------------------------------------------
 Center     Atomic      Atomic             Coordinates (Angstroms)
 Number     Number       Type             X           Y           Z
 ---------------------------------------------------------------------
      1          6           0        0.000000    1.424795    0.000000
      2          6           0        1.185491    0.705662   -0.000000
      3          6           0        1.211133   -0.690491   -0.000000
      4          6           0       -0.000000   -1.385409   -0.000000
      5          6           0       -1.211133   -0.690491    0.000000
      6          6           0       -1.185491    0.705662    0.000000
      7         35           0        2.838457    1.635247   -0.000000
      8          1           0        2.156732   -1.253486   -0.000000
      9          1           0       -0.000000   -2.483251   -0.000000
     10          1           0       -2.156732   -1.253486    0.000000
     11         35           0       -2.838457    1.635247    0.000000
 ---------------------------------------------------------------------
                    Distance matrix (angstroms):
                    1          2          3          4          5
     1  C    0.000000
     2  C    1.386557   0.000000
     3  C    2.437473   1.396388   0.000000
     4  C    2.810204   2.403741   1.396336   0.000000
     5  C    2.437473   2.773635   2.422265   1.396336   0.000000
     6  C    1.386557   2.370983   2.773635   2.403741   1.396388
     7  Br   2.846248   1.896423   2.838527   4.145021   4.669928
     8  H    3.438703   2.186680   1.100509   2.160763   3.414597
     9  H    3.908046   3.402140   2.163523   1.097842   2.163523
    10  H    3.438703   3.874108   3.414597   2.160763   1.100509
    11  Br   2.846248   4.129925   4.669928   4.145021   2.838527
                    6          7          8          9         10
     6  C    0.000000
     7  Br   4.129925   0.000000
     8  H    3.874108   2.968084   0.000000
     9  H    3.402140   5.001886   2.482703   0.000000
    10  H    2.186680   5.770328   4.313463   2.482703   0.000000
    11  Br   1.896423   5.676913   5.770328   5.001886   2.968084
                   11
    11  Br   0.000000
 Stoichiometry    C6H3Br2(1-)
 Framework group  C2V[C2(CCH),SGV(C4H2Br2)]
 Deg. of freedom    10
 Full point group                 C2V     NOp   4
 Largest Abelian subgroup         C2V     NOp   4
 Largest concise Abelian subgroup C2      NOp   2
                         Standard orientation:                         
 ---------------------------------------------------------------------
 Center     Atomic      Atomic             Coordinates (Angstroms)
 Number     Number       Type             X           Y           Z
 ---------------------------------------------------------------------
      1          6           0       -0.000000    0.000000   -0.416580
      2          6           0       -0.000000    1.185491    0.302553
      3          6           0       -0.000000    1.211133    1.698706
      4          6           0        0.000000   -0.000000    2.393624
      5          6           0       -0.000000   -1.211133    1.698706
      6          6           0       -0.000000   -1.185491    0.302553
      7         35           0       -0.000000    2.838457   -0.627032
      8          1           0       -0.000000    2.156732    2.261701
      9          1           0        0.000000   -0.000000    3.491466
     10          1           0       -0.000000   -2.156732    2.261701
     11         35           0       -0.000000   -2.838457   -0.627032
 ---------------------------------------------------------------------
 Rotational constants (GHZ):           2.2424688           0.3743622           0.3208062
 Standard basis: VSTO-6G (5D, 7F)
 There are    15 symmetry adapted cartesian basis functions of A1  symmetry.
 There are     3 symmetry adapted cartesian basis functions of A2  symmetry.
 There are     5 symmetry adapted cartesian basis functions of B1  symmetry.
 There are    12 symmetry adapted cartesian basis functions of B2  symmetry.
 There are    15 symmetry adapted basis functions of A1  symmetry.
 There are     3 symmetry adapted basis functions of A2  symmetry.
 There are     5 symmetry adapted basis functions of B1  symmetry.
 There are    12 symmetry adapted basis functions of B2  symmetry.
    35 basis functions,   210 primitive gaussians,    35 cartesian basis functions
    21 alpha electrons       21 beta electrons
       nuclear repulsion energy       190.8152902119 Hartrees.
 Integral buffers will be    131072 words long.
 Regular integral format.
 Two-electron integral symmetry is turned off.
 Do NDO integrals.
 One-electron integrals computed using PRISM.
 NBasis=    35 RedAO= T EigKep=  1.00D+00  NBF=    15     3     5    12
 NBsUse=    35 1.00D-06 EigRej= -1.00D+00 NBFU=    15     3     5    12
 Initial guess from the checkpoint file:  "calcs/am1/chks/BrPh_26_anion.chk"
 B after Tr=    -0.000000   -0.000000    0.000000
         Rot=    1.000000   -0.000000    0.000000   -0.000000 Ang=   0.00 deg.
 Initial guess orbital symmetries:
       Occupied  (A1) (B2) (A1) (A1) (B2) (B2) (A1) (A1) (B2) (A1)
                 (B2) (B1) (A1) (A2) (B2) (B1) (A1) (B2) (A2) (B1)
                 (A1)
       Virtual   (A2) (B1) (A1) (B2) (B1) (A1) (A1) (B2) (B2) (A1)
                 (B2) (A1) (A1) (B2)
 Keep J ints in memory in canonical form, NReq=862793.
 Overlap will be assumed to be unity.
 Requested convergence on RMS density matrix=1.00D-08 within  32 cycles.
 Requested convergence on MAX density matrix=1.00D-06.
 Requested convergence on             energy=1.00D-06.
 No special actions if energy rises.
 Fock symm off for IB=2 I1=    1 I=   16 J=   12 Cut=1.00D-07 Err=3.89D-04
 Fock matrix is not symmetric: symmetry in diagonalization turned off.
 SCF Done:  E(RAM1) =  0.761972023178E-01 A.U. after   11 cycles
            NFock= 10  Conv=0.65D-08     -V/T= 1.0008
 QCSCF skips out because SCF is already converged.
 Calling FoFJK, ICntrl=      2127 FMM=F ISym2X=1 I1Cent= 0 IOpClX= 0 NMat=1 NMatS=1 NMatT=0.
 ***** Axes restored to original set *****
 -------------------------------------------------------------------
 Center     Atomic                   Forces (Hartrees/Bohr)
 Number     Number              X              Y              Z
 -------------------------------------------------------------------
      1        6          -0.000000000    0.001833556    0.000000000
      2        6          -0.000212735   -0.001032877   -0.000000000
      3        6           0.002021522    0.000351591   -0.000000000
      4        6           0.000000000   -0.001764013    0.000000000
      5        6          -0.002021522    0.000351591   -0.000000000
      6        6           0.000212735   -0.001032877   -0.000000000
      7       35           0.000547231    0.000163089   -0.000000000
      8        1          -0.000822843    0.000345276   -0.000000000
      9        1           0.000000000    0.000276299    0.000000000
     10        1           0.000822843    0.000345276    0.000000000
     11       35          -0.000547231    0.000163089   -0.000000000
 -------------------------------------------------------------------
 Cartesian Forces:  Max     0.002021522 RMS     0.000767507

 GradGradGradGradGradGradGradGradGradGradGradGradGradGradGradGradGradGrad
 Berny optimization.
 Using GEDIIS/GDIIS optimizer.
 FormGI is forming the generalized inverse of G from B-inverse, IUseBI=4.
 Internal  Forces:  Max     0.001091410 RMS     0.000422329
 Search for a local minimum.
 Step number   3 out of a maximum of   57
 All quantities printed in internal units (Hartrees-Bohrs-Radians)
 Mixed Optimization -- En-DIIS/RFO-DIIS
 Update second derivatives using D2CorX and points    1    2    3
 DE= -2.13D-04 DEPred=-2.01D-04 R= 1.06D+00
 TightC=F SS=  1.41D+00  RLast= 3.24D-02 DXNew= 6.2804D-01 9.7307D-02
 Trust test= 1.06D+00 RLast= 3.24D-02 DXMaxT set to 3.73D-01
 ITU=  1  1  0
 Use linear search instead of GDIIS.
     Eigenvalues ---    0.02221   0.02221   0.02221   0.02221   0.02221
     Eigenvalues ---    0.02221   0.02221   0.02221   0.14520   0.16000
     Eigenvalues ---    0.16000   0.17316   0.18251   0.21426   0.22688
     Eigenvalues ---    0.23511   0.25000   0.25361   0.35910   0.35994
     Eigenvalues ---    0.36708   0.43011   0.44571   0.46665   0.47319
     Eigenvalues ---    0.47319   0.65705
 RFO step:  Lambda=-2.58075770D-05 EMin= 2.22103665D-02
 Quartic linear search produced a step of  0.06136.
 Iteration  1 RMS(Cart)=  0.00194968 RMS(Int)=  0.00000195
 Iteration  2 RMS(Cart)=  0.00000288 RMS(Int)=  0.00000038
 Iteration  3 RMS(Cart)=  0.00000000 RMS(Int)=  0.00000038
 ClnCor:  largest displacement from symmetrization is 1.65D-13 for atom     9.
 Variable       Old X    -DE/DX   Delta X   Delta X   Delta X     New X
                                 (Linear)    (Quad)   (Total)
    R1        2.62021   0.00108   0.00032   0.00237   0.00269   2.62290
    R2        2.62021   0.00108   0.00032   0.00237   0.00269   2.62290
    R3        2.63879   0.00005  -0.00056   0.00023  -0.00033   2.63846
    R4        3.58372   0.00056   0.00080   0.00322   0.00402   3.58774
    R5        2.63869   0.00109  -0.00055   0.00260   0.00205   2.64074
    R6        2.07966  -0.00088  -0.00019  -0.00223  -0.00242   2.07724
    R7        2.63869   0.00109  -0.00055   0.00260   0.00205   2.64074
    R8        2.07462  -0.00028  -0.00006  -0.00047  -0.00053   2.07409
    R9        2.63879   0.00005  -0.00056   0.00023  -0.00033   2.63846
   R10        2.07966  -0.00088  -0.00019  -0.00223  -0.00242   2.07724
   R11        3.58372   0.00056   0.00080   0.00322   0.00402   3.58774
    A1        2.05106  -0.00066  -0.00045  -0.00336  -0.00381   2.04725
    A2        2.13443   0.00044   0.00014   0.00232   0.00246   2.13688
    A3        2.08403   0.00001   0.00025  -0.00008   0.00018   2.08421
    A4        2.06473  -0.00045  -0.00040  -0.00224  -0.00263   2.06209
    A5        2.07335   0.00003  -0.00008  -0.00001  -0.00009   2.07326
    A6        2.12618   0.00011   0.00031   0.00110   0.00140   2.12758
    A7        2.08366  -0.00015  -0.00023  -0.00109  -0.00132   2.08234
    A8        2.09977  -0.00029   0.00033  -0.00126  -0.00093   2.09883
    A9        2.09171   0.00014  -0.00016   0.00063   0.00047   2.09218
   A10        2.09171   0.00014  -0.00016   0.00063   0.00047   2.09218
   A11        2.07335   0.00003  -0.00008  -0.00001  -0.00009   2.07326
   A12        2.08366  -0.00015  -0.00023  -0.00109  -0.00132   2.08234
   A13        2.12618   0.00011   0.00031   0.00110   0.00140   2.12758
   A14        2.13443   0.00044   0.00014   0.00232   0.00246   2.13688
   A15        2.08403   0.00001   0.00025  -0.00008   0.00018   2.08421
   A16        2.06473  -0.00045  -0.00040  -0.00224  -0.00263   2.06209
    D1        0.00000  -0.00000   0.00000  -0.00000   0.00000   0.00000
    D2        3.14159  -0.00000   0.00000  -0.00000   0.00000   3.14159
    D3       -0.00000   0.00000   0.00000   0.00000   0.00000   0.00000
    D4        3.14159   0.00000   0.00000   0.00000   0.00000   3.14159
    D5       -0.00000   0.00000   0.00000   0.00000   0.00000   0.00000
    D6        3.14159  -0.00000   0.00000  -0.00000   0.00000   3.14159
    D7        3.14159   0.00000   0.00000   0.00000   0.00000   3.14159
    D8        0.00000   0.00000   0.00000   0.00000   0.00000   0.00000
    D9       -0.00000   0.00000   0.00000   0.00000   0.00000   0.00000
   D10        3.14159  -0.00000   0.00000  -0.00000   0.00000   3.14159
   D11        3.14159   0.00000   0.00000   0.00000   0.00000   3.14159
   D12        0.00000   0.00000   0.00000   0.00000  -0.00000   0.00000
   D13        0.00000  -0.00000   0.00000  -0.00000   0.00000   0.00000
   D14        3.14159  -0.00000   0.00000  -0.00000   0.00000   3.14159
   D15        3.14159   0.00000   0.00000   0.00000   0.00000   3.14159
   D16        0.00000   0.00000   0.00000   0.00000   0.00000   0.00000
   D17        0.00000  -0.00000   0.00000  -0.00000   0.00000   0.00000
   D18        3.14159  -0.00000   0.00000   0.00000   0.00000   3.14159
   D19        3.14159  -0.00000   0.00000  -0.00000   0.00000   3.14159
   D20       -0.00000  -0.00000   0.00000  -0.00000   0.00000   0.00000
         Item               Value     Threshold  Converged?
 Maximum Force            0.001091     0.000450     NO 
 RMS     Force            0.000422     0.000300     NO 
 Maximum Displacement     0.006858     0.001800     NO 
 RMS     Displacement     0.001950     0.001200     NO 
 Predicted change in Energy=-1.364561D-05
 GradGradGradGradGradGradGradGradGradGradGradGradGradGradGradGradGradGrad

                          Input orientation:                          
 ---------------------------------------------------------------------
 Center     Atomic      Atomic             Coordinates (Angstroms)
 Number     Number       Type             X           Y           Z
 ---------------------------------------------------------------------
      1          6           0        0.000000    1.428053    0.000000
      2          6           0        1.185334    0.705926   -0.000000
      3          6           0        1.211747   -0.690039   -0.000000
      4          6           0       -0.000000   -1.386062    0.000000
      5          6           0       -1.211747   -0.690039    0.000000
      6          6           0       -1.185334    0.705926    0.000000
      7         35           0        2.842086    1.633111   -0.000000
      8          1           0        2.155767   -1.253181   -0.000000
      9          1           0       -0.000000   -2.483624    0.000000
     10          1           0       -2.155767   -1.253181    0.000000
     11         35           0       -2.842086    1.633111    0.000000
 ---------------------------------------------------------------------
                    Distance matrix (angstroms):
                    1          2          3          4          5
     1  C    0.000000
     2  C    1.387979   0.000000
     3  C    2.440214   1.396215   0.000000
     4  C    2.814115   2.404460   1.397418   0.000000
     5  C    2.440214   2.773935   2.423493   1.397418   0.000000
     6  C    1.387979   2.370668   2.773935   2.404460   1.396215
     7  Br   2.849474   1.898552   2.838139   4.146427   4.672321
     8  H    3.440399   2.186284   1.099229   2.159859   3.414276
     9  H    3.911677   3.402682   2.164550   1.097562   2.164550
    10  H    3.440399   3.873120   3.414276   2.159859   1.099229
    11  Br   2.849474   4.132770   4.672321   4.146427   2.838139
                    6          7          8          9         10
     6  C    0.000000
     7  Br   4.132770   0.000000
     8  H    3.873120   2.966769   0.000000
     9  H    3.402682   5.002496   2.482201   0.000000
    10  H    2.186284   5.771414   4.311534   2.482201   0.000000
    11  Br   1.898552   5.684171   5.771414   5.002496   2.966769
                   11
    11  Br   0.000000
 Stoichiometry    C6H3Br2(1-)
 Framework group  C2V[C2(CCH),SGV(C4H2Br2)]
 Deg. of freedom    10
 Full point group                 C2V     NOp   4
 Largest Abelian subgroup         C2V     NOp   4
 Largest concise Abelian subgroup C2      NOp   2
                         Standard orientation:                         
 ---------------------------------------------------------------------
 Center     Atomic      Atomic             Coordinates (Angstroms)
 Number     Number       Type             X           Y           Z
 ---------------------------------------------------------------------
      1          6           0       -0.000000    0.000000   -0.420985
      2          6           0        0.000000    1.185334    0.301142
      3          6           0        0.000000    1.211747    1.697107
      4          6           0        0.000000   -0.000000    2.393130
      5          6           0       -0.000000   -1.211747    1.697107
      6          6           0       -0.000000   -1.185334    0.301142
      7         35           0        0.000000    2.842086   -0.626043
      8          1           0        0.000000    2.155767    2.260249
      9          1           0        0.000000   -0.000000    3.490692
     10          1           0       -0.000000   -2.155767    2.260249
     11         35           0       -0.000000   -2.842086   -0.626043
 ---------------------------------------------------------------------
 Rotational constants (GHZ):           2.2459121           0.3734569           0.3202113
 Standard basis: VSTO-6G (5D, 7F)
 There are    15 symmetry adapted cartesian basis functions of A1  symmetry.
 There are     3 symmetry adapted cartesian basis functions of A2  symmetry.
 There are     5 symmetry adapted cartesian basis functions of B1  symmetry.
 There are    12 symmetry adapted cartesian basis functions of B2  symmetry.
 There are    15 symmetry adapted basis functions of A1  symmetry.
 There are     3 symmetry adapted basis functions of A2  symmetry.
 There are     5 symmetry adapted basis functions of B1  symmetry.
 There are    12 symmetry adapted basis functions of B2  symmetry.
    35 basis functions,   210 primitive gaussians,    35 cartesian basis functions
    21 alpha electrons       21 beta electrons
       nuclear repulsion energy       190.7564485690 Hartrees.
 Integral buffers will be    131072 words long.
 Regular integral format.
 Two-electron integral symmetry is turned off.
 Do NDO integrals.
 One-electron integrals computed using PRISM.
 NBasis=    35 RedAO= T EigKep=  1.00D+00  NBF=    15     3     5    12
 NBsUse=    35 1.00D-06 EigRej= -1.00D+00 NBFU=    15     3     5    12
 Initial guess from the checkpoint file:  "calcs/am1/chks/BrPh_26_anion.chk"
 B after Tr=    -0.000000    0.000000   -0.000000
         Rot=    1.000000    0.000000   -0.000000    0.000000 Ang=   0.00 deg.
 Initial guess orbital symmetries:
       Occupied  (A1) (B2) (A1) (A1) (B2) (A1) (B2) (A1) (B2) (A1)
                 (B2) (B1) (A1) (A2) (B2) (B1) (A1) (B2) (A2) (B1)
                 (A1)
       Virtual   (A2) (B1) (A1) (B2) (B1) (A1) (A1) (B2) (B2) (A1)
                 (B2) (A1) (A1) (B2)
 Keep J ints in memory in canonical form, NReq=862793.
 Overlap will be assumed to be unity.
 Requested convergence on RMS density matrix=1.00D-08 within  32 cycles.
 Requested convergence on MAX density matrix=1.00D-06.
 Requested convergence on             energy=1.00D-06.
 No special actions if energy rises.
 Fock symm off for IB=2 I1=    1 I=   16 J=   12 Cut=1.00D-07 Err=6.35D-05
 Fock matrix is not symmetric: symmetry in diagonalization turned off.
 SCF Done:  E(RAM1) =  0.761838717666E-01 A.U. after   10 cycles
            NFock=  9  Conv=0.95D-08     -V/T= 1.0008
 QCSCF skips out because SCF is already converged.
 Calling FoFJK, ICntrl=      2127 FMM=F ISym2X=1 I1Cent= 0 IOpClX= 0 NMat=1 NMatS=1 NMatT=0.
 ***** Axes restored to original set *****
 -------------------------------------------------------------------
 Center     Atomic                   Forces (Hartrees/Bohr)
 Number     Number              X              Y              Z
 -------------------------------------------------------------------
      1        6          -0.000000000    0.000187564    0.000000000
      2        6          -0.000371722   -0.000272837   -0.000000000
      3        6          -0.000047597    0.000237510    0.000000000
      4        6           0.000000000   -0.000238659    0.000000000
      5        6           0.000047597    0.000237510   -0.000000000
      6        6           0.000371722   -0.000272837   -0.000000000
      7       35          -0.000213360   -0.000071165   -0.000000000
      8        1          -0.000055383    0.000021467   -0.000000000
      9        1           0.000000000    0.000221147    0.000000000
     10        1           0.000055383    0.000021467    0.000000000
     11       35           0.000213360   -0.000071165   -0.000000000
 -------------------------------------------------------------------
 Cartesian Forces:  Max     0.000371722 RMS     0.000154906

 GradGradGradGradGradGradGradGradGradGradGradGradGradGradGradGradGradGrad
 Berny optimization.
 Using GEDIIS/GDIIS optimizer.
 FormGI is forming the generalized inverse of G from B-inverse, IUseBI=4.
 Internal  Forces:  Max     0.000357160 RMS     0.000147465
 Search for a local minimum.
 Step number   4 out of a maximum of   57
 All quantities printed in internal units (Hartrees-Bohrs-Radians)
 Mixed Optimization -- En-DIIS/RFO-DIIS
 Swapping is turned off.
 Update second derivatives using D2CorX and points    1    2    3    4
 DE= -1.33D-05 DEPred=-1.36D-05 R= 9.77D-01
 TightC=F SS=  1.41D+00  RLast= 1.08D-02 DXNew= 6.2804D-01 3.2397D-02
 Trust test= 9.77D-01 RLast= 1.08D-02 DXMaxT set to 3.73D-01
 ITU=  1  1  1  0
     Eigenvalues ---    0.02221   0.02221   0.02221   0.02221   0.02221
     Eigenvalues ---    0.02221   0.02221   0.02221   0.13019   0.16000
     Eigenvalues ---    0.16000   0.17105   0.18251   0.21044   0.22121
     Eigenvalues ---    0.23512   0.25000   0.26145   0.35778   0.35994
     Eigenvalues ---    0.36552   0.43007   0.45659   0.47319   0.47319
     Eigenvalues ---    0.51846   0.67775
 En-DIIS/RFO-DIIS/Sim-DIIS IScMMF=       -3 using points:     4    3
 RFO step:  Lambda=-3.28530962D-06.
 Use linear search instead of GDIIS.
 RFO step:  Lambda=-3.27293489D-06 EMin= 2.22103665D-02
 Quartic linear search produced a step of -0.02081.
 Iteration  1 RMS(Cart)=  0.00072320 RMS(Int)=  0.00000030
 Iteration  2 RMS(Cart)=  0.00000040 RMS(Int)=  0.00000006
 ClnCor:  largest displacement from symmetrization is 1.25D-12 for atom     9.
 Variable       Old X    -DE/DX   Delta X   Delta X   Delta X     New X
                                 (Linear)    (Quad)   (Total)
    R1        2.62290  -0.00035  -0.00006  -0.00032  -0.00037   2.62253
    R2        2.62290  -0.00035  -0.00006  -0.00032  -0.00037   2.62253
    R3        2.63846  -0.00025   0.00001  -0.00064  -0.00063   2.63783
    R4        3.58774  -0.00022  -0.00008  -0.00051  -0.00059   3.58715
    R5        2.64074  -0.00019  -0.00004  -0.00016  -0.00020   2.64053
    R6        2.07724  -0.00006   0.00005  -0.00050  -0.00045   2.07679
    R7        2.64074  -0.00019  -0.00004  -0.00016  -0.00020   2.64053
    R8        2.07409  -0.00022   0.00001  -0.00066  -0.00065   2.07344
    R9        2.63846  -0.00025   0.00001  -0.00064  -0.00063   2.63783
   R10        2.07724  -0.00006   0.00005  -0.00050  -0.00045   2.07679
   R11        3.58774  -0.00022  -0.00008  -0.00051  -0.00059   3.58715
    A1        2.04725  -0.00036   0.00008  -0.00214  -0.00206   2.04519
    A2        2.13688   0.00027  -0.00005   0.00146   0.00141   2.13830
    A3        2.08421  -0.00021  -0.00000  -0.00077  -0.00078   2.08343
    A4        2.06209  -0.00006   0.00005  -0.00069  -0.00063   2.06146
    A5        2.07326   0.00001   0.00000   0.00004   0.00005   2.07331
    A6        2.12758   0.00001  -0.00003   0.00029   0.00026   2.12784
    A7        2.08234  -0.00001   0.00003  -0.00034  -0.00031   2.08204
    A8        2.09883  -0.00020   0.00002  -0.00087  -0.00085   2.09798
    A9        2.09218   0.00010  -0.00001   0.00044   0.00043   2.09260
   A10        2.09218   0.00010  -0.00001   0.00044   0.00043   2.09260
   A11        2.07326   0.00001   0.00000   0.00004   0.00005   2.07331
   A12        2.08234  -0.00001   0.00003  -0.00034  -0.00031   2.08204
   A13        2.12758   0.00001  -0.00003   0.00029   0.00026   2.12784
   A14        2.13688   0.00027  -0.00005   0.00146   0.00141   2.13830
   A15        2.08421  -0.00021  -0.00000  -0.00077  -0.00078   2.08343
   A16        2.06209  -0.00006   0.00005  -0.00069  -0.00063   2.06146
    D1        0.00000  -0.00000   0.00000  -0.00000   0.00000   0.00000
    D2        3.14159  -0.00000   0.00000  -0.00000   0.00000   3.14159
    D3       -0.00000   0.00000   0.00000   0.00000   0.00000   0.00000
    D4        3.14159   0.00000   0.00000   0.00000   0.00000   3.14159
    D5       -0.00000   0.00000   0.00000   0.00000   0.00000   0.00000
    D6        3.14159   0.00000   0.00000   0.00000   0.00000   3.14159
    D7        3.14159   0.00000   0.00000  -0.00000   0.00000   3.14159
    D8        0.00000  -0.00000   0.00000  -0.00000   0.00000   0.00000
    D9       -0.00000   0.00000   0.00000   0.00000   0.00000   0.00000
   D10        3.14159  -0.00000   0.00000  -0.00000   0.00000   3.14159
   D11        3.14159   0.00000   0.00000   0.00000   0.00000   3.14159
   D12       -0.00000  -0.00000   0.00000  -0.00000   0.00000   0.00000
   D13        0.00000  -0.00000   0.00000  -0.00000   0.00000   0.00000
   D14        3.14159  -0.00000   0.00000  -0.00000   0.00000   3.14159
   D15        3.14159  -0.00000   0.00000  -0.00000   0.00000   3.14159
   D16       -0.00000   0.00000   0.00000   0.00000   0.00000   0.00000
   D17       -0.00000   0.00000   0.00000   0.00000   0.00000   0.00000
   D18        3.14159   0.00000   0.00000   0.00000   0.00000   3.14159
   D19        3.14159   0.00000   0.00000   0.00000   0.00000   3.14159
   D20       -0.00000  -0.00000   0.00000  -0.00000   0.00000   0.00000
         Item               Value     Threshold  Converged?
 Maximum Force            0.000357     0.000450     YES
 RMS     Force            0.000147     0.000300     YES
 Maximum Displacement     0.001794     0.001800     YES
 RMS     Displacement     0.000723     0.001200     YES
 Predicted change in Energy=-1.642695D-06
 Optimization completed.
    -- Stationary point found.
                           ----------------------------
                           !   Optimized Parameters   !
                           ! (Angstroms and Degrees)  !
 --------------------------                            --------------------------
 ! Name  Definition              Value          Derivative Info.                !
 --------------------------------------------------------------------------------
 ! R1    R(1,2)                  1.388          -DE/DX =   -0.0003              !
 ! R2    R(1,6)                  1.388          -DE/DX =   -0.0003              !
 ! R3    R(2,3)                  1.3962         -DE/DX =   -0.0002              !
 ! R4    R(2,7)                  1.8986         -DE/DX =   -0.0002              !
 ! R5    R(3,4)                  1.3974         -DE/DX =   -0.0002              !
 ! R6    R(3,8)                  1.0992         -DE/DX =   -0.0001              !
 ! R7    R(4,5)                  1.3974         -DE/DX =   -0.0002              !
 ! R8    R(4,9)                  1.0976         -DE/DX =   -0.0002              !
 ! R9    R(5,6)                  1.3962         -DE/DX =   -0.0002              !
 ! R10   R(5,10)                 1.0992         -DE/DX =   -0.0001              !
 ! R11   R(6,11)                 1.8986         -DE/DX =   -0.0002              !
 ! A1    A(2,1,6)              117.2989         -DE/DX =   -0.0004              !
 ! A2    A(1,2,3)              122.4345         -DE/DX =    0.0003              !
 ! A3    A(1,2,7)              119.4163         -DE/DX =   -0.0002              !
 ! A4    A(3,2,7)              118.1492         -DE/DX =   -0.0001              !
 ! A5    A(2,3,4)              118.789          -DE/DX =    0.0                 !
 ! A6    A(2,3,8)              121.9015         -DE/DX =    0.0                 !
 ! A7    A(4,3,8)              119.3095         -DE/DX =    0.0                 !
 ! A8    A(3,4,5)              120.2542         -DE/DX =   -0.0002              !
 ! A9    A(3,4,9)              119.8729         -DE/DX =    0.0001              !
 ! A10   A(5,4,9)              119.8729         -DE/DX =    0.0001              !
 ! A11   A(4,5,6)              118.789          -DE/DX =    0.0                 !
 ! A12   A(4,5,10)             119.3095         -DE/DX =    0.0                 !
 ! A13   A(6,5,10)             121.9015         -DE/DX =    0.0                 !
 ! A14   A(1,6,5)              122.4345         -DE/DX =    0.0003              !
 ! A15   A(1,6,11)             119.4163         -DE/DX =   -0.0002              !
 ! A16   A(5,6,11)             118.1492         -DE/DX =   -0.0001              !
 ! D1    D(6,1,2,3)              0.0            -DE/DX =    0.0                 !
 ! D2    D(6,1,2,7)            180.0            -DE/DX =    0.0                 !
 ! D3    D(2,1,6,5)              0.0            -DE/DX =    0.0                 !
 ! D4    D(2,1,6,11)           180.0            -DE/DX =    0.0                 !
 ! D5    D(1,2,3,4)              0.0            -DE/DX =    0.0                 !
 ! D6    D(1,2,3,8)            180.0            -DE/DX =    0.0                 !
 ! D7    D(7,2,3,4)            180.0            -DE/DX =    0.0                 !
 ! D8    D(7,2,3,8)              0.0            -DE/DX =    0.0                 !
 ! D9    D(2,3,4,5)              0.0            -DE/DX =    0.0                 !
 ! D10   D(2,3,4,9)            180.0            -DE/DX =    0.0                 !
 ! D11   D(8,3,4,5)            180.0            -DE/DX =    0.0                 !
 ! D12   D(8,3,4,9)              0.0            -DE/DX =    0.0                 !
 ! D13   D(3,4,5,6)              0.0            -DE/DX =    0.0                 !
 ! D14   D(3,4,5,10)           180.0            -DE/DX =    0.0                 !
 ! D15   D(9,4,5,6)            180.0            -DE/DX =    0.0                 !
 ! D16   D(9,4,5,10)             0.0            -DE/DX =    0.0                 !
 ! D17   D(4,5,6,1)              0.0            -DE/DX =    0.0                 !
 ! D18   D(4,5,6,11)           180.0            -DE/DX =    0.0                 !
 ! D19   D(10,5,6,1)           180.0            -DE/DX =    0.0                 !
 ! D20   D(10,5,6,11)            0.0            -DE/DX =    0.0                 !
 --------------------------------------------------------------------------------
 GradGradGradGradGradGradGradGradGradGradGradGradGradGradGradGradGradGrad

                          Input orientation:                          
 ---------------------------------------------------------------------
 Center     Atomic      Atomic             Coordinates (Angstroms)
 Number     Number       Type             X           Y           Z
 ---------------------------------------------------------------------
      1          6           0        0.000000    1.428053    0.000000
      2          6           0        1.185334    0.705926    0.000000
      3          6           0        1.211747   -0.690039   -0.000000
      4          6           0       -0.000000   -1.386062    0.000000
      5          6           0       -1.211747   -0.690039    0.000000
      6          6           0       -1.185334    0.705926    0.000000
      7         35           0        2.842086    1.633111   -0.000000
      8          1           0        2.155767   -1.253181   -0.000000
      9          1           0       -0.000000   -2.483624    0.000000
     10          1           0       -2.155767   -1.253181    0.000000
     11         35           0       -2.842086    1.633111    0.000000
 ---------------------------------------------------------------------
                    Distance matrix (angstroms):
                    1          2          3          4          5
     1  C    0.000000
     2  C    1.387979   0.000000
     3  C    2.440214   1.396215   0.000000
     4  C    2.814115   2.404460   1.397418   0.000000
     5  C    2.440214   2.773935   2.423493   1.397418   0.000000
     6  C    1.387979   2.370668   2.773935   2.404460   1.396215
     7  Br   2.849474   1.898552   2.838139   4.146427   4.672321
     8  H    3.440399   2.186284   1.099229   2.159859   3.414276
     9  H    3.911677   3.402682   2.164550   1.097562   2.164550
    10  H    3.440399   3.873120   3.414276   2.159859   1.099229
    11  Br   2.849474   4.132770   4.672321   4.146427   2.838139
                    6          7          8          9         10
     6  C    0.000000
     7  Br   4.132770   0.000000
     8  H    3.873120   2.966769   0.000000
     9  H    3.402682   5.002496   2.482201   0.000000
    10  H    2.186284   5.771414   4.311534   2.482201   0.000000
    11  Br   1.898552   5.684171   5.771414   5.002496   2.966769
                   11
    11  Br   0.000000
 Stoichiometry    C6H3Br2(1-)
 Framework group  C2V[C2(CCH),SGV(C4H2Br2)]
 Deg. of freedom    10
 Full point group                 C2V     NOp   4
 Largest Abelian subgroup         C2V     NOp   4
 Largest concise Abelian subgroup C2      NOp   2
                         Standard orientation:                         
 ---------------------------------------------------------------------
 Center     Atomic      Atomic             Coordinates (Angstroms)
 Number     Number       Type             X           Y           Z
 ---------------------------------------------------------------------
      1          6           0        0.000000   -0.000000   -0.420985
      2          6           0        0.000000    1.185334    0.301142
      3          6           0        0.000000    1.211747    1.697107
      4          6           0       -0.000000    0.000000    2.393130
      5          6           0       -0.000000   -1.211747    1.697107
      6          6           0       -0.000000   -1.185334    0.301142
      7         35           0        0.000000    2.842086   -0.626043
      8          1           0        0.000000    2.155767    2.260249
      9          1           0       -0.000000    0.000000    3.490692
     10          1           0       -0.000000   -2.155767    2.260249
     11         35           0       -0.000000   -2.842086   -0.626043
 ---------------------------------------------------------------------
 Rotational constants (GHZ):           2.2459121           0.3734569           0.3202113

 **********************************************************************

            Population analysis using the SCF Density.

 **********************************************************************

 Orbital symmetries:
       Occupied  (A1) (B2) (A1) (A1) (B2) (A1) (B2) (A1) (B2) (A1)
                 (B2) (B1) (A1) (A2) (B2) (B1) (A1) (B2) (A2) (B1)
                 (A1)
       Virtual   (A2) (B1) (A1) (B2) (B1) (A1) (A1) (B2) (B2) (A1)
                 (B2) (A1) (A1) (B2)
 The electronic state is 1-A1.
 Alpha  occ. eigenvalues --   -1.26322  -1.05239  -1.01269  -0.91881  -0.91837
 Alpha  occ. eigenvalues --   -0.66002  -0.65876  -0.47394  -0.41088  -0.41032
 Alpha  occ. eigenvalues --   -0.36144  -0.34762  -0.32678  -0.28679  -0.27715
 Alpha  occ. eigenvalues --   -0.25893  -0.25041  -0.23923  -0.18357  -0.16552
 Alpha  occ. eigenvalues --   -0.11409
 Alpha virt. eigenvalues --    0.17305   0.19792   0.19858   0.20859   0.28701
 Alpha virt. eigenvalues --    0.29349   0.30453   0.30709   0.33980   0.34417
 Alpha virt. eigenvalues --    0.35688   0.36321   0.39259   0.40505
          Condensed to atoms (all electrons):
               1          2          3          4          5          6
     1  C    4.331880   0.000000   0.000000   0.000000   0.000000   0.000000
     2  C    0.000000   4.150063   0.000000   0.000000   0.000000   0.000000
     3  C    0.000000   0.000000   4.126653   0.000000   0.000000   0.000000
     4  C    0.000000   0.000000   0.000000   4.224148   0.000000   0.000000
     5  C    0.000000   0.000000   0.000000   0.000000   4.126653   0.000000
     6  C    0.000000   0.000000   0.000000   0.000000   0.000000   4.150063
     7  Br   0.000000   0.000000   0.000000   0.000000   0.000000   0.000000
     8  H    0.000000   0.000000   0.000000   0.000000   0.000000   0.000000
     9  H    0.000000   0.000000   0.000000   0.000000   0.000000   0.000000
    10  H    0.000000   0.000000   0.000000   0.000000   0.000000   0.000000
    11  Br   0.000000   0.000000   0.000000   0.000000   0.000000   0.000000
               7          8          9         10         11
     1  C    0.000000   0.000000   0.000000   0.000000   0.000000
     2  C    0.000000   0.000000   0.000000   0.000000   0.000000
     3  C    0.000000   0.000000   0.000000   0.000000   0.000000
     4  C    0.000000   0.000000   0.000000   0.000000   0.000000
     5  C    0.000000   0.000000   0.000000   0.000000   0.000000
     6  C    0.000000   0.000000   0.000000   0.000000   0.000000
     7  Br   7.086095   0.000000   0.000000   0.000000   0.000000
     8  H    0.000000   0.904202   0.000000   0.000000   0.000000
     9  H    0.000000   0.000000   0.909947   0.000000   0.000000
    10  H    0.000000   0.000000   0.000000   0.904202   0.000000
    11  Br   0.000000   0.000000   0.000000   0.000000   7.086095
 Mulliken charges:
               1
     1  C   -0.331880
     2  C   -0.150063
     3  C   -0.126653
     4  C   -0.224148
     5  C   -0.126653
     6  C   -0.150063
     7  Br  -0.086095
     8  H    0.095798
     9  H    0.090053
    10  H    0.095798
    11  Br  -0.086095
 Sum of Mulliken charges =  -1.00000
 Mulliken charges with hydrogens summed into heavy atoms:
               1
     1  C   -0.331880
     2  C   -0.150063
     3  C   -0.030854
     4  C   -0.134095
     5  C   -0.030854
     6  C   -0.150063
     7  Br  -0.086095
    11  Br  -0.086095
 Charge=             -1.0000 electrons
 Dipole moment (field-independent basis, Debye):
    X=              0.0000    Y=             -0.0000    Z=              2.0704  Tot=              2.0704
 N-N= 1.907564485690D+02 E-N=-2.699284647273D+02  KE=-9.025023745158D+01
 Symmetry A1   KE=-3.870365785467D+01
 Symmetry A2   KE=-8.498365460050D+00
 Symmetry B1   KE=-1.171444553941D+01
 Symmetry B2   KE=-3.133376859745D+01
 1\1\GINC-SH04-14N21\FOpt\RAM1\ZDO\C6H3Br2(1-)\JLAPIER\28-Sep-2026\0\\#
  Opt AM1 SCF=XQC\\BrPh_26_anion am1\\-1,1\C,0.,1.4280530047,0.\C,1.185
 3342206,0.7059256668,0.\C,1.211746638,-0.6900390909,0.\C,0.,-1.3860620
 533,0.\C,-1.211746638,-0.6900390909,0.\C,-1.1853342206,0.7059256668,0.
 \Br,2.8420857434,1.6331111285,0.\H,2.1557671087,-1.2531809839,0.\H,0.,
 -2.4836243921,0.\H,-2.1557671087,-1.2531809839,0.\Br,-2.8420857434,1.6
 331111285,0.\\Version=ES64L-G16RevB.01\State=1-A1\HF=0.0761839\RMSD=9.
 523e-09\RMSF=1.549e-04\Dipole=0.,-0.8145681,0.\PG=C02V [C2(C1C1H1),SGV
 (C4H2Br2)]\\@


 THE THINKER DIES, BUT HIS THOUGHTS ARE BEYOND THE 
 REACH OF DESTRUCTION.  MEN ARE MORTAL; BUT IDEAS 
 ARE IMMORTAL.
                              -- WALTER LIPPMANN
 Job cpu time:       0 days  0 hours  0 minutes  1.6 seconds.
 Elapsed time:       0 days  0 hours  0 minutes  1.8 seconds.
 File lengths (MBytes):  RWF=      6 Int=      0 D2E=      0 Chk=      3 Scr=      1
 Normal termination of Gaussian 16 at Mon Sep 28 01:24:05 2026.
