 Entering Gaussian System, Link 0=g16
 Initial command:
 /share/software/user/restricted/gaussian/g16.B01/l1.exe "/lscratch/jlapier/g16_45667969_107/Gau-2158.inp" -scrdir="/lscratch/jlapier/g16_45667969_107/"
 Entering Link 1 = /share/software/user/restricted/gaussian/g16.B01/l1.exe PID=      2159.
  
 Copyright (c) 1988-2017, Gaussian, Inc.  All Rights Reserved.
  
 This is part of the Gaussian(R) 16 program.  It is based on
 the Gaussian(R) 09 system (copyright 2009, Gaussian, Inc.),
 the Gaussian(R) 03 system (copyright 2003, Gaussian, Inc.),
 the Gaussian(R) 98 system (copyright 1998, Gaussian, Inc.),
 the Gaussian(R) 94 system (copyright 1995, Gaussian, Inc.),
 the Gaussian 92(TM) system (copyright 1992, Gaussian, Inc.),
 the Gaussian 90(TM) system (copyright 1990, Gaussian, Inc.),
 the Gaussian 88(TM) system (copyright 1988, Gaussian, Inc.),
 the Gaussian 86(TM) system (copyright 1986, Carnegie Mellon
 University), and the Gaussian 82(TM) system (copyright 1983,
 Carnegie Mellon University). Gaussian is a federally registered
 trademark of Gaussian, Inc.
  
 This software contains proprietary and confidential information,
 including trade secrets, belonging to Gaussian, Inc.
  
 This software is provided under written license and may be
 used, copied, transmitted, or stored only in accord with that
 written license.
  
 The following legend is applicable only to US Government
 contracts under FAR:
  
                    RESTRICTED RIGHTS LEGEND
  
 Use, reproduction and disclosure by the US Government is
 subject to restrictions as set forth in subparagraphs (a)
 and (c) of the Commercial Computer Software - Restricted
 Rights clause in FAR 52.227-19.
  
 Gaussian, Inc.
 340 Quinnipiac St., Bldg. 40, Wallingford CT 06492
  
  
 ---------------------------------------------------------------
 Warning -- This program may not be used in any manner that
 competes with the business of Gaussian, Inc. or will provide
 assistance to any competitor of Gaussian, Inc.  The licensee
 of this program is prohibited from giving any competitor of
 Gaussian, Inc. access to this program.  By using this program,
 the user acknowledges that Gaussian, Inc. is engaged in the
 business of creating and licensing software in the field of
 computational chemistry and represents and warrants to the
 licensee that it is not a competitor of Gaussian, Inc. and that
 it will not use this program in any manner prohibited above.
 ---------------------------------------------------------------
  

 Cite this work as:
 Gaussian 16, Revision B.01,
 M. J. Frisch, G. W. Trucks, H. B. Schlegel, G. E. Scuseria, 
 M. A. Robb, J. R. Cheeseman, G. Scalmani, V. Barone, 
 G. A. Petersson, H. Nakatsuji, X. Li, M. Caricato, A. V. Marenich, 
 J. Bloino, B. G. Janesko, R. Gomperts, B. Mennucci, H. P. Hratchian, 
 J. V. Ortiz, A. F. Izmaylov, J. L. Sonnenberg, D. Williams-Young, 
 F. Ding, F. Lipparini, F. Egidi, J. Goings, B. Peng, A. Petrone, 
 T. Henderson, D. Ranasinghe, V. G. Zakrzewski, J. Gao, N. Rega, 
 G. Zheng, W. Liang, M. Hada, M. Ehara, K. Toyota, R. Fukuda, 
 J. Hasegawa, M. Ishida, T. Nakajima, Y. Honda, O. Kitao, H. Nakai, 
 T. Vreven, K. Throssell, J. A. Montgomery, Jr., J. E. Peralta, 
 F. Ogliaro, M. J. Bearpark, J. J. Heyd, E. N. Brothers, K. N. Kudin, 
 V. N. Staroverov, T. A. Keith, R. Kobayashi, J. Normand, 
 K. Raghavachari, A. P. Rendell, J. C. Burant, S. S. Iyengar, 
 J. Tomasi, M. Cossi, J. M. Millam, M. Klene, C. Adamo, R. Cammi, 
 J. W. Ochterski, R. L. Martin, K. Morokuma, O. Farkas, 
 J. B. Foresman, and D. J. Fox, Gaussian, Inc., Wallingford CT, 2016.
 
 ******************************************
 Gaussian 16:  ES64L-G16RevB.01 20-Dec-2017
                28-Sep-2026 
 ******************************************
 %nprocshared=1
 Will use up to    1 processors via shared memory.
 %mem=1GB
 %chk=calcs/am1/chks/BrPh_246_anion.chk
 -----------------
 # Opt AM1 SCF=XQC
 -----------------
 1/18=20,19=15,26=1,38=1/1,3;
 2/9=110,12=2,17=6,18=5,40=1/2;
 3/5=2,25=1,41=700000,71=1/1,2,3;
 4/35=1/1;
 5/5=2,8=3,13=1,35=1,38=5/2,8;
 6/7=2,8=2,9=2,10=2,28=1/1;
 7//1,2,3,16;
 1/18=20,19=15,26=1/3(2);
 2/9=110/2;
 99//99;
 2/9=110/2;
 3/5=2,25=1,41=700000,71=1,135=20/1,2,3;
 4/5=5,16=3,35=1/1;
 5/5=2,8=3,13=1,35=1,38=5/2,8;
 7//1,2,3,16;
 1/18=20,19=15,26=1/3(-5);
 2/9=110/2;
 6/7=2,8=2,9=2,10=2,19=2,28=1/1;
 99/9=1/99;
 ------------------
 BrPh_246_anion am1
 ------------------
 Symbolic Z-matrix:
 Charge = -1 Multiplicity = 1
 C                     0.        1.39      0. 
 C                     1.20378   0.695     0. 
 C                     1.20378  -0.695     0. 
 C                     0.       -1.39      0. 
 C                    -1.20378  -0.695     0. 
 C                    -1.20378   0.695     0. 
 Br                    2.84922   1.645     0. 
 H                     2.13908  -1.235     0. 
 Br                    0.       -3.29      0. 
 H                    -2.13908  -1.235     0. 
 Br                   -2.84922   1.645     0. 
 

 GradGradGradGradGradGradGradGradGradGradGradGradGradGradGradGradGradGrad
 Berny optimization.
 Initialization pass.
                           ----------------------------
                           !    Initial Parameters    !
                           ! (Angstroms and Degrees)  !
 --------------------------                            --------------------------
 ! Name  Definition              Value          Derivative Info.                !
 --------------------------------------------------------------------------------
 ! R1    R(1,2)                  1.39           estimate D2E/DX2                !
 ! R2    R(1,6)                  1.39           estimate D2E/DX2                !
 ! R3    R(2,3)                  1.39           estimate D2E/DX2                !
 ! R4    R(2,7)                  1.9            estimate D2E/DX2                !
 ! R5    R(3,4)                  1.39           estimate D2E/DX2                !
 ! R6    R(3,8)                  1.08           estimate D2E/DX2                !
 ! R7    R(4,5)                  1.39           estimate D2E/DX2                !
 ! R8    R(4,9)                  1.9            estimate D2E/DX2                !
 ! R9    R(5,6)                  1.39           estimate D2E/DX2                !
 ! R10   R(5,10)                 1.08           estimate D2E/DX2                !
 ! R11   R(6,11)                 1.9            estimate D2E/DX2                !
 ! A1    A(2,1,6)              120.0            estimate D2E/DX2                !
 ! A2    A(1,2,3)              120.0            estimate D2E/DX2                !
 ! A3    A(1,2,7)              120.0            estimate D2E/DX2                !
 ! A4    A(3,2,7)              120.0            estimate D2E/DX2                !
 ! A5    A(2,3,4)              120.0            estimate D2E/DX2                !
 ! A6    A(2,3,8)              120.0            estimate D2E/DX2                !
 ! A7    A(4,3,8)              120.0            estimate D2E/DX2                !
 ! A8    A(3,4,5)              120.0            estimate D2E/DX2                !
 ! A9    A(3,4,9)              120.0            estimate D2E/DX2                !
 ! A10   A(5,4,9)              120.0            estimate D2E/DX2                !
 ! A11   A(4,5,6)              120.0            estimate D2E/DX2                !
 ! A12   A(4,5,10)             120.0            estimate D2E/DX2                !
 ! A13   A(6,5,10)             120.0            estimate D2E/DX2                !
 ! A14   A(1,6,5)              120.0            estimate D2E/DX2                !
 ! A15   A(1,6,11)             120.0            estimate D2E/DX2                !
 ! A16   A(5,6,11)             120.0            estimate D2E/DX2                !
 ! D1    D(6,1,2,3)              0.0            estimate D2E/DX2                !
 ! D2    D(6,1,2,7)            180.0            estimate D2E/DX2                !
 ! D3    D(2,1,6,5)              0.0            estimate D2E/DX2                !
 ! D4    D(2,1,6,11)           180.0            estimate D2E/DX2                !
 ! D5    D(1,2,3,4)              0.0            estimate D2E/DX2                !
 ! D6    D(1,2,3,8)            180.0            estimate D2E/DX2                !
 ! D7    D(7,2,3,4)            180.0            estimate D2E/DX2                !
 ! D8    D(7,2,3,8)              0.0            estimate D2E/DX2                !
 ! D9    D(2,3,4,5)              0.0            estimate D2E/DX2                !
 ! D10   D(2,3,4,9)            180.0            estimate D2E/DX2                !
 ! D11   D(8,3,4,5)            180.0            estimate D2E/DX2                !
 ! D12   D(8,3,4,9)              0.0            estimate D2E/DX2                !
 ! D13   D(3,4,5,6)              0.0            estimate D2E/DX2                !
 ! D14   D(3,4,5,10)           180.0            estimate D2E/DX2                !
 ! D15   D(9,4,5,6)            180.0            estimate D2E/DX2                !
 ! D16   D(9,4,5,10)             0.0            estimate D2E/DX2                !
 ! D17   D(4,5,6,1)              0.0            estimate D2E/DX2                !
 ! D18   D(4,5,6,11)           180.0            estimate D2E/DX2                !
 ! D19   D(10,5,6,1)           180.0            estimate D2E/DX2                !
 ! D20   D(10,5,6,11)            0.0            estimate D2E/DX2                !
 --------------------------------------------------------------------------------
 Trust Radius=3.00D-01 FncErr=1.00D-07 GrdErr=1.00D-07 EigMax=2.50D+02 EigMin=1.00D-04
 Number of steps in this run=     57 maximum allowed number of steps=    100.
 GradGradGradGradGradGradGradGradGradGradGradGradGradGradGradGradGradGrad

                          Input orientation:                          
 ---------------------------------------------------------------------
 Center     Atomic      Atomic             Coordinates (Angstroms)
 Number     Number       Type             X           Y           Z
 ---------------------------------------------------------------------
      1          6           0        0.000000    1.390000    0.000000
      2          6           0        1.203775    0.695000    0.000000
      3          6           0        1.203775   -0.695000    0.000000
      4          6           0        0.000000   -1.390000    0.000000
      5          6           0       -1.203775   -0.695000    0.000000
      6          6           0       -1.203775    0.695000    0.000000
      7         35           0        2.849224    1.645000    0.000000
      8          1           0        2.139083   -1.235000    0.000000
      9         35           0        0.000000   -3.290000    0.000000
     10          1           0       -2.139083   -1.235000    0.000000
     11         35           0       -2.849224    1.645000    0.000000
 ---------------------------------------------------------------------
                    Distance matrix (angstroms):
                    1          2          3          4          5
     1  C    0.000000
     2  C    1.390000   0.000000
     3  C    2.407551   1.390000   0.000000
     4  C    2.780000   2.407551   1.390000   0.000000
     5  C    2.407551   2.780000   2.407551   1.390000   0.000000
     6  C    1.390000   2.407551   2.780000   2.407551   1.390000
     7  Br   2.860612   1.900000   2.860612   4.162848   4.680000
     8  H    3.386193   2.144691   1.080000   2.144691   3.386193
     9  Br   4.680000   4.162848   2.860612   1.900000   2.860612
    10  H    3.386193   3.860000   3.386193   2.144691   1.080000
    11  Br   2.860612   4.162848   4.680000   4.162848   2.860612
                    6          7          8          9         10
     6  C    0.000000
     7  Br   4.162848   0.000000
     8  H    3.860000   2.966260   0.000000
     9  Br   4.162848   5.698447   2.966260   0.000000
    10  H    2.144691   5.760000   4.278166   2.966260   0.000000
    11  Br   1.900000   5.698447   5.760000   5.698447   2.966260
                   11
    11  Br   0.000000
 Stoichiometry    C6H2Br3(1-)
 Framework group  C2V[C2(CCBr),SGV(C4H2Br2)]
 Deg. of freedom    10
 Full point group                 C2V     NOp   4
 Largest Abelian subgroup         C2V     NOp   4
 Largest concise Abelian subgroup C2      NOp   2
                         Standard orientation:                         
 ---------------------------------------------------------------------
 Center     Atomic      Atomic             Coordinates (Angstroms)
 Number     Number       Type             X           Y           Z
 ---------------------------------------------------------------------
      1          6           0        0.000000   -0.000000   -1.407273
      2          6           0        0.000000    1.203775   -0.712273
      3          6           0        0.000000    1.203775    0.677727
      4          6           0       -0.000000    0.000000    1.372727
      5          6           0       -0.000000   -1.203775    0.677727
      6          6           0       -0.000000   -1.203775   -0.712273
      7         35           0        0.000000    2.849224   -1.662273
      8          1           0        0.000000    2.139083    1.217727
      9         35           0       -0.000000    0.000000    3.272727
     10          1           0       -0.000000   -2.139083    1.217727
     11         35           0       -0.000000   -2.849224   -1.662273
 ---------------------------------------------------------------------
 Rotational constants (GHZ):           0.3732655           0.3715726           0.1862085
 Standard basis: VSTO-6G (5D, 7F)
 There are    16 symmetry adapted cartesian basis functions of A1  symmetry.
 There are     3 symmetry adapted cartesian basis functions of A2  symmetry.
 There are     6 symmetry adapted cartesian basis functions of B1  symmetry.
 There are    13 symmetry adapted cartesian basis functions of B2  symmetry.
 There are    16 symmetry adapted basis functions of A1  symmetry.
 There are     3 symmetry adapted basis functions of A2  symmetry.
 There are     6 symmetry adapted basis functions of B1  symmetry.
 There are    13 symmetry adapted basis functions of B2  symmetry.
    38 basis functions,   228 primitive gaussians,    38 cartesian basis functions
    24 alpha electrons       24 beta electrons
       nuclear repulsion energy       234.4940917369 Hartrees.
 Integral buffers will be    131072 words long.
 Regular integral format.
 Two-electron integral symmetry is turned off.
 Do NDO integrals.
 One-electron integrals computed using PRISM.
 NBasis=    38 RedAO= T EigKep=  1.00D+00  NBF=    16     3     6    13
 NBsUse=    38 1.00D-06 EigRej= -1.00D+00 NBFU=    16     3     6    13
 Nonelectrostatic core Hamiltonian diagonalized for initial guess.
 Initial guess orbital symmetries:
       Occupied  (A1) (B2) (A1) (A1) (B2) (A1) (B2) (A1) (A1) (A1)
                 (B2) (B2) (B1) (A1) (B1) (A2) (B2) (A1) (B2) (A1)
                 (B1) (A2) (B1) (B2)
       Virtual   (A1) (A2) (B1) (B2) (A1) (A1) (B2) (B1) (A1) (B2)
                 (A1) (A1) (B2) (B2)
 The electronic state of the initial guess is 1-A1.
 Keep J ints in memory in canonical form, NReq=863588.
 Overlap will be assumed to be unity.
 Requested convergence on RMS density matrix=1.00D-08 within  32 cycles.
 Requested convergence on MAX density matrix=1.00D-06.
 Requested convergence on             energy=1.00D-06.
 No special actions if energy rises.
 Fock symm off for IB=2 I1=    2 I=   18 J=   16 Cut=1.00D-07 Err=5.44D-03
 Fock matrix is not symmetric: symmetry in diagonalization turned off.
 SCF Done:  E(RAM1) =  0.766276699367E-01 A.U. after   15 cycles
            NFock= 14  Conv=0.51D-08     -V/T= 1.0007
 QCSCF skips out because SCF is already converged.

 **********************************************************************

            Population analysis using the SCF Density.

 **********************************************************************

 Orbital symmetries:
       Occupied  (A1) (B2) (A1) (A1) (B2) (A1) (B2) (A1) (A1) (B2)
                 (A1) (B2) (B1) (A1) (B1) (B2) (A2) (B2) (A1) (B1)
                 (B2) (A2) (B1) (A1)
       Virtual   (A1) (A2) (B1) (A1) (B2) (B1) (A1) (B2) (B2) (A1)
                 (B2) (A1) (A1) (B2)
 The electronic state is 1-A1.
 Alpha  occ. eigenvalues --   -1.28689  -1.06920  -1.06878  -0.99812  -0.94035
 Alpha  occ. eigenvalues --   -0.90705  -0.68087  -0.66522  -0.48310  -0.43670
 Alpha  occ. eigenvalues --   -0.42115  -0.37783  -0.37745  -0.34436  -0.31099
 Alpha  occ. eigenvalues --   -0.30269  -0.29884  -0.28252  -0.26263  -0.26097
 Alpha  occ. eigenvalues --   -0.25105  -0.19897  -0.17735  -0.12308
 Alpha virt. eigenvalues --    0.15719   0.16018   0.17702   0.19170   0.19357
 Alpha virt. eigenvalues --    0.27248   0.28842   0.30043   0.31936   0.32865
 Alpha virt. eigenvalues --    0.33733   0.33942   0.37590   0.39273
          Condensed to atoms (all electrons):
               1          2          3          4          5          6
     1  C    4.334930   0.000000   0.000000   0.000000   0.000000   0.000000
     2  C    0.000000   4.148392   0.000000   0.000000   0.000000   0.000000
     3  C    0.000000   0.000000   4.093158   0.000000   0.000000   0.000000
     4  C    0.000000   0.000000   0.000000   4.227004   0.000000   0.000000
     5  C    0.000000   0.000000   0.000000   0.000000   4.093158   0.000000
     6  C    0.000000   0.000000   0.000000   0.000000   0.000000   4.148392
     7  Br   0.000000   0.000000   0.000000   0.000000   0.000000   0.000000
     8  H    0.000000   0.000000   0.000000   0.000000   0.000000   0.000000
     9  Br   0.000000   0.000000   0.000000   0.000000   0.000000   0.000000
    10  H    0.000000   0.000000   0.000000   0.000000   0.000000   0.000000
    11  Br   0.000000   0.000000   0.000000   0.000000   0.000000   0.000000
               7          8          9         10         11
     1  C    0.000000   0.000000   0.000000   0.000000   0.000000
     2  C    0.000000   0.000000   0.000000   0.000000   0.000000
     3  C    0.000000   0.000000   0.000000   0.000000   0.000000
     4  C    0.000000   0.000000   0.000000   0.000000   0.000000
     5  C    0.000000   0.000000   0.000000   0.000000   0.000000
     6  C    0.000000   0.000000   0.000000   0.000000   0.000000
     7  Br   7.059789   0.000000   0.000000   0.000000   0.000000
     8  H    0.000000   0.890621   0.000000   0.000000   0.000000
     9  Br   0.000000   0.000000   7.054145   0.000000   0.000000
    10  H    0.000000   0.000000   0.000000   0.890621   0.000000
    11  Br   0.000000   0.000000   0.000000   0.000000   7.059789
 Mulliken charges:
               1
     1  C   -0.334930
     2  C   -0.148392
     3  C   -0.093158
     4  C   -0.227004
     5  C   -0.093158
     6  C   -0.148392
     7  Br  -0.059789
     8  H    0.109379
     9  Br  -0.054145
    10  H    0.109379
    11  Br  -0.059789
 Sum of Mulliken charges =  -1.00000
 Mulliken charges with hydrogens summed into heavy atoms:
               1
     1  C   -0.334930
     2  C   -0.148392
     3  C    0.016221
     4  C   -0.227004
     5  C    0.016221
     6  C   -0.148392
     7  Br  -0.059789
     9  Br  -0.054145
    11  Br  -0.059789
 Charge=             -1.0000 electrons
 Dipole moment (field-independent basis, Debye):
    X=              0.0000    Y=             -0.0000    Z=              4.4333  Tot=              4.4333
 N-N= 2.344940917369D+02 E-N=-3.325934237924D+02  KE=-1.111891792304D+02
 Symmetry A1   KE=-4.864511249140D+01
 Symmetry A2   KE=-8.499430424720D+00
 Symmetry B1   KE=-1.720914022993D+01
 Symmetry B2   KE=-3.683549608438D+01
 Calling FoFJK, ICntrl=      2127 FMM=F ISym2X=1 I1Cent= 0 IOpClX= 0 NMat=1 NMatS=1 NMatT=0.
 ***** Axes restored to original set *****
 -------------------------------------------------------------------
 Center     Atomic                   Forces (Hartrees/Bohr)
 Number     Number              X              Y              Z
 -------------------------------------------------------------------
      1        6           0.000000000    0.010785146    0.000000000
      2        6          -0.013946262    0.007091277    0.000000000
      3        6           0.009715587    0.001519694   -0.000000000
      4        6          -0.000000000   -0.008398509    0.000000000
      5        6          -0.009715587    0.001519694   -0.000000000
      6        6           0.013946262    0.007091277    0.000000000
      7       35          -0.004566988   -0.003513855   -0.000000000
      8        1           0.013072783   -0.009343246   -0.000000000
      9       35          -0.000000000    0.006105621    0.000000000
     10        1          -0.013072783   -0.009343246   -0.000000000
     11       35           0.004566988   -0.003513855   -0.000000000
 -------------------------------------------------------------------
 Cartesian Forces:  Max     0.013946262 RMS     0.006719269

 GradGradGradGradGradGradGradGradGradGradGradGradGradGradGradGradGradGrad
 Berny optimization.
 FormGI is forming the generalized inverse of G from B-inverse, IUseBI=4.
 Internal  Forces:  Max     0.015992985 RMS     0.005817355
 Search for a local minimum.
 Step number   1 out of a maximum of   57
 All quantities printed in internal units (Hartrees-Bohrs-Radians)
 Mixed Optimization -- RFO/linear search
 Second derivative matrix not updated -- first step.
 ITU=  0
     Eigenvalues ---    0.02221   0.02221   0.02221   0.02221   0.02221
     Eigenvalues ---    0.02221   0.02221   0.02221   0.16000   0.16000
     Eigenvalues ---    0.18251   0.18251   0.18251   0.23479   0.23493
     Eigenvalues ---    0.25000   0.25000   0.25000   0.25000   0.35994
     Eigenvalues ---    0.35994   0.43086   0.43696   0.47319   0.47319
     Eigenvalues ---    0.47319   0.47319
 RFO step:  Lambda=-5.10678975D-03 EMin= 2.22103665D-02
 Linear search not attempted -- first point.
 Iteration  1 RMS(Cart)=  0.02211015 RMS(Int)=  0.00017558
 Iteration  2 RMS(Cart)=  0.00020965 RMS(Int)=  0.00000855
 Iteration  3 RMS(Cart)=  0.00000001 RMS(Int)=  0.00000855
 ClnCor:  largest displacement from symmetrization is 4.99D-11 for atom     9.
 Variable       Old X    -DE/DX   Delta X   Delta X   Delta X     New X
                                 (Linear)    (Quad)   (Total)
    R1        2.62672  -0.00344   0.00000  -0.00861  -0.00863   2.61809
    R2        2.62672  -0.00344   0.00000  -0.00861  -0.00863   2.61809
    R3        2.62672   0.00897   0.00000   0.01875   0.01875   2.64547
    R4        3.59048  -0.00571   0.00000  -0.03045  -0.03045   3.56003
    R5        2.62672   0.01041   0.00000   0.02319   0.02320   2.64992
    R6        2.04090   0.01599   0.00000   0.04381   0.04381   2.08471
    R7        2.62672   0.01041   0.00000   0.02319   0.02320   2.64992
    R8        3.59048  -0.00611   0.00000  -0.03254  -0.03254   3.55794
    R9        2.62672   0.00897   0.00000   0.01875   0.01875   2.64547
   R10        2.04090   0.01599   0.00000   0.04381   0.04381   2.08471
   R11        3.59048  -0.00571   0.00000  -0.03045  -0.03045   3.56003
    A1        2.09440  -0.00728   0.00000  -0.03446  -0.03449   2.05991
    A2        2.09440   0.01043   0.00000   0.03966   0.03965   2.13405
    A3        2.09440  -0.00385   0.00000  -0.01449  -0.01448   2.07991
    A4        2.09440  -0.00658   0.00000  -0.02518  -0.02517   2.06922
    A5        2.09440  -0.00762   0.00000  -0.02910  -0.02909   2.06531
    A6        2.09440   0.00540   0.00000   0.02416   0.02416   2.11855
    A7        2.09440   0.00222   0.00000   0.00494   0.00493   2.09933
    A8        2.09440   0.00164   0.00000   0.01334   0.01336   2.10776
    A9        2.09440  -0.00082   0.00000  -0.00667  -0.00668   2.08771
   A10        2.09440  -0.00082   0.00000  -0.00667  -0.00668   2.08771
   A11        2.09440  -0.00762   0.00000  -0.02910  -0.02909   2.06531
   A12        2.09440   0.00222   0.00000   0.00494   0.00493   2.09933
   A13        2.09440   0.00540   0.00000   0.02416   0.02416   2.11855
   A14        2.09440   0.01043   0.00000   0.03966   0.03965   2.13405
   A15        2.09440  -0.00385   0.00000  -0.01449  -0.01448   2.07991
   A16        2.09440  -0.00658   0.00000  -0.02518  -0.02517   2.06922
    D1        0.00000  -0.00000   0.00000  -0.00000   0.00000   0.00000
    D2        3.14159  -0.00000   0.00000  -0.00000   0.00000   3.14159
    D3       -0.00000   0.00000   0.00000   0.00000   0.00000   0.00000
    D4        3.14159   0.00000   0.00000   0.00000   0.00000   3.14159
    D5        0.00000  -0.00000   0.00000  -0.00000   0.00000   0.00000
    D6        3.14159  -0.00000   0.00000  -0.00000   0.00000   3.14159
    D7        3.14159   0.00000   0.00000   0.00000   0.00000   3.14159
    D8        0.00000   0.00000   0.00000   0.00000  -0.00000   0.00000
    D9       -0.00000   0.00000   0.00000   0.00000   0.00000   0.00000
   D10        3.14159   0.00000   0.00000   0.00000   0.00000   3.14159
   D11        3.14159   0.00000   0.00000   0.00000   0.00000   3.14159
   D12       -0.00000   0.00000   0.00000   0.00000   0.00000   0.00000
   D13        0.00000  -0.00000   0.00000  -0.00000   0.00000   0.00000
   D14        3.14159  -0.00000   0.00000  -0.00000   0.00000   3.14159
   D15        3.14159  -0.00000   0.00000  -0.00000   0.00000   3.14159
   D16        0.00000  -0.00000   0.00000  -0.00000  -0.00000   0.00000
   D17       -0.00000  -0.00000   0.00000  -0.00000   0.00000   0.00000
   D18        3.14159  -0.00000   0.00000  -0.00000   0.00000   3.14159
   D19        3.14159  -0.00000   0.00000  -0.00000   0.00000   3.14159
   D20       -0.00000  -0.00000   0.00000  -0.00000   0.00000   0.00000
         Item               Value     Threshold  Converged?
 Maximum Force            0.015993     0.000450     NO 
 RMS     Force            0.005817     0.000300     NO 
 Maximum Displacement     0.065011     0.001800     NO 
 RMS     Displacement     0.022127     0.001200     NO 
 Predicted change in Energy=-2.598842D-03
 GradGradGradGradGradGradGradGradGradGradGradGradGradGradGradGradGradGrad

                          Input orientation:                          
 ---------------------------------------------------------------------
 Center     Atomic      Atomic             Coordinates (Angstroms)
 Number     Number       Type             X           Y           Z
 ---------------------------------------------------------------------
      1          6           0        0.000000    1.414631    0.000000
      2          6           0        1.187699    0.701326   -0.000000
      3          6           0        1.219066   -0.698247   -0.000000
      4          6           0       -0.000000   -1.391256   -0.000000
      5          6           0       -1.219066   -0.698247    0.000000
      6          6           0       -1.187699    0.701326    0.000000
      7         35           0        2.821792    1.638758   -0.000000
      8          1           0        2.173485   -1.251507   -0.000000
      9         35           0       -0.000000   -3.274035   -0.000000
     10          1           0       -2.173485   -1.251507    0.000000
     11         35           0       -2.821792    1.638758    0.000000
 ---------------------------------------------------------------------
                    Distance matrix (angstroms):
                    1          2          3          4          5
     1  C    0.000000
     2  C    1.385436   0.000000
     3  C    2.439339   1.399924   0.000000
     4  C    2.805887   2.406144   1.402278   0.000000
     5  C    2.439339   2.784119   2.438132   1.402278   0.000000
     6  C    1.385436   2.375398   2.784119   2.406144   1.399924
     7  Br   2.830678   1.883889   2.833782   4.140470   4.667989
     8  H    3.439816   2.187541   1.103183   2.177973   3.437368
     9  Br   4.688666   4.148991   2.849703   1.882779   2.849703
    10  H    3.439816   3.887302   3.437368   2.177973   1.103183
    11  Br   2.830678   4.117620   4.667989   4.140470   2.833782
                    6          7          8          9         10
     6  C    0.000000
     7  Br   4.117620   0.000000
     8  H    3.887302   2.962083   0.000000
     9  Br   4.148991   5.665513   2.968948   0.000000
    10  H    2.187541   5.771172   4.346970   2.968948   0.000000
    11  Br   1.883889   5.643583   5.771172   5.665513   2.962083
                   11
    11  Br   0.000000
 Stoichiometry    C6H2Br3(1-)
 Framework group  C2V[C2(CCBr),SGV(C4H2Br2)]
 Deg. of freedom    10
 Full point group                 C2V     NOp   4
 Largest Abelian subgroup         C2V     NOp   4
 Largest concise Abelian subgroup C2      NOp   2
                         Standard orientation:                         
 ---------------------------------------------------------------------
 Center     Atomic      Atomic             Coordinates (Angstroms)
 Number     Number       Type             X           Y           Z
 ---------------------------------------------------------------------
      1          6           0        0.000000   -0.000000   -1.430043
      2          6           0        0.000000    1.187699   -0.716739
      3          6           0        0.000000    1.219066    0.682834
      4          6           0        0.000000    0.000000    1.375843
      5          6           0       -0.000000   -1.219066    0.682834
      6          6           0       -0.000000   -1.187699   -0.716739
      7         35           0        0.000000    2.821792   -1.654170
      8          1           0        0.000000    2.173485    1.236095
      9         35           0        0.000000    0.000000    3.258622
     10          1           0       -0.000000   -2.173485    1.236095
     11         35           0       -0.000000   -2.821792   -1.654170
 ---------------------------------------------------------------------
 Rotational constants (GHZ):           0.3783287           0.3761053           0.1886069
 Standard basis: VSTO-6G (5D, 7F)
 There are    16 symmetry adapted cartesian basis functions of A1  symmetry.
 There are     3 symmetry adapted cartesian basis functions of A2  symmetry.
 There are     6 symmetry adapted cartesian basis functions of B1  symmetry.
 There are    13 symmetry adapted cartesian basis functions of B2  symmetry.
 There are    16 symmetry adapted basis functions of A1  symmetry.
 There are     3 symmetry adapted basis functions of A2  symmetry.
 There are     6 symmetry adapted basis functions of B1  symmetry.
 There are    13 symmetry adapted basis functions of B2  symmetry.
    38 basis functions,   228 primitive gaussians,    38 cartesian basis functions
    24 alpha electrons       24 beta electrons
       nuclear repulsion energy       234.7629169348 Hartrees.
 Integral buffers will be    131072 words long.
 Regular integral format.
 Two-electron integral symmetry is turned off.
 Do NDO integrals.
 One-electron integrals computed using PRISM.
 NBasis=    38 RedAO= T EigKep=  1.00D+00  NBF=    16     3     6    13
 NBsUse=    38 1.00D-06 EigRej= -1.00D+00 NBFU=    16     3     6    13
 Initial guess from the checkpoint file:  "calcs/am1/chks/BrPh_246_anion.chk"
 B after Tr=     0.000000   -0.000000   -0.000000
         Rot=    1.000000    0.000000    0.000000   -0.000000 Ang=   0.00 deg.
 Initial guess orbital symmetries:
       Occupied  (A1) (B2) (A1) (A1) (B2) (A1) (B2) (A1) (A1) (B2)
                 (A1) (B2) (B1) (A1) (B1) (B2) (A2) (B2) (A1) (B1)
                 (B2) (A2) (B1) (A1)
       Virtual   (A1) (A2) (B1) (A1) (B2) (B1) (A1) (B2) (B2) (A1)
                 (B2) (A1) (A1) (B2)
 Keep J ints in memory in canonical form, NReq=863588.
 Overlap will be assumed to be unity.
 Requested convergence on RMS density matrix=1.00D-08 within  32 cycles.
 Requested convergence on MAX density matrix=1.00D-06.
 Requested convergence on             energy=1.00D-06.
 No special actions if energy rises.
 Fock symm off for IB=2 I1=    2 I=   18 J=   10 Cut=1.00D-07 Err=4.87D-04
 Fock matrix is not symmetric: symmetry in diagonalization turned off.
 SCF Done:  E(RAM1) =  0.745119941017E-01 A.U. after   13 cycles
            NFock= 12  Conv=0.24D-08     -V/T= 1.0007
 QCSCF skips out because SCF is already converged.
 Calling FoFJK, ICntrl=      2127 FMM=F ISym2X=1 I1Cent= 0 IOpClX= 0 NMat=1 NMatS=1 NMatT=0.
 ***** Axes restored to original set *****
 -------------------------------------------------------------------
 Center     Atomic                   Forces (Hartrees/Bohr)
 Number     Number              X              Y              Z
 -------------------------------------------------------------------
      1        6           0.000000000    0.003699323    0.000000000
      2        6          -0.001276233   -0.007536816   -0.000000000
      3        6          -0.001351424    0.001964152   -0.000000000
      4        6           0.000000000    0.004506390    0.000000000
      5        6           0.001351424    0.001964152   -0.000000000
      6        6           0.001276233   -0.007536816    0.000000000
      7       35           0.003427047    0.001178073   -0.000000000
      8        1          -0.002575817    0.000816938   -0.000000000
      9       35           0.000000000   -0.001050405    0.000000000
     10        1           0.002575817    0.000816938   -0.000000000
     11       35          -0.003427047    0.001178073   -0.000000000
 -------------------------------------------------------------------
 Cartesian Forces:  Max     0.007536816 RMS     0.002487536

 GradGradGradGradGradGradGradGradGradGradGradGradGradGradGradGradGradGrad
 Berny optimization.
 Using GEDIIS/GDIIS optimizer.
 FormGI is forming the generalized inverse of G from B-inverse, IUseBI=4.
 Internal  Forces:  Max     0.004508937 RMS     0.001789040
 Search for a local minimum.
 Step number   2 out of a maximum of   57
 All quantities printed in internal units (Hartrees-Bohrs-Radians)
 Mixed Optimization -- RFO/linear search
 Update second derivatives using D2CorX and points    1    2
 DE= -2.12D-03 DEPred=-2.60D-03 R= 8.14D-01
 TightC=F SS=  1.41D+00  RLast= 1.34D-01 DXNew= 5.0454D-01 4.0112D-01
 Trust test= 8.14D-01 RLast= 1.34D-01 DXMaxT set to 4.01D-01
 ITU=  1  0
 Use linear search instead of GDIIS.
     Eigenvalues ---    0.02221   0.02221   0.02221   0.02221   0.02221
     Eigenvalues ---    0.02221   0.02221   0.02221   0.15783   0.16000
     Eigenvalues ---    0.18103   0.18251   0.19182   0.22547   0.23518
     Eigenvalues ---    0.24155   0.25000   0.25000   0.25244   0.35994
     Eigenvalues ---    0.36672   0.43057   0.45444   0.47265   0.47319
     Eigenvalues ---    0.47319   0.55147
 RFO step:  Lambda=-2.25407036D-04 EMin= 2.22103665D-02
 Quartic linear search produced a step of -0.14345.
 Iteration  1 RMS(Cart)=  0.00742585 RMS(Int)=  0.00002013
 Iteration  2 RMS(Cart)=  0.00003762 RMS(Int)=  0.00000212
 Iteration  3 RMS(Cart)=  0.00000000 RMS(Int)=  0.00000212
 ClnCor:  largest displacement from symmetrization is 2.95D-12 for atom     9.
 Variable       Old X    -DE/DX   Delta X   Delta X   Delta X     New X
                                 (Linear)    (Quad)   (Total)
    R1        2.61809   0.00276   0.00124   0.00389   0.00513   2.62323
    R2        2.61809   0.00276   0.00124   0.00389   0.00513   2.62323
    R3        2.64547  -0.00451  -0.00269  -0.00464  -0.00733   2.63814
    R4        3.56003   0.00356   0.00437   0.01098   0.01535   3.57539
    R5        2.64992  -0.00423  -0.00333  -0.00383  -0.00716   2.64276
    R6        2.08471  -0.00264  -0.00628   0.00193  -0.00436   2.08036
    R7        2.64992  -0.00423  -0.00333  -0.00383  -0.00716   2.64276
    R8        3.55794   0.00105   0.00467  -0.00117   0.00350   3.56144
    R9        2.64547  -0.00451  -0.00269  -0.00464  -0.00733   2.63814
   R10        2.08471  -0.00264  -0.00628   0.00193  -0.00436   2.08036
   R11        3.56003   0.00356   0.00437   0.01098   0.01535   3.57539
    A1        2.05991  -0.00264   0.00495  -0.01287  -0.00792   2.05199
    A2        2.13405  -0.00008  -0.00569   0.00790   0.00222   2.13627
    A3        2.07991   0.00125   0.00208   0.00121   0.00329   2.08320
    A4        2.06922  -0.00118   0.00361  -0.00912  -0.00551   2.06372
    A5        2.06531   0.00104   0.00417  -0.00281   0.00135   2.06666
    A6        2.11855   0.00009  -0.00347   0.00647   0.00300   2.12155
    A7        2.09933  -0.00113  -0.00071  -0.00365  -0.00436   2.09497
    A8        2.10776   0.00071  -0.00192   0.00270   0.00077   2.10853
    A9        2.08771  -0.00036   0.00096  -0.00135  -0.00039   2.08733
   A10        2.08771  -0.00036   0.00096  -0.00135  -0.00039   2.08733
   A11        2.06531   0.00104   0.00417  -0.00281   0.00135   2.06666
   A12        2.09933  -0.00113  -0.00071  -0.00365  -0.00436   2.09497
   A13        2.11855   0.00009  -0.00347   0.00647   0.00300   2.12155
   A14        2.13405  -0.00008  -0.00569   0.00790   0.00222   2.13627
   A15        2.07991   0.00125   0.00208   0.00121   0.00329   2.08320
   A16        2.06922  -0.00118   0.00361  -0.00912  -0.00551   2.06372
    D1        0.00000  -0.00000   0.00000  -0.00000   0.00000   0.00000
    D2        3.14159  -0.00000   0.00000  -0.00000   0.00000   3.14159
    D3       -0.00000   0.00000   0.00000   0.00000   0.00000   0.00000
    D4        3.14159   0.00000   0.00000   0.00000   0.00000   3.14159
    D5        0.00000   0.00000   0.00000   0.00000  -0.00000   0.00000
    D6        3.14159   0.00000   0.00000   0.00000   0.00000   3.14159
    D7        3.14159   0.00000   0.00000   0.00000   0.00000   3.14159
    D8        0.00000   0.00000   0.00000   0.00000  -0.00000   0.00000
    D9       -0.00000   0.00000   0.00000   0.00000   0.00000   0.00000
   D10        3.14159   0.00000   0.00000   0.00000   0.00000   3.14159
   D11        3.14159   0.00000   0.00000   0.00000   0.00000   3.14159
   D12        0.00000   0.00000   0.00000   0.00000  -0.00000   0.00000
   D13        0.00000  -0.00000   0.00000  -0.00000   0.00000   0.00000
   D14        3.14159  -0.00000   0.00000  -0.00000   0.00000   3.14159
   D15        3.14159  -0.00000   0.00000  -0.00000   0.00000   3.14159
   D16        0.00000  -0.00000   0.00000  -0.00000   0.00000   0.00000
   D17        0.00000   0.00000   0.00000   0.00000   0.00000   0.00000
   D18        3.14159  -0.00000   0.00000  -0.00000   0.00000   3.14159
   D19        3.14159   0.00000   0.00000   0.00000   0.00000   3.14159
   D20       -0.00000  -0.00000   0.00000  -0.00000   0.00000   0.00000
         Item               Value     Threshold  Converged?
 Maximum Force            0.004509     0.000450     NO 
 RMS     Force            0.001789     0.000300     NO 
 Maximum Displacement     0.025164     0.001800     NO 
 RMS     Displacement     0.007448     0.001200     NO 
 Predicted change in Energy=-1.729284D-04
 GradGradGradGradGradGradGradGradGradGradGradGradGradGradGradGradGradGrad

                          Input orientation:                          
 ---------------------------------------------------------------------
 Center     Atomic      Atomic             Coordinates (Angstroms)
 Number     Number       Type             X           Y           Z
 ---------------------------------------------------------------------
      1          6           0        0.000000    1.419879    0.000000
      2          6           0        1.187188    0.700470   -0.000000
      3          6           0        1.216039   -0.695278   -0.000000
      4          6           0       -0.000000   -1.385946    0.000000
      5          6           0       -1.216039   -0.695278    0.000000
      6          6           0       -1.187188    0.700470    0.000000
      7         35           0        2.835108    1.630024   -0.000000
      8          1           0        2.165834   -1.251894   -0.000000
      9         35           0       -0.000000   -3.270578    0.000000
     10          1           0       -2.165834   -1.251894    0.000000
     11         35           0       -2.835108    1.630024    0.000000
 ---------------------------------------------------------------------
                    Distance matrix (angstroms):
                    1          2          3          4          5
     1  C    0.000000
     2  C    1.388151   0.000000
     3  C    2.439803   1.396046   0.000000
     4  C    2.805824   2.400530   1.398489   0.000000
     5  C    2.439803   2.779138   2.432077   1.398489   0.000000
     6  C    1.388151   2.374376   2.779138   2.400530   1.396046
     7  Br   2.842886   1.892013   2.833446   4.139313   4.671062
     8  H    3.439361   2.183912   1.100878   2.169979   3.427373
     9  Br   4.690457   4.144712   2.847967   1.884632   2.847967
    10  H    3.439361   3.880010   3.427373   2.169979   1.100878
    11  Br   2.842886   4.128309   4.671062   4.139313   2.833446
                    6          7          8          9         10
     6  C    0.000000
     7  Br   4.128309   0.000000
     8  H    3.880010   2.958611   0.000000
     9  Br   4.144712   5.661602   2.960730   0.000000
    10  H    2.183912   5.771904   4.331668   2.960730   0.000000
    11  Br   1.892013   5.670216   5.771904   5.661602   2.958611
                   11
    11  Br   0.000000
 Stoichiometry    C6H2Br3(1-)
 Framework group  C2V[C2(CCBr),SGV(C4H2Br2)]
 Deg. of freedom    10
 Full point group                 C2V     NOp   4
 Largest Abelian subgroup         C2V     NOp   4
 Largest concise Abelian subgroup C2      NOp   2
                         Standard orientation:                         
 ---------------------------------------------------------------------
 Center     Atomic      Atomic             Coordinates (Angstroms)
 Number     Number       Type             X           Y           Z
 ---------------------------------------------------------------------
      1          6           0       -0.000000    0.000000   -1.438105
      2          6           0       -0.000000    1.187188   -0.718696
      3          6           0       -0.000000    1.216039    0.677052
      4          6           0        0.000000   -0.000000    1.367719
      5          6           0       -0.000000   -1.216039    0.677052
      6          6           0       -0.000000   -1.187188   -0.718696
      7         35           0       -0.000000    2.835108   -1.648251
      8          1           0       -0.000000    2.165834    1.233667
      9         35           0        0.000000   -0.000000    3.252351
     10          1           0       -0.000000   -2.165834    1.233667
     11         35           0       -0.000000   -2.835108   -1.648251
 ---------------------------------------------------------------------
 Rotational constants (GHZ):           0.3779137           0.3750670           0.1882425
 Standard basis: VSTO-6G (5D, 7F)
 There are    16 symmetry adapted cartesian basis functions of A1  symmetry.
 There are     3 symmetry adapted cartesian basis functions of A2  symmetry.
 There are     6 symmetry adapted cartesian basis functions of B1  symmetry.
 There are    13 symmetry adapted cartesian basis functions of B2  symmetry.
 There are    16 symmetry adapted basis functions of A1  symmetry.
 There are     3 symmetry adapted basis functions of A2  symmetry.
 There are     6 symmetry adapted basis functions of B1  symmetry.
 There are    13 symmetry adapted basis functions of B2  symmetry.
    38 basis functions,   228 primitive gaussians,    38 cartesian basis functions
    24 alpha electrons       24 beta electrons
       nuclear repulsion energy       234.7256985215 Hartrees.
 Integral buffers will be    131072 words long.
 Regular integral format.
 Two-electron integral symmetry is turned off.
 Do NDO integrals.
 One-electron integrals computed using PRISM.
 NBasis=    38 RedAO= T EigKep=  1.00D+00  NBF=    16     3     6    13
 NBsUse=    38 1.00D-06 EigRej= -1.00D+00 NBFU=    16     3     6    13
 Initial guess from the checkpoint file:  "calcs/am1/chks/BrPh_246_anion.chk"
 B after Tr=    -0.000000    0.000000   -0.000000
         Rot=    1.000000    0.000000   -0.000000   -0.000000 Ang=   0.00 deg.
 Initial guess orbital symmetries:
       Occupied  (A1) (A1) (B2) (A1) (B2) (A1) (B2) (A1) (A1) (B2)
                 (A1) (B2) (B1) (A1) (B1) (B2) (A2) (B2) (A1) (B1)
                 (B2) (A2) (B1) (A1)
       Virtual   (A2) (A1) (B1) (A1) (B2) (B1) (A1) (B2) (B2) (A1)
                 (B2) (A1) (A1) (B2)
 Keep J ints in memory in canonical form, NReq=863588.
 Overlap will be assumed to be unity.
 Requested convergence on RMS density matrix=1.00D-08 within  32 cycles.
 Requested convergence on MAX density matrix=1.00D-06.
 Requested convergence on             energy=1.00D-06.
 No special actions if energy rises.
 Fock symm off for IB=2 I1=    2 I=   18 J=    7 Cut=1.00D-07 Err=3.16D-04
 Fock matrix is not symmetric: symmetry in diagonalization turned off.
 SCF Done:  E(RAM1) =  0.743193717021E-01 A.U. after   11 cycles
            NFock= 10  Conv=0.50D-08     -V/T= 1.0007
 QCSCF skips out because SCF is already converged.
 Calling FoFJK, ICntrl=      2127 FMM=F ISym2X=1 I1Cent= 0 IOpClX= 0 NMat=1 NMatS=1 NMatT=0.
 ***** Axes restored to original set *****
 -------------------------------------------------------------------
 Center     Atomic                   Forces (Hartrees/Bohr)
 Number     Number              X              Y              Z
 -------------------------------------------------------------------
      1        6          -0.000000000    0.001943617    0.000000000
      2        6          -0.000476501   -0.001314424   -0.000000000
      3        6           0.001558714    0.000729019    0.000000000
      4        6          -0.000000000   -0.000790051    0.000000000
      5        6          -0.001558714    0.000729019   -0.000000000
      6        6           0.000476501   -0.001314424   -0.000000000
      7       35           0.000431058    0.000116649   -0.000000000
      8        1          -0.000651440    0.000254883   -0.000000000
      9       35          -0.000000000   -0.000725822    0.000000000
     10        1           0.000651440    0.000254883   -0.000000000
     11       35          -0.000431058    0.000116649   -0.000000000
 -------------------------------------------------------------------
 Cartesian Forces:  Max     0.001943617 RMS     0.000699303

 GradGradGradGradGradGradGradGradGradGradGradGradGradGradGradGradGradGrad
 Berny optimization.
 Using GEDIIS/GDIIS optimizer.
 FormGI is forming the generalized inverse of G from B-inverse, IUseBI=4.
 Internal  Forces:  Max     0.000971514 RMS     0.000394984
 Search for a local minimum.
 Step number   3 out of a maximum of   57
 All quantities printed in internal units (Hartrees-Bohrs-Radians)
 Mixed Optimization -- En-DIIS/RFO-DIIS
 Update second derivatives using D2CorX and points    1    2    3
 DE= -1.93D-04 DEPred=-1.73D-04 R= 1.11D+00
 TightC=F SS=  1.41D+00  RLast= 3.16D-02 DXNew= 6.7460D-01 9.4849D-02
 Trust test= 1.11D+00 RLast= 3.16D-02 DXMaxT set to 4.01D-01
 ITU=  1  1  0
 Use linear search instead of GDIIS.
     Eigenvalues ---    0.02221   0.02221   0.02221   0.02221   0.02221
     Eigenvalues ---    0.02221   0.02221   0.02221   0.14791   0.16000
     Eigenvalues ---    0.16978   0.18251   0.18433   0.21990   0.23515
     Eigenvalues ---    0.23656   0.25000   0.25000   0.25455   0.35994
     Eigenvalues ---    0.36352   0.43039   0.44834   0.46383   0.47319
     Eigenvalues ---    0.47319   0.60670
 RFO step:  Lambda=-2.65793053D-05 EMin= 2.22103665D-02
 Quartic linear search produced a step of  0.12447.
 Iteration  1 RMS(Cart)=  0.00228233 RMS(Int)=  0.00000310
 Iteration  2 RMS(Cart)=  0.00000449 RMS(Int)=  0.00000082
 Iteration  3 RMS(Cart)=  0.00000000 RMS(Int)=  0.00000082
 ClnCor:  largest displacement from symmetrization is 1.58D-12 for atom     9.
 Variable       Old X    -DE/DX   Delta X   Delta X   Delta X     New X
                                 (Linear)    (Quad)   (Total)
    R1        2.62323   0.00080   0.00064   0.00163   0.00227   2.62550
    R2        2.62323   0.00080   0.00064   0.00163   0.00227   2.62550
    R3        2.63814  -0.00022  -0.00091   0.00001  -0.00090   2.63724
    R4        3.57539   0.00043   0.00191   0.00171   0.00363   3.57901
    R5        2.64276   0.00082  -0.00089   0.00258   0.00168   2.64445
    R6        2.08036  -0.00069  -0.00054  -0.00145  -0.00199   2.07837
    R7        2.64276   0.00082  -0.00089   0.00258   0.00168   2.64445
    R8        3.56144   0.00073   0.00044   0.00400   0.00444   3.56588
    R9        2.63814  -0.00022  -0.00091   0.00001  -0.00090   2.63724
   R10        2.08036  -0.00069  -0.00054  -0.00145  -0.00199   2.07837
   R11        3.57539   0.00043   0.00191   0.00171   0.00363   3.57901
    A1        2.05199  -0.00097  -0.00099  -0.00462  -0.00560   2.04639
    A2        2.13627   0.00062   0.00028   0.00326   0.00354   2.13980
    A3        2.08320  -0.00011   0.00041  -0.00083  -0.00042   2.08278
    A4        2.06372  -0.00051  -0.00069  -0.00243  -0.00311   2.06060
    A5        2.06666   0.00012   0.00017   0.00018   0.00035   2.06701
    A6        2.12155   0.00005   0.00037   0.00070   0.00108   2.12263
    A7        2.09497  -0.00018  -0.00054  -0.00088  -0.00142   2.09355
    A8        2.10853  -0.00052   0.00010  -0.00226  -0.00217   2.10636
    A9        2.08733   0.00026  -0.00005   0.00113   0.00108   2.08841
   A10        2.08733   0.00026  -0.00005   0.00113   0.00108   2.08841
   A11        2.06666   0.00012   0.00017   0.00018   0.00035   2.06701
   A12        2.09497  -0.00018  -0.00054  -0.00088  -0.00142   2.09355
   A13        2.12155   0.00005   0.00037   0.00070   0.00108   2.12263
   A14        2.13627   0.00062   0.00028   0.00326   0.00354   2.13980
   A15        2.08320  -0.00011   0.00041  -0.00083  -0.00042   2.08278
   A16        2.06372  -0.00051  -0.00069  -0.00243  -0.00311   2.06060
    D1        0.00000  -0.00000   0.00000  -0.00000   0.00000   0.00000
    D2        3.14159  -0.00000   0.00000  -0.00000   0.00000   3.14159
    D3       -0.00000   0.00000   0.00000   0.00000   0.00000   0.00000
    D4        3.14159   0.00000   0.00000   0.00000   0.00000   3.14159
    D5       -0.00000   0.00000   0.00000   0.00000   0.00000   0.00000
    D6        3.14159  -0.00000   0.00000  -0.00000   0.00000   3.14159
    D7        3.14159   0.00000   0.00000   0.00000   0.00000   3.14159
    D8        0.00000   0.00000   0.00000   0.00000   0.00000   0.00000
    D9       -0.00000   0.00000   0.00000   0.00000   0.00000   0.00000
   D10        3.14159  -0.00000   0.00000  -0.00000   0.00000   3.14159
   D11        3.14159   0.00000   0.00000   0.00000   0.00000   3.14159
   D12       -0.00000   0.00000   0.00000   0.00000   0.00000   0.00000
   D13        0.00000  -0.00000   0.00000  -0.00000   0.00000   0.00000
   D14        3.14159  -0.00000   0.00000  -0.00000   0.00000   3.14159
   D15        3.14159   0.00000   0.00000   0.00000   0.00000   3.14159
   D16       -0.00000  -0.00000   0.00000  -0.00000   0.00000   0.00000
   D17       -0.00000   0.00000   0.00000   0.00000   0.00000   0.00000
   D18        3.14159  -0.00000   0.00000  -0.00000   0.00000   3.14159
   D19        3.14159   0.00000   0.00000   0.00000   0.00000   3.14159
   D20       -0.00000  -0.00000   0.00000  -0.00000   0.00000   0.00000
         Item               Value     Threshold  Converged?
 Maximum Force            0.000972     0.000450     NO 
 RMS     Force            0.000395     0.000300     NO 
 Maximum Displacement     0.008226     0.001800     NO 
 RMS     Displacement     0.002283     0.001200     NO 
 Predicted change in Energy=-1.568752D-05
 GradGradGradGradGradGradGradGradGradGradGradGradGradGradGradGradGradGrad

                          Input orientation:                          
 ---------------------------------------------------------------------
 Center     Atomic      Atomic             Coordinates (Angstroms)
 Number     Number       Type             X           Y           Z
 ---------------------------------------------------------------------
      1          6           0        0.000000    1.424232    0.000000
      2          6           0        1.186196    0.700877   -0.000000
      3          6           0        1.216065   -0.694373   -0.000000
      4          6           0       -0.000000   -1.386798    0.000000
      5          6           0       -1.216065   -0.694373    0.000000
      6          6           0       -1.186196    0.700877    0.000000
      7         35           0        2.837995    1.627449   -0.000000
      8          1           0        2.164761   -1.250780   -0.000000
      9         35           0       -0.000000   -3.273779   -0.000000
     10          1           0       -2.164761   -1.250780    0.000000
     11         35           0       -2.837995    1.627449    0.000000
 ---------------------------------------------------------------------
                    Distance matrix (angstroms):
                    1          2          3          4          5
     1  C    0.000000
     2  C    1.389354   0.000000
     3  C    2.442806   1.395570   0.000000
     4  C    2.811030   2.401134   1.399380   0.000000
     5  C    2.442806   2.778053   2.432129   1.399380   0.000000
     6  C    1.389354   2.372392   2.778053   2.401134   1.395570
     7  Br   2.845261   1.893931   2.832228   4.140036   4.671858
     8  H    3.441203   2.183244   1.099824   2.169030   3.426305
     9  Br   4.698010   4.147885   2.851691   1.886981   2.851691
    10  H    3.441203   3.877870   3.426305   2.169030   1.099824
    11  Br   2.845261   4.129485   4.671858   4.140036   2.832228
                    6          7          8          9         10
     6  C    0.000000
     7  Br   4.129485   0.000000
     8  H    3.877870   2.955917   0.000000
     9  Br   4.147885   5.663590   2.962889   0.000000
    10  H    2.183244   5.771635   4.329522   2.962889   0.000000
    11  Br   1.893931   5.675990   5.771635   5.663590   2.955917
                   11
    11  Br   0.000000
 Stoichiometry    C6H2Br3(1-)
 Framework group  C2V[C2(CCBr),SGV(C4H2Br2)]
 Deg. of freedom    10
 Full point group                 C2V     NOp   4
 Largest Abelian subgroup         C2V     NOp   4
 Largest concise Abelian subgroup C2      NOp   2
                         Standard orientation:                         
 ---------------------------------------------------------------------
 Center     Atomic      Atomic             Coordinates (Angstroms)
 Number     Number       Type             X           Y           Z
 ---------------------------------------------------------------------
      1          6           0        0.000000    0.000000   -1.444230
      2          6           0       -0.000000    1.186196   -0.720875
      3          6           0       -0.000000    1.216065    0.674375
      4          6           0       -0.000000   -0.000000    1.366800
      5          6           0       -0.000000   -1.216065    0.674375
      6          6           0       -0.000000   -1.186196   -0.720875
      7         35           0       -0.000000    2.837995   -1.647447
      8          1           0       -0.000000    2.164761    1.230782
      9         35           0       -0.000000   -0.000000    3.253780
     10          1           0       -0.000000   -2.164761    1.230782
     11         35           0       -0.000000   -2.837995   -1.647447
 ---------------------------------------------------------------------
 Rotational constants (GHZ):           0.3777803           0.3743667           0.1880329
 Standard basis: VSTO-6G (5D, 7F)
 There are    16 symmetry adapted cartesian basis functions of A1  symmetry.
 There are     3 symmetry adapted cartesian basis functions of A2  symmetry.
 There are     6 symmetry adapted cartesian basis functions of B1  symmetry.
 There are    13 symmetry adapted cartesian basis functions of B2  symmetry.
 There are    16 symmetry adapted basis functions of A1  symmetry.
 There are     3 symmetry adapted basis functions of A2  symmetry.
 There are     6 symmetry adapted basis functions of B1  symmetry.
 There are    13 symmetry adapted basis functions of B2  symmetry.
    38 basis functions,   228 primitive gaussians,    38 cartesian basis functions
    24 alpha electrons       24 beta electrons
       nuclear repulsion energy       234.6575674443 Hartrees.
 Integral buffers will be    131072 words long.
 Regular integral format.
 Two-electron integral symmetry is turned off.
 Do NDO integrals.
 One-electron integrals computed using PRISM.
 NBasis=    38 RedAO= T EigKep=  1.00D+00  NBF=    16     3     6    13
 NBsUse=    38 1.00D-06 EigRej= -1.00D+00 NBFU=    16     3     6    13
 Initial guess from the checkpoint file:  "calcs/am1/chks/BrPh_246_anion.chk"
 B after Tr=    -0.000000    0.000000   -0.000000
         Rot=    1.000000    0.000000   -0.000000   -0.000000 Ang=   0.00 deg.
 Initial guess orbital symmetries:
       Occupied  (A1) (A1) (B2) (A1) (B2) (A1) (B2) (A1) (A1) (B2)
                 (A1) (B2) (B1) (A1) (B1) (B2) (A2) (B2) (A1) (B1)
                 (B2) (A2) (B1) (A1)
       Virtual   (A2) (A1) (B1) (A1) (B2) (B1) (A1) (B2) (B2) (A1)
                 (B2) (A1) (A1) (B2)
 Keep J ints in memory in canonical form, NReq=863588.
 Overlap will be assumed to be unity.
 Requested convergence on RMS density matrix=1.00D-08 within  32 cycles.
 Requested convergence on MAX density matrix=1.00D-06.
 Requested convergence on             energy=1.00D-06.
 No special actions if energy rises.
 Fock symm off for IB=2 I1=    2 I=   18 J=    7 Cut=1.00D-07 Err=6.55D-05
 Fock matrix is not symmetric: symmetry in diagonalization turned off.
 SCF Done:  E(RAM1) =  0.743044900418E-01 A.U. after   11 cycles
            NFock= 10  Conv=0.48D-08     -V/T= 1.0007
 QCSCF skips out because SCF is already converged.
 Calling FoFJK, ICntrl=      2127 FMM=F ISym2X=1 I1Cent= 0 IOpClX= 0 NMat=1 NMatS=1 NMatT=0.
 ***** Axes restored to original set *****
 -------------------------------------------------------------------
 Center     Atomic                   Forces (Hartrees/Bohr)
 Number     Number              X              Y              Z
 -------------------------------------------------------------------
      1        6           0.000000000    0.000346935    0.000000000
      2        6          -0.000093343   -0.000315941   -0.000000000
      3        6          -0.000116985    0.000048390    0.000000000
      4        6           0.000000000   -0.000225572    0.000000000
      5        6           0.000116985    0.000048390   -0.000000000
      6        6           0.000093343   -0.000315941    0.000000000
      7       35          -0.000169033   -0.000035280   -0.000000000
      8        1           0.000004377   -0.000023284   -0.000000000
      9       35           0.000000000    0.000530866    0.000000000
     10        1          -0.000004377   -0.000023284   -0.000000000
     11       35           0.000169033   -0.000035280   -0.000000000
 -------------------------------------------------------------------
 Cartesian Forces:  Max     0.000530866 RMS     0.000152051

 GradGradGradGradGradGradGradGradGradGradGradGradGradGradGradGradGradGrad
 Berny optimization.
 Using GEDIIS/GDIIS optimizer.
 FormGI is forming the generalized inverse of G from B-inverse, IUseBI=4.
 Internal  Forces:  Max     0.000530866 RMS     0.000125220
 Search for a local minimum.
 Step number   4 out of a maximum of   57
 All quantities printed in internal units (Hartrees-Bohrs-Radians)
 Mixed Optimization -- En-DIIS/RFO-DIIS
 Swapping is turned off.
 Update second derivatives using D2CorX and points    1    2    3    4
 DE= -1.49D-05 DEPred=-1.57D-05 R= 9.49D-01
 TightC=F SS=  1.41D+00  RLast= 1.27D-02 DXNew= 6.7460D-01 3.8100D-02
 Trust test= 9.49D-01 RLast= 1.27D-02 DXMaxT set to 4.01D-01
 ITU=  1  1  1  0
     Eigenvalues ---    0.02221   0.02221   0.02221   0.02221   0.02221
     Eigenvalues ---    0.02221   0.02221   0.02221   0.13413   0.16000
     Eigenvalues ---    0.16766   0.18251   0.20022   0.21325   0.23516
     Eigenvalues ---    0.24167   0.25000   0.25000   0.26306   0.35994
     Eigenvalues ---    0.37272   0.43028   0.45294   0.46616   0.47319
     Eigenvalues ---    0.47319   0.59967
 En-DIIS/RFO-DIIS/Sim-DIIS IScMMF=       -3 using points:     4    3
 RFO step:  Lambda=-2.83225297D-06.
 DidBck=F Rises=F RFO-DIIS coefs:    1.04117   -0.04117
 Iteration  1 RMS(Cart)=  0.00058934 RMS(Int)=  0.00000018
 Iteration  2 RMS(Cart)=  0.00000025 RMS(Int)=  0.00000009
 ClnCor:  largest displacement from symmetrization is 1.94D-13 for atom     9.
 Variable       Old X    -DE/DX   Delta X   Delta X   Delta X     New X
                                 (Linear)    (Quad)   (Total)
    R1        2.62550  -0.00006   0.00009   0.00003   0.00012   2.62562
    R2        2.62550  -0.00006   0.00009   0.00003   0.00012   2.62562
    R3        2.63724  -0.00018  -0.00004  -0.00043  -0.00047   2.63678
    R4        3.57901  -0.00016   0.00015  -0.00062  -0.00047   3.57854
    R5        2.64445  -0.00025   0.00007  -0.00045  -0.00038   2.64406
    R6        2.07837   0.00002  -0.00008  -0.00008  -0.00016   2.07821
    R7        2.64445  -0.00025   0.00007  -0.00045  -0.00038   2.64406
    R8        3.56588  -0.00053   0.00018  -0.00256  -0.00238   3.56350
    R9        2.63724  -0.00018  -0.00004  -0.00043  -0.00047   2.63678
   R10        2.07837   0.00002  -0.00008  -0.00008  -0.00016   2.07821
   R11        3.57901  -0.00016   0.00015  -0.00062  -0.00047   3.57854
    A1        2.04639  -0.00029  -0.00023  -0.00136  -0.00159   2.04480
    A2        2.13980   0.00017   0.00015   0.00087   0.00101   2.14082
    A3        2.08278  -0.00018  -0.00002  -0.00071  -0.00072   2.08206
    A4        2.06060   0.00001  -0.00013  -0.00016  -0.00029   2.06031
    A5        2.06701  -0.00004   0.00001  -0.00018  -0.00016   2.06684
    A6        2.12263   0.00004   0.00004   0.00028   0.00032   2.12296
    A7        2.09355   0.00000  -0.00006  -0.00010  -0.00016   2.09339
    A8        2.10636   0.00003  -0.00009  -0.00003  -0.00012   2.10625
    A9        2.08841  -0.00002   0.00004   0.00001   0.00006   2.08847
   A10        2.08841  -0.00002   0.00004   0.00001   0.00006   2.08847
   A11        2.06701  -0.00004   0.00001  -0.00018  -0.00016   2.06684
   A12        2.09355   0.00000  -0.00006  -0.00010  -0.00016   2.09339
   A13        2.12263   0.00004   0.00004   0.00028   0.00032   2.12296
   A14        2.13980   0.00017   0.00015   0.00087   0.00101   2.14082
   A15        2.08278  -0.00018  -0.00002  -0.00071  -0.00072   2.08206
   A16        2.06060   0.00001  -0.00013  -0.00016  -0.00029   2.06031
    D1        0.00000  -0.00000   0.00000  -0.00000   0.00000   0.00000
    D2        3.14159  -0.00000   0.00000  -0.00000   0.00000   3.14159
    D3       -0.00000   0.00000   0.00000   0.00000   0.00000   0.00000
    D4        3.14159   0.00000   0.00000   0.00000   0.00000   3.14159
    D5       -0.00000   0.00000   0.00000   0.00000   0.00000   0.00000
    D6        3.14159   0.00000   0.00000   0.00000   0.00000   3.14159
    D7        3.14159   0.00000   0.00000   0.00000   0.00000   3.14159
    D8        0.00000   0.00000   0.00000   0.00000  -0.00000   0.00000
    D9       -0.00000   0.00000   0.00000   0.00000   0.00000   0.00000
   D10        3.14159   0.00000   0.00000   0.00000   0.00000   3.14159
   D11        3.14159   0.00000   0.00000   0.00000   0.00000   3.14159
   D12       -0.00000   0.00000   0.00000   0.00000   0.00000   0.00000
   D13        0.00000  -0.00000   0.00000  -0.00000   0.00000   0.00000
   D14        3.14159  -0.00000   0.00000  -0.00000   0.00000   3.14159
   D15        3.14159  -0.00000   0.00000  -0.00000   0.00000   3.14159
   D16        0.00000  -0.00000   0.00000  -0.00000  -0.00000   0.00000
   D17        0.00000   0.00000   0.00000   0.00000   0.00000   0.00000
   D18        3.14159  -0.00000   0.00000  -0.00000   0.00000   3.14159
   D19        3.14159   0.00000   0.00000   0.00000   0.00000   3.14159
   D20       -0.00000  -0.00000   0.00000  -0.00000   0.00000   0.00000
         Item               Value     Threshold  Converged?
 Maximum Force            0.000531     0.000450     NO 
 RMS     Force            0.000125     0.000300     YES
 Maximum Displacement     0.002363     0.001800     NO 
 RMS     Displacement     0.000589     0.001200     YES
 Predicted change in Energy=-1.416127D-06
 GradGradGradGradGradGradGradGradGradGradGradGradGradGradGradGradGradGrad

                          Input orientation:                          
 ---------------------------------------------------------------------
 Center     Atomic      Atomic             Coordinates (Angstroms)
 Number     Number       Type             X           Y           Z
 ---------------------------------------------------------------------
      1          6           0        0.000000    1.424913    0.000000
      2          6           0        1.185676    0.700583   -0.000000
      3          6           0        1.215847   -0.694413   -0.000000
      4          6           0       -0.000000   -1.386808    0.000000
      5          6           0       -1.215847   -0.694413    0.000000
      6          6           0       -1.185676    0.700583    0.000000
      7         35           0        2.837321    1.626917   -0.000000
      8          1           0        2.164414   -1.250875   -0.000000
      9         35           0       -0.000000   -3.272528    0.000000
     10          1           0       -2.164414   -1.250875    0.000000
     11         35           0       -2.837321    1.626917    0.000000
 ---------------------------------------------------------------------
                    Distance matrix (angstroms):
                    1          2          3          4          5
     1  C    0.000000
     2  C    1.389417   0.000000
     3  C    2.443322   1.395322   0.000000
     4  C    2.811720   2.400630   1.399176   0.000000
     5  C    2.443322   2.777287   2.431694   1.399176   0.000000
     6  C    1.389417   2.371351   2.777287   2.400630   1.395322
     7  Br   2.844503   1.893681   2.831563   4.139194   4.670840
     8  H    3.441588   2.183144   1.099741   2.168678   3.425758
     9  Br   4.697441   4.146256   2.850432   1.885720   2.850432
    10  H    3.441588   3.877021   3.425758   2.168678   1.099741
    11  Br   2.844503   4.128268   4.670840   4.139194   2.831563
                    6          7          8          9         10
     6  C    0.000000
     7  Br   4.128268   0.000000
     8  H    3.877021   2.955417   0.000000
     9  Br   4.146256   5.661709   2.961717   0.000000
    10  H    2.183144   5.770532   4.328828   2.961717   0.000000
    11  Br   1.893681   5.674643   5.770532   5.661709   2.955417
                   11
    11  Br   0.000000
 Stoichiometry    C6H2Br3(1-)
 Framework group  C2V[C2(CCBr),SGV(C4H2Br2)]
 Deg. of freedom    10
 Full point group                 C2V     NOp   4
 Largest Abelian subgroup         C2V     NOp   4
 Largest concise Abelian subgroup C2      NOp   2
                         Standard orientation:                         
 ---------------------------------------------------------------------
 Center     Atomic      Atomic             Coordinates (Angstroms)
 Number     Number       Type             X           Y           Z
 ---------------------------------------------------------------------
      1          6           0        0.000000    0.000000   -1.444867
      2          6           0        0.000000    1.185676   -0.720537
      3          6           0        0.000000    1.215847    0.674459
      4          6           0       -0.000000    0.000000    1.366854
      5          6           0       -0.000000   -1.215847    0.674459
      6          6           0       -0.000000   -1.185676   -0.720537
      7         35           0        0.000000    2.837321   -1.646870
      8          1           0        0.000000    2.164414    1.230921
      9         35           0       -0.000000    0.000000    3.252574
     10          1           0       -0.000000   -2.164414    1.230921
     11         35           0       -0.000000   -2.837321   -1.646870
 ---------------------------------------------------------------------
 Rotational constants (GHZ):           0.3780357           0.3745467           0.1881415
 Standard basis: VSTO-6G (5D, 7F)
 There are    16 symmetry adapted cartesian basis functions of A1  symmetry.
 There are     3 symmetry adapted cartesian basis functions of A2  symmetry.
 There are     6 symmetry adapted cartesian basis functions of B1  symmetry.
 There are    13 symmetry adapted cartesian basis functions of B2  symmetry.
 There are    16 symmetry adapted basis functions of A1  symmetry.
 There are     3 symmetry adapted basis functions of A2  symmetry.
 There are     6 symmetry adapted basis functions of B1  symmetry.
 There are    13 symmetry adapted basis functions of B2  symmetry.
    38 basis functions,   228 primitive gaussians,    38 cartesian basis functions
    24 alpha electrons       24 beta electrons
       nuclear repulsion energy       234.6892676013 Hartrees.
 Integral buffers will be    131072 words long.
 Regular integral format.
 Two-electron integral symmetry is turned off.
 Do NDO integrals.
 One-electron integrals computed using PRISM.
 NBasis=    38 RedAO= T EigKep=  1.00D+00  NBF=    16     3     6    13
 NBsUse=    38 1.00D-06 EigRej= -1.00D+00 NBFU=    16     3     6    13
 Initial guess from the checkpoint file:  "calcs/am1/chks/BrPh_246_anion.chk"
 B after Tr=     0.000000    0.000000    0.000000
         Rot=    1.000000    0.000000    0.000000    0.000000 Ang=   0.00 deg.
 Initial guess orbital symmetries:
       Occupied  (A1) (A1) (B2) (A1) (B2) (A1) (B2) (A1) (A1) (B2)
                 (A1) (B2) (B1) (A1) (B1) (B2) (A2) (B2) (A1) (B1)
                 (B2) (A2) (B1) (A1)
       Virtual   (A2) (A1) (B1) (A1) (B2) (B1) (A1) (B2) (B2) (A1)
                 (B2) (A1) (A1) (B2)
 Keep J ints in memory in canonical form, NReq=863588.
 Overlap will be assumed to be unity.
 Requested convergence on RMS density matrix=1.00D-08 within  32 cycles.
 Requested convergence on MAX density matrix=1.00D-06.
 Requested convergence on             energy=1.00D-06.
 No special actions if energy rises.
 Fock symm off for IB=2 I1=    2 I=   18 J=   16 Cut=1.00D-07 Err=4.32D-05
 Fock matrix is not symmetric: symmetry in diagonalization turned off.
 SCF Done:  E(RAM1) =  0.743032662492E-01 A.U. after   10 cycles
            NFock=  9  Conv=0.46D-08     -V/T= 1.0007
 QCSCF skips out because SCF is already converged.
 Calling FoFJK, ICntrl=      2127 FMM=F ISym2X=1 I1Cent= 0 IOpClX= 0 NMat=1 NMatS=1 NMatT=0.
 ***** Axes restored to original set *****
 -------------------------------------------------------------------
 Center     Atomic                   Forces (Hartrees/Bohr)
 Number     Number              X              Y              Z
 -------------------------------------------------------------------
      1        6          -0.000000000    0.000141864    0.000000000
      2        6           0.000201551   -0.000019185    0.000000000
      3        6          -0.000018582    0.000043949   -0.000000000
      4        6           0.000000000   -0.000214861    0.000000000
      5        6           0.000018582    0.000043949   -0.000000000
      6        6          -0.000201551   -0.000019185   -0.000000000
      7       35          -0.000005120    0.000046492   -0.000000000
      8        1           0.000082601   -0.000028894   -0.000000000
      9       35           0.000000000   -0.000011726    0.000000000
     10        1          -0.000082601   -0.000028894   -0.000000000
     11       35           0.000005120    0.000046492   -0.000000000
 -------------------------------------------------------------------
 Cartesian Forces:  Max     0.000214861 RMS     0.000072332

 GradGradGradGradGradGradGradGradGradGradGradGradGradGradGradGradGradGrad
 Berny optimization.
 Using GEDIIS/GDIIS optimizer.
 FormGI is forming the generalized inverse of G from B-inverse, IUseBI=4.
 Internal  Forces:  Max     0.000172274 RMS     0.000060261
 Search for a local minimum.
 Step number   5 out of a maximum of   57
 All quantities printed in internal units (Hartrees-Bohrs-Radians)
 Mixed Optimization -- En-DIIS/RFO-DIIS
 Swapping is turned off.
 Update second derivatives using D2CorX and points    1    2    3    4    5
 DE= -1.22D-06 DEPred=-1.42D-06 R= 8.64D-01
 TightC=F SS=  1.41D+00  RLast= 3.61D-03 DXNew= 6.7460D-01 1.0845D-02
 Trust test= 8.64D-01 RLast= 3.61D-03 DXMaxT set to 4.01D-01
 ITU=  1  1  1  1  0
     Eigenvalues ---    0.02221   0.02221   0.02221   0.02221   0.02221
     Eigenvalues ---    0.02221   0.02221   0.02221   0.13430   0.16000
     Eigenvalues ---    0.16376   0.18251   0.19610   0.21290   0.23517
     Eigenvalues ---    0.24624   0.25000   0.25000   0.25477   0.35994
     Eigenvalues ---    0.37795   0.43025   0.46085   0.47108   0.47319
     Eigenvalues ---    0.47319   0.72121
 En-DIIS/RFO-DIIS/Sim-DIIS IScMMF=       -3 using points:     5    4    3
 RFO step:  Lambda=-3.27753238D-07.
 DidBck=F Rises=F RFO-DIIS coefs:    1.00370   -0.01406    0.01035
 Iteration  1 RMS(Cart)=  0.00021445 RMS(Int)=  0.00000003
 Iteration  2 RMS(Cart)=  0.00000003 RMS(Int)=  0.00000001
 ClnCor:  largest displacement from symmetrization is 1.54D-12 for atom     9.
 Variable       Old X    -DE/DX   Delta X   Delta X   Delta X     New X
                                 (Linear)    (Quad)   (Total)
    R1        2.62562   0.00015  -0.00002   0.00029   0.00027   2.62589
    R2        2.62562   0.00015  -0.00002   0.00029   0.00027   2.62589
    R3        2.63678   0.00010   0.00001   0.00010   0.00011   2.63689
    R4        3.57854   0.00002  -0.00004   0.00010   0.00006   3.57860
    R5        2.64406   0.00017  -0.00002   0.00024   0.00022   2.64428
    R6        2.07821   0.00009   0.00002   0.00017   0.00019   2.07840
    R7        2.64406   0.00017  -0.00002   0.00024   0.00022   2.64428
    R8        3.56350   0.00001  -0.00005  -0.00015  -0.00021   3.56329
    R9        2.63678   0.00010   0.00001   0.00010   0.00011   2.63689
   R10        2.07821   0.00009   0.00002   0.00017   0.00019   2.07840
   R11        3.57854   0.00002  -0.00004   0.00010   0.00006   3.57860
    A1        2.04480   0.00004   0.00005  -0.00000   0.00005   2.04485
    A2        2.14082  -0.00003  -0.00003  -0.00005  -0.00008   2.14074
    A3        2.08206  -0.00006   0.00000  -0.00025  -0.00025   2.08181
    A4        2.06031   0.00009   0.00003   0.00030   0.00033   2.06064
    A5        2.06684   0.00003  -0.00000   0.00012   0.00011   2.06696
    A6        2.12296  -0.00003  -0.00001  -0.00012  -0.00013   2.12282
    A7        2.09339   0.00000   0.00001   0.00001   0.00002   2.09341
    A8        2.10625  -0.00004   0.00002  -0.00013  -0.00011   2.10614
    A9        2.08847   0.00002  -0.00001   0.00007   0.00006   2.08852
   A10        2.08847   0.00002  -0.00001   0.00007   0.00006   2.08852
   A11        2.06684   0.00003  -0.00000   0.00012   0.00011   2.06696
   A12        2.09339   0.00000   0.00001   0.00001   0.00002   2.09341
   A13        2.12296  -0.00003  -0.00001  -0.00012  -0.00013   2.12282
   A14        2.14082  -0.00003  -0.00003  -0.00005  -0.00008   2.14074
   A15        2.08206  -0.00006   0.00000  -0.00025  -0.00025   2.08181
   A16        2.06031   0.00009   0.00003   0.00030   0.00033   2.06064
    D1        0.00000  -0.00000   0.00000  -0.00000   0.00000   0.00000
    D2        3.14159  -0.00000   0.00000  -0.00000   0.00000   3.14159
    D3       -0.00000   0.00000   0.00000   0.00000   0.00000   0.00000
    D4        3.14159   0.00000   0.00000   0.00000   0.00000   3.14159
    D5        0.00000   0.00000   0.00000   0.00000   0.00000   0.00000
    D6        3.14159  -0.00000   0.00000  -0.00000   0.00000   3.14159
    D7        3.14159   0.00000   0.00000   0.00000   0.00000   3.14159
    D8       -0.00000   0.00000   0.00000   0.00000   0.00000   0.00000
    D9       -0.00000   0.00000   0.00000   0.00000   0.00000   0.00000
   D10        3.14159   0.00000   0.00000   0.00000   0.00000   3.14159
   D11        3.14159   0.00000   0.00000   0.00000   0.00000   3.14159
   D12       -0.00000   0.00000   0.00000   0.00000   0.00000   0.00000
   D13        0.00000  -0.00000   0.00000  -0.00000   0.00000   0.00000
   D14        3.14159  -0.00000   0.00000  -0.00000   0.00000   3.14159
   D15        3.14159  -0.00000   0.00000  -0.00000   0.00000   3.14159
   D16       -0.00000  -0.00000   0.00000  -0.00000   0.00000   0.00000
   D17       -0.00000  -0.00000   0.00000  -0.00000   0.00000   0.00000
   D18        3.14159  -0.00000   0.00000  -0.00000   0.00000   3.14159
   D19        3.14159  -0.00000   0.00000  -0.00000   0.00000   3.14159
   D20        0.00000  -0.00000   0.00000  -0.00000  -0.00000   0.00000
         Item               Value     Threshold  Converged?
 Maximum Force            0.000172     0.000450     YES
 RMS     Force            0.000060     0.000300     YES
 Maximum Displacement     0.000798     0.001800     YES
 RMS     Displacement     0.000214     0.001200     YES
 Predicted change in Energy=-1.638731D-07
 Optimization completed.
    -- Stationary point found.
                           ----------------------------
                           !   Optimized Parameters   !
                           ! (Angstroms and Degrees)  !
 --------------------------                            --------------------------
 ! Name  Definition              Value          Derivative Info.                !
 --------------------------------------------------------------------------------
 ! R1    R(1,2)                  1.3894         -DE/DX =    0.0001              !
 ! R2    R(1,6)                  1.3894         -DE/DX =    0.0001              !
 ! R3    R(2,3)                  1.3953         -DE/DX =    0.0001              !
 ! R4    R(2,7)                  1.8937         -DE/DX =    0.0                 !
 ! R5    R(3,4)                  1.3992         -DE/DX =    0.0002              !
 ! R6    R(3,8)                  1.0997         -DE/DX =    0.0001              !
 ! R7    R(4,5)                  1.3992         -DE/DX =    0.0002              !
 ! R8    R(4,9)                  1.8857         -DE/DX =    0.0                 !
 ! R9    R(5,6)                  1.3953         -DE/DX =    0.0001              !
 ! R10   R(5,10)                 1.0997         -DE/DX =    0.0001              !
 ! R11   R(6,11)                 1.8937         -DE/DX =    0.0                 !
 ! A1    A(2,1,6)              117.1584         -DE/DX =    0.0                 !
 ! A2    A(1,2,3)              122.6598         -DE/DX =    0.0                 !
 ! A3    A(1,2,7)              119.2931         -DE/DX =   -0.0001              !
 ! A4    A(3,2,7)              118.0471         -DE/DX =    0.0001              !
 ! A5    A(2,3,4)              118.4214         -DE/DX =    0.0                 !
 ! A6    A(2,3,8)              121.6364         -DE/DX =    0.0                 !
 ! A7    A(4,3,8)              119.9422         -DE/DX =    0.0                 !
 ! A8    A(3,4,5)              120.6791         -DE/DX =    0.0                 !
 ! A9    A(3,4,9)              119.6604         -DE/DX =    0.0                 !
 ! A10   A(5,4,9)              119.6604         -DE/DX =    0.0                 !
 ! A11   A(4,5,6)              118.4214         -DE/DX =    0.0                 !
 ! A12   A(4,5,10)             119.9422         -DE/DX =    0.0                 !
 ! A13   A(6,5,10)             121.6364         -DE/DX =    0.0                 !
 ! A14   A(1,6,5)              122.6598         -DE/DX =    0.0                 !
 ! A15   A(1,6,11)             119.2931         -DE/DX =   -0.0001              !
 ! A16   A(5,6,11)             118.0471         -DE/DX =    0.0001              !
 ! D1    D(6,1,2,3)              0.0            -DE/DX =    0.0                 !
 ! D2    D(6,1,2,7)            180.0            -DE/DX =    0.0                 !
 ! D3    D(2,1,6,5)              0.0            -DE/DX =    0.0                 !
 ! D4    D(2,1,6,11)           180.0            -DE/DX =    0.0                 !
 ! D5    D(1,2,3,4)              0.0            -DE/DX =    0.0                 !
 ! D6    D(1,2,3,8)            180.0            -DE/DX =    0.0                 !
 ! D7    D(7,2,3,4)            180.0            -DE/DX =    0.0                 !
 ! D8    D(7,2,3,8)              0.0            -DE/DX =    0.0                 !
 ! D9    D(2,3,4,5)              0.0            -DE/DX =    0.0                 !
 ! D10   D(2,3,4,9)            180.0            -DE/DX =    0.0                 !
 ! D11   D(8,3,4,5)            180.0            -DE/DX =    0.0                 !
 ! D12   D(8,3,4,9)              0.0            -DE/DX =    0.0                 !
 ! D13   D(3,4,5,6)              0.0            -DE/DX =    0.0                 !
 ! D14   D(3,4,5,10)           180.0            -DE/DX =    0.0                 !
 ! D15   D(9,4,5,6)            180.0            -DE/DX =    0.0                 !
 ! D16   D(9,4,5,10)             0.0            -DE/DX =    0.0                 !
 ! D17   D(4,5,6,1)              0.0            -DE/DX =    0.0                 !
 ! D18   D(4,5,6,11)           180.0            -DE/DX =    0.0                 !
 ! D19   D(10,5,6,1)           180.0            -DE/DX =    0.0                 !
 ! D20   D(10,5,6,11)            0.0            -DE/DX =    0.0                 !
 --------------------------------------------------------------------------------
 GradGradGradGradGradGradGradGradGradGradGradGradGradGradGradGradGradGrad

                          Input orientation:                          
 ---------------------------------------------------------------------
 Center     Atomic      Atomic             Coordinates (Angstroms)
 Number     Number       Type             X           Y           Z
 ---------------------------------------------------------------------
      1          6           0        0.000000    1.424913    0.000000
      2          6           0        1.185676    0.700583    0.000000
      3          6           0        1.215847   -0.694413   -0.000000
      4          6           0       -0.000000   -1.386808    0.000000
      5          6           0       -1.215847   -0.694413    0.000000
      6          6           0       -1.185676    0.700583    0.000000
      7         35           0        2.837321    1.626917   -0.000000
      8          1           0        2.164414   -1.250875   -0.000000
      9         35           0       -0.000000   -3.272528    0.000000
     10          1           0       -2.164414   -1.250875    0.000000
     11         35           0       -2.837321    1.626917    0.000000
 ---------------------------------------------------------------------
                    Distance matrix (angstroms):
                    1          2          3          4          5
     1  C    0.000000
     2  C    1.389417   0.000000
     3  C    2.443322   1.395322   0.000000
     4  C    2.811720   2.400630   1.399176   0.000000
     5  C    2.443322   2.777287   2.431694   1.399176   0.000000
     6  C    1.389417   2.371351   2.777287   2.400630   1.395322
     7  Br   2.844503   1.893681   2.831563   4.139194   4.670840
     8  H    3.441588   2.183144   1.099741   2.168678   3.425758
     9  Br   4.697441   4.146256   2.850432   1.885720   2.850432
    10  H    3.441588   3.877021   3.425758   2.168678   1.099741
    11  Br   2.844503   4.128268   4.670840   4.139194   2.831563
                    6          7          8          9         10
     6  C    0.000000
     7  Br   4.128268   0.000000
     8  H    3.877021   2.955417   0.000000
     9  Br   4.146256   5.661709   2.961717   0.000000
    10  H    2.183144   5.770532   4.328828   2.961717   0.000000
    11  Br   1.893681   5.674643   5.770532   5.661709   2.955417
                   11
    11  Br   0.000000
 Stoichiometry    C6H2Br3(1-)
 Framework group  C2V[C2(CCBr),SGV(C4H2Br2)]
 Deg. of freedom    10
 Full point group                 C2V     NOp   4
 Largest Abelian subgroup         C2V     NOp   4
 Largest concise Abelian subgroup C2      NOp   2
                         Standard orientation:                         
 ---------------------------------------------------------------------
 Center     Atomic      Atomic             Coordinates (Angstroms)
 Number     Number       Type             X           Y           Z
 ---------------------------------------------------------------------
      1          6           0        0.000000    0.000000   -1.444867
      2          6           0        0.000000    1.185676   -0.720537
      3          6           0        0.000000    1.215847    0.674459
      4          6           0       -0.000000    0.000000    1.366854
      5          6           0       -0.000000   -1.215847    0.674459
      6          6           0       -0.000000   -1.185676   -0.720537
      7         35           0        0.000000    2.837321   -1.646870
      8          1           0        0.000000    2.164414    1.230921
      9         35           0       -0.000000   -0.000000    3.252574
     10          1           0       -0.000000   -2.164414    1.230921
     11         35           0       -0.000000   -2.837321   -1.646870
 ---------------------------------------------------------------------
 Rotational constants (GHZ):           0.3780357           0.3745467           0.1881415

 **********************************************************************

            Population analysis using the SCF Density.

 **********************************************************************

 Orbital symmetries:
       Occupied  (A1) (A1) (B2) (A1) (B2) (A1) (B2) (A1) (A1) (B2)
                 (A1) (B2) (B1) (A1) (B1) (B2) (A2) (B2) (A1) (B1)
                 (B2) (A2) (B1) (A1)
       Virtual   (A2) (A1) (B1) (A1) (B2) (B1) (A1) (B2) (B2) (A1)
                 (B2) (A1) (A1) (B2)
 The electronic state is 1-A1.
 Alpha  occ. eigenvalues --   -1.28153  -1.07220  -1.06868  -0.99708  -0.93491
 Alpha  occ. eigenvalues --   -0.90788  -0.67845  -0.66518  -0.48230  -0.43676
 Alpha  occ. eigenvalues --   -0.42189  -0.37705  -0.37682  -0.34281  -0.31182
 Alpha  occ. eigenvalues --   -0.30166  -0.29866  -0.28062  -0.26138  -0.25925
 Alpha  occ. eigenvalues --   -0.24986  -0.19755  -0.17706  -0.12867
 Alpha virt. eigenvalues --    0.15933   0.15982   0.17528   0.19306   0.19611
 Alpha virt. eigenvalues --    0.27165   0.28323   0.29498   0.31903   0.32451
 Alpha virt. eigenvalues --    0.33501   0.34061   0.37594   0.38986
          Condensed to atoms (all electrons):
               1          2          3          4          5          6
     1  C    4.306958   0.000000   0.000000   0.000000   0.000000   0.000000
     2  C    0.000000   4.158352   0.000000   0.000000   0.000000   0.000000
     3  C    0.000000   0.000000   4.097049   0.000000   0.000000   0.000000
     4  C    0.000000   0.000000   0.000000   4.234278   0.000000   0.000000
     5  C    0.000000   0.000000   0.000000   0.000000   4.097049   0.000000
     6  C    0.000000   0.000000   0.000000   0.000000   0.000000   4.158352
     7  Br   0.000000   0.000000   0.000000   0.000000   0.000000   0.000000
     8  H    0.000000   0.000000   0.000000   0.000000   0.000000   0.000000
     9  Br   0.000000   0.000000   0.000000   0.000000   0.000000   0.000000
    10  H    0.000000   0.000000   0.000000   0.000000   0.000000   0.000000
    11  Br   0.000000   0.000000   0.000000   0.000000   0.000000   0.000000
               7          8          9         10         11
     1  C    0.000000   0.000000   0.000000   0.000000   0.000000
     2  C    0.000000   0.000000   0.000000   0.000000   0.000000
     3  C    0.000000   0.000000   0.000000   0.000000   0.000000
     4  C    0.000000   0.000000   0.000000   0.000000   0.000000
     5  C    0.000000   0.000000   0.000000   0.000000   0.000000
     6  C    0.000000   0.000000   0.000000   0.000000   0.000000
     7  Br   7.064045   0.000000   0.000000   0.000000   0.000000
     8  H    0.000000   0.884390   0.000000   0.000000   0.000000
     9  Br   0.000000   0.000000   7.051091   0.000000   0.000000
    10  H    0.000000   0.000000   0.000000   0.884390   0.000000
    11  Br   0.000000   0.000000   0.000000   0.000000   7.064045
 Mulliken charges:
               1
     1  C   -0.306958
     2  C   -0.158352
     3  C   -0.097049
     4  C   -0.234278
     5  C   -0.097049
     6  C   -0.158352
     7  Br  -0.064045
     8  H    0.115610
     9  Br  -0.051091
    10  H    0.115610
    11  Br  -0.064045
 Sum of Mulliken charges =  -1.00000
 Mulliken charges with hydrogens summed into heavy atoms:
               1
     1  C   -0.306958
     2  C   -0.158352
     3  C    0.018561
     4  C   -0.234278
     5  C    0.018561
     6  C   -0.158352
     7  Br  -0.064045
     9  Br  -0.051091
    11  Br  -0.064045
 Charge=             -1.0000 electrons
 Dipole moment (field-independent basis, Debye):
    X=              0.0000    Y=             -0.0000    Z=              4.5639  Tot=              4.5639
 N-N= 2.346892676013D+02 E-N=-3.330146080650D+02  KE=-1.111952335601D+02
 Symmetry A1   KE=-4.865482625562D+01
 Symmetry A2   KE=-8.497324567556D+00
 Symmetry B1   KE=-1.720564718813D+01
 Symmetry B2   KE=-3.683743554878D+01
 1\1\GINC-SH02-01N31\FOpt\RAM1\ZDO\C6H2Br3(1-)\JLAPIER\28-Sep-2026\0\\#
  Opt AM1 SCF=XQC\\BrPh_246_anion am1\\-1,1\C,0.,1.4249126851,0.\C,1.18
 56755446,0.7005828709,0.\C,1.2158471146,-0.6944128223,0.\C,0.,-1.38680
 76504,0.\C,-1.2158471146,-0.6944128223,0.\C,-1.1856755446,0.7005828709
 ,0.\Br,2.8373213533,1.6269166686,0.\H,2.1644141903,-1.250875178,0.\Br,
 0.,-3.2725281131,0.\H,-2.1644141903,-1.250875178,0.\Br,-2.8373213533,1
 .6269166686,0.\\Version=ES64L-G16RevB.01\State=1-A1\HF=0.0743033\RMSD=
 4.609e-09\RMSF=7.233e-05\Dipole=0.,-1.7955709,0.\PG=C02V [C2(C1C1Br1),
 SGV(C4H2Br2)]\\@


 THE ONLY DIFFERENCE BETWEEN ECCENTRICS AND JOGGERS
 IS THAT JOGGERS WEAR SWEATBANDS WHEN THEY RUN IN THE RAIN.
 Job cpu time:       0 days  0 hours  0 minutes  2.8 seconds.
 Elapsed time:       0 days  0 hours  0 minutes  2.9 seconds.
 File lengths (MBytes):  RWF=      6 Int=      0 D2E=      0 Chk=      3 Scr=      1
 Normal termination of Gaussian 16 at Mon Sep 28 01:25:35 2026.
