 Entering Gaussian System, Link 0=g16
 Initial command:
 /share/software/user/restricted/gaussian/g16.B01/l1.exe "/lscratch/jlapier/g16_45667978_116/Gau-6641.inp" -scrdir="/lscratch/jlapier/g16_45667978_116/"
 Entering Link 1 = /share/software/user/restricted/gaussian/g16.B01/l1.exe PID=      6642.
  
 Copyright (c) 1988-2017, Gaussian, Inc.  All Rights Reserved.
  
 This is part of the Gaussian(R) 16 program.  It is based on
 the Gaussian(R) 09 system (copyright 2009, Gaussian, Inc.),
 the Gaussian(R) 03 system (copyright 2003, Gaussian, Inc.),
 the Gaussian(R) 98 system (copyright 1998, Gaussian, Inc.),
 the Gaussian(R) 94 system (copyright 1995, Gaussian, Inc.),
 the Gaussian 92(TM) system (copyright 1992, Gaussian, Inc.),
 the Gaussian 90(TM) system (copyright 1990, Gaussian, Inc.),
 the Gaussian 88(TM) system (copyright 1988, Gaussian, Inc.),
 the Gaussian 86(TM) system (copyright 1986, Carnegie Mellon
 University), and the Gaussian 82(TM) system (copyright 1983,
 Carnegie Mellon University). Gaussian is a federally registered
 trademark of Gaussian, Inc.
  
 This software contains proprietary and confidential information,
 including trade secrets, belonging to Gaussian, Inc.
  
 This software is provided under written license and may be
 used, copied, transmitted, or stored only in accord with that
 written license.
  
 The following legend is applicable only to US Government
 contracts under FAR:
  
                    RESTRICTED RIGHTS LEGEND
  
 Use, reproduction and disclosure by the US Government is
 subject to restrictions as set forth in subparagraphs (a)
 and (c) of the Commercial Computer Software - Restricted
 Rights clause in FAR 52.227-19.
  
 Gaussian, Inc.
 340 Quinnipiac St., Bldg. 40, Wallingford CT 06492
  
  
 ---------------------------------------------------------------
 Warning -- This program may not be used in any manner that
 competes with the business of Gaussian, Inc. or will provide
 assistance to any competitor of Gaussian, Inc.  The licensee
 of this program is prohibited from giving any competitor of
 Gaussian, Inc. access to this program.  By using this program,
 the user acknowledges that Gaussian, Inc. is engaged in the
 business of creating and licensing software in the field of
 computational chemistry and represents and warrants to the
 licensee that it is not a competitor of Gaussian, Inc. and that
 it will not use this program in any manner prohibited above.
 ---------------------------------------------------------------
  

 Cite this work as:
 Gaussian 16, Revision B.01,
 M. J. Frisch, G. W. Trucks, H. B. Schlegel, G. E. Scuseria, 
 M. A. Robb, J. R. Cheeseman, G. Scalmani, V. Barone, 
 G. A. Petersson, H. Nakatsuji, X. Li, M. Caricato, A. V. Marenich, 
 J. Bloino, B. G. Janesko, R. Gomperts, B. Mennucci, H. P. Hratchian, 
 J. V. Ortiz, A. F. Izmaylov, J. L. Sonnenberg, D. Williams-Young, 
 F. Ding, F. Lipparini, F. Egidi, J. Goings, B. Peng, A. Petrone, 
 T. Henderson, D. Ranasinghe, V. G. Zakrzewski, J. Gao, N. Rega, 
 G. Zheng, W. Liang, M. Hada, M. Ehara, K. Toyota, R. Fukuda, 
 J. Hasegawa, M. Ishida, T. Nakajima, Y. Honda, O. Kitao, H. Nakai, 
 T. Vreven, K. Throssell, J. A. Montgomery, Jr., J. E. Peralta, 
 F. Ogliaro, M. J. Bearpark, J. J. Heyd, E. N. Brothers, K. N. Kudin, 
 V. N. Staroverov, T. A. Keith, R. Kobayashi, J. Normand, 
 K. Raghavachari, A. P. Rendell, J. C. Burant, S. S. Iyengar, 
 J. Tomasi, M. Cossi, J. M. Millam, M. Klene, C. Adamo, R. Cammi, 
 J. W. Ochterski, R. L. Martin, K. Morokuma, O. Farkas, 
 J. B. Foresman, and D. J. Fox, Gaussian, Inc., Wallingford CT, 2016.
 
 ******************************************
 Gaussian 16:  ES64L-G16RevB.01 20-Dec-2017
                28-Sep-2026 
 ******************************************
 %nprocshared=1
 Will use up to    1 processors via shared memory.
 %mem=1GB
 %chk=calcs/am1/chks/BrPh_2345_rad.chk
 -----------------
 # Opt AM1 SCF=XQC
 -----------------
 1/18=20,19=15,26=1,38=1/1,3;
 2/9=110,12=2,17=6,18=5,40=1/2;
 3/5=2,25=1,41=700000,71=1/1,2,3;
 4/35=1/1;
 5/5=2,8=3,13=1,35=1,38=5/2,8;
 6/7=2,8=2,9=2,10=2,28=1/1;
 7//1,2,3,16;
 1/18=20,19=15,26=1/3(2);
 2/9=110/2;
 99//99;
 2/9=110/2;
 3/5=2,25=1,41=700000,71=1,135=20/1,2,3;
 4/5=5,16=3,35=1/1;
 5/5=2,8=3,13=1,35=1,38=5/2,8;
 7//1,2,3,16;
 1/18=20,19=15,26=1/3(-5);
 2/9=110/2;
 6/7=2,8=2,9=2,10=2,19=2,28=1/1;
 99/9=1/99;
 -----------------
 BrPh_2345_rad am1
 -----------------
 Symbolic Z-matrix:
 Charge =  0 Multiplicity = 2
 C                     0.        1.39      0. 
 C                     1.20378   0.695     0. 
 C                     1.20378  -0.695     0. 
 C                     0.       -1.39      0. 
 C                    -1.20378  -0.695     0. 
 C                    -1.20378   0.695     0. 
 Br                    2.84922   1.645     0. 
 Br                    2.84922  -1.645     0. 
 Br                    0.       -3.29      0. 
 Br                   -2.84922  -1.645     0. 
 H                    -2.13908   1.235     0. 
 

 GradGradGradGradGradGradGradGradGradGradGradGradGradGradGradGradGradGrad
 Berny optimization.
 Initialization pass.
                           ----------------------------
                           !    Initial Parameters    !
                           ! (Angstroms and Degrees)  !
 --------------------------                            --------------------------
 ! Name  Definition              Value          Derivative Info.                !
 --------------------------------------------------------------------------------
 ! R1    R(1,2)                  1.39           estimate D2E/DX2                !
 ! R2    R(1,6)                  1.39           estimate D2E/DX2                !
 ! R3    R(2,3)                  1.39           estimate D2E/DX2                !
 ! R4    R(2,7)                  1.9            estimate D2E/DX2                !
 ! R5    R(3,4)                  1.39           estimate D2E/DX2                !
 ! R6    R(3,8)                  1.9            estimate D2E/DX2                !
 ! R7    R(4,5)                  1.39           estimate D2E/DX2                !
 ! R8    R(4,9)                  1.9            estimate D2E/DX2                !
 ! R9    R(5,6)                  1.39           estimate D2E/DX2                !
 ! R10   R(5,10)                 1.9            estimate D2E/DX2                !
 ! R11   R(6,11)                 1.08           estimate D2E/DX2                !
 ! A1    A(2,1,6)              120.0            estimate D2E/DX2                !
 ! A2    A(1,2,3)              120.0            estimate D2E/DX2                !
 ! A3    A(1,2,7)              120.0            estimate D2E/DX2                !
 ! A4    A(3,2,7)              120.0            estimate D2E/DX2                !
 ! A5    A(2,3,4)              120.0            estimate D2E/DX2                !
 ! A6    A(2,3,8)              120.0            estimate D2E/DX2                !
 ! A7    A(4,3,8)              120.0            estimate D2E/DX2                !
 ! A8    A(3,4,5)              120.0            estimate D2E/DX2                !
 ! A9    A(3,4,9)              120.0            estimate D2E/DX2                !
 ! A10   A(5,4,9)              120.0            estimate D2E/DX2                !
 ! A11   A(4,5,6)              120.0            estimate D2E/DX2                !
 ! A12   A(4,5,10)             120.0            estimate D2E/DX2                !
 ! A13   A(6,5,10)             120.0            estimate D2E/DX2                !
 ! A14   A(1,6,5)              120.0            estimate D2E/DX2                !
 ! A15   A(1,6,11)             120.0            estimate D2E/DX2                !
 ! A16   A(5,6,11)             120.0            estimate D2E/DX2                !
 ! D1    D(6,1,2,3)              0.0            estimate D2E/DX2                !
 ! D2    D(6,1,2,7)            180.0            estimate D2E/DX2                !
 ! D3    D(2,1,6,5)              0.0            estimate D2E/DX2                !
 ! D4    D(2,1,6,11)           180.0            estimate D2E/DX2                !
 ! D5    D(1,2,3,4)              0.0            estimate D2E/DX2                !
 ! D6    D(1,2,3,8)            180.0            estimate D2E/DX2                !
 ! D7    D(7,2,3,4)            180.0            estimate D2E/DX2                !
 ! D8    D(7,2,3,8)              0.0            estimate D2E/DX2                !
 ! D9    D(2,3,4,5)              0.0            estimate D2E/DX2                !
 ! D10   D(2,3,4,9)            180.0            estimate D2E/DX2                !
 ! D11   D(8,3,4,5)            180.0            estimate D2E/DX2                !
 ! D12   D(8,3,4,9)              0.0            estimate D2E/DX2                !
 ! D13   D(3,4,5,6)              0.0            estimate D2E/DX2                !
 ! D14   D(3,4,5,10)           180.0            estimate D2E/DX2                !
 ! D15   D(9,4,5,6)            180.0            estimate D2E/DX2                !
 ! D16   D(9,4,5,10)             0.0            estimate D2E/DX2                !
 ! D17   D(4,5,6,1)              0.0            estimate D2E/DX2                !
 ! D18   D(4,5,6,11)           180.0            estimate D2E/DX2                !
 ! D19   D(10,5,6,1)           180.0            estimate D2E/DX2                !
 ! D20   D(10,5,6,11)            0.0            estimate D2E/DX2                !
 --------------------------------------------------------------------------------
 Trust Radius=3.00D-01 FncErr=1.00D-07 GrdErr=1.00D-07 EigMax=2.50D+02 EigMin=1.00D-04
 Number of steps in this run=     57 maximum allowed number of steps=    100.
 GradGradGradGradGradGradGradGradGradGradGradGradGradGradGradGradGradGrad

                          Input orientation:                          
 ---------------------------------------------------------------------
 Center     Atomic      Atomic             Coordinates (Angstroms)
 Number     Number       Type             X           Y           Z
 ---------------------------------------------------------------------
      1          6           0        0.000000    1.390000    0.000000
      2          6           0        1.203775    0.695000    0.000000
      3          6           0        1.203775   -0.695000    0.000000
      4          6           0        0.000000   -1.390000    0.000000
      5          6           0       -1.203775   -0.695000    0.000000
      6          6           0       -1.203775    0.695000    0.000000
      7         35           0        2.849224    1.645000    0.000000
      8         35           0        2.849224   -1.645000    0.000000
      9         35           0        0.000000   -3.290000    0.000000
     10         35           0       -2.849224   -1.645000    0.000000
     11          1           0       -2.139083    1.235000    0.000000
 ---------------------------------------------------------------------
                    Distance matrix (angstroms):
                    1          2          3          4          5
     1  C    0.000000
     2  C    1.390000   0.000000
     3  C    2.407551   1.390000   0.000000
     4  C    2.780000   2.407551   1.390000   0.000000
     5  C    2.407551   2.780000   2.407551   1.390000   0.000000
     6  C    1.390000   2.407551   2.780000   2.407551   1.390000
     7  Br   2.860612   1.900000   2.860612   4.162848   4.680000
     8  Br   4.162848   2.860612   1.900000   2.860612   4.162848
     9  Br   4.680000   4.162848   2.860612   1.900000   2.860612
    10  Br   4.162848   4.680000   4.162848   2.860612   1.900000
    11  H    2.144691   3.386193   3.860000   3.386193   2.144691
                    6          7          8          9         10
     6  C    0.000000
     7  Br   4.162848   0.000000
     8  Br   4.680000   3.290000   0.000000
     9  Br   4.162848   5.698447   3.290000   0.000000
    10  Br   2.860612   6.580000   5.698447   3.290000   0.000000
    11  H    1.080000   5.005127   5.760000   5.005127   2.966260
                   11
    11  H    0.000000
 Stoichiometry    C6HBr4(2)
 Framework group  CS[SG(C6HBr4)]
 Deg. of freedom    19
 Full point group                 CS      NOp   2
 Largest Abelian subgroup         CS      NOp   2
 Largest concise Abelian subgroup C1      NOp   1
                         Standard orientation:                         
 ---------------------------------------------------------------------
 Center     Atomic      Atomic             Coordinates (Angstroms)
 Number     Number       Type             X           Y           Z
 ---------------------------------------------------------------------
      1          6           0        2.318502    0.701977    0.000000
      2          6           0        1.114726    1.396977   -0.000000
      3          6           0       -0.089049    0.701977   -0.000000
      4          6           0       -0.089049   -0.688023    0.000000
      5          6           0        1.114726   -1.383023    0.000000
      6          6           0        2.318502   -0.688023    0.000000
      7         35           0        1.114726    3.296977   -0.000000
      8         35           0       -1.734497    1.651977   -0.000000
      9         35           0       -1.734497   -1.638023    0.000000
     10         35           0        1.114726   -3.283023    0.000000
     11          1           0        3.253809   -1.228023    0.000000
 ---------------------------------------------------------------------
 Rotational constants (GHZ):           0.6015446           0.2290254           0.1658728
 Standard basis: VSTO-6G (5D, 7F)
 There are    31 symmetry adapted cartesian basis functions of A'  symmetry.
 There are    10 symmetry adapted cartesian basis functions of A"  symmetry.
 There are    31 symmetry adapted basis functions of A'  symmetry.
 There are    10 symmetry adapted basis functions of A"  symmetry.
    41 basis functions,   246 primitive gaussians,    41 cartesian basis functions
    27 alpha electrons       26 beta electrons
       nuclear repulsion energy       287.9549129087 Hartrees.
 Integral buffers will be    131072 words long.
 Regular integral format.
 Two-electron integral symmetry is turned off.
 Do NDO integrals.
 One-electron integrals computed using PRISM.
 NBasis=    41 RedAO= T EigKep=  1.00D+00  NBF=    31    10
 NBsUse=    41 1.00D-06 EigRej= -1.00D+00 NBFU=    31    10
 Nonelectrostatic core Hamiltonian diagonalized for initial guess.
 Initial guess orbital symmetries:
 Alpha Orbitals:
       Occupied  (A') (A') (A') (A') (A') (A') (A') (A') (A') (A')
                 (A') (A') (A") (A') (A') (A") (A") (A') (A') (A')
                 (A") (A") (A') (A") (A') (A") (A')
       Virtual   (A') (A") (A") (A') (A') (A') (A") (A') (A') (A')
                 (A') (A') (A') (A')
 Beta  Orbitals:
       Occupied  (A') (A') (A') (A') (A') (A') (A') (A') (A') (A')
                 (A') (A') (A") (A') (A') (A") (A") (A') (A') (A')
                 (A") (A") (A') (A") (A') (A")
       Virtual   (A') (A') (A") (A") (A') (A') (A') (A") (A') (A')
                 (A') (A') (A') (A') (A')
 The electronic state of the initial guess is 2-A'.
 Initial guess <Sx>= 0.0000 <Sy>= 0.0000 <Sz>= 0.5000 <S**2>= 0.7500 S= 0.5000
 Keep J ints in memory in canonical form, NReq=864464.
 Overlap will be assumed to be unity.
 Requested convergence on RMS density matrix=1.00D-08 within  32 cycles.
 Requested convergence on MAX density matrix=1.00D-06.
 Requested convergence on             energy=1.00D-06.
 No special actions if energy rises.
 Fock symm off for IB=2 I1=    1 I=   32 J=   23 Cut=1.00D-07 Err=1.27D-02
 Fock matrix is not symmetric: symmetry in diagonalization turned off.
 Rare condition: small coef for last iteration:  0.000D+00
 Rare condition: small coef for last iteration:  0.000D+00
 Rare condition: small coef for last iteration:  0.000D+00
 >>>>>>>>>> Convergence criterion not met.
 SCF Done:  E(UAM1) =  0.162998266288     A.U. after   33 cycles
            NFock= 32  Conv=0.50D-08     -V/T= 1.0013
 <Sx>= 0.0000 <Sy>= 0.0000 <Sz>= 0.5000 <S**2>= 1.2455 S= 0.7229
 <L.S>=  0.00000000000    
 Annihilation of the first spin contaminant:
 S**2 before annihilation     1.2455,   after     0.9620
 Keep J ints in memory in canonical form, NReq=864864.
 SCF Done:  E(UAM1) =  0.162998266288     a.u. after    1 cycles
            Convg  =    0.1386D-07                     1 Fock formations.
              S**2 =  1.2455                  -V/T =  1.0013
 <Sx>= 0.0000 <Sy>= 0.0000 <Sz>= 0.5000 <S**2>= 1.2455 S= 0.7229
 <L.S>=  0.00000000000    
 Annihilation of the first spin contaminant:
 S**2 before annihilation     1.2455,   after     0.9620

 **********************************************************************

            Population analysis using the SCF Density.

 **********************************************************************

 Orbital symmetries:
 Alpha Orbitals:
       Occupied  (A') (A') (A') (A') (A') (A') (A') (A') (A') (A')
                 (A') (A') (A") (A') (A') (A") (A') (A") (A') (A')
                 (A") (A') (A") (A') (A') (A") (A")
       Virtual   (A") (A") (A') (A') (A') (A') (A") (A') (A') (A')
                 (A') (A') (A') (A')
 Beta  Orbitals:
       Occupied  (A') (A') (A') (A') (A') (A') (A') (A') (A') (A')
                 (A') (A') (A") (A') (A') (A") (A') (A") (A') (A')
                 (A") (A") (A') (A') (A") (A")
       Virtual   (A') (A") (A') (A") (A') (A') (A') (A") (A') (A')
                 (A') (A') (A') (A') (A')
 The electronic state is 2-A'.
 Alpha  occ. eigenvalues --   -1.49374  -1.27965  -1.25404  -1.18808  -1.18289
 Alpha  occ. eigenvalues --   -1.11015  -1.08879  -0.88035  -0.86155  -0.66464
 Alpha  occ. eigenvalues --   -0.65310  -0.59879  -0.58017  -0.56029  -0.53183
 Alpha  occ. eigenvalues --   -0.49146  -0.48618  -0.46800  -0.45978  -0.45360
 Alpha  occ. eigenvalues --   -0.43450  -0.42912  -0.42889  -0.41541  -0.39135
 Alpha  occ. eigenvalues --   -0.38746  -0.37809
 Alpha virt. eigenvalues --   -0.03040  -0.02381  -0.01772  -0.00662   0.00566
 Alpha virt. eigenvalues --    0.01476   0.05295   0.11104   0.11749   0.12168
 Alpha virt. eigenvalues --    0.12937   0.14210   0.15017   0.16196
  Beta  occ. eigenvalues --   -1.48793  -1.27739  -1.24855  -1.18653  -1.18217
  Beta  occ. eigenvalues --   -1.10789  -1.07959  -0.87268  -0.84222  -0.66190
  Beta  occ. eigenvalues --   -0.64693  -0.58668  -0.57788  -0.55892  -0.51791
  Beta  occ. eigenvalues --   -0.49091  -0.48205  -0.46455  -0.45800  -0.44628
  Beta  occ. eigenvalues --   -0.43379  -0.42738  -0.41665  -0.39110  -0.38483
  Beta  occ. eigenvalues --   -0.37654
  Beta virt. eigenvalues --   -0.03960  -0.03033  -0.01481  -0.01178  -0.00473
  Beta virt. eigenvalues --    0.01123   0.01690   0.06428   0.11292   0.11967
  Beta virt. eigenvalues --    0.12515   0.13558   0.14315   0.16093   0.17251
          Condensed to atoms (all electrons):
               1          2          3          4          5          6
     1  C    3.978806   0.000000   0.000000   0.000000   0.000000   0.000000
     2  C    0.000000   4.140730   0.000000   0.000000   0.000000   0.000000
     3  C    0.000000   0.000000   4.116458   0.000000   0.000000   0.000000
     4  C    0.000000   0.000000   0.000000   4.133419   0.000000   0.000000
     5  C    0.000000   0.000000   0.000000   0.000000   4.124346   0.000000
     6  C    0.000000   0.000000   0.000000   0.000000   0.000000   4.102025
     7  Br   0.000000   0.000000   0.000000   0.000000   0.000000   0.000000
     8  Br   0.000000   0.000000   0.000000   0.000000   0.000000   0.000000
     9  Br   0.000000   0.000000   0.000000   0.000000   0.000000   0.000000
    10  Br   0.000000   0.000000   0.000000   0.000000   0.000000   0.000000
    11  H    0.000000   0.000000   0.000000   0.000000   0.000000   0.000000
               7          8          9         10         11
     1  C    0.000000   0.000000   0.000000   0.000000   0.000000
     2  C    0.000000   0.000000   0.000000   0.000000   0.000000
     3  C    0.000000   0.000000   0.000000   0.000000   0.000000
     4  C    0.000000   0.000000   0.000000   0.000000   0.000000
     5  C    0.000000   0.000000   0.000000   0.000000   0.000000
     6  C    0.000000   0.000000   0.000000   0.000000   0.000000
     7  Br   6.896243   0.000000   0.000000   0.000000   0.000000
     8  Br   0.000000   6.885580   0.000000   0.000000   0.000000
     9  Br   0.000000   0.000000   6.889581   0.000000   0.000000
    10  Br   0.000000   0.000000   0.000000   6.901823   0.000000
    11  H    0.000000   0.000000   0.000000   0.000000   0.830990
          Atomic-Atomic Spin Densities.
               1          2          3          4          5          6
     1  C    1.398695   0.000000   0.000000   0.000000   0.000000   0.000000
     2  C    0.000000  -0.476990   0.000000   0.000000   0.000000   0.000000
     3  C    0.000000   0.000000   0.470943   0.000000   0.000000   0.000000
     4  C    0.000000   0.000000   0.000000  -0.460719   0.000000   0.000000
     5  C    0.000000   0.000000   0.000000   0.000000   0.475710   0.000000
     6  C    0.000000   0.000000   0.000000   0.000000   0.000000  -0.470148
     7  Br   0.000000   0.000000   0.000000   0.000000   0.000000   0.000000
     8  Br   0.000000   0.000000   0.000000   0.000000   0.000000   0.000000
     9  Br   0.000000   0.000000   0.000000   0.000000   0.000000   0.000000
    10  Br   0.000000   0.000000   0.000000   0.000000   0.000000   0.000000
    11  H    0.000000   0.000000   0.000000   0.000000   0.000000   0.000000
               7          8          9         10         11
     1  C    0.000000   0.000000   0.000000   0.000000   0.000000
     2  C    0.000000   0.000000   0.000000   0.000000   0.000000
     3  C    0.000000   0.000000   0.000000   0.000000   0.000000
     4  C    0.000000   0.000000   0.000000   0.000000   0.000000
     5  C    0.000000   0.000000   0.000000   0.000000   0.000000
     6  C    0.000000   0.000000   0.000000   0.000000   0.000000
     7  Br   0.025062   0.000000   0.000000   0.000000   0.000000
     8  Br   0.000000  -0.005639   0.000000   0.000000   0.000000
     9  Br   0.000000   0.000000   0.021155   0.000000   0.000000
    10  Br   0.000000   0.000000   0.000000  -0.006983   0.000000
    11  H    0.000000   0.000000   0.000000   0.000000   0.028914
 Mulliken charges and spin densities:
               1          2
     1  C    0.021194   1.398695
     2  C   -0.140730  -0.476990
     3  C   -0.116458   0.470943
     4  C   -0.133419  -0.460719
     5  C   -0.124346   0.475710
     6  C   -0.102025  -0.470148
     7  Br   0.103757   0.025062
     8  Br   0.114420  -0.005639
     9  Br   0.110419   0.021155
    10  Br   0.098177  -0.006983
    11  H    0.169010   0.028914
 Sum of Mulliken charges =  -0.00000   1.00000
 Mulliken charges and spin densities with hydrogens summed into heavy atoms:
               1          2
     1  C    0.021194   1.398695
     2  C   -0.140730  -0.476990
     3  C   -0.116458   0.470943
     4  C   -0.133419  -0.460719
     5  C   -0.124346   0.475710
     6  C    0.066985  -0.441234
     7  Br   0.103757   0.025062
     8  Br   0.114420  -0.005639
     9  Br   0.110419   0.021155
    10  Br   0.098177  -0.006983
 Charge=              0.0000 electrons
 Dipole moment (field-independent basis, Debye):
    X=              0.6066    Y=             -0.5010    Z=             -0.0000  Tot=              0.7867
 N-N= 2.879549129087D+02 E-N=-4.079536585807D+02  KE=-1.298709577351D+02
 Symmetry A'   KE=-9.875667811292D+01
 Symmetry A"   KE=-3.111427962214D+01
 Symmetry A'   SP= 1.000000000000D+00
 Symmetry A"   SP= 0.000000000000D+00
 Calling FoFJK, ICntrl=      2127 FMM=F ISym2X=1 I1Cent= 0 IOpClX= 1 NMat=1 NMatS=1 NMatT=0.
 ***** Axes restored to original set *****
 -------------------------------------------------------------------
 Center     Atomic                   Forces (Hartrees/Bohr)
 Number     Number              X              Y              Z
 -------------------------------------------------------------------
      1        6          -0.000358327   -0.051706921    0.000000000
      2        6           0.022015305    0.047944059   -0.000000000
      3        6           0.026429668   -0.015752602   -0.000000000
      4        6           0.000293849   -0.034811088   -0.000000000
      5        6          -0.023521979   -0.012228509   -0.000000000
      6        6           0.003447182    0.032795663   -0.000000000
      7       35          -0.013525774   -0.004489017    0.000000000
      8       35          -0.011551802    0.006944063    0.000000000
      9       35           0.000179926    0.013307223    0.000000000
     10       35           0.010476344    0.008366749   -0.000000000
     11        1          -0.013884392    0.009630379    0.000000000
 -------------------------------------------------------------------
 Cartesian Forces:  Max     0.051706921 RMS     0.017780669

 GradGradGradGradGradGradGradGradGradGradGradGradGradGradGradGradGradGrad
 Berny optimization.
 FormGI is forming the generalized inverse of G from B-inverse, IUseBI=4.
 Internal  Forces:  Max     0.038182100 RMS     0.010911520
 Search for a local minimum.
 Step number   1 out of a maximum of   57
 All quantities printed in internal units (Hartrees-Bohrs-Radians)
 Mixed Optimization -- RFO/linear search
 Second derivative matrix not updated -- first step.
 ITU=  0
     Eigenvalues ---    0.02221   0.02221   0.02221   0.02221   0.02221
     Eigenvalues ---    0.02221   0.02221   0.02221   0.16000   0.18251
     Eigenvalues ---    0.18251   0.18251   0.18251   0.23354   0.25000
     Eigenvalues ---    0.25000   0.25000   0.25000   0.25000   0.25000
     Eigenvalues ---    0.35994   0.43205   0.43763   0.47319   0.47319
     Eigenvalues ---    0.47319   0.47319
 RFO step:  Lambda=-1.77389427D-02 EMin= 2.22103665D-02
 Linear search not attempted -- first point.
 Iteration  1 RMS(Cart)=  0.04133473 RMS(Int)=  0.00141945
 Iteration  2 RMS(Cart)=  0.00210931 RMS(Int)=  0.00040109
 Iteration  3 RMS(Cart)=  0.00000098 RMS(Int)=  0.00040109
 ClnCor:  largest displacement from symmetrization is 3.31D-10 for atom     7.
 Variable       Old X    -DE/DX   Delta X   Delta X   Delta X     New X
                                 (Linear)    (Quad)   (Total)
    R1        2.62672  -0.01206   0.00000  -0.02758  -0.02700   2.59972
    R2        2.62672  -0.01373   0.00000  -0.03057  -0.03000   2.59672
    R3        2.62672   0.01896   0.00000   0.03821   0.03823   2.66495
    R4        3.59048  -0.01396   0.00000  -0.06970  -0.06970   3.52078
    R5        2.62672   0.02512   0.00000   0.05378   0.05323   2.67995
    R6        3.59048  -0.01348   0.00000  -0.06730  -0.06730   3.52318
    R7        2.62672   0.02614   0.00000   0.05625   0.05569   2.68241
    R8        3.59048  -0.01331   0.00000  -0.06645  -0.06645   3.52403
    R9        2.62672   0.01522   0.00000   0.03140   0.03138   2.65810
   R10        3.59048  -0.01326   0.00000  -0.06620  -0.06620   3.52428
   R11        2.04090   0.01684   0.00000   0.04459   0.04459   2.08549
    A1        2.09440   0.03818   0.00000   0.13007   0.13155   2.22595
    A2        2.09440  -0.01533   0.00000  -0.06153  -0.06101   2.03339
    A3        2.09440   0.00250   0.00000   0.01149   0.01122   2.10562
    A4        2.09440   0.01283   0.00000   0.05004   0.04978   2.14418
    A5        2.09440  -0.00457   0.00000  -0.01093  -0.01154   2.08285
    A6        2.09440   0.00186   0.00000   0.00387   0.00418   2.09857
    A7        2.09440   0.00271   0.00000   0.00706   0.00737   2.10176
    A8        2.09440  -0.00019   0.00000   0.01175   0.01055   2.10494
    A9        2.09440  -0.00023   0.00000  -0.00708  -0.00648   2.08791
   A10        2.09440   0.00042   0.00000  -0.00467  -0.00407   2.09033
   A11        2.09440  -0.00147   0.00000   0.00290   0.00224   2.09664
   A12        2.09440   0.00434   0.00000   0.01201   0.01234   2.10674
   A13        2.09440  -0.00287   0.00000  -0.01491  -0.01458   2.07981
   A14        2.09440  -0.01664   0.00000  -0.07226  -0.07179   2.02260
   A15        2.09440   0.00689   0.00000   0.02810   0.02787   2.12227
   A16        2.09440   0.00975   0.00000   0.04416   0.04392   2.13832
    D1        0.00000  -0.00000   0.00000  -0.00000  -0.00000   0.00000
    D2        3.14159   0.00000   0.00000   0.00000   0.00000   3.14159
    D3       -0.00000   0.00000   0.00000   0.00000   0.00000   0.00000
    D4        3.14159  -0.00000   0.00000  -0.00000   0.00000   3.14159
    D5       -0.00000   0.00000   0.00000   0.00000   0.00000   0.00000
    D6        3.14159   0.00000   0.00000   0.00000   0.00000   3.14159
    D7        3.14159  -0.00000   0.00000  -0.00000   0.00000   3.14159
    D8       -0.00000   0.00000   0.00000   0.00000   0.00000   0.00000
    D9        0.00000  -0.00000   0.00000  -0.00000   0.00000   0.00000
   D10        3.14159   0.00000   0.00000   0.00000   0.00000   3.14159
   D11        3.14159  -0.00000   0.00000  -0.00000   0.00000   3.14159
   D12        0.00000   0.00000   0.00000   0.00000   0.00000   0.00000
   D13       -0.00000  -0.00000   0.00000  -0.00000   0.00000   0.00000
   D14        3.14159   0.00000   0.00000   0.00000   0.00000   3.14159
   D15        3.14159  -0.00000   0.00000  -0.00000   0.00000   3.14159
   D16        0.00000  -0.00000   0.00000  -0.00000  -0.00000   0.00000
   D17        0.00000   0.00000   0.00000   0.00000  -0.00000   0.00000
   D18        3.14159   0.00000   0.00000   0.00000   0.00000   3.14159
   D19        3.14159  -0.00000   0.00000  -0.00000   0.00000   3.14159
   D20       -0.00000   0.00000   0.00000   0.00000   0.00000   0.00000
         Item               Value     Threshold  Converged?
 Maximum Force            0.038182     0.000450     NO 
 RMS     Force            0.010912     0.000300     NO 
 Maximum Displacement     0.162392     0.001800     NO 
 RMS     Displacement     0.041431     0.001200     NO 
 Predicted change in Energy=-9.441031D-03
 GradGradGradGradGradGradGradGradGradGradGradGradGradGradGradGradGradGrad

                          Input orientation:                          
 ---------------------------------------------------------------------
 Center     Atomic      Atomic             Coordinates (Angstroms)
 Number     Number       Type             X           Y           Z
 ---------------------------------------------------------------------
      1          6           0        0.010136    1.304066   -0.000000
      2          6           0        1.241779    0.691166   -0.000000
      3          6           0        1.242969   -0.719065   -0.000000
      4          6           0        0.007282   -1.414969    0.000000
      5          6           0       -1.221907   -0.705051    0.000000
      6          6           0       -1.224850    0.701551    0.000000
      7         35           0        2.806074    1.703181   -0.000000
      8         35           0        2.854461   -1.656634   -0.000000
      9         35           0       -0.000584   -3.279787    0.000000
     10         35           0       -2.848539   -1.617290    0.000000
     11          1           0       -2.156680    1.292832    0.000000
 ---------------------------------------------------------------------
                    Distance matrix (angstroms):
                    1          2          3          4          5
     1  C    0.000000
     2  C    1.375714   0.000000
     3  C    2.369163   1.410231   0.000000
     4  C    2.719037   2.441268   1.418170   0.000000
     5  C    2.356795   2.831814   2.464916   1.419468   0.000000
     6  C    1.374124   2.466651   2.847504   2.449042   1.406605
     7  Br   2.824280   1.863114   2.882806   4.190000   4.692996
     8  Br   4.105597   2.848317   1.864388   2.857417   4.185963
     9  Br   4.583865   4.160761   2.846704   1.864834   2.849718
    10  Br   4.087340   4.696772   4.188943   2.862978   1.864969
    11  H    2.166845   3.451307   3.950360   3.466254   2.205751
                    6          7          8          9         10
     6  C    0.000000
     7  Br   4.153506   0.000000
     8  Br   4.711880   3.360164   0.000000
     9  Br   4.165318   5.719029   3.284190   0.000000
    10  Br   2.830793   6.557452   5.703135   3.297687   0.000000
    11  H    1.103594   4.979690   5.814712   5.055452   2.991234
                   11
    11  H    0.000000
 Stoichiometry    C6HBr4(2)
 Framework group  CS[SG(C6HBr4)]
 Deg. of freedom    19
 Full point group                 CS      NOp   2
 Largest Abelian subgroup         CS      NOp   2
 Largest concise Abelian subgroup C1      NOp   1
                         Standard orientation:                         
 ---------------------------------------------------------------------
 Center     Atomic      Atomic             Coordinates (Angstroms)
 Number     Number       Type             X           Y           Z
 ---------------------------------------------------------------------
      1          6           0        2.068531    1.057745   -0.000000
      2          6           0        0.803450    1.598263   -0.000000
      3          6           0       -0.271127    0.685008   -0.000000
      4          6           0        0.000000   -0.707004    0.000000
      5          6           0        1.337364   -1.182763    0.000000
      6          6           0        2.410314   -0.273194    0.000000
      7         35           0        0.560007    3.445404   -0.000000
      8         35           0       -2.029656    1.304295   -0.000000
      9         35           0       -1.414847   -1.921834    0.000000
     10         35           0        1.697189   -3.012691    0.000000
     11          1           0        3.464585   -0.599437    0.000000
 ---------------------------------------------------------------------
 Rotational constants (GHZ):           0.5908998           0.2302176           0.1656713
 Standard basis: VSTO-6G (5D, 7F)
 There are    31 symmetry adapted cartesian basis functions of A'  symmetry.
 There are    10 symmetry adapted cartesian basis functions of A"  symmetry.
 There are    31 symmetry adapted basis functions of A'  symmetry.
 There are    10 symmetry adapted basis functions of A"  symmetry.
    41 basis functions,   246 primitive gaussians,    41 cartesian basis functions
    27 alpha electrons       26 beta electrons
       nuclear repulsion energy       288.0285565535 Hartrees.
 Integral buffers will be    131072 words long.
 Regular integral format.
 Two-electron integral symmetry is turned off.
 Do NDO integrals.
 One-electron integrals computed using PRISM.
 NBasis=    41 RedAO= T EigKep=  1.00D+00  NBF=    31    10
 NBsUse=    41 1.00D-06 EigRej= -1.00D+00 NBFU=    31    10
 Initial guess from the checkpoint file:  "calcs/am1/chks/BrPh_2345_rad.chk"
 B after Tr=     0.000000   -0.000000    0.000000
         Rot=    0.996013   -0.000000    0.000000   -0.089206 Ang= -10.24 deg.
 Initial guess orbital symmetries:
 Alpha Orbitals:
       Occupied  (A') (A') (A') (A') (A') (A') (A') (A') (A') (A')
                 (A') (A') (A") (A') (A') (A") (A') (A") (A') (A')
                 (A") (A') (A") (A') (A') (A") (A")
       Virtual   (A") (A") (A') (A') (A') (A') (A") (A') (A') (A')
                 (A') (A') (A') (A')
 Beta  Orbitals:
       Occupied  (A') (A') (A') (A') (A') (A') (A') (A') (A') (A')
                 (A') (A') (A") (A') (A') (A") (A') (A") (A') (A')
                 (A") (A") (A') (A') (A") (A")
       Virtual   (A') (A") (A') (A") (A') (A') (A') (A") (A') (A')
                 (A') (A') (A') (A') (A')
 Initial guess <Sx>= 0.0000 <Sy>= 0.0000 <Sz>= 0.5000 <S**2>= 1.2455 S= 0.7229
 Keep J ints in memory in canonical form, NReq=864464.
 Overlap will be assumed to be unity.
 Requested convergence on RMS density matrix=1.00D-08 within  32 cycles.
 Requested convergence on MAX density matrix=1.00D-06.
 Requested convergence on             energy=1.00D-06.
 No special actions if energy rises.
 Fock symm off for IB=2 I1=    1 I=   32 J=    8 Cut=1.00D-07 Err=1.98D-03
 Fock matrix is not symmetric: symmetry in diagonalization turned off.
 SCF Done:  E(UAM1) =  0.153247334470     A.U. after   18 cycles
            NFock= 17  Conv=0.28D-08     -V/T= 1.0012
 <Sx>= 0.0000 <Sy>= 0.0000 <Sz>= 0.5000 <S**2>= 1.3291 S= 0.7566
 <L.S>=  0.00000000000    
 Annihilation of the first spin contaminant:
 S**2 before annihilation     1.3291,   after     1.0532
 QCSCF skips out because SCF is already converged.
 Calling FoFJK, ICntrl=      2127 FMM=F ISym2X=1 I1Cent= 0 IOpClX= 1 NMat=1 NMatS=1 NMatT=0.
 ***** Axes restored to original set *****
 -------------------------------------------------------------------
 Center     Atomic                   Forces (Hartrees/Bohr)
 Number     Number              X              Y              Z
 -------------------------------------------------------------------
      1        6          -0.002520185   -0.013486464    0.000000000
      2        6           0.006042673    0.011553554   -0.000000000
      3        6          -0.005085570   -0.007428661   -0.000000000
      4        6          -0.000886246    0.006354803   -0.000000000
      5        6           0.004429186   -0.006979176   -0.000000000
      6        6           0.000237610    0.010250945   -0.000000000
      7       35          -0.003111973   -0.002233951    0.000000000
      8       35          -0.001845972    0.001759328    0.000000000
      9       35          -0.000215655    0.001585072    0.000000000
     10       35           0.000939545    0.000457095    0.000000000
     11        1           0.002016587   -0.001832544    0.000000000
 -------------------------------------------------------------------
 Cartesian Forces:  Max     0.013486464 RMS     0.004559936

 GradGradGradGradGradGradGradGradGradGradGradGradGradGradGradGradGradGrad
 Berny optimization.
 Using GEDIIS/GDIIS optimizer.
 FormGI is forming the generalized inverse of G from B-inverse, IUseBI=4.
 Internal  Forces:  Max     0.006613789 RMS     0.002359307
 Search for a local minimum.
 Step number   2 out of a maximum of   57
 All quantities printed in internal units (Hartrees-Bohrs-Radians)
 Mixed Optimization -- RFO/linear search
 Update second derivatives using D2CorX and points    1    2
 DE= -9.75D-03 DEPred=-9.44D-03 R= 1.03D+00
 TightC=F SS=  1.41D+00  RLast= 2.50D-01 DXNew= 5.0454D-01 7.4952D-01
 Trust test= 1.03D+00 RLast= 2.50D-01 DXMaxT set to 5.05D-01
 ITU=  1  0
 Use linear search instead of GDIIS.
     Eigenvalues ---    0.02221   0.02221   0.02221   0.02221   0.02221
     Eigenvalues ---    0.02221   0.02221   0.02221   0.16003   0.17131
     Eigenvalues ---    0.18251   0.18251   0.18371   0.21573   0.24288
     Eigenvalues ---    0.25000   0.25000   0.25000   0.25000   0.25168
     Eigenvalues ---    0.36552   0.43263   0.43913   0.46756   0.47319
     Eigenvalues ---    0.47319   0.52281
 RFO step:  Lambda=-7.92952164D-04 EMin= 2.22103665D-02
 Quartic linear search produced a step of  0.13821.
 Iteration  1 RMS(Cart)=  0.00979569 RMS(Int)=  0.00012637
 Iteration  2 RMS(Cart)=  0.00014340 RMS(Int)=  0.00008706
 Iteration  3 RMS(Cart)=  0.00000000 RMS(Int)=  0.00008706
 ClnCor:  largest displacement from symmetrization is 6.43D-11 for atom     9.
 Variable       Old X    -DE/DX   Delta X   Delta X   Delta X     New X
                                 (Linear)    (Quad)   (Total)
    R1        2.59972  -0.00373  -0.00373  -0.00621  -0.00981   2.58992
    R2        2.59672  -0.00582  -0.00415  -0.01094  -0.01497   2.58175
    R3        2.66495   0.00242   0.00528   0.00213   0.00743   2.67238
    R4        3.52078  -0.00383  -0.00963  -0.01691  -0.02654   3.49423
    R5        2.67995  -0.00444   0.00736  -0.01591  -0.00866   2.67129
    R6        3.52318  -0.00248  -0.00930  -0.00879  -0.01809   3.50509
    R7        2.68241  -0.00613   0.00770  -0.02024  -0.01267   2.66974
    R8        3.52403  -0.00158  -0.00918  -0.00331  -0.01249   3.51153
    R9        2.65810   0.00183   0.00434   0.00131   0.00563   2.66373
   R10        3.52428  -0.00104  -0.00915   0.00002  -0.00913   3.51516
   R11        2.08549  -0.00268   0.00616  -0.01281  -0.00664   2.07885
    A1        2.22595   0.00661   0.01818   0.01781   0.03630   2.26225
    A2        2.03339  -0.00550  -0.00843  -0.01850  -0.02680   2.00659
    A3        2.10562   0.00308   0.00155   0.01261   0.01410   2.11972
    A4        2.14418   0.00242   0.00688   0.00589   0.01270   2.15688
    A5        2.08285   0.00054  -0.00160   0.00379   0.00208   2.08494
    A6        2.09857  -0.00131   0.00058  -0.00648  -0.00584   2.09273
    A7        2.10176   0.00077   0.00102   0.00268   0.00376   2.10552
    A8        2.10494   0.00229   0.00146   0.00938   0.01058   2.11552
    A9        2.08791  -0.00075  -0.00090  -0.00279  -0.00356   2.08435
   A10        2.09033  -0.00154  -0.00056  -0.00658  -0.00702   2.08331
   A11        2.09664  -0.00089   0.00031  -0.00416  -0.00401   2.09262
   A12        2.10674   0.00034   0.00171   0.00028   0.00207   2.10880
   A13        2.07981   0.00055  -0.00202   0.00388   0.00195   2.08176
   A14        2.02260  -0.00305  -0.00992  -0.00832  -0.01815   2.00445
   A15        2.12227   0.00201   0.00385   0.00839   0.01220   2.13447
   A16        2.13832   0.00104   0.00607  -0.00008   0.00595   2.14427
    D1        0.00000  -0.00000   0.00000  -0.00000   0.00000   0.00000
    D2        3.14159   0.00000   0.00000   0.00000   0.00000   3.14159
    D3       -0.00000   0.00000   0.00000   0.00000   0.00000   0.00000
    D4        3.14159  -0.00000   0.00000  -0.00000   0.00000   3.14159
    D5       -0.00000  -0.00000   0.00000  -0.00000   0.00000   0.00000
    D6        3.14159   0.00000   0.00000   0.00000   0.00000   3.14159
    D7        3.14159  -0.00000   0.00000  -0.00000   0.00000   3.14159
    D8        0.00000  -0.00000   0.00000  -0.00000   0.00000   0.00000
    D9        0.00000   0.00000   0.00000   0.00000   0.00000   0.00000
   D10        3.14159   0.00000   0.00000   0.00000   0.00000   3.14159
   D11        3.14159  -0.00000   0.00000  -0.00000   0.00000   3.14159
   D12       -0.00000   0.00000   0.00000   0.00000   0.00000   0.00000
   D13        0.00000  -0.00000   0.00000  -0.00000  -0.00000   0.00000
   D14        3.14159   0.00000   0.00000   0.00000   0.00000   3.14159
   D15        3.14159  -0.00000   0.00000  -0.00000   0.00000   3.14159
   D16        0.00000  -0.00000   0.00000  -0.00000   0.00000   0.00000
   D17       -0.00000  -0.00000   0.00000  -0.00000   0.00000   0.00000
   D18        3.14159   0.00000   0.00000   0.00000   0.00000   3.14159
   D19        3.14159  -0.00000   0.00000  -0.00000   0.00000   3.14159
   D20       -0.00000   0.00000   0.00000   0.00000   0.00000   0.00000
         Item               Value     Threshold  Converged?
 Maximum Force            0.006614     0.000450     NO 
 RMS     Force            0.002359     0.000300     NO 
 Maximum Displacement     0.044642     0.001800     NO 
 RMS     Displacement     0.009809     0.001200     NO 
 Predicted change in Energy=-5.192055D-04
 GradGradGradGradGradGradGradGradGradGradGradGradGradGradGradGradGradGrad

                          Input orientation:                          
 ---------------------------------------------------------------------
 Center     Atomic      Atomic             Coordinates (Angstroms)
 Number     Number       Type             X           Y           Z
 ---------------------------------------------------------------------
      1          6           0        0.012384    1.280442   -0.000000
      2          6           0        1.250984    0.693751   -0.000000
      3          6           0        1.241687   -0.720382   -0.000000
      4          6           0        0.006313   -1.407457    0.000000
      5          6           0       -1.220760   -0.707317    0.000000
      6          6           0       -1.225444    0.702261    0.000000
      7         35           0        2.798158    1.706325   -0.000000
      8         35           0        2.843431   -1.655665   -0.000000
      9         35           0       -0.004820   -3.265646    0.000000
     10         35           0       -2.840279   -1.622348    0.000000
     11          1           0       -2.151513    1.296036    0.000000
 ---------------------------------------------------------------------
                    Distance matrix (angstroms):
                    1          2          3          4          5
     1  C    0.000000
     2  C    1.370525   0.000000
     3  C    2.348295   1.414163   0.000000
     4  C    2.687906   2.442187   1.413585   0.000000
     5  C    2.339195   2.841216   2.462482   1.412764   0.000000
     6  C    1.366203   2.476443   2.847921   2.442977   1.409586
     7  Br   2.818140   1.849069   2.882969   4.182109   4.688003
     8  Br   4.078671   2.838246   1.854815   2.847955   4.173369
     9  Br   4.546121   4.153777   2.834105   1.858223   2.832588
    10  Br   4.069874   4.701355   4.180429   2.854691   1.860140
    11  H    2.163953   3.455392   3.947120   3.459058   2.209010
                    6          7          8          9         10
     6  C    0.000000
     7  Br   4.146989   0.000000
     8  Br   4.702719   3.362295   0.000000
     9  Br   4.151411   5.707643   3.271784   0.000000
    10  Br   2.830459   6.547674   5.683807   3.277233   0.000000
    11  H    1.100078   4.966647   5.801897   5.041551   2.998560
                   11
    11  H    0.000000
 Stoichiometry    C6HBr4(2)
 Framework group  CS[SG(C6HBr4)]
 Deg. of freedom    19
 Full point group                 CS      NOp   2
 Largest Abelian subgroup         CS      NOp   2
 Largest concise Abelian subgroup C1      NOp   1
                         Standard orientation:                         
 ---------------------------------------------------------------------
 Center     Atomic      Atomic             Coordinates (Angstroms)
 Number     Number       Type             X           Y           Z
 ---------------------------------------------------------------------
      1          6           0        2.050409    1.035756    0.000000
      2          6           0        0.803263    1.604057    0.000000
      3          6           0       -0.271544    0.685010   -0.000000
      4          6           0       -0.000000   -0.702249    0.000000
      5          6           0        1.326418   -1.188579    0.000000
      6          6           0        2.406760   -0.283154    0.000000
      7         35           0        0.579422    3.439527    0.000000
      8         35           0       -2.019296    1.306057   -0.000000
      9         35           0       -1.413009   -1.909062   -0.000000
     10         35           0        1.671464   -3.016437    0.000000
     11          1           0        3.457775   -0.608024    0.000000
 ---------------------------------------------------------------------
 Rotational constants (GHZ):           0.5958683           0.2310865           0.1665111
 Standard basis: VSTO-6G (5D, 7F)
 There are    31 symmetry adapted cartesian basis functions of A'  symmetry.
 There are    10 symmetry adapted cartesian basis functions of A"  symmetry.
 There are    31 symmetry adapted basis functions of A'  symmetry.
 There are    10 symmetry adapted basis functions of A"  symmetry.
    41 basis functions,   246 primitive gaussians,    41 cartesian basis functions
    27 alpha electrons       26 beta electrons
       nuclear repulsion energy       288.5592678528 Hartrees.
 Integral buffers will be    131072 words long.
 Regular integral format.
 Two-electron integral symmetry is turned off.
 Do NDO integrals.
 One-electron integrals computed using PRISM.
 NBasis=    41 RedAO= T EigKep=  1.00D+00  NBF=    31    10
 NBsUse=    41 1.00D-06 EigRej= -1.00D+00 NBFU=    31    10
 Initial guess from the checkpoint file:  "calcs/am1/chks/BrPh_2345_rad.chk"
 B after Tr=     0.000000   -0.000000    0.000000
         Rot=    0.999997    0.000000    0.000000    0.002532 Ang=   0.29 deg.
 Initial guess orbital symmetries:
 Alpha Orbitals:
       Occupied  (A') (A') (A') (A') (A') (A') (A') (A') (A') (A')
                 (A') (A') (A") (A') (A') (A") (A') (A") (A') (A')
                 (A") (A") (A') (A') (A') (A") (A")
       Virtual   (A") (A") (A') (A') (A') (A') (A") (A') (A') (A')
                 (A') (A') (A') (A')
 Beta  Orbitals:
       Occupied  (A') (A') (A') (A') (A') (A') (A') (A') (A') (A')
                 (A') (A') (A") (A') (A') (A") (A') (A") (A') (A')
                 (A") (A") (A') (A') (A") (A")
       Virtual   (A') (A") (A") (A') (A') (A') (A') (A") (A') (A')
                 (A') (A') (A') (A') (A')
 Initial guess <Sx>= 0.0000 <Sy>= 0.0000 <Sz>= 0.5000 <S**2>= 1.3291 S= 0.7566
 Keep J ints in memory in canonical form, NReq=864464.
 Overlap will be assumed to be unity.
 Requested convergence on RMS density matrix=1.00D-08 within  32 cycles.
 Requested convergence on MAX density matrix=1.00D-06.
 Requested convergence on             energy=1.00D-06.
 No special actions if energy rises.
 Fock symm off for IB=2 I1=    1 I=   32 J=    8 Cut=1.00D-07 Err=5.20D-04
 Fock matrix is not symmetric: symmetry in diagonalization turned off.
 SCF Done:  E(UAM1) =  0.152760770851     A.U. after   16 cycles
            NFock= 15  Conv=0.59D-08     -V/T= 1.0012
 <Sx>= 0.0000 <Sy>= 0.0000 <Sz>= 0.5000 <S**2>= 1.3149 S= 0.7510
 <L.S>=  0.00000000000    
 Annihilation of the first spin contaminant:
 S**2 before annihilation     1.3149,   after     1.0375
 QCSCF skips out because SCF is already converged.
 Calling FoFJK, ICntrl=      2127 FMM=F ISym2X=1 I1Cent= 0 IOpClX= 1 NMat=1 NMatS=1 NMatT=0.
 ***** Axes restored to original set *****
 -------------------------------------------------------------------
 Center     Atomic                   Forces (Hartrees/Bohr)
 Number     Number              X              Y              Z
 -------------------------------------------------------------------
      1        6          -0.000902724    0.001091386   -0.000000000
      2        6           0.002501528    0.002972433   -0.000000000
      3        6          -0.001084804   -0.002629126   -0.000000000
      4        6           0.000418880    0.002190276    0.000000000
      5        6          -0.001072718   -0.002418032    0.000000000
      6        6          -0.001915054    0.003220452    0.000000000
      7       35           0.000776266    0.000040892    0.000000000
      8       35           0.002035943   -0.000549256    0.000000000
      9       35           0.000128500   -0.002938385    0.000000000
     10       35          -0.001281929   -0.000216722    0.000000000
     11        1           0.000396113   -0.000763918    0.000000000
 -------------------------------------------------------------------
 Cartesian Forces:  Max     0.003220452 RMS     0.001428388

 GradGradGradGradGradGradGradGradGradGradGradGradGradGradGradGradGradGrad
 Berny optimization.
 Using GEDIIS/GDIIS optimizer.
 FormGI is forming the generalized inverse of G from B-inverse, IUseBI=4.
 Internal  Forces:  Max     0.003461255 RMS     0.001125145
 Search for a local minimum.
 Step number   3 out of a maximum of   57
 All quantities printed in internal units (Hartrees-Bohrs-Radians)
 Mixed Optimization -- RFO/linear search
 Update second derivatives using D2CorX and points    1    2    3
 DE= -4.87D-04 DEPred=-5.19D-04 R= 9.37D-01
 TightC=F SS=  1.41D+00  RLast= 7.15D-02 DXNew= 8.4853D-01 2.1463D-01
 Trust test= 9.37D-01 RLast= 7.15D-02 DXMaxT set to 5.05D-01
 ITU=  1  1  0
 Use linear search instead of GDIIS.
     Eigenvalues ---    0.02221   0.02221   0.02221   0.02221   0.02221
     Eigenvalues ---    0.02221   0.02221   0.02221   0.14710   0.16315
     Eigenvalues ---    0.18251   0.18294   0.19345   0.20794   0.24201
     Eigenvalues ---    0.25000   0.25000   0.25000   0.25133   0.26009
     Eigenvalues ---    0.36564   0.42979   0.44122   0.46713   0.47319
     Eigenvalues ---    0.47351   0.59616
 RFO step:  Lambda=-1.52569035D-04 EMin= 2.22103665D-02
 Quartic linear search produced a step of -0.08184.
 Iteration  1 RMS(Cart)=  0.00430131 RMS(Int)=  0.00000531
 Iteration  2 RMS(Cart)=  0.00000756 RMS(Int)=  0.00000162
 Iteration  3 RMS(Cart)=  0.00000000 RMS(Int)=  0.00000162
 ClnCor:  largest displacement from symmetrization is 1.11D-11 for atom     7.
 Variable       Old X    -DE/DX   Delta X   Delta X   Delta X     New X
                                 (Linear)    (Quad)   (Total)
    R1        2.58992   0.00258   0.00080   0.00293   0.00374   2.59365
    R2        2.58175   0.00185   0.00122   0.00043   0.00166   2.58341
    R3        2.67238   0.00346  -0.00061   0.00846   0.00786   2.68024
    R4        3.49423   0.00067   0.00217  -0.00236  -0.00019   3.49404
    R5        2.67129   0.00152   0.00071   0.00147   0.00218   2.67346
    R6        3.50509   0.00204   0.00148   0.00623   0.00771   3.51281
    R7        2.66974   0.00209   0.00104   0.00173   0.00277   2.67251
    R8        3.51153   0.00294   0.00102   0.01192   0.01294   3.52448
    R9        2.66373   0.00310  -0.00046   0.00731   0.00685   2.67058
   R10        3.51516   0.00122   0.00075   0.00397   0.00471   3.51987
   R11        2.07885  -0.00075   0.00054  -0.00302  -0.00248   2.07637
    A1        2.26225   0.00023  -0.00297   0.00910   0.00613   2.26838
    A2        2.00659  -0.00065   0.00219  -0.00798  -0.00579   2.00080
    A3        2.11972   0.00101  -0.00115   0.00655   0.00539   2.12511
    A4        2.15688  -0.00036  -0.00104   0.00144   0.00040   2.15728
    A5        2.08494   0.00026  -0.00017   0.00130   0.00113   2.08606
    A6        2.09273  -0.00110   0.00048  -0.00519  -0.00471   2.08802
    A7        2.10552   0.00084  -0.00031   0.00390   0.00359   2.10910
    A8        2.11552   0.00038  -0.00087   0.00342   0.00256   2.11808
    A9        2.08435  -0.00045   0.00029  -0.00231  -0.00202   2.08233
   A10        2.08331   0.00006   0.00057  -0.00111  -0.00054   2.08277
   A11        2.09262  -0.00043   0.00033  -0.00258  -0.00225   2.09038
   A12        2.10880   0.00099  -0.00017   0.00423   0.00406   2.11286
   A13        2.08176  -0.00056  -0.00016  -0.00165  -0.00181   2.07995
   A14        2.00445   0.00020   0.00149  -0.00326  -0.00178   2.00267
   A15        2.13447   0.00035  -0.00100   0.00479   0.00379   2.13826
   A16        2.14427  -0.00055  -0.00049  -0.00153  -0.00201   2.14225
    D1        0.00000   0.00000   0.00000   0.00000  -0.00000   0.00000
    D2        3.14159   0.00000   0.00000   0.00000   0.00000   3.14159
    D3       -0.00000  -0.00000   0.00000  -0.00000   0.00000   0.00000
    D4        3.14159  -0.00000   0.00000  -0.00000   0.00000   3.14159
    D5       -0.00000   0.00000   0.00000   0.00000   0.00000   0.00000
    D6        3.14159   0.00000   0.00000   0.00000   0.00000   3.14159
    D7        3.14159  -0.00000   0.00000  -0.00000   0.00000   3.14159
    D8        0.00000   0.00000   0.00000  -0.00000  -0.00000   0.00000
    D9        0.00000  -0.00000   0.00000  -0.00000  -0.00000   0.00000
   D10        3.14159  -0.00000   0.00000  -0.00000   0.00000   3.14159
   D11        3.14159  -0.00000   0.00000  -0.00000   0.00000   3.14159
   D12       -0.00000  -0.00000   0.00000  -0.00000   0.00000   0.00000
   D13       -0.00000   0.00000   0.00000   0.00000   0.00000   0.00000
   D14        3.14159   0.00000   0.00000   0.00000   0.00000   3.14159
   D15        3.14159  -0.00000   0.00000  -0.00000   0.00000   3.14159
   D16        0.00000   0.00000   0.00000   0.00000   0.00000   0.00000
   D17        0.00000   0.00000   0.00000   0.00000  -0.00000   0.00000
   D18        3.14159   0.00000   0.00000   0.00000   0.00000   3.14159
   D19        3.14159   0.00000   0.00000   0.00000   0.00000   3.14159
   D20       -0.00000   0.00000   0.00000   0.00000   0.00000   0.00000
         Item               Value     Threshold  Converged?
 Maximum Force            0.003461     0.000450     NO 
 RMS     Force            0.001125     0.000300     NO 
 Maximum Displacement     0.014565     0.001800     NO 
 RMS     Displacement     0.004301     0.001200     NO 
 Predicted change in Energy=-8.016108D-05
 GradGradGradGradGradGradGradGradGradGradGradGradGradGradGradGradGradGrad

                          Input orientation:                          
 ---------------------------------------------------------------------
 Center     Atomic      Atomic             Coordinates (Angstroms)
 Number     Number       Type             X           Y           Z
 ---------------------------------------------------------------------
      1          6           0        0.011954    1.280081   -0.000000
      2          6           0        1.254555    0.697242   -0.000000
      3          6           0        1.242386   -0.721025   -0.000000
      4          6           0        0.005402   -1.407573    0.000000
      5          6           0       -1.224122   -0.708772    0.000000
      6          6           0       -1.228020    0.704432    0.000000
      7         35           0        2.803271    1.707272   -0.000000
      8         35           0        2.850187   -1.654017   -0.000000
      9         35           0       -0.003642   -3.272624    0.000000
     10         35           0       -2.847986   -1.621173    0.000000
     11          1           0       -2.153844    1.296158    0.000000
 ---------------------------------------------------------------------
                    Distance matrix (angstroms):
                    1          2          3          4          5
     1  C    0.000000
     2  C    1.372501   0.000000
     3  C    2.349126   1.418320   0.000000
     4  C    2.687663   2.447577   1.414737   0.000000
     5  C    2.341671   2.849688   2.466539   1.414232   0.000000
     6  C    1.367080   2.482585   2.852163   2.445791   1.413209
     7  Br   2.823817   1.848967   2.886692   4.186924   4.696505
     8  Br   4.082218   2.841560   1.858897   2.855441   4.182522
     9  Br   4.552732   4.164481   2.839585   1.865073   2.839526
    10  Br   4.073884   4.712313   4.188247   2.861371   1.862635
    11  H    2.165858   3.460620   3.950115   3.460131   2.210006
                    6          7          8          9         10
     6  C    0.000000
     7  Br   4.154153   0.000000
     8  Br   4.711056   3.361617   0.000000
     9  Br   4.161258   5.716479   3.280889   0.000000
    10  Br   2.834207   6.558601   5.698268   3.289009   0.000000
    11  H    1.098768   4.974133   5.808947   5.049469   2.998775
                   11
    11  H    0.000000
 Stoichiometry    C6HBr4(2)
 Framework group  CS[SG(C6HBr4)]
 Deg. of freedom    19
 Full point group                 CS      NOp   2
 Largest Abelian subgroup         CS      NOp   2
 Largest concise Abelian subgroup C1      NOp   1
                         Standard orientation:                         
 ---------------------------------------------------------------------
 Center     Atomic      Atomic             Coordinates (Angstroms)
 Number     Number       Type             X           Y           Z
 ---------------------------------------------------------------------
      1          6           0        2.053637    1.030412    0.000000
      2          6           0        0.808090    1.606930   -0.000000
      3          6           0       -0.270005    0.685332   -0.000000
      4          6           0        0.000000   -0.703400    0.000000
      5          6           0        1.325924   -1.195313    0.000000
      6          6           0        2.410476   -0.289274    0.000000
      7         35           0        0.585249    3.442419   -0.000000
      8         35           0       -2.018562    1.316241   -0.000000
      9         35           0       -1.422193   -1.909992    0.000000
     10         35           0        1.671854   -3.025543    0.000000
     11          1           0        3.459065   -0.617529    0.000000
 ---------------------------------------------------------------------
 Rotational constants (GHZ):           0.5936976           0.2302068           0.1658848
 Standard basis: VSTO-6G (5D, 7F)
 There are    31 symmetry adapted cartesian basis functions of A'  symmetry.
 There are    10 symmetry adapted cartesian basis functions of A"  symmetry.
 There are    31 symmetry adapted basis functions of A'  symmetry.
 There are    10 symmetry adapted basis functions of A"  symmetry.
    41 basis functions,   246 primitive gaussians,    41 cartesian basis functions
    27 alpha electrons       26 beta electrons
       nuclear repulsion energy       288.2450533583 Hartrees.
 Integral buffers will be    131072 words long.
 Regular integral format.
 Two-electron integral symmetry is turned off.
 Do NDO integrals.
 One-electron integrals computed using PRISM.
 NBasis=    41 RedAO= T EigKep=  1.00D+00  NBF=    31    10
 NBsUse=    41 1.00D-06 EigRej= -1.00D+00 NBFU=    31    10
 Initial guess from the checkpoint file:  "calcs/am1/chks/BrPh_2345_rad.chk"
 B after Tr=    -0.000000    0.000000   -0.000000
         Rot=    0.999999    0.000000    0.000000    0.001006 Ang=   0.12 deg.
 Initial guess orbital symmetries:
 Alpha Orbitals:
       Occupied  (A') (A') (A') (A') (A') (A') (A') (A') (A') (A')
                 (A') (A') (A") (A') (A') (A') (A") (A") (A') (A')
                 (A") (A") (A') (A') (A') (A") (A")
       Virtual   (A") (A") (A') (A') (A') (A') (A") (A') (A') (A')
                 (A') (A') (A') (A')
 Beta  Orbitals:
       Occupied  (A') (A') (A') (A') (A') (A') (A') (A') (A') (A')
                 (A') (A') (A") (A') (A') (A") (A') (A") (A') (A')
                 (A") (A") (A') (A') (A") (A")
       Virtual   (A") (A') (A") (A') (A') (A') (A') (A") (A') (A')
                 (A') (A') (A') (A') (A')
 Initial guess <Sx>= 0.0000 <Sy>= 0.0000 <Sz>= 0.5000 <S**2>= 1.3149 S= 0.7510
 Keep J ints in memory in canonical form, NReq=864464.
 Overlap will be assumed to be unity.
 Requested convergence on RMS density matrix=1.00D-08 within  32 cycles.
 Requested convergence on MAX density matrix=1.00D-06.
 Requested convergence on             energy=1.00D-06.
 No special actions if energy rises.
 Fock symm off for IB=2 I1=    1 I=   32 J=    8 Cut=1.00D-07 Err=2.28D-04
 Fock matrix is not symmetric: symmetry in diagonalization turned off.
 SCF Done:  E(UAM1) =  0.152692447414     A.U. after   16 cycles
            NFock= 15  Conv=0.46D-08     -V/T= 1.0012
 <Sx>= 0.0000 <Sy>= 0.0000 <Sz>= 0.5000 <S**2>= 1.3285 S= 0.7564
 <L.S>=  0.00000000000    
 Annihilation of the first spin contaminant:
 S**2 before annihilation     1.3285,   after     1.0533
 QCSCF skips out because SCF is already converged.
 Calling FoFJK, ICntrl=      2127 FMM=F ISym2X=1 I1Cent= 0 IOpClX= 1 NMat=1 NMatS=1 NMatT=0.
 ***** Axes restored to original set *****
 -------------------------------------------------------------------
 Center     Atomic                   Forces (Hartrees/Bohr)
 Number     Number              X              Y              Z
 -------------------------------------------------------------------
      1        6           0.000140302    0.000255296   -0.000000000
      2        6          -0.000789856   -0.000504707   -0.000000000
      3        6          -0.001115852   -0.000398498    0.000000000
      4        6           0.000418801    0.001519143   -0.000000000
      5        6           0.000293226   -0.000397887   -0.000000000
      6        6           0.000582260   -0.000554455   -0.000000000
      7       35           0.000103930   -0.000239596    0.000000000
      8       35          -0.000012905    0.000120088    0.000000000
      9       35           0.000041436    0.000194264    0.000000000
     10       35           0.000347152    0.000247076   -0.000000000
     11        1          -0.000008494   -0.000240722    0.000000000
 -------------------------------------------------------------------
 Cartesian Forces:  Max     0.001519143 RMS     0.000430051

 GradGradGradGradGradGradGradGradGradGradGradGradGradGradGradGradGradGrad
 Berny optimization.
 Using GEDIIS/GDIIS optimizer.
 FormGI is forming the generalized inverse of G from B-inverse, IUseBI=4.
 Internal  Forces:  Max     0.001639042 RMS     0.000376359
 Search for a local minimum.
 Step number   4 out of a maximum of   57
 All quantities printed in internal units (Hartrees-Bohrs-Radians)
 Mixed Optimization -- En-DIIS/RFO-DIIS
 Update second derivatives using D2CorX and points    1    2    3    4
 DE= -6.83D-05 DEPred=-8.02D-05 R= 8.52D-01
 TightC=F SS=  1.41D+00  RLast= 2.42D-02 DXNew= 8.4853D-01 7.2693D-02
 Trust test= 8.52D-01 RLast= 2.42D-02 DXMaxT set to 5.05D-01
 ITU=  1  1  1  0
 Use linear search instead of GDIIS.
     Eigenvalues ---    0.02221   0.02221   0.02221   0.02221   0.02221
     Eigenvalues ---    0.02221   0.02221   0.02221   0.14202   0.16761
     Eigenvalues ---    0.18251   0.18361   0.19846   0.20869   0.23895
     Eigenvalues ---    0.25000   0.25000   0.25050   0.25184   0.25337
     Eigenvalues ---    0.36486   0.43542   0.44184   0.44246   0.47319
     Eigenvalues ---    0.47503   0.71329
 RFO step:  Lambda=-1.02021099D-05 EMin= 2.22103665D-02
 Quartic linear search produced a step of -0.12683.
 Iteration  1 RMS(Cart)=  0.00151425 RMS(Int)=  0.00000139
 Iteration  2 RMS(Cart)=  0.00000159 RMS(Int)=  0.00000006
 Iteration  3 RMS(Cart)=  0.00000000 RMS(Int)=  0.00000006
 ClnCor:  largest displacement from symmetrization is 7.63D-12 for atom     7.
 Variable       Old X    -DE/DX   Delta X   Delta X   Delta X     New X
                                 (Linear)    (Quad)   (Total)
    R1        2.59365  -0.00041  -0.00047   0.00018  -0.00029   2.59336
    R2        2.58341  -0.00022  -0.00021   0.00028   0.00007   2.58347
    R3        2.68024  -0.00070  -0.00100   0.00004  -0.00096   2.67928
    R4        3.49404  -0.00004   0.00002   0.00019   0.00022   3.49426
    R5        2.67346  -0.00164  -0.00028  -0.00235  -0.00263   2.67084
    R6        3.51281  -0.00007  -0.00098   0.00130   0.00032   3.51312
    R7        2.67251  -0.00113  -0.00035  -0.00121  -0.00156   2.67095
    R8        3.52448  -0.00019  -0.00164   0.00153  -0.00011   3.52437
    R9        2.67058  -0.00059  -0.00087   0.00011  -0.00076   2.66982
   R10        3.51987  -0.00042  -0.00060  -0.00110  -0.00170   3.51817
   R11        2.07637  -0.00012   0.00031  -0.00050  -0.00019   2.07618
    A1        2.26838  -0.00073  -0.00078  -0.00157  -0.00235   2.26602
    A2        2.00080   0.00024   0.00073   0.00034   0.00108   2.00187
    A3        2.12511   0.00033  -0.00068   0.00175   0.00107   2.12618
    A4        2.15728  -0.00057  -0.00005  -0.00210  -0.00215   2.15513
    A5        2.08606   0.00007  -0.00014   0.00016   0.00002   2.08608
    A6        2.08802  -0.00021   0.00060  -0.00130  -0.00071   2.08731
    A7        2.10910   0.00013  -0.00045   0.00114   0.00069   2.10979
    A8        2.11808   0.00028  -0.00032   0.00086   0.00053   2.11862
    A9        2.08233  -0.00021   0.00026  -0.00085  -0.00059   2.08174
   A10        2.08277  -0.00007   0.00007  -0.00001   0.00006   2.08283
   A11        2.09038  -0.00009   0.00028  -0.00077  -0.00048   2.08989
   A12        2.11286   0.00013  -0.00051   0.00121   0.00070   2.11356
   A13        2.07995  -0.00003   0.00023  -0.00045  -0.00022   2.07973
   A14        2.00267   0.00023   0.00023   0.00098   0.00121   2.00388
   A15        2.13826   0.00010  -0.00048   0.00108   0.00060   2.13886
   A16        2.14225  -0.00033   0.00026  -0.00206  -0.00181   2.14044
    D1        0.00000   0.00000   0.00000   0.00000  -0.00000   0.00000
    D2        3.14159   0.00000   0.00000   0.00000   0.00000   3.14159
    D3        0.00000  -0.00000   0.00000  -0.00000  -0.00000   0.00000
    D4        3.14159  -0.00000   0.00000  -0.00000   0.00000   3.14159
    D5       -0.00000   0.00000   0.00000   0.00000   0.00000   0.00000
    D6        3.14159   0.00000   0.00000   0.00000   0.00000   3.14159
    D7        3.14159  -0.00000   0.00000  -0.00000   0.00000   3.14159
    D8       -0.00000  -0.00000   0.00000  -0.00000   0.00000   0.00000
    D9        0.00000  -0.00000   0.00000  -0.00000  -0.00000   0.00000
   D10        3.14159   0.00000   0.00000   0.00000   0.00000   3.14159
   D11        3.14159  -0.00000   0.00000  -0.00000   0.00000   3.14159
   D12        0.00000  -0.00000   0.00000  -0.00000   0.00000   0.00000
   D13        0.00000   0.00000   0.00000   0.00000  -0.00000   0.00000
   D14        3.14159   0.00000   0.00000   0.00000   0.00000   3.14159
   D15        3.14159  -0.00000   0.00000  -0.00000   0.00000   3.14159
   D16       -0.00000  -0.00000   0.00000  -0.00000   0.00000   0.00000
   D17       -0.00000   0.00000   0.00000   0.00000   0.00000   0.00000
   D18        3.14159   0.00000   0.00000   0.00000   0.00000   3.14159
   D19        3.14159  -0.00000   0.00000  -0.00000   0.00000   3.14159
   D20        0.00000   0.00000   0.00000   0.00000  -0.00000   0.00000
         Item               Value     Threshold  Converged?
 Maximum Force            0.001639     0.000450     NO 
 RMS     Force            0.000376     0.000300     NO 
 Maximum Displacement     0.006591     0.001800     NO 
 RMS     Displacement     0.001515     0.001200     NO 
 Predicted change in Energy=-6.565967D-06
 GradGradGradGradGradGradGradGradGradGradGradGradGradGradGradGradGradGrad

                          Input orientation:                          
 ---------------------------------------------------------------------
 Center     Atomic      Atomic             Coordinates (Angstroms)
 Number     Number       Type             X           Y           Z
 ---------------------------------------------------------------------
      1          6           0        0.011615    1.281280   -0.000000
      2          6           0        1.253417    0.697102   -0.000000
      3          6           0        1.241177   -0.720659   -0.000000
      4          6           0        0.005382   -1.406486    0.000000
      5          6           0       -1.223772   -0.708702    0.000000
      6          6           0       -1.227687    0.704100    0.000000
      7         35           0        2.804448    1.703784   -0.000000
      8         35           0        2.849731   -1.652686   -0.000000
      9         35           0       -0.002625   -3.271485    0.000000
     10         35           0       -2.847039   -1.620334    0.000000
     11          1           0       -2.154505    1.294086    0.000000
 ---------------------------------------------------------------------
                    Distance matrix (angstroms):
                    1          2          3          4          5
     1  C    0.000000
     2  C    1.372347   0.000000
     3  C    2.349379   1.417814   0.000000
     4  C    2.687773   2.445951   1.413346   0.000000
     5  C    2.342266   2.848289   2.464977   1.413408   0.000000
     6  C    1.367116   2.481114   2.850479   2.444389   1.412808
     7  Br   2.824611   1.849083   2.884743   4.184323   4.695386
     8  Br   4.082041   2.840726   1.859065   2.854985   4.181451
     9  Br   4.552786   4.162610   2.837914   1.865015   2.838847
    10  Br   4.073237   4.710016   4.186039   2.860426   1.861738
    11  H    2.166158   3.459815   3.948399   3.458064   2.208490
                    6          7          8          9         10
     6  C    0.000000
     7  Br   4.154213   0.000000
     8  Br   4.709542   3.356776   0.000000
     9  Br   4.160054   5.712527   3.279702   0.000000
    10  Br   2.832895   6.556605   5.696862   3.288919   0.000000
    11  H    1.098670   4.975849   5.807396   5.047279   2.995571
                   11
    11  H    0.000000
 Stoichiometry    C6HBr4(2)
 Framework group  CS[SG(C6HBr4)]
 Deg. of freedom    19
 Full point group                 CS      NOp   2
 Largest Abelian subgroup         CS      NOp   2
 Largest concise Abelian subgroup C1      NOp   1
                         Standard orientation:                         
 ---------------------------------------------------------------------
 Center     Atomic      Atomic             Coordinates (Angstroms)
 Number     Number       Type             X           Y           Z
 ---------------------------------------------------------------------
      1          6           0        2.056681    1.027286    0.000000
      2          6           0        0.811539    1.604310    0.000000
      3          6           0       -0.267586    0.684698    0.000000
      4          6           0        0.000000   -0.703087    0.000000
      5          6           0        1.324122   -1.197476    0.000000
      6          6           0        2.409817   -0.293434    0.000000
      7         35           0        0.587562    3.439778    0.000000
      8         35           0       -2.014882    1.319582    0.000000
      9         35           0       -1.424734   -1.906588    0.000000
     10         35           0        1.667351   -3.027302    0.000000
     11          1           0        3.457187   -0.625234    0.000000
 ---------------------------------------------------------------------
 Rotational constants (GHZ):           0.5944702           0.2303528           0.1660209
 Standard basis: VSTO-6G (5D, 7F)
 There are    31 symmetry adapted cartesian basis functions of A'  symmetry.
 There are    10 symmetry adapted cartesian basis functions of A"  symmetry.
 There are    31 symmetry adapted basis functions of A'  symmetry.
 There are    10 symmetry adapted basis functions of A"  symmetry.
    41 basis functions,   246 primitive gaussians,    41 cartesian basis functions
    27 alpha electrons       26 beta electrons
       nuclear repulsion energy       288.3050097556 Hartrees.
 Integral buffers will be    131072 words long.
 Regular integral format.
 Two-electron integral symmetry is turned off.
 Do NDO integrals.
 One-electron integrals computed using PRISM.
 NBasis=    41 RedAO= T EigKep=  1.00D+00  NBF=    31    10
 NBsUse=    41 1.00D-06 EigRej= -1.00D+00 NBFU=    31    10
 Initial guess from the checkpoint file:  "calcs/am1/chks/BrPh_2345_rad.chk"
 B after Tr=     0.000000   -0.000000   -0.000000
         Rot=    1.000000    0.000000    0.000000    0.000689 Ang=   0.08 deg.
 Initial guess orbital symmetries:
 Alpha Orbitals:
       Occupied  (A') (A') (A') (A') (A') (A') (A') (A') (A') (A')
                 (A') (A') (A") (A') (A') (A') (A") (A") (A') (A')
                 (A") (A") (A') (A') (A') (A") (A")
       Virtual   (A") (A") (A') (A') (A') (A') (A") (A') (A') (A')
                 (A') (A') (A') (A')
 Beta  Orbitals:
       Occupied  (A') (A') (A') (A') (A') (A') (A') (A') (A') (A')
                 (A') (A') (A") (A') (A') (A") (A') (A") (A') (A')
                 (A") (A") (A') (A') (A") (A")
       Virtual   (A") (A') (A") (A') (A') (A') (A') (A") (A') (A')
                 (A') (A') (A') (A') (A')
 Initial guess <Sx>= 0.0000 <Sy>= 0.0000 <Sz>= 0.5000 <S**2>= 1.3285 S= 0.7564
 Keep J ints in memory in canonical form, NReq=864464.
 Overlap will be assumed to be unity.
 Requested convergence on RMS density matrix=1.00D-08 within  32 cycles.
 Requested convergence on MAX density matrix=1.00D-06.
 Requested convergence on             energy=1.00D-06.
 No special actions if energy rises.
 Fock symm off for IB=2 I1=    1 I=   32 J=   23 Cut=1.00D-07 Err=1.05D-04
 Fock matrix is not symmetric: symmetry in diagonalization turned off.
 SCF Done:  E(UAM1) =  0.152684908136     A.U. after   14 cycles
            NFock= 13  Conv=0.81D-08     -V/T= 1.0012
 <Sx>= 0.0000 <Sy>= 0.0000 <Sz>= 0.5000 <S**2>= 1.3249 S= 0.7549
 <L.S>=  0.00000000000    
 Annihilation of the first spin contaminant:
 S**2 before annihilation     1.3249,   after     1.0491
 QCSCF skips out because SCF is already converged.
 Calling FoFJK, ICntrl=      2127 FMM=F ISym2X=1 I1Cent= 0 IOpClX= 1 NMat=1 NMatS=1 NMatT=0.
 ***** Axes restored to original set *****
 -------------------------------------------------------------------
 Center     Atomic                   Forces (Hartrees/Bohr)
 Number     Number              X              Y              Z
 -------------------------------------------------------------------
      1        6           0.000009492    0.000035431   -0.000000000
      2        6          -0.000243830    0.000146707   -0.000000000
      3        6          -0.000093968   -0.000252349   -0.000000000
      4        6           0.000128634    0.000285897   -0.000000000
      5        6          -0.000065575   -0.000121594    0.000000000
      6        6           0.000254502   -0.000033343    0.000000000
      7       35           0.000075748   -0.000040431    0.000000000
      8       35           0.000013321    0.000033676    0.000000000
      9       35          -0.000025936   -0.000016640    0.000000000
     10       35          -0.000014701    0.000005598    0.000000000
     11        1          -0.000037686   -0.000042952    0.000000000
 -------------------------------------------------------------------
 Cartesian Forces:  Max     0.000285897 RMS     0.000103166

 GradGradGradGradGradGradGradGradGradGradGradGradGradGradGradGradGradGrad
 Berny optimization.
 Using GEDIIS/GDIIS optimizer.
 FormGI is forming the generalized inverse of G from B-inverse, IUseBI=4.
 Internal  Forces:  Max     0.000190744 RMS     0.000061496
 Search for a local minimum.
 Step number   5 out of a maximum of   57
 All quantities printed in internal units (Hartrees-Bohrs-Radians)
 Mixed Optimization -- En-DIIS/RFO-DIIS
 Swapping is turned off.
 Update second derivatives using D2CorX and points    1    2    3    4    5
 DE= -7.54D-06 DEPred=-6.57D-06 R= 1.15D+00
 TightC=F SS=  1.41D+00  RLast= 5.82D-03 DXNew= 8.4853D-01 1.7466D-02
 Trust test= 1.15D+00 RLast= 5.82D-03 DXMaxT set to 5.05D-01
 ITU=  1  1  1  1  0
     Eigenvalues ---    0.02221   0.02221   0.02221   0.02221   0.02221
     Eigenvalues ---    0.02221   0.02221   0.02221   0.14132   0.16540
     Eigenvalues ---    0.18199   0.18416   0.19832   0.20769   0.21362
     Eigenvalues ---    0.24501   0.25000   0.25066   0.25108   0.25472
     Eigenvalues ---    0.36688   0.43180   0.43849   0.45219   0.47406
     Eigenvalues ---    0.47460   0.70367
 En-DIIS/RFO-DIIS/Sim-DIIS IScMMF=       -3 using points:     5    4
 RFO step:  Lambda=-7.51448149D-07.
 DidBck=F Rises=F RFO-DIIS coefs:    1.25033   -0.25033
 Iteration  1 RMS(Cart)=  0.00043184 RMS(Int)=  0.00000016
 Iteration  2 RMS(Cart)=  0.00000017 RMS(Int)=  0.00000002
 ClnCor:  largest displacement from symmetrization is 1.16D-11 for atom     7.
 Variable       Old X    -DE/DX   Delta X   Delta X   Delta X     New X
                                 (Linear)    (Quad)   (Total)
    R1        2.59336  -0.00011  -0.00007  -0.00015  -0.00023   2.59313
    R2        2.58347  -0.00006   0.00002  -0.00015  -0.00013   2.58334
    R3        2.67928   0.00008  -0.00024   0.00053   0.00029   2.67957
    R4        3.49426   0.00004   0.00005   0.00021   0.00026   3.49452
    R5        2.67084  -0.00019  -0.00066   0.00017  -0.00049   2.67035
    R6        3.51312  -0.00001   0.00008  -0.00005   0.00003   3.51316
    R7        2.67095  -0.00010  -0.00039   0.00016  -0.00023   2.67072
    R8        3.52437   0.00002  -0.00003   0.00025   0.00022   3.52459
    R9        2.66982  -0.00002  -0.00019   0.00020   0.00001   2.66983
   R10        3.51817   0.00001  -0.00042   0.00046   0.00004   3.51821
   R11        2.07618   0.00001  -0.00005   0.00008   0.00003   2.07621
    A1        2.26602  -0.00012  -0.00059   0.00004  -0.00055   2.26548
    A2        2.00187   0.00005   0.00027  -0.00006   0.00021   2.00208
    A3        2.12618   0.00011   0.00027   0.00031   0.00058   2.12676
    A4        2.15513  -0.00015  -0.00054  -0.00025  -0.00079   2.15434
    A5        2.08608  -0.00002   0.00000  -0.00009  -0.00009   2.08599
    A6        2.08731  -0.00005  -0.00018  -0.00014  -0.00031   2.08700
    A7        2.10979   0.00007   0.00017   0.00023   0.00040   2.11020
    A8        2.11862   0.00005   0.00013   0.00014   0.00027   2.11888
    A9        2.08174   0.00002  -0.00015   0.00021   0.00006   2.08180
   A10        2.08283  -0.00007   0.00001  -0.00035  -0.00033   2.08250
   A11        2.08989  -0.00007  -0.00012  -0.00030  -0.00042   2.08947
   A12        2.11356   0.00006   0.00018   0.00019   0.00037   2.11392
   A13        2.07973   0.00002  -0.00005   0.00011   0.00006   2.07979
   A14        2.00388   0.00012   0.00030   0.00029   0.00059   2.00447
   A15        2.13886   0.00000   0.00015   0.00005   0.00020   2.13905
   A16        2.14044  -0.00012  -0.00045  -0.00033  -0.00079   2.13966
    D1       -0.00000   0.00000   0.00000   0.00000   0.00000   0.00000
    D2        3.14159   0.00000   0.00000   0.00000   0.00000   3.14159
    D3       -0.00000  -0.00000   0.00000  -0.00000   0.00000   0.00000
    D4        3.14159  -0.00000   0.00000  -0.00000   0.00000   3.14159
    D5        0.00000   0.00000   0.00000   0.00000   0.00000   0.00000
    D6        3.14159   0.00000   0.00000   0.00000   0.00000   3.14159
    D7        3.14159  -0.00000   0.00000  -0.00000   0.00000   3.14159
    D8       -0.00000   0.00000   0.00000   0.00000   0.00000   0.00000
    D9       -0.00000  -0.00000   0.00000  -0.00000   0.00000   0.00000
   D10        3.14159   0.00000   0.00000   0.00000   0.00000   3.14159
   D11        3.14159  -0.00000   0.00000  -0.00000   0.00000   3.14159
   D12        0.00000  -0.00000   0.00000   0.00000   0.00000   0.00000
   D13       -0.00000   0.00000   0.00000   0.00000   0.00000   0.00000
   D14        3.14159   0.00000   0.00000   0.00000   0.00000   3.14159
   D15        3.14159  -0.00000   0.00000  -0.00000   0.00000   3.14159
   D16        0.00000  -0.00000   0.00000  -0.00000   0.00000   0.00000
   D17        0.00000   0.00000   0.00000   0.00000  -0.00000   0.00000
   D18        3.14159   0.00000   0.00000   0.00000   0.00000   3.14159
   D19        3.14159  -0.00000   0.00000  -0.00000   0.00000   3.14159
   D20       -0.00000   0.00000   0.00000   0.00000   0.00000   0.00000
         Item               Value     Threshold  Converged?
 Maximum Force            0.000191     0.000450     YES
 RMS     Force            0.000061     0.000300     YES
 Maximum Displacement     0.001580     0.001800     YES
 RMS     Displacement     0.000432     0.001200     YES
 Predicted change in Energy=-3.757264D-07
 Optimization completed.
    -- Stationary point found.
                           ----------------------------
                           !   Optimized Parameters   !
                           ! (Angstroms and Degrees)  !
 --------------------------                            --------------------------
 ! Name  Definition              Value          Derivative Info.                !
 --------------------------------------------------------------------------------
 ! R1    R(1,2)                  1.3723         -DE/DX =   -0.0001              !
 ! R2    R(1,6)                  1.3671         -DE/DX =   -0.0001              !
 ! R3    R(2,3)                  1.4178         -DE/DX =    0.0001              !
 ! R4    R(2,7)                  1.8491         -DE/DX =    0.0                 !
 ! R5    R(3,4)                  1.4133         -DE/DX =   -0.0002              !
 ! R6    R(3,8)                  1.8591         -DE/DX =    0.0                 !
 ! R7    R(4,5)                  1.4134         -DE/DX =   -0.0001              !
 ! R8    R(4,9)                  1.865          -DE/DX =    0.0                 !
 ! R9    R(5,6)                  1.4128         -DE/DX =    0.0                 !
 ! R10   R(5,10)                 1.8617         -DE/DX =    0.0                 !
 ! R11   R(6,11)                 1.0987         -DE/DX =    0.0                 !
 ! A1    A(2,1,6)              129.8337         -DE/DX =   -0.0001              !
 ! A2    A(1,2,3)              114.6989         -DE/DX =    0.0                 !
 ! A3    A(1,2,7)              121.8212         -DE/DX =    0.0001              !
 ! A4    A(3,2,7)              123.4799         -DE/DX =   -0.0002              !
 ! A5    A(2,3,4)              119.5235         -DE/DX =    0.0                 !
 ! A6    A(2,3,8)              119.5942         -DE/DX =   -0.0001              !
 ! A7    A(4,3,8)              120.8823         -DE/DX =    0.0001              !
 ! A8    A(3,4,5)              121.3877         -DE/DX =    0.0001              !
 ! A9    A(3,4,9)              119.2749         -DE/DX =    0.0                 !
 ! A10   A(5,4,9)              119.3374         -DE/DX =   -0.0001              !
 ! A11   A(4,5,6)              119.7421         -DE/DX =   -0.0001              !
 ! A12   A(4,5,10)             121.098          -DE/DX =    0.0001              !
 ! A13   A(6,5,10)             119.1599         -DE/DX =    0.0                 !
 ! A14   A(1,6,5)              114.814          -DE/DX =    0.0001              !
 ! A15   A(1,6,11)             122.5476         -DE/DX =    0.0                 !
 ! A16   A(5,6,11)             122.6385         -DE/DX =   -0.0001              !
 ! D1    D(6,1,2,3)              0.0            -DE/DX =    0.0                 !
 ! D2    D(6,1,2,7)            180.0            -DE/DX =    0.0                 !
 ! D3    D(2,1,6,5)              0.0            -DE/DX =    0.0                 !
 ! D4    D(2,1,6,11)           180.0            -DE/DX =    0.0                 !
 ! D5    D(1,2,3,4)              0.0            -DE/DX =    0.0                 !
 ! D6    D(1,2,3,8)            180.0            -DE/DX =    0.0                 !
 ! D7    D(7,2,3,4)            180.0            -DE/DX =    0.0                 !
 ! D8    D(7,2,3,8)              0.0            -DE/DX =    0.0                 !
 ! D9    D(2,3,4,5)              0.0            -DE/DX =    0.0                 !
 ! D10   D(2,3,4,9)            180.0            -DE/DX =    0.0                 !
 ! D11   D(8,3,4,5)            180.0            -DE/DX =    0.0                 !
 ! D12   D(8,3,4,9)              0.0            -DE/DX =    0.0                 !
 ! D13   D(3,4,5,6)              0.0            -DE/DX =    0.0                 !
 ! D14   D(3,4,5,10)           180.0            -DE/DX =    0.0                 !
 ! D15   D(9,4,5,6)            180.0            -DE/DX =    0.0                 !
 ! D16   D(9,4,5,10)             0.0            -DE/DX =    0.0                 !
 ! D17   D(4,5,6,1)              0.0            -DE/DX =    0.0                 !
 ! D18   D(4,5,6,11)           180.0            -DE/DX =    0.0                 !
 ! D19   D(10,5,6,1)           180.0            -DE/DX =    0.0                 !
 ! D20   D(10,5,6,11)            0.0            -DE/DX =    0.0                 !
 --------------------------------------------------------------------------------
 GradGradGradGradGradGradGradGradGradGradGradGradGradGradGradGradGradGrad

                          Input orientation:                          
 ---------------------------------------------------------------------
 Center     Atomic      Atomic             Coordinates (Angstroms)
 Number     Number       Type             X           Y           Z
 ---------------------------------------------------------------------
      1          6           0        0.011615    1.281280   -0.000000
      2          6           0        1.253417    0.697102   -0.000000
      3          6           0        1.241177   -0.720659   -0.000000
      4          6           0        0.005382   -1.406486    0.000000
      5          6           0       -1.223772   -0.708702    0.000000
      6          6           0       -1.227687    0.704100    0.000000
      7         35           0        2.804448    1.703784   -0.000000
      8         35           0        2.849731   -1.652686   -0.000000
      9         35           0       -0.002625   -3.271485    0.000000
     10         35           0       -2.847039   -1.620334    0.000000
     11          1           0       -2.154505    1.294086    0.000000
 ---------------------------------------------------------------------
                    Distance matrix (angstroms):
                    1          2          3          4          5
     1  C    0.000000
     2  C    1.372347   0.000000
     3  C    2.349379   1.417814   0.000000
     4  C    2.687773   2.445951   1.413346   0.000000
     5  C    2.342266   2.848289   2.464977   1.413408   0.000000
     6  C    1.367116   2.481114   2.850479   2.444389   1.412808
     7  Br   2.824611   1.849083   2.884743   4.184323   4.695386
     8  Br   4.082041   2.840726   1.859065   2.854985   4.181451
     9  Br   4.552786   4.162610   2.837914   1.865015   2.838847
    10  Br   4.073237   4.710016   4.186039   2.860426   1.861738
    11  H    2.166158   3.459815   3.948399   3.458064   2.208490
                    6          7          8          9         10
     6  C    0.000000
     7  Br   4.154213   0.000000
     8  Br   4.709542   3.356776   0.000000
     9  Br   4.160054   5.712527   3.279702   0.000000
    10  Br   2.832895   6.556605   5.696862   3.288919   0.000000
    11  H    1.098670   4.975849   5.807396   5.047279   2.995571
                   11
    11  H    0.000000
 Stoichiometry    C6HBr4(2)
 Framework group  CS[SG(C6HBr4)]
 Deg. of freedom    19
 Full point group                 CS      NOp   2
 Largest Abelian subgroup         CS      NOp   2
 Largest concise Abelian subgroup C1      NOp   1
                         Standard orientation:                         
 ---------------------------------------------------------------------
 Center     Atomic      Atomic             Coordinates (Angstroms)
 Number     Number       Type             X           Y           Z
 ---------------------------------------------------------------------
      1          6           0        2.056681    1.027286   -0.000000
      2          6           0        0.811539    1.604310   -0.000000
      3          6           0       -0.267586    0.684698   -0.000000
      4          6           0        0.000000   -0.703087    0.000000
      5          6           0        1.324122   -1.197476   -0.000000
      6          6           0        2.409817   -0.293434   -0.000000
      7         35           0        0.587562    3.439778   -0.000000
      8         35           0       -2.014882    1.319582    0.000000
      9         35           0       -1.424734   -1.906588    0.000000
     10         35           0        1.667351   -3.027302    0.000000
     11          1           0        3.457187   -0.625234   -0.000000
 ---------------------------------------------------------------------
 Rotational constants (GHZ):           0.5944702           0.2303528           0.1660209

 **********************************************************************

            Population analysis using the SCF Density.

 **********************************************************************

 Orbital symmetries:
 Alpha Orbitals:
       Occupied  (A') (A') (A') (A') (A') (A') (A') (A') (A') (A')
                 (A') (A') (A") (A') (A') (A') (A") (A") (A') (A')
                 (A") (A") (A') (A') (A') (A") (A")
       Virtual   (A") (A") (A') (A') (A') (A') (A") (A') (A') (A')
                 (A') (A') (A') (A')
 Beta  Orbitals:
       Occupied  (A') (A') (A') (A') (A') (A') (A') (A') (A') (A')
                 (A') (A') (A") (A') (A') (A") (A') (A") (A') (A')
                 (A") (A") (A') (A') (A") (A")
       Virtual   (A") (A') (A") (A') (A') (A') (A') (A") (A') (A')
                 (A') (A') (A') (A') (A')
 The electronic state is 2-A'.
 Alpha  occ. eigenvalues --   -1.48426  -1.28893  -1.25978  -1.19802  -1.19146
 Alpha  occ. eigenvalues --   -1.10399  -1.08280  -0.88004  -0.85530  -0.66597
 Alpha  occ. eigenvalues --   -0.65220  -0.60676  -0.57813  -0.56608  -0.53145
 Alpha  occ. eigenvalues --   -0.49650  -0.49524  -0.47190  -0.45555  -0.45100
 Alpha  occ. eigenvalues --   -0.43657  -0.42941  -0.42316  -0.40810  -0.39439
 Alpha  occ. eigenvalues --   -0.38296  -0.37333
 Alpha virt. eigenvalues --   -0.02862  -0.02148  -0.01053   0.00023   0.00965
 Alpha virt. eigenvalues --    0.01999   0.05521   0.10586   0.11617   0.12509
 Alpha virt. eigenvalues --    0.12736   0.14012   0.15751   0.16393
  Beta  occ. eigenvalues --   -1.47672  -1.28676  -1.25484  -1.19621  -1.19030
  Beta  occ. eigenvalues --   -1.10446  -1.07168  -0.87358  -0.83425  -0.66467
  Beta  occ. eigenvalues --   -0.64683  -0.59336  -0.57531  -0.56438  -0.52104
  Beta  occ. eigenvalues --   -0.49514  -0.49275  -0.46783  -0.45462  -0.44389
  Beta  occ. eigenvalues --   -0.43672  -0.42701  -0.42023  -0.39413  -0.38033
  Beta  occ. eigenvalues --   -0.37295
  Beta virt. eigenvalues --   -0.02952  -0.02726  -0.00884  -0.00748   0.00135
  Beta virt. eigenvalues --    0.01733   0.02326   0.06512   0.10924   0.11931
  Beta virt. eigenvalues --    0.12753   0.13403   0.14083   0.16412   0.17935
          Condensed to atoms (all electrons):
               1          2          3          4          5          6
     1  C    4.030212   0.000000   0.000000   0.000000   0.000000   0.000000
     2  C    0.000000   4.139571   0.000000   0.000000   0.000000   0.000000
     3  C    0.000000   0.000000   4.131935   0.000000   0.000000   0.000000
     4  C    0.000000   0.000000   0.000000   4.146086   0.000000   0.000000
     5  C    0.000000   0.000000   0.000000   0.000000   4.142512   0.000000
     6  C    0.000000   0.000000   0.000000   0.000000   0.000000   4.083207
     7  Br   0.000000   0.000000   0.000000   0.000000   0.000000   0.000000
     8  Br   0.000000   0.000000   0.000000   0.000000   0.000000   0.000000
     9  Br   0.000000   0.000000   0.000000   0.000000   0.000000   0.000000
    10  Br   0.000000   0.000000   0.000000   0.000000   0.000000   0.000000
    11  H    0.000000   0.000000   0.000000   0.000000   0.000000   0.000000
               7          8          9         10         11
     1  C    0.000000   0.000000   0.000000   0.000000   0.000000
     2  C    0.000000   0.000000   0.000000   0.000000   0.000000
     3  C    0.000000   0.000000   0.000000   0.000000   0.000000
     4  C    0.000000   0.000000   0.000000   0.000000   0.000000
     5  C    0.000000   0.000000   0.000000   0.000000   0.000000
     6  C    0.000000   0.000000   0.000000   0.000000   0.000000
     7  Br   6.864249   0.000000   0.000000   0.000000   0.000000
     8  Br   0.000000   6.873771   0.000000   0.000000   0.000000
     9  Br   0.000000   0.000000   6.880720   0.000000   0.000000
    10  Br   0.000000   0.000000   0.000000   6.889846   0.000000
    11  H    0.000000   0.000000   0.000000   0.000000   0.817890
          Atomic-Atomic Spin Densities.
               1          2          3          4          5          6
     1  C    1.399234   0.000000   0.000000   0.000000   0.000000   0.000000
     2  C    0.000000  -0.520625   0.000000   0.000000   0.000000   0.000000
     3  C    0.000000   0.000000   0.531583   0.000000   0.000000   0.000000
     4  C    0.000000   0.000000   0.000000  -0.502795   0.000000   0.000000
     5  C    0.000000   0.000000   0.000000   0.000000   0.536385   0.000000
     6  C    0.000000   0.000000   0.000000   0.000000   0.000000  -0.512091
     7  Br   0.000000   0.000000   0.000000   0.000000   0.000000   0.000000
     8  Br   0.000000   0.000000   0.000000   0.000000   0.000000   0.000000
     9  Br   0.000000   0.000000   0.000000   0.000000   0.000000   0.000000
    10  Br   0.000000   0.000000   0.000000   0.000000   0.000000   0.000000
    11  H    0.000000   0.000000   0.000000   0.000000   0.000000   0.000000
               7          8          9         10         11
     1  C    0.000000   0.000000   0.000000   0.000000   0.000000
     2  C    0.000000   0.000000   0.000000   0.000000   0.000000
     3  C    0.000000   0.000000   0.000000   0.000000   0.000000
     4  C    0.000000   0.000000   0.000000   0.000000   0.000000
     5  C    0.000000   0.000000   0.000000   0.000000   0.000000
     6  C    0.000000   0.000000   0.000000   0.000000   0.000000
     7  Br   0.020169   0.000000   0.000000   0.000000   0.000000
     8  Br   0.000000   0.000755   0.000000   0.000000   0.000000
     9  Br   0.000000   0.000000   0.015217   0.000000   0.000000
    10  Br   0.000000   0.000000   0.000000  -0.001304   0.000000
    11  H    0.000000   0.000000   0.000000   0.000000   0.033473
 Mulliken charges and spin densities:
               1          2
     1  C   -0.030212   1.399234
     2  C   -0.139571  -0.520625
     3  C   -0.131935   0.531583
     4  C   -0.146086  -0.502795
     5  C   -0.142512   0.536385
     6  C   -0.083207  -0.512091
     7  Br   0.135751   0.020169
     8  Br   0.126229   0.000755
     9  Br   0.119280   0.015217
    10  Br   0.110154  -0.001304
    11  H    0.182110   0.033473
 Sum of Mulliken charges =   0.00000   1.00000
 Mulliken charges and spin densities with hydrogens summed into heavy atoms:
               1          2
     1  C   -0.030212   1.399234
     2  C   -0.139571  -0.520625
     3  C   -0.131935   0.531583
     4  C   -0.146086  -0.502795
     5  C   -0.142512   0.536385
     6  C    0.098903  -0.478618
     7  Br   0.135751   0.020169
     8  Br   0.126229   0.000755
     9  Br   0.119280   0.015217
    10  Br   0.110154  -0.001304
 Charge=              0.0000 electrons
 Dipole moment (field-independent basis, Debye):
    X=              0.6281    Y=             -0.2933    Z=              0.0000  Tot=              0.6932
 N-N= 2.883050097556D+02 E-N=-4.086816221516D+02  KE=-1.298197461024D+02
 Symmetry A'   KE=-9.874246517145D+01
 Symmetry A"   KE=-3.107728093092D+01
 Symmetry A'   SP= 1.000000000000D+00
 Symmetry A"   SP=-5.329070518201D-15
 1\1\GINC-SH02-01N25\FOpt\UAM1\ZDO\C6H1Br4(2)\JLAPIER\28-Sep-2026\0\\# 
 Opt AM1 SCF=XQC\\BrPh_2345_rad am1\\0,2\C,0.0116148287,1.2812796043,0.
 \C,1.2534168268,0.69710225,0.\C,1.2411765838,-0.7206591737,0.\C,0.0053
 817746,-1.406486457,0.\C,-1.2237718188,-0.7087023506,0.\C,-1.227687243
 ,0.7041002933,0.\Br,2.8044482739,1.7037844027,0.\Br,2.849731255,-1.652
 6864818,0.\Br,-0.0026252935,-3.2714846102,0.\Br,-2.8470390435,-1.62033
 36198,0.\H,-2.1545053139,1.2940861429,0.\\Version=ES64L-G16RevB.01\Sta
 te=2-A'\HF=0.1526849\S2=1.324859\S2-1=0.\S2A=1.049054\RMSD=8.130e-09\R
 MSF=1.032e-04\Dipole=-0.2471108,0.1153717,0.\PG=CS [SG(C6H1Br4)]\\@


 THERE'S A SUCKER BORN EVERY MINUTE

              -- PHINEAS TAYLOR (P.T.) BARNUM
 Job cpu time:       0 days  0 hours  0 minutes  3.3 seconds.
 Elapsed time:       0 days  0 hours  0 minutes  4.0 seconds.
 File lengths (MBytes):  RWF=      6 Int=      0 D2E=      0 Chk=      3 Scr=      1
 Normal termination of Gaussian 16 at Mon Sep 28 01:25:38 2026.
