 Entering Gaussian System, Link 0=g16
 Initial command:
 /share/software/user/restricted/gaussian/g16.B01/l1.exe "/lscratch/jlapier/g16_45667819_101/Gau-24232.inp" -scrdir="/lscratch/jlapier/g16_45667819_101/"
 Entering Link 1 = /share/software/user/restricted/gaussian/g16.B01/l1.exe PID=     24238.
  
 Copyright (c) 1988-2017, Gaussian, Inc.  All Rights Reserved.
  
 This is part of the Gaussian(R) 16 program.  It is based on
 the Gaussian(R) 09 system (copyright 2009, Gaussian, Inc.),
 the Gaussian(R) 03 system (copyright 2003, Gaussian, Inc.),
 the Gaussian(R) 98 system (copyright 1998, Gaussian, Inc.),
 the Gaussian(R) 94 system (copyright 1995, Gaussian, Inc.),
 the Gaussian 92(TM) system (copyright 1992, Gaussian, Inc.),
 the Gaussian 90(TM) system (copyright 1990, Gaussian, Inc.),
 the Gaussian 88(TM) system (copyright 1988, Gaussian, Inc.),
 the Gaussian 86(TM) system (copyright 1986, Carnegie Mellon
 University), and the Gaussian 82(TM) system (copyright 1983,
 Carnegie Mellon University). Gaussian is a federally registered
 trademark of Gaussian, Inc.
  
 This software contains proprietary and confidential information,
 including trade secrets, belonging to Gaussian, Inc.
  
 This software is provided under written license and may be
 used, copied, transmitted, or stored only in accord with that
 written license.
  
 The following legend is applicable only to US Government
 contracts under FAR:
  
                    RESTRICTED RIGHTS LEGEND
  
 Use, reproduction and disclosure by the US Government is
 subject to restrictions as set forth in subparagraphs (a)
 and (c) of the Commercial Computer Software - Restricted
 Rights clause in FAR 52.227-19.
  
 Gaussian, Inc.
 340 Quinnipiac St., Bldg. 40, Wallingford CT 06492
  
  
 ---------------------------------------------------------------
 Warning -- This program may not be used in any manner that
 competes with the business of Gaussian, Inc. or will provide
 assistance to any competitor of Gaussian, Inc.  The licensee
 of this program is prohibited from giving any competitor of
 Gaussian, Inc. access to this program.  By using this program,
 the user acknowledges that Gaussian, Inc. is engaged in the
 business of creating and licensing software in the field of
 computational chemistry and represents and warrants to the
 licensee that it is not a competitor of Gaussian, Inc. and that
 it will not use this program in any manner prohibited above.
 ---------------------------------------------------------------
  

 Cite this work as:
 Gaussian 16, Revision B.01,
 M. J. Frisch, G. W. Trucks, H. B. Schlegel, G. E. Scuseria, 
 M. A. Robb, J. R. Cheeseman, G. Scalmani, V. Barone, 
 G. A. Petersson, H. Nakatsuji, X. Li, M. Caricato, A. V. Marenich, 
 J. Bloino, B. G. Janesko, R. Gomperts, B. Mennucci, H. P. Hratchian, 
 J. V. Ortiz, A. F. Izmaylov, J. L. Sonnenberg, D. Williams-Young, 
 F. Ding, F. Lipparini, F. Egidi, J. Goings, B. Peng, A. Petrone, 
 T. Henderson, D. Ranasinghe, V. G. Zakrzewski, J. Gao, N. Rega, 
 G. Zheng, W. Liang, M. Hada, M. Ehara, K. Toyota, R. Fukuda, 
 J. Hasegawa, M. Ishida, T. Nakajima, Y. Honda, O. Kitao, H. Nakai, 
 T. Vreven, K. Throssell, J. A. Montgomery, Jr., J. E. Peralta, 
 F. Ogliaro, M. J. Bearpark, J. J. Heyd, E. N. Brothers, K. N. Kudin, 
 V. N. Staroverov, T. A. Keith, R. Kobayashi, J. Normand, 
 K. Raghavachari, A. P. Rendell, J. C. Burant, S. S. Iyengar, 
 J. Tomasi, M. Cossi, J. M. Millam, M. Klene, C. Adamo, R. Cammi, 
 J. W. Ochterski, R. L. Martin, K. Morokuma, O. Farkas, 
 J. B. Foresman, and D. J. Fox, Gaussian, Inc., Wallingford CT, 2016.
 
 ******************************************
 Gaussian 16:  ES64L-G16RevB.01 20-Dec-2017
                28-Sep-2026 
 ******************************************
 %nprocshared=1
 Will use up to    1 processors via shared memory.
 %mem=1GB
 %chk=calcs/am1/chks/BrPh_236_anion.chk
 -----------------
 # Opt AM1 SCF=XQC
 -----------------
 1/18=20,19=15,26=1,38=1/1,3;
 2/9=110,12=2,17=6,18=5,40=1/2;
 3/5=2,25=1,41=700000,71=1/1,2,3;
 4/35=1/1;
 5/5=2,8=3,13=1,35=1,38=5/2,8;
 6/7=2,8=2,9=2,10=2,28=1/1;
 7//1,2,3,16;
 1/18=20,19=15,26=1/3(2);
 2/9=110/2;
 99//99;
 2/9=110/2;
 3/5=2,25=1,41=700000,71=1,135=20/1,2,3;
 4/5=5,16=3,35=1/1;
 5/5=2,8=3,13=1,35=1,38=5/2,8;
 7//1,2,3,16;
 1/18=20,19=15,26=1/3(-5);
 2/9=110/2;
 6/7=2,8=2,9=2,10=2,19=2,28=1/1;
 99/9=1/99;
 ------------------
 BrPh_236_anion am1
 ------------------
 Symbolic Z-matrix:
 Charge = -1 Multiplicity = 1
 C                     0.        1.39      0. 
 C                     1.20378   0.695     0. 
 C                     1.20378  -0.695     0. 
 C                     0.       -1.39      0. 
 C                    -1.20378  -0.695     0. 
 C                    -1.20378   0.695     0. 
 Br                    2.84922   1.645     0. 
 Br                    2.84922  -1.645     0. 
 H                     0.       -2.47      0. 
 H                    -2.13908  -1.235     0. 
 Br                   -2.84922   1.645     0. 
 

 GradGradGradGradGradGradGradGradGradGradGradGradGradGradGradGradGradGrad
 Berny optimization.
 Initialization pass.
                           ----------------------------
                           !    Initial Parameters    !
                           ! (Angstroms and Degrees)  !
 --------------------------                            --------------------------
 ! Name  Definition              Value          Derivative Info.                !
 --------------------------------------------------------------------------------
 ! R1    R(1,2)                  1.39           estimate D2E/DX2                !
 ! R2    R(1,6)                  1.39           estimate D2E/DX2                !
 ! R3    R(2,3)                  1.39           estimate D2E/DX2                !
 ! R4    R(2,7)                  1.9            estimate D2E/DX2                !
 ! R5    R(3,4)                  1.39           estimate D2E/DX2                !
 ! R6    R(3,8)                  1.9            estimate D2E/DX2                !
 ! R7    R(4,5)                  1.39           estimate D2E/DX2                !
 ! R8    R(4,9)                  1.08           estimate D2E/DX2                !
 ! R9    R(5,6)                  1.39           estimate D2E/DX2                !
 ! R10   R(5,10)                 1.08           estimate D2E/DX2                !
 ! R11   R(6,11)                 1.9            estimate D2E/DX2                !
 ! A1    A(2,1,6)              120.0            estimate D2E/DX2                !
 ! A2    A(1,2,3)              120.0            estimate D2E/DX2                !
 ! A3    A(1,2,7)              120.0            estimate D2E/DX2                !
 ! A4    A(3,2,7)              120.0            estimate D2E/DX2                !
 ! A5    A(2,3,4)              120.0            estimate D2E/DX2                !
 ! A6    A(2,3,8)              120.0            estimate D2E/DX2                !
 ! A7    A(4,3,8)              120.0            estimate D2E/DX2                !
 ! A8    A(3,4,5)              120.0            estimate D2E/DX2                !
 ! A9    A(3,4,9)              120.0            estimate D2E/DX2                !
 ! A10   A(5,4,9)              120.0            estimate D2E/DX2                !
 ! A11   A(4,5,6)              120.0            estimate D2E/DX2                !
 ! A12   A(4,5,10)             120.0            estimate D2E/DX2                !
 ! A13   A(6,5,10)             120.0            estimate D2E/DX2                !
 ! A14   A(1,6,5)              120.0            estimate D2E/DX2                !
 ! A15   A(1,6,11)             120.0            estimate D2E/DX2                !
 ! A16   A(5,6,11)             120.0            estimate D2E/DX2                !
 ! D1    D(6,1,2,3)              0.0            estimate D2E/DX2                !
 ! D2    D(6,1,2,7)            180.0            estimate D2E/DX2                !
 ! D3    D(2,1,6,5)              0.0            estimate D2E/DX2                !
 ! D4    D(2,1,6,11)           180.0            estimate D2E/DX2                !
 ! D5    D(1,2,3,4)              0.0            estimate D2E/DX2                !
 ! D6    D(1,2,3,8)            180.0            estimate D2E/DX2                !
 ! D7    D(7,2,3,4)            180.0            estimate D2E/DX2                !
 ! D8    D(7,2,3,8)              0.0            estimate D2E/DX2                !
 ! D9    D(2,3,4,5)              0.0            estimate D2E/DX2                !
 ! D10   D(2,3,4,9)            180.0            estimate D2E/DX2                !
 ! D11   D(8,3,4,5)            180.0            estimate D2E/DX2                !
 ! D12   D(8,3,4,9)              0.0            estimate D2E/DX2                !
 ! D13   D(3,4,5,6)              0.0            estimate D2E/DX2                !
 ! D14   D(3,4,5,10)           180.0            estimate D2E/DX2                !
 ! D15   D(9,4,5,6)            180.0            estimate D2E/DX2                !
 ! D16   D(9,4,5,10)             0.0            estimate D2E/DX2                !
 ! D17   D(4,5,6,1)              0.0            estimate D2E/DX2                !
 ! D18   D(4,5,6,11)           180.0            estimate D2E/DX2                !
 ! D19   D(10,5,6,1)           180.0            estimate D2E/DX2                !
 ! D20   D(10,5,6,11)            0.0            estimate D2E/DX2                !
 --------------------------------------------------------------------------------
 Trust Radius=3.00D-01 FncErr=1.00D-07 GrdErr=1.00D-07 EigMax=2.50D+02 EigMin=1.00D-04
 Number of steps in this run=     57 maximum allowed number of steps=    100.
 GradGradGradGradGradGradGradGradGradGradGradGradGradGradGradGradGradGrad

                          Input orientation:                          
 ---------------------------------------------------------------------
 Center     Atomic      Atomic             Coordinates (Angstroms)
 Number     Number       Type             X           Y           Z
 ---------------------------------------------------------------------
      1          6           0        0.000000    1.390000    0.000000
      2          6           0        1.203775    0.695000    0.000000
      3          6           0        1.203775   -0.695000    0.000000
      4          6           0        0.000000   -1.390000    0.000000
      5          6           0       -1.203775   -0.695000    0.000000
      6          6           0       -1.203775    0.695000    0.000000
      7         35           0        2.849224    1.645000    0.000000
      8         35           0        2.849224   -1.645000    0.000000
      9          1           0        0.000000   -2.470000    0.000000
     10          1           0       -2.139083   -1.235000    0.000000
     11         35           0       -2.849224    1.645000    0.000000
 ---------------------------------------------------------------------
                    Distance matrix (angstroms):
                    1          2          3          4          5
     1  C    0.000000
     2  C    1.390000   0.000000
     3  C    2.407551   1.390000   0.000000
     4  C    2.780000   2.407551   1.390000   0.000000
     5  C    2.407551   2.780000   2.407551   1.390000   0.000000
     6  C    1.390000   2.407551   2.780000   2.407551   1.390000
     7  Br   2.860612   1.900000   2.860612   4.162848   4.680000
     8  Br   4.162848   2.860612   1.900000   2.860612   4.162848
     9  H    3.860000   3.386193   2.144691   1.080000   2.144691
    10  H    3.386193   3.860000   3.386193   2.144691   1.080000
    11  Br   2.860612   4.162848   4.680000   4.162848   2.860612
                    6          7          8          9         10
     6  C    0.000000
     7  Br   4.162848   0.000000
     8  Br   4.680000   3.290000   0.000000
     9  H    3.386193   5.005127   2.966260   0.000000
    10  H    2.144691   5.760000   5.005127   2.470000   0.000000
    11  Br   1.900000   5.698447   6.580000   5.005127   2.966260
                   11
    11  Br   0.000000
 Stoichiometry    C6H2Br3(1-)
 Framework group  CS[SG(C6H2Br3)]
 Deg. of freedom    19
 Full point group                 CS      NOp   2
 Largest Abelian subgroup         CS      NOp   2
 Largest concise Abelian subgroup C1      NOp   1
                         Standard orientation:                         
 ---------------------------------------------------------------------
 Center     Atomic      Atomic             Coordinates (Angstroms)
 Number     Number       Type             X           Y           Z
 ---------------------------------------------------------------------
      1          6           0       -0.536330    1.097622    0.000000
      2          6           0       -0.536330   -0.292378   -0.000000
      3          6           0        0.667445   -0.987378   -0.000000
      4          6           0        1.871220   -0.292378    0.000000
      5          6           0        1.871220    1.097622    0.000000
      6          6           0        0.667445    1.792622    0.000000
      7         35           0       -2.181778   -1.242378   -0.000000
      8         35           0        0.667445   -2.887378   -0.000000
      9          1           0        2.806528   -0.832378   -0.000000
     10          1           0        2.806528    1.637622    0.000000
     11         35           0        0.667445    3.692622    0.000000
 ---------------------------------------------------------------------
 Rotational constants (GHZ):           0.9928265           0.2534126           0.2018832
 Standard basis: VSTO-6G (5D, 7F)
 There are    29 symmetry adapted cartesian basis functions of A'  symmetry.
 There are     9 symmetry adapted cartesian basis functions of A"  symmetry.
 There are    29 symmetry adapted basis functions of A'  symmetry.
 There are     9 symmetry adapted basis functions of A"  symmetry.
    38 basis functions,   228 primitive gaussians,    38 cartesian basis functions
    24 alpha electrons       24 beta electrons
       nuclear repulsion energy       236.2475885438 Hartrees.
 Integral buffers will be    131072 words long.
 Regular integral format.
 Two-electron integral symmetry is turned off.
 Do NDO integrals.
 One-electron integrals computed using PRISM.
 NBasis=    38 RedAO= T EigKep=  1.00D+00  NBF=    29     9
 NBsUse=    38 1.00D-06 EigRej= -1.00D+00 NBFU=    29     9
 Nonelectrostatic core Hamiltonian diagonalized for initial guess.
 Initial guess orbital symmetries:
       Occupied  (A') (A') (A') (A') (A') (A') (A') (A') (A') (A')
                 (A') (A") (A') (A') (A") (A") (A') (A') (A") (A')
                 (A") (A') (A") (A')
       Virtual   (A') (A") (A') (A") (A') (A') (A") (A') (A') (A')
                 (A') (A') (A') (A')
 The electronic state of the initial guess is 1-A'.
 Keep J ints in memory in canonical form, NReq=863588.
 Overlap will be assumed to be unity.
 Requested convergence on RMS density matrix=1.00D-08 within  32 cycles.
 Requested convergence on MAX density matrix=1.00D-06.
 Requested convergence on             energy=1.00D-06.
 No special actions if energy rises.
 Fock symm off for IB=2 I1=    1 I=   30 J=   23 Cut=1.00D-07 Err=1.02D-02
 Fock matrix is not symmetric: symmetry in diagonalization turned off.
 SCF Done:  E(RAM1) =  0.769882493571E-01 A.U. after   17 cycles
            NFock= 16  Conv=0.43D-08     -V/T= 1.0007
 QCSCF skips out because SCF is already converged.

 **********************************************************************

            Population analysis using the SCF Density.

 **********************************************************************

 Orbital symmetries:
       Occupied  (A') (A') (A') (A') (A') (A') (A') (A') (A') (A')
                 (A') (A") (A') (A') (A") (A') (A') (A") (A") (A')
                 (A') (A") (A") (A')
       Virtual   (A") (A') (A") (A') (A') (A") (A') (A') (A') (A')
                 (A') (A') (A') (A')
 The electronic state is 1-A'.
 Alpha  occ. eigenvalues --   -1.28611  -1.08617  -1.03371  -1.01121  -0.93254
 Alpha  occ. eigenvalues --   -0.90848  -0.68119  -0.66104  -0.48669  -0.43759
 Alpha  occ. eigenvalues --   -0.41710  -0.37700  -0.37605  -0.34347  -0.31129
 Alpha  occ. eigenvalues --   -0.29388  -0.28902  -0.28279  -0.26555  -0.25675
 Alpha  occ. eigenvalues --   -0.24048  -0.19491  -0.17756  -0.12312
 Alpha virt. eigenvalues --    0.15555   0.16349   0.18235   0.18594   0.19785
 Alpha virt. eigenvalues --    0.27220   0.28977   0.29712   0.32177   0.32687
 Alpha virt. eigenvalues --    0.33732   0.34617   0.37462   0.39178
          Condensed to atoms (all electrons):
               1          2          3          4          5          6
     1  C    4.337891   0.000000   0.000000   0.000000   0.000000   0.000000
     2  C    0.000000   4.124492   0.000000   0.000000   0.000000   0.000000
     3  C    0.000000   0.000000   4.125964   0.000000   0.000000   0.000000
     4  C    0.000000   0.000000   0.000000   4.198245   0.000000   0.000000
     5  C    0.000000   0.000000   0.000000   0.000000   4.119771   0.000000
     6  C    0.000000   0.000000   0.000000   0.000000   0.000000   4.142544
     7  Br   0.000000   0.000000   0.000000   0.000000   0.000000   0.000000
     8  Br   0.000000   0.000000   0.000000   0.000000   0.000000   0.000000
     9  H    0.000000   0.000000   0.000000   0.000000   0.000000   0.000000
    10  H    0.000000   0.000000   0.000000   0.000000   0.000000   0.000000
    11  Br   0.000000   0.000000   0.000000   0.000000   0.000000   0.000000
               7          8          9         10         11
     1  C    0.000000   0.000000   0.000000   0.000000   0.000000
     2  C    0.000000   0.000000   0.000000   0.000000   0.000000
     3  C    0.000000   0.000000   0.000000   0.000000   0.000000
     4  C    0.000000   0.000000   0.000000   0.000000   0.000000
     5  C    0.000000   0.000000   0.000000   0.000000   0.000000
     6  C    0.000000   0.000000   0.000000   0.000000   0.000000
     7  Br   7.043854   0.000000   0.000000   0.000000   0.000000
     8  Br   0.000000   7.052880   0.000000   0.000000   0.000000
     9  H    0.000000   0.000000   0.890320   0.000000   0.000000
    10  H    0.000000   0.000000   0.000000   0.900094   0.000000
    11  Br   0.000000   0.000000   0.000000   0.000000   7.063946
 Mulliken charges:
               1
     1  C   -0.337891
     2  C   -0.124492
     3  C   -0.125964
     4  C   -0.198245
     5  C   -0.119771
     6  C   -0.142544
     7  Br  -0.043854
     8  Br  -0.052880
     9  H    0.109680
    10  H    0.099906
    11  Br  -0.063946
 Sum of Mulliken charges =  -1.00000
 Mulliken charges with hydrogens summed into heavy atoms:
               1
     1  C   -0.337891
     2  C   -0.124492
     3  C   -0.125964
     4  C   -0.088565
     5  C   -0.019865
     6  C   -0.142544
     7  Br  -0.043854
     8  Br  -0.052880
    11  Br  -0.063946
 Charge=             -1.0000 electrons
 Dipole moment (field-independent basis, Debye):
    X=              2.4303    Y=             -3.0308    Z=              0.0000  Tot=              3.8849
 N-N= 2.362475885438D+02 E-N=-3.362216180883D+02  KE=-1.111722098010D+02
 Symmetry A'   KE=-8.547224787525D+01
 Symmetry A"   KE=-2.569996192571D+01
 Calling FoFJK, ICntrl=      2127 FMM=F ISym2X=1 I1Cent= 0 IOpClX= 0 NMat=1 NMatS=1 NMatT=0.
 ***** Axes restored to original set *****
 -------------------------------------------------------------------
 Center     Atomic                   Forces (Hartrees/Bohr)
 Number     Number              X              Y              Z
 -------------------------------------------------------------------
      1        6           0.000233885    0.006104885   -0.000000000
      2        6          -0.007751026    0.012135434   -0.000000000
      3        6           0.017520496   -0.002455361    0.000000000
      4        6           0.000361659    0.001315335    0.000000000
      5        6          -0.004896055    0.003568698    0.000000000
      6        6           0.013029964    0.009955797   -0.000000000
      7       35          -0.006232071   -0.001564941    0.000000000
      8       35          -0.003835411   -0.002362837    0.000000000
      9        1          -0.001125573   -0.013384454    0.000000000
     10        1          -0.011540475   -0.010333386    0.000000000
     11       35           0.004234607   -0.002979168    0.000000000
 -------------------------------------------------------------------
 Cartesian Forces:  Max     0.017520496 RMS     0.006452376

 GradGradGradGradGradGradGradGradGradGradGradGradGradGradGradGradGradGrad
 Berny optimization.
 FormGI is forming the generalized inverse of G from B-inverse, IUseBI=4.
 Internal  Forces:  Max     0.015161038 RMS     0.005449423
 Search for a local minimum.
 Step number   1 out of a maximum of   57
 All quantities printed in internal units (Hartrees-Bohrs-Radians)
 Mixed Optimization -- RFO/linear search
 Second derivative matrix not updated -- first step.
 ITU=  0
     Eigenvalues ---    0.02221   0.02221   0.02221   0.02221   0.02221
     Eigenvalues ---    0.02221   0.02221   0.02221   0.16000   0.16000
     Eigenvalues ---    0.18251   0.18251   0.18251   0.22473   0.24477
     Eigenvalues ---    0.25000   0.25000   0.25000   0.25000   0.35994
     Eigenvalues ---    0.35994   0.43193   0.43599   0.47319   0.47319
     Eigenvalues ---    0.47319   0.47319
 RFO step:  Lambda=-4.19728817D-03 EMin= 2.22103665D-02
 Linear search not attempted -- first point.
 Iteration  1 RMS(Cart)=  0.02414427 RMS(Int)=  0.00017169
 Iteration  2 RMS(Cart)=  0.00019532 RMS(Int)=  0.00002842
 Iteration  3 RMS(Cart)=  0.00000002 RMS(Int)=  0.00002842
 ClnCor:  largest displacement from symmetrization is 1.38D-10 for atom    10.
 Variable       Old X    -DE/DX   Delta X   Delta X   Delta X     New X
                                 (Linear)    (Quad)   (Total)
    R1        2.62672  -0.00551   0.00000  -0.01285  -0.01290   2.61382
    R2        2.62672  -0.00484   0.00000  -0.01153  -0.01154   2.61518
    R3        2.62672   0.01316   0.00000   0.02764   0.02760   2.65432
    R4        3.59048  -0.00618   0.00000  -0.03310  -0.03310   3.55738
    R5        2.62672   0.01071   0.00000   0.02383   0.02384   2.65056
    R6        3.59048  -0.00214   0.00000  -0.01146  -0.01146   3.57902
    R7        2.62672   0.00775   0.00000   0.01754   0.01758   2.64430
    R8        2.04090   0.01338   0.00000   0.03676   0.03676   2.07766
    R9        2.62672   0.01050   0.00000   0.02191   0.02194   2.64866
   R10        2.04090   0.01516   0.00000   0.04164   0.04164   2.08254
   R11        3.59048  -0.00516   0.00000  -0.02762  -0.02762   3.56286
    A1        2.09440  -0.00469   0.00000  -0.02488  -0.02495   2.06944
    A2        2.09440   0.00556   0.00000   0.02039   0.02032   2.11471
    A3        2.09440  -0.00594   0.00000  -0.02263  -0.02259   2.07180
    A4        2.09440   0.00038   0.00000   0.00224   0.00228   2.09667
    A5        2.09440  -0.00253   0.00000  -0.00633  -0.00635   2.08804
    A6        2.09440   0.00838   0.00000   0.03116   0.03117   2.12557
    A7        2.09440  -0.00585   0.00000  -0.02483  -0.02482   2.06958
    A8        2.09440  -0.00305   0.00000  -0.00684  -0.00678   2.08761
    A9        2.09440   0.00267   0.00000   0.01042   0.01039   2.10478
   A10        2.09440   0.00038   0.00000  -0.00357  -0.00360   2.09079
   A11        2.09440  -0.00473   0.00000  -0.01752  -0.01743   2.07696
   A12        2.09440  -0.00088   0.00000  -0.01100  -0.01104   2.08336
   A13        2.09440   0.00561   0.00000   0.02851   0.02847   2.12287
   A14        2.09440   0.00944   0.00000   0.03518   0.03521   2.12960
   A15        2.09440  -0.00389   0.00000  -0.01432  -0.01433   2.08006
   A16        2.09440  -0.00555   0.00000  -0.02086  -0.02087   2.07352
    D1       -0.00000   0.00000   0.00000   0.00000   0.00000   0.00000
    D2        3.14159   0.00000   0.00000   0.00000   0.00000   3.14159
    D3       -0.00000   0.00000   0.00000   0.00000   0.00000   0.00000
    D4        3.14159  -0.00000   0.00000  -0.00000   0.00000   3.14159
    D5        0.00000  -0.00000   0.00000  -0.00000   0.00000   0.00000
    D6        3.14159   0.00000   0.00000   0.00000   0.00000   3.14159
    D7        3.14159  -0.00000   0.00000  -0.00000   0.00000   3.14159
    D8       -0.00000  -0.00000   0.00000  -0.00000   0.00000   0.00000
    D9       -0.00000  -0.00000   0.00000  -0.00000   0.00000   0.00000
   D10        3.14159   0.00000   0.00000   0.00000   0.00000   3.14159
   D11        3.14159  -0.00000   0.00000  -0.00000   0.00000   3.14159
   D12       -0.00000  -0.00000   0.00000  -0.00000   0.00000   0.00000
   D13        0.00000   0.00000   0.00000   0.00000   0.00000   0.00000
   D14        3.14159   0.00000   0.00000   0.00000   0.00000   3.14159
   D15        3.14159  -0.00000   0.00000  -0.00000   0.00000   3.14159
   D16       -0.00000   0.00000   0.00000   0.00000   0.00000   0.00000
   D17       -0.00000  -0.00000   0.00000  -0.00000   0.00000   0.00000
   D18        3.14159   0.00000   0.00000   0.00000   0.00000   3.14159
   D19        3.14159  -0.00000   0.00000  -0.00000   0.00000   3.14159
   D20        0.00000   0.00000   0.00000   0.00000   0.00000   0.00000
         Item               Value     Threshold  Converged?
 Maximum Force            0.015161     0.000450     NO 
 RMS     Force            0.005449     0.000300     NO 
 Maximum Displacement     0.065737     0.001800     NO 
 RMS     Displacement     0.024090     0.001200     NO 
 Predicted change in Energy=-2.127498D-03
 GradGradGradGradGradGradGradGradGradGradGradGradGradGradGradGradGradGrad

                          Input orientation:                          
 ---------------------------------------------------------------------
 Center     Atomic      Atomic             Coordinates (Angstroms)
 Number     Number       Type             X           Y           Z
 ---------------------------------------------------------------------
      1          6           0        0.007115    1.415342   -0.000000
      2          6           0        1.198527    0.712693    0.000000
      3          6           0        1.214057   -0.691828    0.000000
      4          6           0        0.002669   -1.398842   -0.000000
      5          6           0       -1.207709   -0.696674   -0.000000
      6          6           0       -1.180366    0.704670   -0.000000
      7         35           0        2.816111    1.675590    0.000000
      8         35           0        2.834874   -1.671593    0.000000
      9          1           0       -0.003578   -2.498275    0.000000
     10          1           0       -2.157121   -1.256221   -0.000000
     11         35           0       -2.814437    1.645139   -0.000000
 ---------------------------------------------------------------------
                    Distance matrix (angstroms):
                    1          2          3          4          5
     1  C    0.000000
     2  C    1.383176   0.000000
     3  C    2.428348   1.404607   0.000000
     4  C    2.814188   2.426656   1.402615   0.000000
     5  C    2.436475   2.788599   2.421771   1.399305   0.000000
     6  C    1.383895   2.378906   2.771906   2.413366   1.401611
     7  Br   2.821026   1.882485   2.858539   4.167444   4.671056
     8  Br   4.186333   2.891791   1.893934   2.845308   4.158479
     9  H    3.913632   3.428611   2.178505   1.099451   2.166956
    10  H    3.438192   3.890629   3.418096   2.164494   1.102032
    11  Br   2.830895   4.119871   4.657272   4.147519   2.840011
                    6          7          8          9         10
     6  C    0.000000
     7  Br   4.112726   0.000000
     8  Br   4.665702   3.347236   0.000000
     9  H    3.412285   5.037042   2.956385   0.000000
    10  H    2.190695   5.773089   5.009246   2.486051   0.000000
    11  Br   1.885384   5.630631   6.550987   5.006877   2.974887
                   11
    11  Br   0.000000
 Stoichiometry    C6H2Br3(1-)
 Framework group  CS[SG(C6H2Br3)]
 Deg. of freedom    19
 Full point group                 CS      NOp   2
 Largest Abelian subgroup         CS      NOp   2
 Largest concise Abelian subgroup C1      NOp   1
                         Standard orientation:                         
 ---------------------------------------------------------------------
 Center     Atomic      Atomic             Coordinates (Angstroms)
 Number     Number       Type             X           Y           Z
 ---------------------------------------------------------------------
      1          6           0       -1.235700    0.005495    0.000000
      2          6           0        0.000000   -0.615972    0.000000
      3          6           0        1.189392    0.131201    0.000000
      4          6           0        1.128188    1.532481    0.000000
      5          6           0       -0.117375    2.170156    0.000000
      6          6           0       -1.280888    1.388652    0.000000
      7         35           0        0.065910   -2.497303    0.000000
      8         35           0        2.890530   -0.701333    0.000000
      9          1           0        2.049260    2.132829    0.000000
     10          1           0       -0.160775    3.271333    0.000000
     11         35           0       -2.956160    2.253601    0.000000
 ---------------------------------------------------------------------
 Rotational constants (GHZ):           0.9694390           0.2575978           0.2035190
 Standard basis: VSTO-6G (5D, 7F)
 There are    29 symmetry adapted cartesian basis functions of A'  symmetry.
 There are     9 symmetry adapted cartesian basis functions of A"  symmetry.
 There are    29 symmetry adapted basis functions of A'  symmetry.
 There are     9 symmetry adapted basis functions of A"  symmetry.
    38 basis functions,   228 primitive gaussians,    38 cartesian basis functions
    24 alpha electrons       24 beta electrons
       nuclear repulsion energy       236.2202872770 Hartrees.
 Integral buffers will be    131072 words long.
 Regular integral format.
 Two-electron integral symmetry is turned off.
 Do NDO integrals.
 One-electron integrals computed using PRISM.
 NBasis=    38 RedAO= T EigKep=  1.00D+00  NBF=    29     9
 NBsUse=    38 1.00D-06 EigRej= -1.00D+00 NBFU=    29     9
 Initial guess from the checkpoint file:  "calcs/am1/chks/BrPh_236_anion.chk"
 B after Tr=    -0.000000   -0.000000    0.000000
         Rot=    0.853485    0.000000   -0.000000   -0.521117 Ang= -62.81 deg.
 Initial guess orbital symmetries:
       Occupied  (A') (A') (A') (A') (A') (A') (A') (A') (A') (A')
                 (A') (A") (A') (A') (A") (A') (A') (A") (A") (A')
                 (A') (A") (A") (A')
       Virtual   (A") (A') (A") (A') (A') (A") (A') (A') (A') (A')
                 (A') (A') (A') (A')
 Keep J ints in memory in canonical form, NReq=863588.
 Overlap will be assumed to be unity.
 Requested convergence on RMS density matrix=1.00D-08 within  32 cycles.
 Requested convergence on MAX density matrix=1.00D-06.
 Requested convergence on             energy=1.00D-06.
 No special actions if energy rises.
 Fock symm off for IB=2 I1=    1 I=   30 J=   27 Cut=1.00D-07 Err=3.53D-04
 Fock matrix is not symmetric: symmetry in diagonalization turned off.
 SCF Done:  E(RAM1) =  0.753339674137E-01 A.U. after   13 cycles
            NFock= 12  Conv=0.91D-08     -V/T= 1.0007
 QCSCF skips out because SCF is already converged.
 Calling FoFJK, ICntrl=      2127 FMM=F ISym2X=1 I1Cent= 0 IOpClX= 0 NMat=1 NMatS=1 NMatT=0.
 ***** Axes restored to original set *****
 -------------------------------------------------------------------
 Center     Atomic                   Forces (Hartrees/Bohr)
 Number     Number              X              Y              Z
 -------------------------------------------------------------------
      1        6          -0.001645379    0.001950949   -0.000000000
      2        6           0.000812970   -0.008452587   -0.000000000
      3        6          -0.000751437    0.002827530   -0.000000000
      4        6           0.000459018    0.004669365   -0.000000000
      5        6           0.001290737    0.002440856    0.000000000
      6        6           0.001185569   -0.007183079    0.000000000
      7       35           0.001734642    0.000012962    0.000000000
      8       35          -0.002090028    0.000622778    0.000000000
      9        1          -0.000049314    0.001600829    0.000000000
     10        1           0.002145773    0.000608746    0.000000000
     11       35          -0.003092552    0.000901651    0.000000000
 -------------------------------------------------------------------
 Cartesian Forces:  Max     0.008452587 RMS     0.002433989

 GradGradGradGradGradGradGradGradGradGradGradGradGradGradGradGradGradGrad
 Berny optimization.
 Using GEDIIS/GDIIS optimizer.
 FormGI is forming the generalized inverse of G from B-inverse, IUseBI=4.
 Internal  Forces:  Max     0.006794094 RMS     0.001993792
 Search for a local minimum.
 Step number   2 out of a maximum of   57
 All quantities printed in internal units (Hartrees-Bohrs-Radians)
 Mixed Optimization -- RFO/linear search
 Update second derivatives using D2CorX and points    1    2
 DE= -1.65D-03 DEPred=-2.13D-03 R= 7.78D-01
 TightC=F SS=  1.41D+00  RLast= 1.18D-01 DXNew= 5.0454D-01 3.5442D-01
 Trust test= 7.78D-01 RLast= 1.18D-01 DXMaxT set to 3.54D-01
 ITU=  1  0
 Use linear search instead of GDIIS.
     Eigenvalues ---    0.02221   0.02221   0.02221   0.02221   0.02221
     Eigenvalues ---    0.02221   0.02221   0.02221   0.15634   0.16001
     Eigenvalues ---    0.17870   0.18251   0.18886   0.22026   0.23506
     Eigenvalues ---    0.24608   0.25000   0.25000   0.25585   0.35828
     Eigenvalues ---    0.36016   0.43128   0.44976   0.47303   0.47319
     Eigenvalues ---    0.47319   0.60035
 RFO step:  Lambda=-2.20132122D-04 EMin= 2.22103665D-02
 Quartic linear search produced a step of -0.17182.
 Iteration  1 RMS(Cart)=  0.00803657 RMS(Int)=  0.00002095
 Iteration  2 RMS(Cart)=  0.00002887 RMS(Int)=  0.00000327
 Iteration  3 RMS(Cart)=  0.00000000 RMS(Int)=  0.00000327
 ClnCor:  largest displacement from symmetrization is 2.77D-10 for atom     9.
 Variable       Old X    -DE/DX   Delta X   Delta X   Delta X     New X
                                 (Linear)    (Quad)   (Total)
    R1        2.61382   0.00370   0.00222   0.00414   0.00636   2.62018
    R2        2.61518   0.00161   0.00198   0.00078   0.00276   2.61795
    R3        2.65432  -0.00679  -0.00474  -0.00573  -0.01047   2.64385
    R4        3.55738   0.00150   0.00569  -0.00055   0.00514   3.56252
    R5        2.65056  -0.00482  -0.00410  -0.00366  -0.00776   2.64280
    R6        3.57902  -0.00211   0.00197  -0.01211  -0.01014   3.56888
    R7        2.64430  -0.00424  -0.00302  -0.00404  -0.00707   2.63723
    R8        2.07766  -0.00160  -0.00632   0.00451  -0.00181   2.07585
    R9        2.64866  -0.00597  -0.00377  -0.00554  -0.00931   2.63935
   R10        2.08254  -0.00216  -0.00715   0.00431  -0.00284   2.07970
   R11        3.56286   0.00313   0.00475   0.00807   0.01281   3.57567
    A1        2.06944  -0.00134   0.00429  -0.00726  -0.00296   2.06648
    A2        2.11471  -0.00035  -0.00349   0.00412   0.00063   2.11534
    A3        2.07180   0.00173   0.00388   0.00034   0.00421   2.07602
    A4        2.09667  -0.00139  -0.00039  -0.00445  -0.00485   2.09182
    A5        2.08804  -0.00017   0.00109  -0.00332  -0.00222   2.08582
    A6        2.12557   0.00106  -0.00536   0.01112   0.00577   2.13133
    A7        2.06958  -0.00090   0.00426  -0.00781  -0.00355   2.06603
    A8        2.08761   0.00242   0.00117   0.00488   0.00604   2.09366
    A9        2.10478  -0.00115  -0.00178  -0.00058  -0.00236   2.10242
   A10        2.09079  -0.00127   0.00062  -0.00430  -0.00368   2.08711
   A11        2.07696   0.00046   0.00300  -0.00363  -0.00064   2.07632
   A12        2.08336  -0.00082   0.00190  -0.00560  -0.00369   2.07966
   A13        2.12287   0.00036  -0.00489   0.00922   0.00434   2.12720
   A14        2.12960  -0.00103  -0.00605   0.00521  -0.00085   2.12875
   A15        2.08006   0.00187   0.00246   0.00261   0.00508   2.08514
   A16        2.07352  -0.00084   0.00359  -0.00782  -0.00423   2.06930
    D1       -0.00000   0.00000   0.00000   0.00000   0.00000   0.00000
    D2        3.14159   0.00000   0.00000   0.00000   0.00000   3.14159
    D3        0.00000   0.00000   0.00000   0.00000  -0.00000   0.00000
    D4        3.14159  -0.00000   0.00000  -0.00000   0.00000   3.14159
    D5        0.00000   0.00000   0.00000   0.00000   0.00000   0.00000
    D6        3.14159   0.00000   0.00000   0.00000   0.00000   3.14159
    D7        3.14159  -0.00000   0.00000  -0.00000   0.00000   3.14159
    D8       -0.00000  -0.00000   0.00000  -0.00000   0.00000   0.00000
    D9       -0.00000  -0.00000   0.00000  -0.00000   0.00000   0.00000
   D10        3.14159   0.00000   0.00000   0.00000   0.00000   3.14159
   D11        3.14159  -0.00000   0.00000  -0.00000   0.00000   3.14159
   D12        0.00000  -0.00000   0.00000  -0.00000   0.00000   0.00000
   D13        0.00000   0.00000   0.00000   0.00000  -0.00000   0.00000
   D14        3.14159   0.00000   0.00000   0.00000   0.00000   3.14159
   D15        3.14159  -0.00000   0.00000  -0.00000   0.00000   3.14159
   D16       -0.00000  -0.00000   0.00000  -0.00000   0.00000   0.00000
   D17       -0.00000  -0.00000   0.00000  -0.00000   0.00000   0.00000
   D18        3.14159   0.00000   0.00000   0.00000   0.00000   3.14159
   D19        3.14159  -0.00000   0.00000  -0.00000   0.00000   3.14159
   D20        0.00000  -0.00000   0.00000   0.00000  -0.00000   0.00000
         Item               Value     Threshold  Converged?
 Maximum Force            0.006794     0.000450     NO 
 RMS     Force            0.001994     0.000300     NO 
 Maximum Displacement     0.024440     0.001800     NO 
 RMS     Displacement     0.008046     0.001200     NO 
 Predicted change in Energy=-1.834110D-04
 GradGradGradGradGradGradGradGradGradGradGradGradGradGradGradGradGradGrad

                          Input orientation:                          
 ---------------------------------------------------------------------
 Center     Atomic      Atomic             Coordinates (Angstroms)
 Number     Number       Type             X           Y           Z
 ---------------------------------------------------------------------
      1          6           0        0.006457    1.416717   -0.000000
      2          6           0        1.199860    0.710825    0.000000
      3          6           0        1.214418   -0.688167    0.000000
      4          6           0        0.004556   -1.389642   -0.000000
      5          6           0       -1.204800   -0.693183   -0.000000
      6          6           0       -1.181082    0.703298   -0.000000
      7         35           0        2.825061    1.666189    0.000000
      8         35           0        2.824342   -1.675509    0.000000
      9          1           0       -0.002243   -2.488114    0.000000
     10          1           0       -2.149058   -1.258462   -0.000000
     11         35           0       -2.827370    1.636049   -0.000000
 ---------------------------------------------------------------------
                    Distance matrix (angstroms):
                    1          2          3          4          5
     1  C    0.000000
     2  C    1.386540   0.000000
     3  C    2.426871   1.399067   0.000000
     4  C    2.806359   2.416756   1.398511   0.000000
     5  C    2.432863   2.784534   2.419223   1.395564   0.000000
     6  C    1.385358   2.380954   2.770306   2.405439   1.396682
     7  Br   2.829623   1.885206   2.852572   4.158528   4.669735
     8  Br   4.183579   2.886785   1.888571   2.834239   4.147162
     9  H    3.904840   3.417347   2.172573   1.098493   2.160537
    10  H    3.435524   3.885015   3.411481   2.157606   1.100528
    11  Br   2.842302   4.132145   4.662406   4.144226   2.838671
                    6          7          8          9         10
     6  C    0.000000
     7  Br   4.120236   0.000000
     8  Br   4.658556   3.341698   0.000000
     9  H    3.402171   5.025125   2.941073   0.000000
    10  H    2.187573   5.770221   4.990855   2.474036   0.000000
    11  Br   1.892165   5.652512   6.550440   4.999006   2.972928
                   11
    11  Br   0.000000
 Stoichiometry    C6H2Br3(1-)
 Framework group  CS[SG(C6H2Br3)]
 Deg. of freedom    19
 Full point group                 CS      NOp   2
 Largest Abelian subgroup         CS      NOp   2
 Largest concise Abelian subgroup C1      NOp   1
                         Standard orientation:                         
 ---------------------------------------------------------------------
 Center     Atomic      Atomic             Coordinates (Angstroms)
 Number     Number       Type             X           Y           Z
 ---------------------------------------------------------------------
      1          6           0       -1.239495   -0.000037    0.000000
      2          6           0        0.000000   -0.621443   -0.000000
      3          6           0        1.184228    0.123536   -0.000000
      4          6           0        1.119215    1.520534    0.000000
      5          6           0       -0.120983    2.160461    0.000000
      6          6           0       -1.282383    1.384657    0.000000
      7         35           0        0.076336   -2.505103   -0.000000
      8         35           0        2.885828   -0.695766   -0.000000
      9          1           0        2.039190    2.120812    0.000000
     10          1           0       -0.156755    3.260408    0.000000
     11         35           0       -2.957762    2.264084    0.000000
 ---------------------------------------------------------------------
 Rotational constants (GHZ):           0.9713503           0.2570010           0.2032301
 Standard basis: VSTO-6G (5D, 7F)
 There are    29 symmetry adapted cartesian basis functions of A'  symmetry.
 There are     9 symmetry adapted cartesian basis functions of A"  symmetry.
 There are    29 symmetry adapted basis functions of A'  symmetry.
 There are     9 symmetry adapted basis functions of A"  symmetry.
    38 basis functions,   228 primitive gaussians,    38 cartesian basis functions
    24 alpha electrons       24 beta electrons
       nuclear repulsion energy       236.3140706693 Hartrees.
 Integral buffers will be    131072 words long.
 Regular integral format.
 Two-electron integral symmetry is turned off.
 Do NDO integrals.
 One-electron integrals computed using PRISM.
 NBasis=    38 RedAO= T EigKep=  1.00D+00  NBF=    29     9
 NBsUse=    38 1.00D-06 EigRej= -1.00D+00 NBFU=    29     9
 Initial guess from the checkpoint file:  "calcs/am1/chks/BrPh_236_anion.chk"
 B after Tr=     0.000000   -0.000000    0.000000
         Rot=    1.000000   -0.000000    0.000000   -0.000204 Ang=  -0.02 deg.
 Initial guess orbital symmetries:
       Occupied  (A') (A') (A') (A') (A') (A') (A') (A') (A') (A')
                 (A') (A") (A') (A') (A") (A') (A') (A") (A") (A')
                 (A') (A") (A") (A')
       Virtual   (A") (A') (A") (A') (A') (A") (A') (A') (A') (A')
                 (A') (A') (A') (A')
 Keep J ints in memory in canonical form, NReq=863588.
 Overlap will be assumed to be unity.
 Requested convergence on RMS density matrix=1.00D-08 within  32 cycles.
 Requested convergence on MAX density matrix=1.00D-06.
 Requested convergence on             energy=1.00D-06.
 No special actions if energy rises.
 Fock symm off for IB=2 I1=    1 I=   30 J=   27 Cut=1.00D-07 Err=1.42D-04
 Fock matrix is not symmetric: symmetry in diagonalization turned off.
 SCF Done:  E(RAM1) =  0.751426989256E-01 A.U. after   12 cycles
            NFock= 11  Conv=0.89D-08     -V/T= 1.0007
 QCSCF skips out because SCF is already converged.
 Calling FoFJK, ICntrl=      2127 FMM=F ISym2X=1 I1Cent= 0 IOpClX= 0 NMat=1 NMatS=1 NMatT=0.
 ***** Axes restored to original set *****
 -------------------------------------------------------------------
 Center     Atomic                   Forces (Hartrees/Bohr)
 Number     Number              X              Y              Z
 -------------------------------------------------------------------
      1        6          -0.000505443    0.001375397   -0.000000000
      2        6          -0.000379938   -0.001057026   -0.000000000
      3        6           0.001507833    0.000847281   -0.000000000
      4        6          -0.000391656   -0.001234133   -0.000000000
      5        6          -0.001695439    0.000044766   -0.000000000
      6        6           0.000501103   -0.000502206    0.000000000
      7       35           0.000540730    0.000169451    0.000000000
      8       35           0.000287299   -0.000372702    0.000000000
      9        1          -0.000080826    0.000346937    0.000000000
     10        1           0.000761719    0.000250990    0.000000000
     11       35          -0.000545383    0.000131245   -0.000000000
 -------------------------------------------------------------------
 Cartesian Forces:  Max     0.001695439 RMS     0.000629669

 GradGradGradGradGradGradGradGradGradGradGradGradGradGradGradGradGradGrad
 Berny optimization.
 Using GEDIIS/GDIIS optimizer.
 FormGI is forming the generalized inverse of G from B-inverse, IUseBI=4.
 Internal  Forces:  Max     0.001205616 RMS     0.000376322
 Search for a local minimum.
 Step number   3 out of a maximum of   57
 All quantities printed in internal units (Hartrees-Bohrs-Radians)
 Mixed Optimization -- En-DIIS/RFO-DIIS
 Update second derivatives using D2CorX and points    1    2    3
 DE= -1.91D-04 DEPred=-1.83D-04 R= 1.04D+00
 TightC=F SS=  1.41D+00  RLast= 2.99D-02 DXNew= 5.9607D-01 8.9667D-02
 Trust test= 1.04D+00 RLast= 2.99D-02 DXMaxT set to 3.54D-01
 ITU=  1  1  0
 Use linear search instead of GDIIS.
     Eigenvalues ---    0.02221   0.02221   0.02221   0.02221   0.02221
     Eigenvalues ---    0.02221   0.02221   0.02221   0.15007   0.16003
     Eigenvalues ---    0.17712   0.18261   0.18542   0.21375   0.23035
     Eigenvalues ---    0.24559   0.25000   0.25023   0.25531   0.35956
     Eigenvalues ---    0.36224   0.42984   0.44677   0.46334   0.47319
     Eigenvalues ---    0.47322   0.65643
 RFO step:  Lambda=-2.14357872D-05 EMin= 2.22103665D-02
 Quartic linear search produced a step of  0.03864.
 Iteration  1 RMS(Cart)=  0.00189609 RMS(Int)=  0.00000149
 Iteration  2 RMS(Cart)=  0.00000199 RMS(Int)=  0.00000013
 Iteration  3 RMS(Cart)=  0.00000000 RMS(Int)=  0.00000013
 ClnCor:  largest displacement from symmetrization is 2.06D-11 for atom     8.
 Variable       Old X    -DE/DX   Delta X   Delta X   Delta X     New X
                                 (Linear)    (Quad)   (Total)
    R1        2.62018   0.00121   0.00025   0.00277   0.00302   2.62320
    R2        2.61795   0.00054   0.00011   0.00116   0.00126   2.61921
    R3        2.64385   0.00004  -0.00040   0.00002  -0.00038   2.64347
    R4        3.56252   0.00055   0.00020   0.00304   0.00324   3.56577
    R5        2.64280   0.00120  -0.00030   0.00265   0.00235   2.64515
    R6        3.56888   0.00044  -0.00039   0.00211   0.00171   3.57059
    R7        2.63723   0.00073  -0.00027   0.00154   0.00127   2.63850
    R8        2.07585  -0.00035  -0.00007  -0.00074  -0.00081   2.07504
    R9        2.63935   0.00009  -0.00036   0.00007  -0.00029   2.63906
   R10        2.07970  -0.00078  -0.00011  -0.00200  -0.00211   2.07759
   R11        3.57567   0.00054   0.00050   0.00326   0.00376   3.57943
    A1        2.06648  -0.00043  -0.00011  -0.00216  -0.00228   2.06420
    A2        2.11534   0.00048   0.00002   0.00228   0.00231   2.11765
    A3        2.07602  -0.00001   0.00016  -0.00015   0.00001   2.07603
    A4        2.09182  -0.00047  -0.00019  -0.00213  -0.00232   2.08950
    A5        2.08582  -0.00040  -0.00009  -0.00170  -0.00179   2.08403
    A6        2.13133   0.00050   0.00022   0.00250   0.00272   2.13406
    A7        2.06603  -0.00010  -0.00014  -0.00080  -0.00093   2.06510
    A8        2.09366   0.00006   0.00023   0.00043   0.00066   2.09432
    A9        2.10242   0.00006  -0.00009   0.00043   0.00034   2.10276
   A10        2.08711  -0.00011  -0.00014  -0.00086  -0.00100   2.08611
   A11        2.07632   0.00003  -0.00002  -0.00013  -0.00016   2.07616
   A12        2.07966  -0.00020  -0.00014  -0.00143  -0.00157   2.07809
   A13        2.12720   0.00017   0.00017   0.00156   0.00173   2.12893
   A14        2.12875   0.00027  -0.00003   0.00129   0.00125   2.13001
   A15        2.08514   0.00014   0.00020   0.00069   0.00089   2.08603
   A16        2.06930  -0.00041  -0.00016  -0.00198  -0.00214   2.06715
    D1       -0.00000  -0.00000   0.00000  -0.00000   0.00000   0.00000
    D2        3.14159   0.00000   0.00000   0.00000   0.00000   3.14159
    D3       -0.00000   0.00000   0.00000   0.00000   0.00000   0.00000
    D4        3.14159   0.00000   0.00000   0.00000   0.00000   3.14159
    D5        0.00000  -0.00000   0.00000  -0.00000  -0.00000   0.00000
    D6        3.14159   0.00000   0.00000   0.00000   0.00000   3.14159
    D7        3.14159  -0.00000   0.00000  -0.00000   0.00000   3.14159
    D8       -0.00000  -0.00000   0.00000  -0.00000   0.00000   0.00000
    D9       -0.00000   0.00000   0.00000   0.00000   0.00000   0.00000
   D10        3.14159   0.00000   0.00000   0.00000   0.00000   3.14159
   D11        3.14159  -0.00000   0.00000  -0.00000   0.00000   3.14159
   D12        0.00000  -0.00000   0.00000  -0.00000  -0.00000   0.00000
   D13       -0.00000  -0.00000   0.00000  -0.00000   0.00000   0.00000
   D14        3.14159   0.00000   0.00000   0.00000   0.00000   3.14159
   D15        3.14159  -0.00000   0.00000  -0.00000   0.00000   3.14159
   D16       -0.00000  -0.00000   0.00000  -0.00000   0.00000   0.00000
   D17        0.00000  -0.00000   0.00000  -0.00000   0.00000   0.00000
   D18        3.14159   0.00000   0.00000   0.00000   0.00000   3.14159
   D19        3.14159  -0.00000   0.00000  -0.00000   0.00000   3.14159
   D20       -0.00000  -0.00000   0.00000  -0.00000   0.00000   0.00000
         Item               Value     Threshold  Converged?
 Maximum Force            0.001206     0.000450     NO 
 RMS     Force            0.000376     0.000300     NO 
 Maximum Displacement     0.007552     0.001800     NO 
 RMS     Displacement     0.001896     0.001200     NO 
 Predicted change in Energy=-1.099680D-05
 GradGradGradGradGradGradGradGradGradGradGradGradGradGradGradGradGradGrad

                          Input orientation:                          
 ---------------------------------------------------------------------
 Center     Atomic      Atomic             Coordinates (Angstroms)
 Number     Number       Type             X           Y           Z
 ---------------------------------------------------------------------
      1          6           0        0.005842    1.419010   -0.000000
      2          6           0        1.199821    0.710957    0.000000
      3          6           0        1.216027   -0.687815    0.000000
      4          6           0        0.004662   -1.389175   -0.000000
      5          6           0       -1.205312   -0.692443   -0.000000
      6          6           0       -1.181450    0.703882   -0.000000
      7         35           0        2.827590    1.665337    0.000000
      8         35           0        2.825198   -1.678115    0.000000
      9          1           0       -0.003178   -2.487211    0.000000
     10          1           0       -2.147693   -1.258680   -0.000000
     11         35           0       -2.831366    1.634253   -0.000000
 ---------------------------------------------------------------------
                    Distance matrix (angstroms):
                    1          2          3          4          5
     1  C    0.000000
     2  C    1.388137   0.000000
     3  C    2.429663   1.398866   0.000000
     4  C    2.808185   2.416394   1.399753   0.000000
     5  C    2.434159   2.784636   2.421344   1.396235   0.000000
     6  C    1.386027   2.381282   2.772132   2.405774   1.396529
     7  Br   2.832479   1.886922   2.852098   4.159202   4.671555
     8  Br   4.188192   2.889553   1.889477   2.835297   4.149284
     9  H    3.906231   3.416941   2.173542   1.098064   2.160166
    10  H    3.436239   3.883983   3.411818   2.156308   1.099412
    11  Br   2.845361   4.135571   4.666197   4.145380   2.838585
                    6          7          8          9         10
     6  C    0.000000
     7  Br   4.122718   0.000000
     8  Br   4.661238   3.343453   0.000000
     9  H    3.401676   5.025625   2.941827   0.000000
    10  H    2.187527   5.770903   4.990548   2.471484   0.000000
    11  Br   1.894152   5.659042   6.555036   4.998511   2.972620
                   11
    11  Br   0.000000
 Stoichiometry    C6H2Br3(1-)
 Framework group  CS[SG(C6H2Br3)]
 Deg. of freedom    19
 Full point group                 CS      NOp   2
 Largest Abelian subgroup         CS      NOp   2
 Largest concise Abelian subgroup C1      NOp   1
                         Standard orientation:                         
 ---------------------------------------------------------------------
 Center     Atomic      Atomic             Coordinates (Angstroms)
 Number     Number       Type             X           Y           Z
 ---------------------------------------------------------------------
      1          6           0       -1.242593   -0.003412   -0.000000
      2          6           0        0.000000   -0.622189   -0.000000
      3          6           0        1.183771    0.123138    0.000000
      4          6           0        1.115660    1.521233    0.000000
      5          6           0       -0.126102    2.159590    0.000000
      6          6           0       -1.286078    1.381933    0.000000
      7         35           0        0.081503   -2.507350   -0.000000
      8         35           0        2.888727   -0.691263   -0.000000
      9          1           0        2.033764    2.123588    0.000000
     10          1           0       -0.161773    3.258423    0.000000
     11         35           0       -2.962801    2.263076    0.000000
 ---------------------------------------------------------------------
 Rotational constants (GHZ):           0.9705755           0.2565635           0.2029226
 Standard basis: VSTO-6G (5D, 7F)
 There are    29 symmetry adapted cartesian basis functions of A'  symmetry.
 There are     9 symmetry adapted cartesian basis functions of A"  symmetry.
 There are    29 symmetry adapted basis functions of A'  symmetry.
 There are     9 symmetry adapted basis functions of A"  symmetry.
    38 basis functions,   228 primitive gaussians,    38 cartesian basis functions
    24 alpha electrons       24 beta electrons
       nuclear repulsion energy       236.2390763230 Hartrees.
 Integral buffers will be    131072 words long.
 Regular integral format.
 Two-electron integral symmetry is turned off.
 Do NDO integrals.
 One-electron integrals computed using PRISM.
 NBasis=    38 RedAO= T EigKep=  1.00D+00  NBF=    29     9
 NBsUse=    38 1.00D-06 EigRej= -1.00D+00 NBFU=    29     9
 Initial guess from the checkpoint file:  "calcs/am1/chks/BrPh_236_anion.chk"
 B after Tr=     0.000000    0.000000    0.000000
         Rot=    1.000000    0.000000   -0.000000   -0.000750 Ang=  -0.09 deg.
 Initial guess orbital symmetries:
       Occupied  (A') (A') (A') (A') (A') (A') (A') (A') (A') (A')
                 (A') (A") (A') (A') (A") (A') (A') (A") (A") (A')
                 (A') (A") (A") (A')
       Virtual   (A") (A') (A") (A') (A') (A") (A') (A') (A') (A')
                 (A') (A') (A') (A')
 Keep J ints in memory in canonical form, NReq=863588.
 Overlap will be assumed to be unity.
 Requested convergence on RMS density matrix=1.00D-08 within  32 cycles.
 Requested convergence on MAX density matrix=1.00D-06.
 Requested convergence on             energy=1.00D-06.
 No special actions if energy rises.
 Fock symm off for IB=2 I1=    1 I=   30 J=   27 Cut=1.00D-07 Err=7.84D-05
 Fock matrix is not symmetric: symmetry in diagonalization turned off.
 SCF Done:  E(RAM1) =  0.751325081631E-01 A.U. after   12 cycles
            NFock= 11  Conv=0.60D-08     -V/T= 1.0007
 QCSCF skips out because SCF is already converged.
 Calling FoFJK, ICntrl=      2127 FMM=F ISym2X=1 I1Cent= 0 IOpClX= 0 NMat=1 NMatS=1 NMatT=0.
 ***** Axes restored to original set *****
 -------------------------------------------------------------------
 Center     Atomic                   Forces (Hartrees/Bohr)
 Number     Number              X              Y              Z
 -------------------------------------------------------------------
      1        6           0.000135784    0.000116538   -0.000000000
      2        6          -0.000596429   -0.000360295   -0.000000000
      3        6          -0.000007451    0.000382349   -0.000000000
      4        6          -0.000022622   -0.000163315   -0.000000000
      5        6           0.000030718   -0.000054188   -0.000000000
      6        6           0.000414956    0.000053000    0.000000000
      7       35          -0.000087050   -0.000035098    0.000000000
      8       35          -0.000139904    0.000049127    0.000000000
      9        1           0.000019546    0.000111132    0.000000000
     10        1           0.000058793    0.000006136    0.000000000
     11       35           0.000193659   -0.000105387    0.000000000
 -------------------------------------------------------------------
 Cartesian Forces:  Max     0.000596429 RMS     0.000171048

 GradGradGradGradGradGradGradGradGradGradGradGradGradGradGradGradGradGrad
 Berny optimization.
 Using GEDIIS/GDIIS optimizer.
 FormGI is forming the generalized inverse of G from B-inverse, IUseBI=4.
 Internal  Forces:  Max     0.000464611 RMS     0.000153733
 Search for a local minimum.
 Step number   4 out of a maximum of   57
 All quantities printed in internal units (Hartrees-Bohrs-Radians)
 Mixed Optimization -- En-DIIS/RFO-DIIS
 Swapping is turned off.
 Update second derivatives using D2CorX and points    1    2    3    4
 DE= -1.02D-05 DEPred=-1.10D-05 R= 9.27D-01
 TightC=F SS=  1.41D+00  RLast= 9.60D-03 DXNew= 5.9607D-01 2.8791D-02
 Trust test= 9.27D-01 RLast= 9.60D-03 DXMaxT set to 3.54D-01
 ITU=  1  1  1  0
     Eigenvalues ---    0.02221   0.02221   0.02221   0.02221   0.02221
     Eigenvalues ---    0.02221   0.02221   0.02221   0.13176   0.16009
     Eigenvalues ---    0.17070   0.18264   0.19083   0.20408   0.22698
     Eigenvalues ---    0.24806   0.24948   0.25002   0.26901   0.35718
     Eigenvalues ---    0.36055   0.43395   0.45056   0.46828   0.47317
     Eigenvalues ---    0.54587   0.67957
 En-DIIS/RFO-DIIS/Sim-DIIS IScMMF=       -3 using points:     4    3
 RFO step:  Lambda=-3.14627533D-06.
 DidBck=F Rises=F RFO-DIIS coefs:    1.11775   -0.11775
 Iteration  1 RMS(Cart)=  0.00066918 RMS(Int)=  0.00000027
 Iteration  2 RMS(Cart)=  0.00000035 RMS(Int)=  0.00000008
 ClnCor:  largest displacement from symmetrization is 1.89D-11 for atom     8.
 Variable       Old X    -DE/DX   Delta X   Delta X   Delta X     New X
                                 (Linear)    (Quad)   (Total)
    R1        2.62320  -0.00046   0.00036  -0.00084  -0.00048   2.62271
    R2        2.61921  -0.00032   0.00015  -0.00061  -0.00046   2.61875
    R3        2.64347  -0.00036  -0.00004  -0.00082  -0.00086   2.64261
    R4        3.56577  -0.00009   0.00038  -0.00038   0.00001   3.56577
    R5        2.64515  -0.00020   0.00028  -0.00037  -0.00009   2.64506
    R6        3.57059  -0.00014   0.00020  -0.00080  -0.00060   3.56999
    R7        2.63850  -0.00025   0.00015  -0.00047  -0.00032   2.63818
    R8        2.07504  -0.00011  -0.00010  -0.00030  -0.00039   2.07465
    R9        2.63906   0.00003  -0.00003   0.00002  -0.00001   2.63904
   R10        2.07759  -0.00005  -0.00025  -0.00018  -0.00043   2.07716
   R11        3.57943  -0.00022   0.00044  -0.00095  -0.00051   3.57892
    A1        2.06420  -0.00037  -0.00027  -0.00158  -0.00185   2.06235
    A2        2.11765   0.00030   0.00027   0.00111   0.00138   2.11904
    A3        2.07603  -0.00017   0.00000  -0.00059  -0.00059   2.07544
    A4        2.08950  -0.00012  -0.00027  -0.00052  -0.00080   2.08871
    A5        2.08403   0.00010  -0.00021   0.00027   0.00006   2.08410
    A6        2.13406   0.00001   0.00032   0.00019   0.00051   2.13457
    A7        2.06510  -0.00010  -0.00011  -0.00046  -0.00057   2.06452
    A8        2.09432  -0.00023   0.00008  -0.00080  -0.00072   2.09360
    A9        2.10276   0.00009   0.00004   0.00031   0.00035   2.10311
   A10        2.08611   0.00013  -0.00012   0.00049   0.00037   2.08648
   A11        2.07616  -0.00005  -0.00002  -0.00008  -0.00010   2.07606
   A12        2.07809  -0.00000  -0.00019  -0.00021  -0.00039   2.07770
   A13        2.12893   0.00005   0.00020   0.00029   0.00049   2.12943
   A14        2.13001   0.00026   0.00015   0.00108   0.00123   2.13124
   A15        2.08603  -0.00013   0.00010  -0.00048  -0.00037   2.08565
   A16        2.06715  -0.00012  -0.00025  -0.00060  -0.00086   2.06630
    D1        0.00000   0.00000   0.00000   0.00000  -0.00000   0.00000
    D2        3.14159   0.00000  -0.00000   0.00000   0.00000   3.14159
    D3       -0.00000  -0.00000   0.00000  -0.00000   0.00000   0.00000
    D4        3.14159  -0.00000  -0.00000  -0.00000   0.00000   3.14159
    D5       -0.00000  -0.00000   0.00000  -0.00000   0.00000   0.00000
    D6        3.14159   0.00000  -0.00000   0.00000   0.00000   3.14159
    D7        3.14159  -0.00000  -0.00000  -0.00000   0.00000   3.14159
    D8        0.00000  -0.00000   0.00000  -0.00000  -0.00000   0.00000
    D9        0.00000  -0.00000   0.00000  -0.00000  -0.00000   0.00000
   D10        3.14159   0.00000  -0.00000   0.00000   0.00000   3.14159
   D11        3.14159  -0.00000  -0.00000  -0.00000   0.00000   3.14159
   D12        0.00000  -0.00000   0.00000  -0.00000  -0.00000   0.00000
   D13       -0.00000   0.00000   0.00000   0.00000   0.00000   0.00000
   D14        3.14159   0.00000  -0.00000   0.00000   0.00000   3.14159
   D15        3.14159  -0.00000  -0.00000  -0.00000   0.00000   3.14159
   D16        0.00000  -0.00000   0.00000  -0.00000   0.00000   0.00000
   D17        0.00000  -0.00000   0.00000  -0.00000  -0.00000   0.00000
   D18        3.14159   0.00000  -0.00000   0.00000   0.00000   3.14159
   D19        3.14159  -0.00000  -0.00000  -0.00000   0.00000   3.14159
   D20       -0.00000  -0.00000   0.00000  -0.00000   0.00000   0.00000
         Item               Value     Threshold  Converged?
 Maximum Force            0.000465     0.000450     NO 
 RMS     Force            0.000154     0.000300     YES
 Maximum Displacement     0.001803     0.001800     NO 
 RMS     Displacement     0.000669     0.001200     YES
 Predicted change in Energy=-1.573175D-06
 GradGradGradGradGradGradGradGradGradGradGradGradGradGradGradGradGradGrad

                          Input orientation:                          
 ---------------------------------------------------------------------
 Center     Atomic      Atomic             Coordinates (Angstroms)
 Number     Number       Type             X           Y           Z
 ---------------------------------------------------------------------
      1          6           0        0.005889    1.419964   -0.000000
      2          6           0        1.198933    0.710839    0.000000
      3          6           0        1.215657   -0.687471    0.000000
      4          6           0        0.004641   -1.389337   -0.000000
      5          6           0       -1.204990   -0.692349   -0.000000
      6          6           0       -1.180591    0.703959   -0.000000
      7         35           0        2.827107    1.664535    0.000000
      8         35           0        2.824422   -1.677823    0.000000
      9          1           0       -0.003104   -2.487167    0.000000
     10          1           0       -2.147113   -1.258571   -0.000000
     11         35           0       -2.830710    1.633422   -0.000000
 ---------------------------------------------------------------------
                    Distance matrix (angstroms):
                    1          2          3          4          5
     1  C    0.000000
     2  C    1.387880   0.000000
     3  C    2.429984   1.398410   0.000000
     4  C    2.809302   2.416004   1.399706   0.000000
     5  C    2.434768   2.783484   2.420652   1.396067   0.000000
     6  C    1.385784   2.379534   2.770936   2.405549   1.396521
     7  Br   2.831800   1.886926   2.851088   4.158419   4.670408
     8  Br   4.188128   2.889277   1.889159   2.834499   4.148171
     9  H    3.907142   3.416451   2.173542   1.097857   2.160070
    10  H    3.436564   3.882603   3.410921   2.155725   1.099183
    11  Br   2.844619   4.133906   4.664722   4.144429   2.837635
                    6          7          8          9         10
     6  C    0.000000
     7  Br   4.121208   0.000000
     8  Br   4.659723   3.342358   0.000000
     9  H    3.401436   5.024612   2.941078   0.000000
    10  H    2.187622   5.769525   4.989182   2.471078   0.000000
    11  Br   1.893883   5.657903   6.553233   4.997461   2.971688
                   11
    11  Br   0.000000
 Stoichiometry    C6H2Br3(1-)
 Framework group  CS[SG(C6H2Br3)]
 Deg. of freedom    19
 Full point group                 CS      NOp   2
 Largest Abelian subgroup         CS      NOp   2
 Largest concise Abelian subgroup C1      NOp   1
                         Standard orientation:                         
 ---------------------------------------------------------------------
 Center     Atomic      Atomic             Coordinates (Angstroms)
 Number     Number       Type             X           Y           Z
 ---------------------------------------------------------------------
      1          6           0       -1.243520   -0.005315   -0.000000
      2          6           0        0.000000   -0.621652   -0.000000
      3          6           0        1.183020    0.124012    0.000000
      4          6           0        1.114317    1.522030    0.000000
      5          6           0       -0.128026    2.158887    0.000000
      6          6           0       -1.287023    1.379786   -0.000000
      7         35           0        0.083927   -2.506710   -0.000000
      8         35           0        2.888502   -0.688547    0.000000
      9          1           0        2.031779    2.124985    0.000000
     10          1           0       -0.164518    3.257464    0.000000
     11         35           0       -2.963854    2.260145   -0.000000
 ---------------------------------------------------------------------
 Rotational constants (GHZ):           0.9710877           0.2566919           0.2030253
 Standard basis: VSTO-6G (5D, 7F)
 There are    29 symmetry adapted cartesian basis functions of A'  symmetry.
 There are     9 symmetry adapted cartesian basis functions of A"  symmetry.
 There are    29 symmetry adapted basis functions of A'  symmetry.
 There are     9 symmetry adapted basis functions of A"  symmetry.
    38 basis functions,   228 primitive gaussians,    38 cartesian basis functions
    24 alpha electrons       24 beta electrons
       nuclear repulsion energy       236.2680082410 Hartrees.
 Integral buffers will be    131072 words long.
 Regular integral format.
 Two-electron integral symmetry is turned off.
 Do NDO integrals.
 One-electron integrals computed using PRISM.
 NBasis=    38 RedAO= T EigKep=  1.00D+00  NBF=    29     9
 NBsUse=    38 1.00D-06 EigRej= -1.00D+00 NBFU=    29     9
 Initial guess from the checkpoint file:  "calcs/am1/chks/BrPh_236_anion.chk"
 B after Tr=    -0.000000    0.000000   -0.000000
         Rot=    1.000000   -0.000000   -0.000000   -0.000433 Ang=  -0.05 deg.
 Initial guess orbital symmetries:
       Occupied  (A') (A') (A') (A') (A') (A') (A') (A') (A') (A')
                 (A') (A") (A') (A') (A") (A') (A') (A") (A") (A')
                 (A') (A") (A") (A')
       Virtual   (A") (A') (A") (A') (A') (A") (A') (A') (A') (A')
                 (A') (A') (A') (A')
 Keep J ints in memory in canonical form, NReq=863588.
 Overlap will be assumed to be unity.
 Requested convergence on RMS density matrix=1.00D-08 within  32 cycles.
 Requested convergence on MAX density matrix=1.00D-06.
 Requested convergence on             energy=1.00D-06.
 No special actions if energy rises.
 Fock symm off for IB=2 I1=    1 I=   30 J=   27 Cut=1.00D-07 Err=9.21D-06
 Fock matrix is not symmetric: symmetry in diagonalization turned off.
 SCF Done:  E(RAM1) =  0.751311645340E-01 A.U. after   10 cycles
            NFock=  9  Conv=0.91D-08     -V/T= 1.0007
 QCSCF skips out because SCF is already converged.
 Calling FoFJK, ICntrl=      2127 FMM=F ISym2X=1 I1Cent= 0 IOpClX= 0 NMat=1 NMatS=1 NMatT=0.
 ***** Axes restored to original set *****
 -------------------------------------------------------------------
 Center     Atomic                   Forces (Hartrees/Bohr)
 Number     Number              X              Y              Z
 -------------------------------------------------------------------
      1        6           0.000037940    0.000121335   -0.000000000
      2        6           0.000113256   -0.000003259   -0.000000000
      3        6           0.000000867   -0.000036758   -0.000000000
      4        6          -0.000031351   -0.000105879   -0.000000000
      5        6           0.000092709   -0.000041168    0.000000000
      6        6          -0.000175235    0.000034994    0.000000000
      7       35           0.000031665    0.000059162    0.000000000
      8       35           0.000011550   -0.000003109    0.000000000
      9        1           0.000021679   -0.000018362    0.000000000
     10        1          -0.000111936   -0.000019892    0.000000000
     11       35           0.000008856    0.000012937    0.000000000
 -------------------------------------------------------------------
 Cartesian Forces:  Max     0.000175235 RMS     0.000055973

 GradGradGradGradGradGradGradGradGradGradGradGradGradGradGradGradGradGrad
 Berny optimization.
 Using GEDIIS/GDIIS optimizer.
 FormGI is forming the generalized inverse of G from B-inverse, IUseBI=4.
 Internal  Forces:  Max     0.000138707 RMS     0.000047253
 Search for a local minimum.
 Step number   5 out of a maximum of   57
 All quantities printed in internal units (Hartrees-Bohrs-Radians)
 Mixed Optimization -- En-DIIS/RFO-DIIS
 Swapping is turned off.
 Update second derivatives using D2CorX and points    1    2    3    4    5
 DE= -1.34D-06 DEPred=-1.57D-06 R= 8.54D-01
 TightC=F SS=  1.41D+00  RLast= 3.57D-03 DXNew= 5.9607D-01 1.0710D-02
 Trust test= 8.54D-01 RLast= 3.57D-03 DXMaxT set to 3.54D-01
 ITU=  1  1  1  1  0
     Eigenvalues ---    0.02221   0.02221   0.02221   0.02221   0.02221
     Eigenvalues ---    0.02221   0.02221   0.02221   0.13777   0.16015
     Eigenvalues ---    0.16445   0.18252   0.19091   0.21287   0.22388
     Eigenvalues ---    0.24800   0.24989   0.25368   0.25655   0.35910
     Eigenvalues ---    0.37151   0.43100   0.45772   0.46745   0.47337
     Eigenvalues ---    0.54202   0.75910
 En-DIIS/RFO-DIIS/Sim-DIIS IScMMF=       -3 using points:     5    4    3
 RFO step:  Lambda=-2.16167414D-07.
 DidBck=F Rises=F RFO-DIIS coefs:    0.93650    0.04827    0.01523
 Iteration  1 RMS(Cart)=  0.00016662 RMS(Int)=  0.00000002
 Iteration  2 RMS(Cart)=  0.00000002 RMS(Int)=  0.00000001
 ClnCor:  largest displacement from symmetrization is 1.72D-11 for atom     8.
 Variable       Old X    -DE/DX   Delta X   Delta X   Delta X     New X
                                 (Linear)    (Quad)   (Total)
    R1        2.62271   0.00010  -0.00002   0.00013   0.00012   2.62283
    R2        2.61875   0.00014   0.00001   0.00021   0.00022   2.61897
    R3        2.64261   0.00011   0.00006   0.00007   0.00013   2.64274
    R4        3.56577   0.00006  -0.00005   0.00028   0.00023   3.56600
    R5        2.64506   0.00010  -0.00003   0.00012   0.00009   2.64515
    R6        3.56999   0.00001   0.00001  -0.00003  -0.00002   3.56997
    R7        2.63818   0.00008   0.00000   0.00008   0.00009   2.63827
    R8        2.07465   0.00002   0.00004  -0.00002   0.00002   2.07467
    R9        2.63904   0.00012   0.00001   0.00018   0.00018   2.63923
   R10        2.07716   0.00011   0.00006   0.00019   0.00025   2.07741
   R11        3.57892  -0.00000  -0.00002  -0.00004  -0.00007   3.57885
    A1        2.06235   0.00001   0.00015  -0.00012   0.00003   2.06238
    A2        2.11904  -0.00003  -0.00012   0.00002  -0.00010   2.11894
    A3        2.07544  -0.00005   0.00004  -0.00021  -0.00017   2.07527
    A4        2.08871   0.00008   0.00009   0.00018   0.00027   2.08898
    A5        2.08410   0.00004   0.00002   0.00014   0.00017   2.08426
    A6        2.13457  -0.00002  -0.00007  -0.00005  -0.00013   2.13444
    A7        2.06452  -0.00001   0.00005  -0.00009  -0.00004   2.06448
    A8        2.09360  -0.00002   0.00004  -0.00015  -0.00012   2.09348
    A9        2.10311  -0.00001  -0.00003  -0.00005  -0.00008   2.10303
   A10        2.08648   0.00003  -0.00001   0.00021   0.00020   2.08668
   A11        2.07606   0.00002   0.00001   0.00007   0.00008   2.07614
   A12        2.07770   0.00003   0.00005   0.00016   0.00021   2.07791
   A13        2.12943  -0.00005  -0.00006  -0.00023  -0.00029   2.12914
   A14        2.13124  -0.00002  -0.00010   0.00004  -0.00006   2.13118
   A15        2.08565  -0.00002   0.00001  -0.00009  -0.00008   2.08557
   A16        2.06630   0.00004   0.00009   0.00005   0.00014   2.06644
    D1       -0.00000   0.00000   0.00000   0.00000   0.00000   0.00000
    D2        3.14159   0.00000   0.00000   0.00000   0.00000   3.14159
    D3        0.00000   0.00000   0.00000   0.00000   0.00000   0.00000
    D4        3.14159  -0.00000   0.00000  -0.00000   0.00000   3.14159
    D5        0.00000  -0.00000   0.00000  -0.00000  -0.00000   0.00000
    D6        3.14159   0.00000   0.00000   0.00000   0.00000   3.14159
    D7        3.14159  -0.00000   0.00000  -0.00000   0.00000   3.14159
    D8       -0.00000  -0.00000   0.00000  -0.00000   0.00000   0.00000
    D9       -0.00000  -0.00000   0.00000  -0.00000   0.00000   0.00000
   D10        3.14159   0.00000   0.00000   0.00000   0.00000   3.14159
   D11        3.14159  -0.00000   0.00000  -0.00000   0.00000   3.14159
   D12        0.00000  -0.00000   0.00000  -0.00000  -0.00000   0.00000
   D13        0.00000   0.00000   0.00000   0.00000  -0.00000   0.00000
   D14        3.14159   0.00000   0.00000   0.00000   0.00000   3.14159
   D15        3.14159  -0.00000   0.00000  -0.00000   0.00000   3.14159
   D16        0.00000  -0.00000   0.00000  -0.00000   0.00000   0.00000
   D17       -0.00000  -0.00000   0.00000  -0.00000   0.00000   0.00000
   D18        3.14159  -0.00000   0.00000   0.00000   0.00000   3.14159
   D19        3.14159  -0.00000   0.00000  -0.00000   0.00000   3.14159
   D20       -0.00000  -0.00000   0.00000  -0.00000   0.00000   0.00000
         Item               Value     Threshold  Converged?
 Maximum Force            0.000139     0.000450     YES
 RMS     Force            0.000047     0.000300     YES
 Maximum Displacement     0.000643     0.001800     YES
 RMS     Displacement     0.000167     0.001200     YES
 Predicted change in Energy=-1.080789D-07
 Optimization completed.
    -- Stationary point found.
                           ----------------------------
                           !   Optimized Parameters   !
                           ! (Angstroms and Degrees)  !
 --------------------------                            --------------------------
 ! Name  Definition              Value          Derivative Info.                !
 --------------------------------------------------------------------------------
 ! R1    R(1,2)                  1.3879         -DE/DX =    0.0001              !
 ! R2    R(1,6)                  1.3858         -DE/DX =    0.0001              !
 ! R3    R(2,3)                  1.3984         -DE/DX =    0.0001              !
 ! R4    R(2,7)                  1.8869         -DE/DX =    0.0001              !
 ! R5    R(3,4)                  1.3997         -DE/DX =    0.0001              !
 ! R6    R(3,8)                  1.8892         -DE/DX =    0.0                 !
 ! R7    R(4,5)                  1.3961         -DE/DX =    0.0001              !
 ! R8    R(4,9)                  1.0979         -DE/DX =    0.0                 !
 ! R9    R(5,6)                  1.3965         -DE/DX =    0.0001              !
 ! R10   R(5,10)                 1.0992         -DE/DX =    0.0001              !
 ! R11   R(6,11)                 1.8939         -DE/DX =    0.0                 !
 ! A1    A(2,1,6)              118.1638         -DE/DX =    0.0                 !
 ! A2    A(1,2,3)              121.4118         -DE/DX =    0.0                 !
 ! A3    A(1,2,7)              118.914          -DE/DX =    0.0                 !
 ! A4    A(3,2,7)              119.6742         -DE/DX =    0.0001              !
 ! A5    A(2,3,4)              119.41           -DE/DX =    0.0                 !
 ! A6    A(2,3,8)              122.3016         -DE/DX =    0.0                 !
 ! A7    A(4,3,8)              118.2884         -DE/DX =    0.0                 !
 ! A8    A(3,4,5)              119.9543         -DE/DX =    0.0                 !
 ! A9    A(3,4,9)              120.4994         -DE/DX =    0.0                 !
 ! A10   A(5,4,9)              119.5463         -DE/DX =    0.0                 !
 ! A11   A(4,5,6)              118.9494         -DE/DX =    0.0                 !
 ! A12   A(4,5,10)             119.0433         -DE/DX =    0.0                 !
 ! A13   A(6,5,10)             122.0072         -DE/DX =   -0.0001              !
 ! A14   A(1,6,5)              122.1108         -DE/DX =    0.0                 !
 ! A15   A(1,6,11)             119.499          -DE/DX =    0.0                 !
 ! A16   A(5,6,11)             118.3902         -DE/DX =    0.0                 !
 ! D1    D(6,1,2,3)              0.0            -DE/DX =    0.0                 !
 ! D2    D(6,1,2,7)            180.0            -DE/DX =    0.0                 !
 ! D3    D(2,1,6,5)              0.0            -DE/DX =    0.0                 !
 ! D4    D(2,1,6,11)           180.0            -DE/DX =    0.0                 !
 ! D5    D(1,2,3,4)              0.0            -DE/DX =    0.0                 !
 ! D6    D(1,2,3,8)            180.0            -DE/DX =    0.0                 !
 ! D7    D(7,2,3,4)            180.0            -DE/DX =    0.0                 !
 ! D8    D(7,2,3,8)              0.0            -DE/DX =    0.0                 !
 ! D9    D(2,3,4,5)              0.0            -DE/DX =    0.0                 !
 ! D10   D(2,3,4,9)            180.0            -DE/DX =    0.0                 !
 ! D11   D(8,3,4,5)            180.0            -DE/DX =    0.0                 !
 ! D12   D(8,3,4,9)              0.0            -DE/DX =    0.0                 !
 ! D13   D(3,4,5,6)              0.0            -DE/DX =    0.0                 !
 ! D14   D(3,4,5,10)           180.0            -DE/DX =    0.0                 !
 ! D15   D(9,4,5,6)            180.0            -DE/DX =    0.0                 !
 ! D16   D(9,4,5,10)             0.0            -DE/DX =    0.0                 !
 ! D17   D(4,5,6,1)              0.0            -DE/DX =    0.0                 !
 ! D18   D(4,5,6,11)           180.0            -DE/DX =    0.0                 !
 ! D19   D(10,5,6,1)           180.0            -DE/DX =    0.0                 !
 ! D20   D(10,5,6,11)            0.0            -DE/DX =    0.0                 !
 --------------------------------------------------------------------------------
 GradGradGradGradGradGradGradGradGradGradGradGradGradGradGradGradGradGrad

                          Input orientation:                          
 ---------------------------------------------------------------------
 Center     Atomic      Atomic             Coordinates (Angstroms)
 Number     Number       Type             X           Y           Z
 ---------------------------------------------------------------------
      1          6           0        0.005889    1.419964   -0.000000
      2          6           0        1.198933    0.710839    0.000000
      3          6           0        1.215657   -0.687471    0.000000
      4          6           0        0.004641   -1.389337   -0.000000
      5          6           0       -1.204990   -0.692349   -0.000000
      6          6           0       -1.180591    0.703959   -0.000000
      7         35           0        2.827107    1.664535    0.000000
      8         35           0        2.824422   -1.677823    0.000000
      9          1           0       -0.003104   -2.487167    0.000000
     10          1           0       -2.147113   -1.258571   -0.000000
     11         35           0       -2.830710    1.633422   -0.000000
 ---------------------------------------------------------------------
                    Distance matrix (angstroms):
                    1          2          3          4          5
     1  C    0.000000
     2  C    1.387880   0.000000
     3  C    2.429984   1.398410   0.000000
     4  C    2.809302   2.416004   1.399706   0.000000
     5  C    2.434768   2.783484   2.420652   1.396067   0.000000
     6  C    1.385784   2.379534   2.770936   2.405549   1.396521
     7  Br   2.831800   1.886926   2.851088   4.158419   4.670408
     8  Br   4.188128   2.889277   1.889159   2.834499   4.148171
     9  H    3.907142   3.416451   2.173542   1.097857   2.160070
    10  H    3.436564   3.882603   3.410921   2.155725   1.099183
    11  Br   2.844619   4.133906   4.664722   4.144429   2.837635
                    6          7          8          9         10
     6  C    0.000000
     7  Br   4.121208   0.000000
     8  Br   4.659723   3.342358   0.000000
     9  H    3.401436   5.024612   2.941078   0.000000
    10  H    2.187622   5.769525   4.989182   2.471078   0.000000
    11  Br   1.893883   5.657903   6.553233   4.997461   2.971688
                   11
    11  Br   0.000000
 Stoichiometry    C6H2Br3(1-)
 Framework group  CS[SG(C6H2Br3)]
 Deg. of freedom    19
 Full point group                 CS      NOp   2
 Largest Abelian subgroup         CS      NOp   2
 Largest concise Abelian subgroup C1      NOp   1
                         Standard orientation:                         
 ---------------------------------------------------------------------
 Center     Atomic      Atomic             Coordinates (Angstroms)
 Number     Number       Type             X           Y           Z
 ---------------------------------------------------------------------
      1          6           0       -1.243520   -0.005315    0.000000
      2          6           0        0.000000   -0.621652    0.000000
      3          6           0        1.183020    0.124012   -0.000000
      4          6           0        1.114317    1.522030   -0.000000
      5          6           0       -0.128026    2.158887   -0.000000
      6          6           0       -1.287023    1.379786   -0.000000
      7         35           0        0.083927   -2.506710    0.000000
      8         35           0        2.888502   -0.688547    0.000000
      9          1           0        2.031779    2.124985   -0.000000
     10          1           0       -0.164518    3.257464   -0.000000
     11         35           0       -2.963854    2.260145   -0.000000
 ---------------------------------------------------------------------
 Rotational constants (GHZ):           0.9710877           0.2566919           0.2030253

 **********************************************************************

            Population analysis using the SCF Density.

 **********************************************************************

 Orbital symmetries:
       Occupied  (A') (A') (A') (A') (A') (A') (A') (A') (A') (A')
                 (A') (A") (A') (A') (A") (A') (A') (A") (A") (A')
                 (A') (A") (A") (A')
       Virtual   (A") (A') (A") (A') (A') (A") (A') (A') (A') (A')
                 (A') (A') (A') (A')
 The electronic state is 1-A'.
 Alpha  occ. eigenvalues --   -1.28029  -1.08600  -1.03791  -1.01102  -0.93215
 Alpha  occ. eigenvalues --   -0.90384  -0.67921  -0.66135  -0.48435  -0.43708
 Alpha  occ. eigenvalues --   -0.41882  -0.37613  -0.37498  -0.34205  -0.31144
 Alpha  occ. eigenvalues --   -0.29173  -0.28808  -0.28475  -0.26382  -0.25576
 Alpha  occ. eigenvalues --   -0.24205  -0.19282  -0.17730  -0.12629
 Alpha virt. eigenvalues --    0.15476   0.16470   0.18178   0.18796   0.19992
 Alpha virt. eigenvalues --    0.27219   0.28684   0.29289   0.32089   0.32436
 Alpha virt. eigenvalues --    0.33649   0.34676   0.37545   0.39060
          Condensed to atoms (all electrons):
               1          2          3          4          5          6
     1  C    4.323868   0.000000   0.000000   0.000000   0.000000   0.000000
     2  C    0.000000   4.129924   0.000000   0.000000   0.000000   0.000000
     3  C    0.000000   0.000000   4.136022   0.000000   0.000000   0.000000
     4  C    0.000000   0.000000   0.000000   4.198610   0.000000   0.000000
     5  C    0.000000   0.000000   0.000000   0.000000   4.125361   0.000000
     6  C    0.000000   0.000000   0.000000   0.000000   0.000000   4.145517
     7  Br   0.000000   0.000000   0.000000   0.000000   0.000000   0.000000
     8  Br   0.000000   0.000000   0.000000   0.000000   0.000000   0.000000
     9  H    0.000000   0.000000   0.000000   0.000000   0.000000   0.000000
    10  H    0.000000   0.000000   0.000000   0.000000   0.000000   0.000000
    11  Br   0.000000   0.000000   0.000000   0.000000   0.000000   0.000000
               7          8          9         10         11
     1  C    0.000000   0.000000   0.000000   0.000000   0.000000
     2  C    0.000000   0.000000   0.000000   0.000000   0.000000
     3  C    0.000000   0.000000   0.000000   0.000000   0.000000
     4  C    0.000000   0.000000   0.000000   0.000000   0.000000
     5  C    0.000000   0.000000   0.000000   0.000000   0.000000
     6  C    0.000000   0.000000   0.000000   0.000000   0.000000
     7  Br   7.040692   0.000000   0.000000   0.000000   0.000000
     8  Br   0.000000   7.044896   0.000000   0.000000   0.000000
     9  H    0.000000   0.000000   0.890425   0.000000   0.000000
    10  H    0.000000   0.000000   0.000000   0.896705   0.000000
    11  Br   0.000000   0.000000   0.000000   0.000000   7.067981
 Mulliken charges:
               1
     1  C   -0.323868
     2  C   -0.129924
     3  C   -0.136022
     4  C   -0.198610
     5  C   -0.125361
     6  C   -0.145517
     7  Br  -0.040692
     8  Br  -0.044896
     9  H    0.109575
    10  H    0.103295
    11  Br  -0.067981
 Sum of Mulliken charges =  -1.00000
 Mulliken charges with hydrogens summed into heavy atoms:
               1
     1  C   -0.323868
     2  C   -0.129924
     3  C   -0.136022
     4  C   -0.089034
     5  C   -0.022066
     6  C   -0.145517
     7  Br  -0.040692
     8  Br  -0.044896
    11  Br  -0.067981
 Charge=             -1.0000 electrons
 Dipole moment (field-independent basis, Debye):
    X=              3.9381    Y=              0.7818    Z=              0.0000  Tot=              4.0149
 N-N= 2.362680082410D+02 E-N=-3.363139037364D+02  KE=-1.111534429621D+02
 Symmetry A'   KE=-8.545880711356D+01
 Symmetry A"   KE=-2.569463584853D+01
 1\1\GINC-SH04-01N25\FOpt\RAM1\ZDO\C6H2Br3(1-)\JLAPIER\28-Sep-2026\0\\#
  Opt AM1 SCF=XQC\\BrPh_236_anion am1\\-1,1\C,0.0058888308,1.4199640884
 ,0.\C,1.1989326956,0.7108391568,0.\C,1.2156571557,-0.6874708732,0.\C,0
 .0046414935,-1.3893374457,0.\C,-1.2049903625,-0.6923490151,0.\C,-1.180
 5912089,0.7039591284,0.\Br,2.8271074632,1.6645345109,0.\Br,2.824422004
 7,-1.6778226569,0.\H,-0.0031036655,-2.4871672287,0.\H,-2.1471133567,-1
 .2585714871,0.\Br,-2.8307102198,1.6334218221,0.\\Version=ES64L-G16RevB
 .01\State=1-A'\HF=0.0751312\RMSD=9.080e-09\RMSF=5.597e-05\Dipole=0.583
 5569,-1.4678566,0.\PG=CS [SG(C6H2Br3)]\\@


 SUPPORT THE RIGHT TO ARM BEARS!
 (ADD A CLAWS TO THE BILL OF RIGHTS)
 Job cpu time:       0 days  0 hours  0 minutes  1.7 seconds.
 Elapsed time:       0 days  0 hours  0 minutes  2.0 seconds.
 File lengths (MBytes):  RWF=      6 Int=      0 D2E=      0 Chk=      3 Scr=      1
 Normal termination of Gaussian 16 at Mon Sep 28 01:24:03 2026.
