 Entering Gaussian System, Link 0=g16
 Initial command:
 /share/software/user/restricted/gaussian/g16.B01/l1.exe "/lscratch/jlapier/g16_45667807_89/Gau-20589.inp" -scrdir="/lscratch/jlapier/g16_45667807_89/"
 Entering Link 1 = /share/software/user/restricted/gaussian/g16.B01/l1.exe PID=     20590.
  
 Copyright (c) 1988-2017, Gaussian, Inc.  All Rights Reserved.
  
 This is part of the Gaussian(R) 16 program.  It is based on
 the Gaussian(R) 09 system (copyright 2009, Gaussian, Inc.),
 the Gaussian(R) 03 system (copyright 2003, Gaussian, Inc.),
 the Gaussian(R) 98 system (copyright 1998, Gaussian, Inc.),
 the Gaussian(R) 94 system (copyright 1995, Gaussian, Inc.),
 the Gaussian 92(TM) system (copyright 1992, Gaussian, Inc.),
 the Gaussian 90(TM) system (copyright 1990, Gaussian, Inc.),
 the Gaussian 88(TM) system (copyright 1988, Gaussian, Inc.),
 the Gaussian 86(TM) system (copyright 1986, Carnegie Mellon
 University), and the Gaussian 82(TM) system (copyright 1983,
 Carnegie Mellon University). Gaussian is a federally registered
 trademark of Gaussian, Inc.
  
 This software contains proprietary and confidential information,
 including trade secrets, belonging to Gaussian, Inc.
  
 This software is provided under written license and may be
 used, copied, transmitted, or stored only in accord with that
 written license.
  
 The following legend is applicable only to US Government
 contracts under FAR:
  
                    RESTRICTED RIGHTS LEGEND
  
 Use, reproduction and disclosure by the US Government is
 subject to restrictions as set forth in subparagraphs (a)
 and (c) of the Commercial Computer Software - Restricted
 Rights clause in FAR 52.227-19.
  
 Gaussian, Inc.
 340 Quinnipiac St., Bldg. 40, Wallingford CT 06492
  
  
 ---------------------------------------------------------------
 Warning -- This program may not be used in any manner that
 competes with the business of Gaussian, Inc. or will provide
 assistance to any competitor of Gaussian, Inc.  The licensee
 of this program is prohibited from giving any competitor of
 Gaussian, Inc. access to this program.  By using this program,
 the user acknowledges that Gaussian, Inc. is engaged in the
 business of creating and licensing software in the field of
 computational chemistry and represents and warrants to the
 licensee that it is not a competitor of Gaussian, Inc. and that
 it will not use this program in any manner prohibited above.
 ---------------------------------------------------------------
  

 Cite this work as:
 Gaussian 16, Revision B.01,
 M. J. Frisch, G. W. Trucks, H. B. Schlegel, G. E. Scuseria, 
 M. A. Robb, J. R. Cheeseman, G. Scalmani, V. Barone, 
 G. A. Petersson, H. Nakatsuji, X. Li, M. Caricato, A. V. Marenich, 
 J. Bloino, B. G. Janesko, R. Gomperts, B. Mennucci, H. P. Hratchian, 
 J. V. Ortiz, A. F. Izmaylov, J. L. Sonnenberg, D. Williams-Young, 
 F. Ding, F. Lipparini, F. Egidi, J. Goings, B. Peng, A. Petrone, 
 T. Henderson, D. Ranasinghe, V. G. Zakrzewski, J. Gao, N. Rega, 
 G. Zheng, W. Liang, M. Hada, M. Ehara, K. Toyota, R. Fukuda, 
 J. Hasegawa, M. Ishida, T. Nakajima, Y. Honda, O. Kitao, H. Nakai, 
 T. Vreven, K. Throssell, J. A. Montgomery, Jr., J. E. Peralta, 
 F. Ogliaro, M. J. Bearpark, J. J. Heyd, E. N. Brothers, K. N. Kudin, 
 V. N. Staroverov, T. A. Keith, R. Kobayashi, J. Normand, 
 K. Raghavachari, A. P. Rendell, J. C. Burant, S. S. Iyengar, 
 J. Tomasi, M. Cossi, J. M. Millam, M. Klene, C. Adamo, R. Cammi, 
 J. W. Ochterski, R. L. Martin, K. Morokuma, O. Farkas, 
 J. B. Foresman, and D. J. Fox, Gaussian, Inc., Wallingford CT, 2016.
 
 ******************************************
 Gaussian 16:  ES64L-G16RevB.01 20-Dec-2017
                28-Sep-2026 
 ******************************************
 %nprocshared=1
 Will use up to    1 processors via shared memory.
 %mem=1GB
 %chk=calcs/am1/chks/BrPh_25_anion.chk
 -----------------
 # Opt AM1 SCF=XQC
 -----------------
 1/18=20,19=15,26=1,38=1/1,3;
 2/9=110,12=2,17=6,18=5,40=1/2;
 3/5=2,25=1,41=700000,71=1/1,2,3;
 4/35=1/1;
 5/5=2,8=3,13=1,35=1,38=5/2,8;
 6/7=2,8=2,9=2,10=2,28=1/1;
 7//1,2,3,16;
 1/18=20,19=15,26=1/3(2);
 2/9=110/2;
 99//99;
 2/9=110/2;
 3/5=2,25=1,41=700000,71=1,135=20/1,2,3;
 4/5=5,16=3,35=1/1;
 5/5=2,8=3,13=1,35=1,38=5/2,8;
 7//1,2,3,16;
 1/18=20,19=15,26=1/3(-5);
 2/9=110/2;
 6/7=2,8=2,9=2,10=2,19=2,28=1/1;
 99/9=1/99;
 -----------------
 BrPh_25_anion am1
 -----------------
 Symbolic Z-matrix:
 Charge = -1 Multiplicity = 1
 C                     0.        1.39      0. 
 C                     1.20378   0.695     0. 
 C                     1.20378  -0.695     0. 
 C                     0.       -1.39      0. 
 C                    -1.20378  -0.695     0. 
 C                    -1.20378   0.695     0. 
 Br                    2.84922   1.645     0. 
 H                     2.13908  -1.235     0. 
 H                     0.       -2.47      0. 
 Br                   -2.84922  -1.645     0. 
 H                    -2.13908   1.235     0. 
 

 GradGradGradGradGradGradGradGradGradGradGradGradGradGradGradGradGradGrad
 Berny optimization.
 Initialization pass.
                           ----------------------------
                           !    Initial Parameters    !
                           ! (Angstroms and Degrees)  !
 --------------------------                            --------------------------
 ! Name  Definition              Value          Derivative Info.                !
 --------------------------------------------------------------------------------
 ! R1    R(1,2)                  1.39           estimate D2E/DX2                !
 ! R2    R(1,6)                  1.39           estimate D2E/DX2                !
 ! R3    R(2,3)                  1.39           estimate D2E/DX2                !
 ! R4    R(2,7)                  1.9            estimate D2E/DX2                !
 ! R5    R(3,4)                  1.39           estimate D2E/DX2                !
 ! R6    R(3,8)                  1.08           estimate D2E/DX2                !
 ! R7    R(4,5)                  1.39           estimate D2E/DX2                !
 ! R8    R(4,9)                  1.08           estimate D2E/DX2                !
 ! R9    R(5,6)                  1.39           estimate D2E/DX2                !
 ! R10   R(5,10)                 1.9            estimate D2E/DX2                !
 ! R11   R(6,11)                 1.08           estimate D2E/DX2                !
 ! A1    A(2,1,6)              120.0            estimate D2E/DX2                !
 ! A2    A(1,2,3)              120.0            estimate D2E/DX2                !
 ! A3    A(1,2,7)              120.0            estimate D2E/DX2                !
 ! A4    A(3,2,7)              120.0            estimate D2E/DX2                !
 ! A5    A(2,3,4)              120.0            estimate D2E/DX2                !
 ! A6    A(2,3,8)              120.0            estimate D2E/DX2                !
 ! A7    A(4,3,8)              120.0            estimate D2E/DX2                !
 ! A8    A(3,4,5)              120.0            estimate D2E/DX2                !
 ! A9    A(3,4,9)              120.0            estimate D2E/DX2                !
 ! A10   A(5,4,9)              120.0            estimate D2E/DX2                !
 ! A11   A(4,5,6)              120.0            estimate D2E/DX2                !
 ! A12   A(4,5,10)             120.0            estimate D2E/DX2                !
 ! A13   A(6,5,10)             120.0            estimate D2E/DX2                !
 ! A14   A(1,6,5)              120.0            estimate D2E/DX2                !
 ! A15   A(1,6,11)             120.0            estimate D2E/DX2                !
 ! A16   A(5,6,11)             120.0            estimate D2E/DX2                !
 ! D1    D(6,1,2,3)              0.0            estimate D2E/DX2                !
 ! D2    D(6,1,2,7)            180.0            estimate D2E/DX2                !
 ! D3    D(2,1,6,5)              0.0            estimate D2E/DX2                !
 ! D4    D(2,1,6,11)           180.0            estimate D2E/DX2                !
 ! D5    D(1,2,3,4)              0.0            estimate D2E/DX2                !
 ! D6    D(1,2,3,8)            180.0            estimate D2E/DX2                !
 ! D7    D(7,2,3,4)            180.0            estimate D2E/DX2                !
 ! D8    D(7,2,3,8)              0.0            estimate D2E/DX2                !
 ! D9    D(2,3,4,5)              0.0            estimate D2E/DX2                !
 ! D10   D(2,3,4,9)            180.0            estimate D2E/DX2                !
 ! D11   D(8,3,4,5)            180.0            estimate D2E/DX2                !
 ! D12   D(8,3,4,9)              0.0            estimate D2E/DX2                !
 ! D13   D(3,4,5,6)              0.0            estimate D2E/DX2                !
 ! D14   D(3,4,5,10)           180.0            estimate D2E/DX2                !
 ! D15   D(9,4,5,6)            180.0            estimate D2E/DX2                !
 ! D16   D(9,4,5,10)             0.0            estimate D2E/DX2                !
 ! D17   D(4,5,6,1)              0.0            estimate D2E/DX2                !
 ! D18   D(4,5,6,11)           180.0            estimate D2E/DX2                !
 ! D19   D(10,5,6,1)           180.0            estimate D2E/DX2                !
 ! D20   D(10,5,6,11)            0.0            estimate D2E/DX2                !
 --------------------------------------------------------------------------------
 Trust Radius=3.00D-01 FncErr=1.00D-07 GrdErr=1.00D-07 EigMax=2.50D+02 EigMin=1.00D-04
 Number of steps in this run=     57 maximum allowed number of steps=    100.
 GradGradGradGradGradGradGradGradGradGradGradGradGradGradGradGradGradGrad

                          Input orientation:                          
 ---------------------------------------------------------------------
 Center     Atomic      Atomic             Coordinates (Angstroms)
 Number     Number       Type             X           Y           Z
 ---------------------------------------------------------------------
      1          6           0        0.000000    1.390000    0.000000
      2          6           0        1.203775    0.695000    0.000000
      3          6           0        1.203775   -0.695000    0.000000
      4          6           0        0.000000   -1.390000    0.000000
      5          6           0       -1.203775   -0.695000    0.000000
      6          6           0       -1.203775    0.695000    0.000000
      7         35           0        2.849224    1.645000    0.000000
      8          1           0        2.139083   -1.235000    0.000000
      9          1           0        0.000000   -2.470000    0.000000
     10         35           0       -2.849224   -1.645000    0.000000
     11          1           0       -2.139083    1.235000    0.000000
 ---------------------------------------------------------------------
                    Distance matrix (angstroms):
                    1          2          3          4          5
     1  C    0.000000
     2  C    1.390000   0.000000
     3  C    2.407551   1.390000   0.000000
     4  C    2.780000   2.407551   1.390000   0.000000
     5  C    2.407551   2.780000   2.407551   1.390000   0.000000
     6  C    1.390000   2.407551   2.780000   2.407551   1.390000
     7  Br   2.860612   1.900000   2.860612   4.162848   4.680000
     8  H    3.386193   2.144691   1.080000   2.144691   3.386193
     9  H    3.860000   3.386193   2.144691   1.080000   2.144691
    10  Br   4.162848   4.680000   4.162848   2.860612   1.900000
    11  H    2.144691   3.386193   3.860000   3.386193   2.144691
                    6          7          8          9         10
     6  C    0.000000
     7  Br   4.162848   0.000000
     8  H    3.860000   2.966260   0.000000
     9  H    3.386193   5.005127   2.470000   0.000000
    10  Br   2.860612   6.580000   5.005127   2.966260   0.000000
    11  H    1.080000   5.005127   4.940000   4.278165   2.966260
                   11
    11  H    0.000000
 Stoichiometry    C6H3Br2(1-)
 Framework group  CS[SG(C6H3Br2)]
 Deg. of freedom    19
 Full point group                 CS      NOp   2
 Largest Abelian subgroup         CS      NOp   2
 Largest concise Abelian subgroup C1      NOp   1
                         Standard orientation:                         
 ---------------------------------------------------------------------
 Center     Atomic      Atomic             Coordinates (Angstroms)
 Number     Number       Type             X           Y           Z
 ---------------------------------------------------------------------
      1          6           0        1.223400    0.706330   -0.000000
      2          6           0        0.019625    1.401330    0.000000
      3          6           0       -1.184151    0.706330    0.000000
      4          6           0       -1.184151   -0.683670    0.000000
      5          6           0        0.019625   -1.378670   -0.000000
      6          6           0        1.223400   -0.683670   -0.000000
      7         35           0        0.019625    3.301330    0.000000
      8          1           0       -2.119458    1.246330    0.000000
      9          1           0       -2.119458   -1.223670    0.000000
     10         35           0        0.019625   -3.278670   -0.000000
     11          1           0        2.158707   -1.223670   -0.000000
 ---------------------------------------------------------------------
 Rotational constants (GHZ):           6.0621810           0.2835060           0.2708398
 Standard basis: VSTO-6G (5D, 7F)
 There are    27 symmetry adapted cartesian basis functions of A'  symmetry.
 There are     8 symmetry adapted cartesian basis functions of A"  symmetry.
 There are    27 symmetry adapted basis functions of A'  symmetry.
 There are     8 symmetry adapted basis functions of A"  symmetry.
    35 basis functions,   210 primitive gaussians,    35 cartesian basis functions
    21 alpha electrons       21 beta electrons
       nuclear repulsion energy       190.7828906944 Hartrees.
 Integral buffers will be    131072 words long.
 Regular integral format.
 Two-electron integral symmetry is turned off.
 Do NDO integrals.
 One-electron integrals computed using PRISM.
 NBasis=    35 RedAO= T EigKep=  1.00D+00  NBF=    27     8
 NBsUse=    35 1.00D-06 EigRej= -1.00D+00 NBFU=    27     8
 Nonelectrostatic core Hamiltonian diagonalized for initial guess.
 Initial guess orbital symmetries:
       Occupied  (A') (A') (A') (A') (A') (A') (A') (A') (A') (A')
                 (A') (A") (A') (A") (A') (A") (A') (A") (A') (A')
                 (A")
       Virtual   (A') (A") (A') (A") (A') (A') (A') (A") (A') (A')
                 (A') (A') (A') (A')
 The electronic state of the initial guess is 1-A'.
 Keep J ints in memory in canonical form, NReq=862793.
 Overlap will be assumed to be unity.
 Requested convergence on RMS density matrix=1.00D-08 within  32 cycles.
 Requested convergence on MAX density matrix=1.00D-06.
 Requested convergence on             energy=1.00D-06.
 No special actions if energy rises.
 Fock symm off for IB=2 I1=    1 I=   28 J=   13 Cut=1.00D-07 Err=1.26D-02
 Fock matrix is not symmetric: symmetry in diagonalization turned off.
 SCF Done:  E(RAM1) =  0.793913404903E-01 A.U. after   16 cycles
            NFock= 15  Conv=0.84D-08     -V/T= 1.0009
 QCSCF skips out because SCF is already converged.

 **********************************************************************

            Population analysis using the SCF Density.

 **********************************************************************

 Orbital symmetries:
       Occupied  (A') (A') (A') (A') (A') (A') (A') (A') (A') (A')
                 (A') (A") (A') (A") (A') (A') (A") (A') (A") (A")
                 (A')
       Virtual   (A") (A') (A") (A') (A") (A') (A') (A') (A') (A')
                 (A') (A') (A') (A')
 The electronic state is 1-A'.
 Alpha  occ. eigenvalues --   -1.27010  -1.06675  -1.00019  -0.96786  -0.89639
 Alpha  occ. eigenvalues --   -0.67819  -0.64288  -0.47861  -0.41171  -0.40847
 Alpha  occ. eigenvalues --   -0.36298  -0.35521  -0.32768  -0.30067  -0.27821
 Alpha  occ. eigenvalues --   -0.27336  -0.25881  -0.24474  -0.18754  -0.16630
 Alpha  occ. eigenvalues --   -0.10769
 Alpha virt. eigenvalues --    0.17439   0.17587   0.19650   0.20373   0.29074
 Alpha virt. eigenvalues --    0.30250   0.30626   0.32874   0.34360   0.34845
 Alpha virt. eigenvalues --    0.35524   0.36388   0.39686   0.41342
          Condensed to atoms (all electrons):
               1          2          3          4          5          6
     1  C    4.377144   0.000000   0.000000   0.000000   0.000000   0.000000
     2  C    0.000000   4.149093   0.000000   0.000000   0.000000   0.000000
     3  C    0.000000   0.000000   4.128497   0.000000   0.000000   0.000000
     4  C    0.000000   0.000000   0.000000   4.202956   0.000000   0.000000
     5  C    0.000000   0.000000   0.000000   0.000000   4.151759   0.000000
     6  C    0.000000   0.000000   0.000000   0.000000   0.000000   4.117170
     7  Br   0.000000   0.000000   0.000000   0.000000   0.000000   0.000000
     8  H    0.000000   0.000000   0.000000   0.000000   0.000000   0.000000
     9  H    0.000000   0.000000   0.000000   0.000000   0.000000   0.000000
    10  Br   0.000000   0.000000   0.000000   0.000000   0.000000   0.000000
    11  H    0.000000   0.000000   0.000000   0.000000   0.000000   0.000000
               7          8          9         10         11
     1  C    0.000000   0.000000   0.000000   0.000000   0.000000
     2  C    0.000000   0.000000   0.000000   0.000000   0.000000
     3  C    0.000000   0.000000   0.000000   0.000000   0.000000
     4  C    0.000000   0.000000   0.000000   0.000000   0.000000
     5  C    0.000000   0.000000   0.000000   0.000000   0.000000
     6  C    0.000000   0.000000   0.000000   0.000000   0.000000
     7  Br   7.082205   0.000000   0.000000   0.000000   0.000000
     8  H    0.000000   0.906692   0.000000   0.000000   0.000000
     9  H    0.000000   0.000000   0.899338   0.000000   0.000000
    10  Br   0.000000   0.000000   0.000000   7.089686   0.000000
    11  H    0.000000   0.000000   0.000000   0.000000   0.895459
 Mulliken charges:
               1
     1  C   -0.377144
     2  C   -0.149093
     3  C   -0.128497
     4  C   -0.202956
     5  C   -0.151759
     6  C   -0.117170
     7  Br  -0.082205
     8  H    0.093308
     9  H    0.100662
    10  Br  -0.089686
    11  H    0.104541
 Sum of Mulliken charges =  -1.00000
 Mulliken charges with hydrogens summed into heavy atoms:
               1
     1  C   -0.377144
     2  C   -0.149093
     3  C   -0.035189
     4  C   -0.102294
     5  C   -0.151759
     6  C   -0.012629
     7  Br  -0.082205
    10  Br  -0.089686
 Charge=             -1.0000 electrons
 Dipole moment (field-independent basis, Debye):
    X=             -3.7336    Y=             -2.1390    Z=              0.0000  Tot=              4.3029
 N-N= 1.907828906944D+02 E-N=-2.697367225747D+02  KE=-9.030160893317D+01
 Symmetry A'   KE=-7.008546678214D+01
 Symmetry A"   KE=-2.021614215103D+01
 Calling FoFJK, ICntrl=      2127 FMM=F ISym2X=1 I1Cent= 0 IOpClX= 0 NMat=1 NMatS=1 NMatT=0.
 ***** Axes restored to original set *****
 -------------------------------------------------------------------
 Center     Atomic                   Forces (Hartrees/Bohr)
 Number     Number              X              Y              Z
 -------------------------------------------------------------------
      1        6           0.007635562    0.009320639   -0.000000000
      2        6          -0.015680288    0.010461379   -0.000000000
      3        6           0.004077738    0.001278662   -0.000000000
      4        6           0.001680350   -0.001560518   -0.000000000
      5        6          -0.009460684    0.001553970    0.000000000
      6        6           0.011191622   -0.001069818    0.000000000
      7       35          -0.002690645   -0.002448066    0.000000000
      8        1           0.011409822   -0.010493328    0.000000000
      9        1           0.001729616   -0.013535538    0.000000000
     10       35           0.000847425   -0.001705561   -0.000000000
     11        1          -0.010740519    0.008198177    0.000000000
 -------------------------------------------------------------------
 Cartesian Forces:  Max     0.015680288 RMS     0.006439111

 GradGradGradGradGradGradGradGradGradGradGradGradGradGradGradGradGradGrad
 Berny optimization.
 FormGI is forming the generalized inverse of G from B-inverse, IUseBI=4.
 Internal  Forces:  Max     0.015127859 RMS     0.005614820
 Search for a local minimum.
 Step number   1 out of a maximum of   57
 All quantities printed in internal units (Hartrees-Bohrs-Radians)
 Mixed Optimization -- RFO/linear search
 Second derivative matrix not updated -- first step.
 ITU=  0
     Eigenvalues ---    0.02221   0.02221   0.02221   0.02221   0.02221
     Eigenvalues ---    0.02221   0.02221   0.02221   0.16000   0.16000
     Eigenvalues ---    0.16000   0.18251   0.18251   0.22319   0.23430
     Eigenvalues ---    0.24561   0.25000   0.25000   0.35994   0.35994
     Eigenvalues ---    0.35994   0.43044   0.43594   0.47319   0.47319
     Eigenvalues ---    0.47319   0.47319
 RFO step:  Lambda=-4.27286955D-03 EMin= 2.22103665D-02
 Linear search not attempted -- first point.
 Iteration  1 RMS(Cart)=  0.02291640 RMS(Int)=  0.00015701
 Iteration  2 RMS(Cart)=  0.00018074 RMS(Int)=  0.00004595
 Iteration  3 RMS(Cart)=  0.00000002 RMS(Int)=  0.00004595
 ClnCor:  largest displacement from symmetrization is 1.25D-10 for atom    10.
 Variable       Old X    -DE/DX   Delta X   Delta X   Delta X     New X
                                 (Linear)    (Quad)   (Total)
    R1        2.62672  -0.00419   0.00000  -0.00994  -0.00993   2.61679
    R2        2.62672   0.00230   0.00000   0.00377   0.00371   2.63043
    R3        2.62672   0.01280   0.00000   0.02668   0.02675   2.65347
    R4        3.59048  -0.00355   0.00000  -0.01903  -0.01903   3.57145
    R5        2.62672   0.00588   0.00000   0.01335   0.01341   2.64013
    R6        2.04090   0.01513   0.00000   0.04154   0.04154   2.08244
    R7        2.62672   0.01279   0.00000   0.02796   0.02795   2.65467
    R8        2.04090   0.01354   0.00000   0.03716   0.03716   2.07807
    R9        2.62672   0.01167   0.00000   0.02455   0.02448   2.65120
   R10        3.59048   0.00012   0.00000   0.00064   0.00064   3.59112
   R11        2.04090   0.01340   0.00000   0.03679   0.03679   2.07770
    A1        2.09440  -0.00569   0.00000  -0.02748  -0.02754   2.06685
    A2        2.09440   0.01104   0.00000   0.04178   0.04186   2.13626
    A3        2.09440  -0.00413   0.00000  -0.01542  -0.01546   2.07893
    A4        2.09440  -0.00691   0.00000  -0.02636  -0.02640   2.06799
    A5        2.09440  -0.00459   0.00000  -0.01759  -0.01745   2.07695
    A6        2.09440   0.00575   0.00000   0.02981   0.02974   2.12413
    A7        2.09440  -0.00116   0.00000  -0.01222  -0.01229   2.08211
    A8        2.09440  -0.00477   0.00000  -0.01561  -0.01556   2.07884
    A9        2.09440   0.00062   0.00000  -0.00294  -0.00297   2.09143
   A10        2.09440   0.00415   0.00000   0.01855   0.01852   2.11292
   A11        2.09440   0.00212   0.00000   0.01160   0.01152   2.10591
   A12        2.09440  -0.00447   0.00000  -0.01922  -0.01918   2.07522
   A13        2.09440   0.00235   0.00000   0.00762   0.00766   2.10206
   A14        2.09440   0.00188   0.00000   0.00730   0.00717   2.10156
   A15        2.09440  -0.00270   0.00000  -0.01439  -0.01433   2.08007
   A16        2.09440   0.00082   0.00000   0.00710   0.00716   2.10155
    D1       -0.00000  -0.00000   0.00000  -0.00000   0.00000   0.00000
    D2        3.14159   0.00000   0.00000   0.00000   0.00000   3.14159
    D3        0.00000  -0.00000   0.00000  -0.00000   0.00000   0.00000
    D4        3.14159  -0.00000   0.00000  -0.00000   0.00000   3.14159
    D5        0.00000   0.00000   0.00000   0.00000  -0.00000   0.00000
    D6        3.14159   0.00000   0.00000   0.00000   0.00000   3.14159
    D7        3.14159  -0.00000   0.00000  -0.00000   0.00000   3.14159
    D8       -0.00000  -0.00000   0.00000  -0.00000   0.00000   0.00000
    D9        0.00000  -0.00000   0.00000  -0.00000   0.00000   0.00000
   D10        3.14159   0.00000   0.00000   0.00000   0.00000   3.14159
   D11        3.14159  -0.00000   0.00000  -0.00000   0.00000   3.14159
   D12       -0.00000  -0.00000   0.00000  -0.00000   0.00000   0.00000
   D13       -0.00000  -0.00000   0.00000  -0.00000   0.00000   0.00000
   D14        3.14159  -0.00000   0.00000  -0.00000   0.00000   3.14159
   D15        3.14159  -0.00000   0.00000  -0.00000   0.00000   3.14159
   D16        0.00000  -0.00000   0.00000  -0.00000  -0.00000   0.00000
   D17       -0.00000   0.00000   0.00000   0.00000   0.00000   0.00000
   D18        3.14159   0.00000   0.00000   0.00000   0.00000   3.14159
   D19        3.14159   0.00000   0.00000   0.00000   0.00000   3.14159
   D20        0.00000   0.00000   0.00000   0.00000   0.00000   0.00000
         Item               Value     Threshold  Converged?
 Maximum Force            0.015128     0.000450     NO 
 RMS     Force            0.005615     0.000300     NO 
 Maximum Displacement     0.067390     0.001800     NO 
 RMS     Displacement     0.022927     0.001200     NO 
 Predicted change in Energy=-2.164947D-03
 GradGradGradGradGradGradGradGradGradGradGradGradGradGradGradGradGradGrad

                          Input orientation:                          
 ---------------------------------------------------------------------
 Center     Atomic      Atomic             Coordinates (Angstroms)
 Number     Number       Type             X           Y           Z
 ---------------------------------------------------------------------
      1          6           0       -0.002252    1.418570   -0.000000
      2          6           0        1.182567    0.701821   -0.000000
      3          6           0        1.212635   -0.702013   -0.000000
      4          6           0        0.005494   -1.405353    0.000000
      5          6           0       -1.202866   -0.688903    0.000000
      6          6           0       -1.202761    0.714053    0.000000
      7         35           0        2.823986    1.638613   -0.000000
      8          1           0        2.162359   -1.260926   -0.000000
      9          1           0        0.013116   -2.504993    0.000000
     10         35           0       -2.841350   -1.651530    0.000000
     11          1           0       -2.150928    1.270661    0.000000
 ---------------------------------------------------------------------
                    Distance matrix (angstroms):
                    1          2          3          4          5
     1  C    0.000000
     2  C    1.384747   0.000000
     3  C    2.443936   1.404156   0.000000
     4  C    2.823934   2.413645   1.397095   0.000000
     5  C    2.425473   2.761232   2.415536   1.404790   0.000000
     6  C    1.391965   2.385359   2.799889   2.439623   1.402956
     7  Br   2.834791   1.889930   2.841651   4.148448   4.651115
     8  H    3.444595   2.193711   1.101980   2.161695   3.413495
     9  H    3.923593   3.413395   2.165544   1.099666   2.185588
    10  Br   4.181626   4.661563   4.163697   2.857468   1.900337
    11  H    2.153761   3.381681   3.899359   3.436744   2.176859
                    6          7          8          9         10
     6  C    0.000000
     7  Br   4.131526   0.000000
     8  H    3.901867   2.974067   0.000000
     9  H    3.441019   5.007041   2.483334   0.000000
    10  Br   2.877665   6.551418   5.018931   2.979325   0.000000
    11  H    1.099470   4.988503   5.001337   4.351856   3.002646
                   11
    11  H    0.000000
 Stoichiometry    C6H3Br2(1-)
 Framework group  CS[SG(C6H3Br2)]
 Deg. of freedom    19
 Full point group                 CS      NOp   2
 Largest Abelian subgroup         CS      NOp   2
 Largest concise Abelian subgroup C1      NOp   1
                         Standard orientation:                         
 ---------------------------------------------------------------------
 Center     Atomic      Atomic             Coordinates (Angstroms)
 Number     Number       Type             X           Y           Z
 ---------------------------------------------------------------------
      1          6           0        1.260652    0.703197    0.000000
      2          6           0        0.059186    1.391676    0.000000
      3          6           0       -1.183049    0.737073    0.000000
      4          6           0       -1.212622   -0.659710   -0.000000
      5          6           0       -0.000000   -1.368922   -0.000000
      6          6           0        1.226832   -0.688357   -0.000000
      7         35           0        0.082276    3.281466    0.000000
      8          1           0       -2.132459    1.296517    0.000000
      9          1           0       -2.177953   -1.186400   -0.000000
     10         35           0       -0.047106   -3.268674   -0.000000
     11          1           0        2.173473   -1.247558   -0.000000
 ---------------------------------------------------------------------
 Rotational constants (GHZ):           5.8870479           0.2859581           0.2727114
 Standard basis: VSTO-6G (5D, 7F)
 There are    27 symmetry adapted cartesian basis functions of A'  symmetry.
 There are     8 symmetry adapted cartesian basis functions of A"  symmetry.
 There are    27 symmetry adapted basis functions of A'  symmetry.
 There are     8 symmetry adapted basis functions of A"  symmetry.
    35 basis functions,   210 primitive gaussians,    35 cartesian basis functions
    21 alpha electrons       21 beta electrons
       nuclear repulsion energy       190.4939866129 Hartrees.
 Integral buffers will be    131072 words long.
 Regular integral format.
 Two-electron integral symmetry is turned off.
 Do NDO integrals.
 One-electron integrals computed using PRISM.
 NBasis=    35 RedAO= T EigKep=  1.00D+00  NBF=    27     8
 NBsUse=    35 1.00D-06 EigRej= -1.00D+00 NBFU=    27     8
 Initial guess from the checkpoint file:  "calcs/am1/chks/BrPh_25_anion.chk"
 B after Tr=    -0.000000    0.000000   -0.000000
         Rot=    0.999953   -0.000000   -0.000000    0.009720 Ang=   1.11 deg.
 Initial guess orbital symmetries:
       Occupied  (A') (A') (A') (A') (A') (A') (A') (A') (A') (A')
                 (A') (A") (A') (A") (A') (A') (A") (A') (A") (A")
                 (A')
       Virtual   (A") (A') (A") (A') (A") (A') (A') (A') (A') (A')
                 (A') (A') (A') (A')
 Keep J ints in memory in canonical form, NReq=862793.
 Overlap will be assumed to be unity.
 Requested convergence on RMS density matrix=1.00D-08 within  32 cycles.
 Requested convergence on MAX density matrix=1.00D-06.
 Requested convergence on             energy=1.00D-06.
 No special actions if energy rises.
 Fock symm off for IB=2 I1=    1 I=   28 J=    7 Cut=1.00D-07 Err=8.30D-04
 Fock matrix is not symmetric: symmetry in diagonalization turned off.
 SCF Done:  E(RAM1) =  0.777059067305E-01 A.U. after   14 cycles
            NFock= 13  Conv=0.42D-08     -V/T= 1.0009
 QCSCF skips out because SCF is already converged.
 Calling FoFJK, ICntrl=      2127 FMM=F ISym2X=1 I1Cent= 0 IOpClX= 0 NMat=1 NMatS=1 NMatT=0.
 ***** Axes restored to original set *****
 -------------------------------------------------------------------
 Center     Atomic                   Forces (Hartrees/Bohr)
 Number     Number              X              Y              Z
 -------------------------------------------------------------------
      1        6           0.001793615    0.000755243   -0.000000000
      2        6          -0.004534987   -0.006400050    0.000000000
      3        6          -0.001218580    0.002718665   -0.000000000
      4        6          -0.001229453    0.004474767   -0.000000000
      5        6           0.002898300    0.006482864   -0.000000000
      6        6          -0.000164094   -0.010590781    0.000000000
      7       35           0.003135017    0.000741967   -0.000000000
      8        1          -0.002033205    0.000815609    0.000000000
      9        1          -0.000241398    0.002031590    0.000000000
     10       35           0.001129140   -0.000103350   -0.000000000
     11        1           0.000465645   -0.000926525    0.000000000
 -------------------------------------------------------------------
 Cartesian Forces:  Max     0.010590781 RMS     0.002913236

 GradGradGradGradGradGradGradGradGradGradGradGradGradGradGradGradGradGrad
 Berny optimization.
 Using GEDIIS/GDIIS optimizer.
 FormGI is forming the generalized inverse of G from B-inverse, IUseBI=4.
 Internal  Forces:  Max     0.009969440 RMS     0.002269381
 Search for a local minimum.
 Step number   2 out of a maximum of   57
 All quantities printed in internal units (Hartrees-Bohrs-Radians)
 Mixed Optimization -- RFO/linear search
 Update second derivatives using D2CorX and points    1    2
 DE= -1.69D-03 DEPred=-2.16D-03 R= 7.79D-01
 TightC=F SS=  1.41D+00  RLast= 1.16D-01 DXNew= 5.0454D-01 3.4804D-01
 Trust test= 7.79D-01 RLast= 1.16D-01 DXMaxT set to 3.48D-01
 ITU=  1  0
 Use linear search instead of GDIIS.
     Eigenvalues ---    0.02221   0.02221   0.02221   0.02221   0.02221
     Eigenvalues ---    0.02221   0.02221   0.02221   0.15708   0.16000
     Eigenvalues ---    0.16045   0.18237   0.18500   0.22087   0.22403
     Eigenvalues ---    0.23675   0.24981   0.25160   0.35178   0.35994
     Eigenvalues ---    0.36086   0.43026   0.44273   0.46905   0.47319
     Eigenvalues ---    0.47319   0.63819
 RFO step:  Lambda=-2.85644239D-04 EMin= 2.22103665D-02
 Quartic linear search produced a step of -0.16985.
 Iteration  1 RMS(Cart)=  0.00702488 RMS(Int)=  0.00001872
 Iteration  2 RMS(Cart)=  0.00002287 RMS(Int)=  0.00000751
 Iteration  3 RMS(Cart)=  0.00000000 RMS(Int)=  0.00000751
 ClnCor:  largest displacement from symmetrization is 2.00D-11 for atom     7.
 Variable       Old X    -DE/DX   Delta X   Delta X   Delta X     New X
                                 (Linear)    (Quad)   (Total)
    R1        2.61679  -0.00131   0.00169  -0.00412  -0.00244   2.61435
    R2        2.63043   0.00142  -0.00063   0.00366   0.00304   2.63348
    R3        2.65347  -0.00644  -0.00454  -0.00482  -0.00938   2.64409
    R4        3.57145   0.00309   0.00323   0.00965   0.01288   3.58433
    R5        2.64013  -0.00458  -0.00228  -0.00519  -0.00747   2.63266
    R6        2.08244  -0.00217  -0.00705   0.00471  -0.00234   2.08010
    R7        2.65467  -0.00619  -0.00475  -0.00481  -0.00955   2.64512
    R8        2.07807  -0.00203  -0.00631   0.00400  -0.00231   2.07575
    R9        2.65120  -0.00997  -0.00416  -0.01194  -0.01609   2.63512
   R10        3.59112  -0.00092  -0.00011  -0.00404  -0.00414   3.58697
   R11        2.07770  -0.00087  -0.00625   0.00659   0.00034   2.07804
    A1        2.06685  -0.00197   0.00468  -0.01100  -0.00631   2.06054
    A2        2.13626  -0.00047  -0.00711   0.00928   0.00215   2.13841
    A3        2.07893   0.00186   0.00263   0.00202   0.00465   2.08359
    A4        2.06799  -0.00139   0.00448  -0.01130  -0.00680   2.06119
    A5        2.07695  -0.00002   0.00296  -0.00458  -0.00164   2.07531
    A6        2.12413   0.00035  -0.00505   0.00889   0.00385   2.12798
    A7        2.08211  -0.00033   0.00209  -0.00431  -0.00221   2.07990
    A8        2.07884   0.00161   0.00264   0.00046   0.00310   2.08193
    A9        2.09143  -0.00057   0.00050  -0.00148  -0.00097   2.09046
   A10        2.11292  -0.00104  -0.00315   0.00102  -0.00213   2.11079
   A11        2.10591   0.00009  -0.00196   0.00139  -0.00055   2.10536
   A12        2.07522  -0.00123   0.00326  -0.00775  -0.00450   2.07072
   A13        2.10206   0.00114  -0.00130   0.00636   0.00505   2.10711
   A14        2.10156   0.00076  -0.00122   0.00444   0.00325   2.10481
   A15        2.08007   0.00021   0.00243  -0.00166   0.00076   2.08083
   A16        2.10155  -0.00096  -0.00122  -0.00278  -0.00401   2.09754
    D1       -0.00000   0.00000   0.00000  -0.00000   0.00000   0.00000
    D2        3.14159   0.00000   0.00000   0.00000   0.00000   3.14159
    D3        0.00000  -0.00000   0.00000  -0.00000   0.00000   0.00000
    D4        3.14159  -0.00000   0.00000  -0.00000   0.00000   3.14159
    D5       -0.00000   0.00000   0.00000   0.00000   0.00000   0.00000
    D6        3.14159   0.00000   0.00000   0.00000   0.00000   3.14159
    D7        3.14159   0.00000   0.00000   0.00000   0.00000   3.14159
    D8        0.00000   0.00000   0.00000   0.00000   0.00000   0.00000
    D9        0.00000  -0.00000   0.00000  -0.00000   0.00000   0.00000
   D10        3.14159   0.00000   0.00000   0.00000   0.00000   3.14159
   D11        3.14159  -0.00000   0.00000  -0.00000   0.00000   3.14159
   D12       -0.00000   0.00000   0.00000   0.00000   0.00000   0.00000
   D13       -0.00000  -0.00000   0.00000  -0.00000   0.00000   0.00000
   D14        3.14159   0.00000   0.00000  -0.00000   0.00000   3.14159
   D15        3.14159  -0.00000   0.00000  -0.00000   0.00000   3.14159
   D16        0.00000  -0.00000   0.00000  -0.00000   0.00000   0.00000
   D17       -0.00000   0.00000   0.00000   0.00000   0.00000   0.00000
   D18        3.14159   0.00000   0.00000   0.00000   0.00000   3.14159
   D19        3.14159   0.00000   0.00000   0.00000   0.00000   3.14159
   D20        0.00000   0.00000   0.00000   0.00000   0.00000   0.00000
         Item               Value     Threshold  Converged?
 Maximum Force            0.009969     0.000450     NO 
 RMS     Force            0.002269     0.000300     NO 
 Maximum Displacement     0.017770     0.001800     NO 
 RMS     Displacement     0.007036     0.001200     NO 
 Predicted change in Energy=-2.153364D-04
 GradGradGradGradGradGradGradGradGradGradGradGradGradGradGradGradGradGrad

                          Input orientation:                          
 ---------------------------------------------------------------------
 Center     Atomic      Atomic             Coordinates (Angstroms)
 Number     Number       Type             X           Y           Z
 ---------------------------------------------------------------------
      1          6           0       -0.002922    1.419713   -0.000000
      2          6           0        1.179142    0.700910   -0.000000
      3          6           0        1.208895   -0.697969   -0.000000
      4          6           0        0.003922   -1.397169    0.000000
      5          6           0       -1.201026   -0.684876    0.000000
      6          6           0       -1.201983    0.709567    0.000000
      7         35           0        2.832976    1.629603   -0.000000
      8          1           0        2.155313   -1.260040   -0.000000
      9          1           0        0.010639   -2.495589    0.000000
     10         35           0       -2.832005   -1.655886    0.000000
     11          1           0       -2.152951    1.261736    0.000000
 ---------------------------------------------------------------------
                    Distance matrix (angstroms):
                    1          2          3          4          5
     1  C    0.000000
     2  C    1.383456   0.000000
     3  C    2.439893   1.399195   0.000000
     4  C    2.816890   2.404802   1.393141   0.000000
     5  C    2.421725   2.754197   2.409957   1.399736   0.000000
     6  C    1.393576   2.381140   2.791682   2.427456   1.394444
     7  Br   2.843655   1.896745   2.838173   4.143054   4.650805
     8  H    3.440792   2.190487   1.100740   2.155757   3.405264
     9  H    3.915326   3.403381   2.160384   1.098441   2.178718
    10  Br   4.178877   4.652287   4.152888   2.847703   1.898144
    11  H    2.155825   3.378959   3.891331   3.423722   2.166901
                    6          7          8          9         10
     6  C    0.000000
     7  Br   4.138522   0.000000
     8  H    3.892401   2.968040   0.000000
     9  H    3.426876   4.998279   2.475118   0.000000
    10  Br   2.872688   6.548774   5.003002   2.964073   0.000000
    11  H    1.099650   4.999480   4.992042   4.335737   2.995602
                   11
    11  H    0.000000
 Stoichiometry    C6H3Br2(1-)
 Framework group  CS[SG(C6H3Br2)]
 Deg. of freedom    19
 Full point group                 CS      NOp   2
 Largest Abelian subgroup         CS      NOp   2
 Largest concise Abelian subgroup C1      NOp   1
                         Standard orientation:                         
 ---------------------------------------------------------------------
 Center     Atomic      Atomic             Coordinates (Angstroms)
 Number     Number       Type             X           Y           Z
 ---------------------------------------------------------------------
      1          6           0        1.272047    0.692380    0.000000
      2          6           0        0.074357    1.384834   -0.000000
      3          6           0       -1.167382    0.739985   -0.000000
      4          6           0       -1.202953   -0.652703   -0.000000
      5          6           0       -0.000000   -1.368359    0.000000
      6          6           0        1.224035   -0.700369    0.000000
      7         35           0        0.096009    3.281455   -0.000000
      8          1           0       -2.114519    1.300842   -0.000000
      9          1           0       -2.170001   -1.173654   -0.000000
     10         35           0       -0.069746   -3.265221    0.000000
     11          1           0        2.164666   -1.269968    0.000000
 ---------------------------------------------------------------------
 Rotational constants (GHZ):           5.9267633           0.2862236           0.2730377
 Standard basis: VSTO-6G (5D, 7F)
 There are    27 symmetry adapted cartesian basis functions of A'  symmetry.
 There are     8 symmetry adapted cartesian basis functions of A"  symmetry.
 There are    27 symmetry adapted basis functions of A'  symmetry.
 There are     8 symmetry adapted basis functions of A"  symmetry.
    35 basis functions,   210 primitive gaussians,    35 cartesian basis functions
    21 alpha electrons       21 beta electrons
       nuclear repulsion energy       190.6650590999 Hartrees.
 Integral buffers will be    131072 words long.
 Regular integral format.
 Two-electron integral symmetry is turned off.
 Do NDO integrals.
 One-electron integrals computed using PRISM.
 NBasis=    35 RedAO= T EigKep=  1.00D+00  NBF=    27     8
 NBsUse=    35 1.00D-06 EigRej= -1.00D+00 NBFU=    27     8
 Initial guess from the checkpoint file:  "calcs/am1/chks/BrPh_25_anion.chk"
 B after Tr=     0.000000   -0.000000    0.000000
         Rot=    0.999996    0.000000    0.000000    0.002826 Ang=   0.32 deg.
 Initial guess orbital symmetries:
       Occupied  (A') (A') (A') (A') (A') (A') (A') (A') (A') (A')
                 (A') (A") (A') (A") (A') (A') (A") (A') (A") (A")
                 (A')
       Virtual   (A") (A') (A") (A') (A") (A') (A') (A') (A') (A')
                 (A') (A') (A') (A')
 Keep J ints in memory in canonical form, NReq=862793.
 Overlap will be assumed to be unity.
 Requested convergence on RMS density matrix=1.00D-08 within  32 cycles.
 Requested convergence on MAX density matrix=1.00D-06.
 Requested convergence on             energy=1.00D-06.
 No special actions if energy rises.
 Fock symm off for IB=2 I1=    1 I=   28 J=    7 Cut=1.00D-07 Err=2.30D-04
 Fock matrix is not symmetric: symmetry in diagonalization turned off.
 SCF Done:  E(RAM1) =  0.774864063326E-01 A.U. after   12 cycles
            NFock= 11  Conv=0.66D-08     -V/T= 1.0009
 QCSCF skips out because SCF is already converged.
 Calling FoFJK, ICntrl=      2127 FMM=F ISym2X=1 I1Cent= 0 IOpClX= 0 NMat=1 NMatS=1 NMatT=0.
 ***** Axes restored to original set *****
 -------------------------------------------------------------------
 Center     Atomic                   Forces (Hartrees/Bohr)
 Number     Number              X              Y              Z
 -------------------------------------------------------------------
      1        6           0.000779712    0.001829168   -0.000000000
      2        6          -0.000538731   -0.000334423   -0.000000000
      3        6           0.002194076   -0.000265137    0.000000000
      4        6           0.000440922   -0.001990108   -0.000000000
      5        6          -0.001443826    0.001317855   -0.000000000
      6        6          -0.001701742   -0.001310546    0.000000000
      7       35           0.001025352    0.000229308    0.000000000
      8        1          -0.000873800    0.000477900    0.000000000
      9        1          -0.000048729    0.000652963    0.000000000
     10       35          -0.000397251   -0.000542499    0.000000000
     11        1           0.000564016   -0.000064483    0.000000000
 -------------------------------------------------------------------
 Cartesian Forces:  Max     0.002194076 RMS     0.000872629

 GradGradGradGradGradGradGradGradGradGradGradGradGradGradGradGradGradGrad
 Berny optimization.
 Using GEDIIS/GDIIS optimizer.
 FormGI is forming the generalized inverse of G from B-inverse, IUseBI=4.
 Internal  Forces:  Max     0.002037285 RMS     0.000540279
 Search for a local minimum.
 Step number   3 out of a maximum of   57
 All quantities printed in internal units (Hartrees-Bohrs-Radians)
 Mixed Optimization -- En-DIIS/RFO-DIIS
 Update second derivatives using D2CorX and points    1    2    3
 DE= -2.20D-04 DEPred=-2.15D-04 R= 1.02D+00
 TightC=F SS=  1.41D+00  RLast= 3.04D-02 DXNew= 5.8533D-01 9.1287D-02
 Trust test= 1.02D+00 RLast= 3.04D-02 DXMaxT set to 3.48D-01
 ITU=  1  1  0
 Use linear search instead of GDIIS.
     Eigenvalues ---    0.02221   0.02221   0.02221   0.02221   0.02221
     Eigenvalues ---    0.02221   0.02221   0.02221   0.15127   0.16005
     Eigenvalues ---    0.16099   0.17046   0.18494   0.21306   0.22337
     Eigenvalues ---    0.23737   0.24907   0.25022   0.35866   0.36002
     Eigenvalues ---    0.36625   0.42980   0.43881   0.45032   0.47319
     Eigenvalues ---    0.47477   0.73818
 RFO step:  Lambda=-3.91609834D-05 EMin= 2.22103665D-02
 Quartic linear search produced a step of  0.01168.
 Iteration  1 RMS(Cart)=  0.00253289 RMS(Int)=  0.00000323
 Iteration  2 RMS(Cart)=  0.00000470 RMS(Int)=  0.00000027
 Iteration  3 RMS(Cart)=  0.00000000 RMS(Int)=  0.00000027
 ClnCor:  largest displacement from symmetrization is 1.23D-10 for atom     9.
 Variable       Old X    -DE/DX   Delta X   Delta X   Delta X     New X
                                 (Linear)    (Quad)   (Total)
    R1        2.61435   0.00091  -0.00003   0.00161   0.00158   2.61593
    R2        2.63348   0.00204   0.00004   0.00472   0.00476   2.63824
    R3        2.64409   0.00037  -0.00011   0.00016   0.00005   2.64414
    R4        3.58433   0.00101   0.00015   0.00665   0.00680   3.59113
    R5        2.63266   0.00118  -0.00009   0.00192   0.00183   2.63449
    R6        2.08010  -0.00100  -0.00003  -0.00257  -0.00260   2.07750
    R7        2.64512   0.00160  -0.00011   0.00281   0.00270   2.64782
    R8        2.07575  -0.00065  -0.00003  -0.00165  -0.00168   2.07407
    R9        2.63512  -0.00002  -0.00019  -0.00134  -0.00153   2.63359
   R10        3.58697   0.00062  -0.00005   0.00304   0.00299   3.58996
   R11        2.07804  -0.00052   0.00000  -0.00102  -0.00101   2.07702
    A1        2.06054  -0.00030  -0.00007  -0.00216  -0.00223   2.05831
    A2        2.13841   0.00015   0.00003   0.00125   0.00127   2.13968
    A3        2.08359   0.00046   0.00005   0.00220   0.00226   2.08584
    A4        2.06119  -0.00062  -0.00008  -0.00345  -0.00353   2.05766
    A5        2.07531   0.00003  -0.00002  -0.00032  -0.00034   2.07497
    A6        2.12798   0.00002   0.00004   0.00093   0.00097   2.12895
    A7        2.07990  -0.00005  -0.00003  -0.00061  -0.00063   2.07926
    A8        2.08193   0.00011   0.00004   0.00057   0.00060   2.08253
    A9        2.09046  -0.00001  -0.00001  -0.00005  -0.00006   2.09040
   A10        2.11079  -0.00010  -0.00002  -0.00051  -0.00054   2.11025
   A11        2.10536  -0.00029  -0.00001  -0.00112  -0.00113   2.10423
   A12        2.07072  -0.00033  -0.00005  -0.00197  -0.00203   2.06869
   A13        2.10711   0.00062   0.00006   0.00310   0.00316   2.11026
   A14        2.10481   0.00030   0.00004   0.00179   0.00183   2.10664
   A15        2.08083  -0.00039   0.00001  -0.00228  -0.00227   2.07856
   A16        2.09754   0.00009  -0.00005   0.00049   0.00044   2.09798
    D1       -0.00000  -0.00000   0.00000  -0.00000   0.00000   0.00000
    D2        3.14159   0.00000   0.00000   0.00000   0.00000   3.14159
    D3        0.00000  -0.00000   0.00000  -0.00000   0.00000   0.00000
    D4        3.14159  -0.00000   0.00000  -0.00000   0.00000   3.14159
    D5        0.00000   0.00000   0.00000   0.00000   0.00000   0.00000
    D6        3.14159   0.00000   0.00000   0.00000   0.00000   3.14159
    D7        3.14159  -0.00000   0.00000  -0.00000   0.00000   3.14159
    D8       -0.00000  -0.00000   0.00000  -0.00000   0.00000   0.00000
    D9        0.00000  -0.00000   0.00000  -0.00000  -0.00000   0.00000
   D10        3.14159   0.00000   0.00000   0.00000   0.00000   3.14159
   D11        3.14159  -0.00000   0.00000  -0.00000   0.00000   3.14159
   D12       -0.00000   0.00000   0.00000   0.00000   0.00000   0.00000
   D13       -0.00000  -0.00000   0.00000  -0.00000   0.00000   0.00000
   D14        3.14159   0.00000   0.00000   0.00000   0.00000   3.14159
   D15        3.14159  -0.00000   0.00000  -0.00000   0.00000   3.14159
   D16        0.00000  -0.00000   0.00000  -0.00000   0.00000   0.00000
   D17        0.00000   0.00000   0.00000   0.00000   0.00000   0.00000
   D18        3.14159   0.00000   0.00000   0.00000   0.00000   3.14159
   D19        3.14159  -0.00000   0.00000  -0.00000   0.00000   3.14159
   D20       -0.00000   0.00000   0.00000   0.00000   0.00000   0.00000
         Item               Value     Threshold  Converged?
 Maximum Force            0.002037     0.000450     NO 
 RMS     Force            0.000540     0.000300     NO 
 Maximum Displacement     0.011176     0.001800     NO 
 RMS     Displacement     0.002535     0.001200     NO 
 Predicted change in Energy=-1.962272D-05
 GradGradGradGradGradGradGradGradGradGradGradGradGradGradGradGradGradGrad

                          Input orientation:                          
 ---------------------------------------------------------------------
 Center     Atomic      Atomic             Coordinates (Angstroms)
 Number     Number       Type             X           Y           Z
 ---------------------------------------------------------------------
      1          6           0       -0.003131    1.422166   -0.000000
      2          6           0        1.179032    0.701921   -0.000000
      3          6           0        1.209372   -0.696970   -0.000000
      4          6           0        0.003616   -1.396754    0.000000
      5          6           0       -1.203047   -0.684556    0.000000
      6          6           0       -1.203377    0.709081    0.000000
      7         35           0        2.838890    1.627221   -0.000000
      8          1           0        2.154297   -1.258862   -0.000000
      9          1           0        0.010484   -2.494285    0.000000
     10         35           0       -2.832748   -1.660791    0.000000
     11          1           0       -2.153389    1.261827    0.000000
 ---------------------------------------------------------------------
                    Distance matrix (angstroms):
                    1          2          3          4          5
     1  C    0.000000
     2  C    1.384291   0.000000
     3  C    2.441496   1.399220   0.000000
     4  C    2.818928   2.405419   1.394111   0.000000
     5  C    2.424474   2.756197   2.412451   1.401164   0.000000
     6  C    1.396095   2.382420   2.792550   2.427215   1.393636
     7  Br   2.849409   1.900344   2.838520   4.145263   4.656347
     8  H    3.441280   2.189934   1.099366   2.155098   3.406111
     9  H    3.916475   3.403122   2.160480   1.097553   2.178940
    10  Br   4.184657   4.655834   4.155440   2.848627   1.899726
    11  H    2.156228   3.379131   3.891664   3.423554   2.165999
                    6          7          8          9         10
     6  C    0.000000
     7  Br   4.145227   0.000000
     8  H    3.891886   2.966166   0.000000
     9  H    3.425640   4.998669   2.474309   0.000000
    10  Br   2.875959   6.555799   5.003216   2.962884   0.000000
    11  H    1.099114   5.005634   4.990995   4.334827   3.000536
                   11
    11  H    0.000000
 Stoichiometry    C6H3Br2(1-)
 Framework group  CS[SG(C6H3Br2)]
 Deg. of freedom    19
 Full point group                 CS      NOp   2
 Largest Abelian subgroup         CS      NOp   2
 Largest concise Abelian subgroup C1      NOp   1
                         Standard orientation:                         
 ---------------------------------------------------------------------
 Center     Atomic      Atomic             Coordinates (Angstroms)
 Number     Number       Type             X           Y           Z
 ---------------------------------------------------------------------
      1          6           0        0.001579    1.452785   -0.000000
      2          6           0       -1.179261    0.730375   -0.000000
      3          6           0       -1.207037   -0.668570    0.000000
      4          6           0        0.000000   -1.366142    0.000000
      5          6           0        1.205356   -0.651733    0.000000
      6          6           0        1.203131    0.741901   -0.000000
      7         35           0       -2.840813    1.652631   -0.000000
      8          1           0       -2.150931   -1.232192    0.000000
      9          1           0       -0.004857   -2.463684    0.000000
     10         35           0        2.836843   -1.624980    0.000000
     11          1           0        2.152128    1.296387   -0.000000
 ---------------------------------------------------------------------
 Rotational constants (GHZ):           5.9247146           0.2856160           0.2724804
 Standard basis: VSTO-6G (5D, 7F)
 There are    27 symmetry adapted cartesian basis functions of A'  symmetry.
 There are     8 symmetry adapted cartesian basis functions of A"  symmetry.
 There are    27 symmetry adapted basis functions of A'  symmetry.
 There are     8 symmetry adapted basis functions of A"  symmetry.
    35 basis functions,   210 primitive gaussians,    35 cartesian basis functions
    21 alpha electrons       21 beta electrons
       nuclear repulsion energy       190.5851621150 Hartrees.
 Integral buffers will be    131072 words long.
 Regular integral format.
 Two-electron integral symmetry is turned off.
 Do NDO integrals.
 One-electron integrals computed using PRISM.
 NBasis=    35 RedAO= T EigKep=  1.00D+00  NBF=    27     8
 NBsUse=    35 1.00D-06 EigRej= -1.00D+00 NBFU=    27     8
 Initial guess from the checkpoint file:  "calcs/am1/chks/BrPh_25_anion.chk"
 B after Tr=     0.000000    0.000000    0.000000
         Rot=    0.859624   -0.000000   -0.000000   -0.510928 Ang= -61.45 deg.
 Initial guess orbital symmetries:
       Occupied  (A') (A') (A') (A') (A') (A') (A') (A') (A') (A')
                 (A') (A") (A') (A") (A') (A') (A") (A') (A") (A")
                 (A')
       Virtual   (A") (A') (A") (A') (A") (A') (A') (A') (A') (A')
                 (A') (A') (A') (A')
 Keep J ints in memory in canonical form, NReq=862793.
 Overlap will be assumed to be unity.
 Requested convergence on RMS density matrix=1.00D-08 within  32 cycles.
 Requested convergence on MAX density matrix=1.00D-06.
 Requested convergence on             energy=1.00D-06.
 No special actions if energy rises.
 Fock symm off for IB=2 I1=    1 I=   28 J=   21 Cut=1.00D-07 Err=7.91D-05
 Fock matrix is not symmetric: symmetry in diagonalization turned off.
 SCF Done:  E(RAM1) =  0.774678518093E-01 A.U. after   12 cycles
            NFock= 11  Conv=0.48D-08     -V/T= 1.0009
 QCSCF skips out because SCF is already converged.
 Calling FoFJK, ICntrl=      2127 FMM=F ISym2X=1 I1Cent= 0 IOpClX= 0 NMat=1 NMatS=1 NMatT=0.
 ***** Axes restored to original set *****
 -------------------------------------------------------------------
 Center     Atomic                   Forces (Hartrees/Bohr)
 Number     Number              X              Y              Z
 -------------------------------------------------------------------
      1        6           0.000187540    0.000085257   -0.000000000
      2        6          -0.000447586    0.000342497   -0.000000000
      3        6          -0.000051330   -0.000288973   -0.000000000
      4        6           0.000371905   -0.000358822   -0.000000000
      5        6          -0.000014491    0.000347661   -0.000000000
      6        6          -0.000012831   -0.000240123    0.000000000
      7       35          -0.000323665   -0.000207046   -0.000000000
      8        1          -0.000098443    0.000066464    0.000000000
      9        1          -0.000032102    0.000129591    0.000000000
     10       35           0.000162055    0.000014275   -0.000000000
     11        1           0.000258949    0.000109219    0.000000000
 -------------------------------------------------------------------
 Cartesian Forces:  Max     0.000447586 RMS     0.000188872

 GradGradGradGradGradGradGradGradGradGradGradGradGradGradGradGradGradGrad
 Berny optimization.
 Using GEDIIS/GDIIS optimizer.
 FormGI is forming the generalized inverse of G from B-inverse, IUseBI=4.
 Internal  Forces:  Max     0.000443756 RMS     0.000162472
 Search for a local minimum.
 Step number   4 out of a maximum of   57
 All quantities printed in internal units (Hartrees-Bohrs-Radians)
 Mixed Optimization -- En-DIIS/RFO-DIIS
 Swapping is turned off.
 Update second derivatives using D2CorX and points    1    2    3    4
 DE= -1.86D-05 DEPred=-1.96D-05 R= 9.46D-01
 TightC=F SS=  1.41D+00  RLast= 1.24D-02 DXNew= 5.8533D-01 3.7255D-02
 Trust test= 9.46D-01 RLast= 1.24D-02 DXMaxT set to 3.48D-01
 ITU=  1  1  1  0
     Eigenvalues ---    0.02221   0.02221   0.02221   0.02221   0.02221
     Eigenvalues ---    0.02221   0.02221   0.02221   0.13278   0.15998
     Eigenvalues ---    0.16036   0.17709   0.18520   0.20640   0.22377
     Eigenvalues ---    0.23884   0.24988   0.26457   0.35581   0.36002
     Eigenvalues ---    0.36046   0.42918   0.44340   0.44764   0.47306
     Eigenvalues ---    0.53073   0.74107
 En-DIIS/RFO-DIIS/Sim-DIIS IScMMF=       -3 using points:     4    3
 RFO step:  Lambda=-4.23193574D-06.
 DidBck=F Rises=F RFO-DIIS coefs:    1.07939   -0.07939
 Iteration  1 RMS(Cart)=  0.00090280 RMS(Int)=  0.00000035
 Iteration  2 RMS(Cart)=  0.00000043 RMS(Int)=  0.00000008
 ClnCor:  largest displacement from symmetrization is 1.44D-11 for atom    10.
 Variable       Old X    -DE/DX   Delta X   Delta X   Delta X     New X
                                 (Linear)    (Quad)   (Total)
    R1        2.61593  -0.00044   0.00013  -0.00091  -0.00079   2.61514
    R2        2.63824  -0.00026   0.00038  -0.00034   0.00004   2.63828
    R3        2.64414   0.00016   0.00000   0.00024   0.00025   2.64439
    R4        3.59113  -0.00038   0.00054  -0.00164  -0.00110   3.59003
    R5        2.63449  -0.00037   0.00015  -0.00074  -0.00059   2.63390
    R6        2.07750  -0.00012  -0.00021  -0.00039  -0.00060   2.07690
    R7        2.64782   0.00011   0.00021   0.00027   0.00049   2.64830
    R8        2.07407  -0.00013  -0.00013  -0.00039  -0.00053   2.07355
    R9        2.63359  -0.00006  -0.00012  -0.00033  -0.00046   2.63314
   R10        3.58996  -0.00015   0.00024  -0.00071  -0.00047   3.58949
   R11        2.07702  -0.00017  -0.00008  -0.00044  -0.00052   2.07650
    A1        2.05831  -0.00028  -0.00018  -0.00137  -0.00155   2.05676
    A2        2.13968   0.00035   0.00010   0.00142   0.00152   2.14121
    A3        2.08584  -0.00013   0.00018  -0.00037  -0.00019   2.08565
    A4        2.05766  -0.00022  -0.00028  -0.00105  -0.00133   2.05633
    A5        2.07497  -0.00005  -0.00003  -0.00018  -0.00021   2.07477
    A6        2.12895   0.00002   0.00008   0.00013   0.00021   2.12916
    A7        2.07926   0.00003  -0.00005   0.00005  -0.00000   2.07926
    A8        2.08253  -0.00027   0.00005  -0.00098  -0.00094   2.08160
    A9        2.09040   0.00017  -0.00000   0.00069   0.00069   2.09109
   A10        2.11025   0.00010  -0.00004   0.00029   0.00025   2.11050
   A11        2.10423   0.00017  -0.00009   0.00071   0.00062   2.10485
   A12        2.06869  -0.00021  -0.00016  -0.00101  -0.00117   2.06752
   A13        2.11026   0.00004   0.00025   0.00030   0.00055   2.11082
   A14        2.10664   0.00007   0.00015   0.00040   0.00055   2.10719
   A15        2.07856  -0.00027  -0.00018  -0.00164  -0.00182   2.07674
   A16        2.09798   0.00020   0.00004   0.00123   0.00127   2.09925
    D1       -0.00000  -0.00000   0.00000  -0.00000   0.00000   0.00000
    D2        3.14159   0.00000   0.00000   0.00000   0.00000   3.14159
    D3        0.00000  -0.00000   0.00000  -0.00000   0.00000   0.00000
    D4        3.14159  -0.00000   0.00000  -0.00000   0.00000   3.14159
    D5        0.00000   0.00000   0.00000   0.00000  -0.00000   0.00000
    D6        3.14159   0.00000   0.00000   0.00000   0.00000   3.14159
    D7        3.14159   0.00000   0.00000  -0.00000   0.00000   3.14159
    D8        0.00000   0.00000   0.00000   0.00000   0.00000   0.00000
    D9        0.00000  -0.00000   0.00000  -0.00000  -0.00000   0.00000
   D10        3.14159   0.00000   0.00000   0.00000   0.00000   3.14159
   D11        3.14159  -0.00000   0.00000  -0.00000   0.00000   3.14159
   D12       -0.00000  -0.00000   0.00000  -0.00000   0.00000   0.00000
   D13        0.00000  -0.00000   0.00000  -0.00000   0.00000   0.00000
   D14        3.14159  -0.00000   0.00000  -0.00000   0.00000   3.14159
   D15        3.14159  -0.00000   0.00000  -0.00000   0.00000   3.14159
   D16       -0.00000  -0.00000   0.00000  -0.00000   0.00000   0.00000
   D17       -0.00000   0.00000   0.00000   0.00000   0.00000   0.00000
   D18        3.14159   0.00000   0.00000   0.00000   0.00000   3.14159
   D19        3.14159   0.00000   0.00000   0.00000   0.00000   3.14159
   D20        0.00000   0.00000   0.00000   0.00000   0.00000   0.00000
         Item               Value     Threshold  Converged?
 Maximum Force            0.000444     0.000450     YES
 RMS     Force            0.000162     0.000300     YES
 Maximum Displacement     0.002605     0.001800     NO 
 RMS     Displacement     0.000903     0.001200     YES
 Predicted change in Energy=-2.116013D-06
 GradGradGradGradGradGradGradGradGradGradGradGradGradGradGradGradGradGrad

                          Input orientation:                          
 ---------------------------------------------------------------------
 Center     Atomic      Atomic             Coordinates (Angstroms)
 Number     Number       Type             X           Y           Z
 ---------------------------------------------------------------------
      1          6           0       -0.003367    1.423027   -0.000000
      2          6           0        1.177808    0.701962   -0.000000
      3          6           0        1.209054   -0.697040   -0.000000
      4          6           0        0.003876   -1.397196    0.000000
      5          6           0       -1.202656   -0.684268    0.000000
      6          6           0       -1.203153    0.709127    0.000000
      7         35           0        2.837789    1.625843   -0.000000
      8          1           0        2.153953   -1.258355   -0.000000
      9          1           0        0.010470   -2.494451    0.000000
     10         35           0       -2.831485   -1.661472    0.000000
     11          1           0       -2.152290    1.262824    0.000000
 ---------------------------------------------------------------------
                    Distance matrix (angstroms):
                    1          2          3          4          5
     1  C    0.000000
     2  C    1.383874   0.000000
     3  C    2.442263   1.399351   0.000000
     4  C    2.820233   2.405116   1.393798   0.000000
     5  C    2.424663   2.754677   2.411744   1.401422   0.000000
     6  C    1.396116   2.380972   2.792140   2.427656   1.393395
     7  Br   2.848386   1.899761   2.836999   4.143649   4.654225
     8  H    3.441488   2.189910   1.099050   2.154556   3.405349
     9  H    3.917502   3.402901   2.160391   1.097274   2.179090
    10  Br   4.184781   4.654058   4.154045   2.847650   1.899477
    11  H    2.154887   3.376999   3.890977   3.424143   2.166327
                    6          7          8          9         10
     6  C    0.000000
     7  Br   4.143619   0.000000
     8  H    3.891163   2.964157   0.000000
     9  H    3.425754   4.997054   2.474359   0.000000
    10  Br   2.875971   6.553405   5.001710   2.961514   0.000000
    11  H    1.098837   5.003267   4.989998   4.335279   3.002135
                   11
    11  H    0.000000
 Stoichiometry    C6H3Br2(1-)
 Framework group  CS[SG(C6H3Br2)]
 Deg. of freedom    19
 Full point group                 CS      NOp   2
 Largest Abelian subgroup         CS      NOp   2
 Largest concise Abelian subgroup C1      NOp   1
                         Standard orientation:                         
 ---------------------------------------------------------------------
 Center     Atomic      Atomic             Coordinates (Angstroms)
 Number     Number       Type             X           Y           Z
 ---------------------------------------------------------------------
      1          6           0        0.001554    1.454257    0.000000
      2          6           0       -1.178164    0.730811    0.000000
      3          6           0       -1.206588   -0.668251    0.000000
      4          6           0        0.000000   -1.365976   -0.000000
      5          6           0        1.205091   -0.650616   -0.000000
      6          6           0        1.202778    0.742778   -0.000000
      7         35           0       -2.840005    1.651341    0.000000
      8          1           0       -2.150353   -1.231471    0.000000
      9          1           0       -0.004381   -2.463241   -0.000000
     10         35           0        2.835888   -1.624532   -0.000000
     11          1           0        2.150797    1.298388   -0.000000
 ---------------------------------------------------------------------
 Rotational constants (GHZ):           5.9222418           0.2858257           0.2726660
 Standard basis: VSTO-6G (5D, 7F)
 There are    27 symmetry adapted cartesian basis functions of A'  symmetry.
 There are     8 symmetry adapted cartesian basis functions of A"  symmetry.
 There are    27 symmetry adapted basis functions of A'  symmetry.
 There are     8 symmetry adapted basis functions of A"  symmetry.
    35 basis functions,   210 primitive gaussians,    35 cartesian basis functions
    21 alpha electrons       21 beta electrons
       nuclear repulsion energy       190.6069848863 Hartrees.
 Integral buffers will be    131072 words long.
 Regular integral format.
 Two-electron integral symmetry is turned off.
 Do NDO integrals.
 One-electron integrals computed using PRISM.
 NBasis=    35 RedAO= T EigKep=  1.00D+00  NBF=    27     8
 NBsUse=    35 1.00D-06 EigRej= -1.00D+00 NBFU=    27     8
 Initial guess from the checkpoint file:  "calcs/am1/chks/BrPh_25_anion.chk"
 B after Tr=    -0.000000   -0.000000   -0.000000
         Rot=    1.000000   -0.000000   -0.000000   -0.000050 Ang=  -0.01 deg.
 Initial guess orbital symmetries:
       Occupied  (A') (A') (A') (A') (A') (A') (A') (A') (A') (A')
                 (A') (A") (A') (A") (A') (A') (A") (A') (A") (A")
                 (A')
       Virtual   (A") (A') (A") (A') (A") (A') (A') (A') (A') (A')
                 (A') (A') (A') (A')
 Keep J ints in memory in canonical form, NReq=862793.
 Overlap will be assumed to be unity.
 Requested convergence on RMS density matrix=1.00D-08 within  32 cycles.
 Requested convergence on MAX density matrix=1.00D-06.
 Requested convergence on             energy=1.00D-06.
 No special actions if energy rises.
 Fock symm off for IB=2 I1=    1 I=   28 J=    9 Cut=1.00D-07 Err=3.00D-05
 Fock matrix is not symmetric: symmetry in diagonalization turned off.
 SCF Done:  E(RAM1) =  0.774658210208E-01 A.U. after   10 cycles
            NFock=  9  Conv=0.89D-08     -V/T= 1.0009
 QCSCF skips out because SCF is already converged.
 Calling FoFJK, ICntrl=      2127 FMM=F ISym2X=1 I1Cent= 0 IOpClX= 0 NMat=1 NMatS=1 NMatT=0.
 ***** Axes restored to original set *****
 -------------------------------------------------------------------
 Center     Atomic                   Forces (Hartrees/Bohr)
 Number     Number              X              Y              Z
 -------------------------------------------------------------------
      1        6           0.000039900    0.000029755   -0.000000000
      2        6           0.000159237    0.000174687   -0.000000000
      3        6          -0.000145047   -0.000140868   -0.000000000
      4        6           0.000082671   -0.000046637    0.000000000
      5        6          -0.000001426    0.000090329   -0.000000000
      6        6          -0.000168683   -0.000147233   -0.000000000
      7       35          -0.000016394    0.000008472   -0.000000000
      8        1           0.000107870   -0.000012853    0.000000000
      9        1          -0.000035145   -0.000032445    0.000000000
     10       35           0.000001607    0.000010813    0.000000000
     11        1          -0.000024590    0.000065980    0.000000000
 -------------------------------------------------------------------
 Cartesian Forces:  Max     0.000174687 RMS     0.000075084

 GradGradGradGradGradGradGradGradGradGradGradGradGradGradGradGradGradGrad
 Berny optimization.
 Using GEDIIS/GDIIS optimizer.
 FormGI is forming the generalized inverse of G from B-inverse, IUseBI=4.
 Internal  Forces:  Max     0.000172473 RMS     0.000046899
 Search for a local minimum.
 Step number   5 out of a maximum of   57
 All quantities printed in internal units (Hartrees-Bohrs-Radians)
 Mixed Optimization -- En-DIIS/RFO-DIIS
 Swapping is turned off.
 Update second derivatives using D2CorX and points    1    2    3    4    5
 DE= -2.03D-06 DEPred=-2.12D-06 R= 9.60D-01
 TightC=F SS=  1.41D+00  RLast= 4.37D-03 DXNew= 5.8533D-01 1.3115D-02
 Trust test= 9.60D-01 RLast= 4.37D-03 DXMaxT set to 3.48D-01
 ITU=  1  1  1  1  0
     Eigenvalues ---    0.02221   0.02221   0.02221   0.02221   0.02221
     Eigenvalues ---    0.02221   0.02221   0.02221   0.12705   0.15856
     Eigenvalues ---    0.16055   0.17888   0.18617   0.21280   0.22313
     Eigenvalues ---    0.23521   0.24994   0.26143   0.35907   0.36022
     Eigenvalues ---    0.37279   0.43070   0.43773   0.45629   0.47314
     Eigenvalues ---    0.53423   0.76797
 En-DIIS/RFO-DIIS/Sim-DIIS IScMMF=       -3 using points:     5    4    3
 RFO step:  Lambda=-2.68914141D-07.
 DidBck=F Rises=F RFO-DIIS coefs:    1.04041   -0.05039    0.00998
 Iteration  1 RMS(Cart)=  0.00016535 RMS(Int)=  0.00000002
 Iteration  2 RMS(Cart)=  0.00000003 RMS(Int)=  0.00000000
 ClnCor:  largest displacement from symmetrization is 9.07D-12 for atom     7.
 Variable       Old X    -DE/DX   Delta X   Delta X   Delta X     New X
                                 (Linear)    (Quad)   (Total)
    R1        2.61514   0.00006  -0.00005   0.00012   0.00007   2.61522
    R2        2.63828   0.00012  -0.00005   0.00027   0.00022   2.63850
    R3        2.64439   0.00017   0.00001   0.00032   0.00033   2.64472
    R4        3.59003  -0.00001  -0.00011  -0.00000  -0.00011   3.58991
    R5        2.63390   0.00003  -0.00004   0.00004  -0.00001   2.63389
    R6        2.07690   0.00010   0.00000   0.00022   0.00022   2.07712
    R7        2.64830   0.00009  -0.00001   0.00016   0.00015   2.64845
    R8        2.07355   0.00003  -0.00000   0.00005   0.00004   2.07359
    R9        2.63314  -0.00004  -0.00000  -0.00017  -0.00017   2.63297
   R10        3.58949  -0.00001  -0.00005  -0.00005  -0.00010   3.58940
   R11        2.07650   0.00005  -0.00001   0.00011   0.00010   2.07660
    A1        2.05676   0.00006  -0.00004   0.00020   0.00016   2.05692
    A2        2.14121  -0.00007   0.00005  -0.00021  -0.00016   2.14104
    A3        2.08565   0.00001  -0.00003   0.00003   0.00000   2.08565
    A4        2.05633   0.00006  -0.00002   0.00018   0.00016   2.05649
    A5        2.07477   0.00001  -0.00000   0.00005   0.00004   2.07481
    A6        2.12916  -0.00005  -0.00000  -0.00029  -0.00030   2.12886
    A7        2.07926   0.00004   0.00001   0.00025   0.00025   2.07951
    A8        2.08160  -0.00001  -0.00004  -0.00003  -0.00008   2.08152
    A9        2.09109   0.00004   0.00003   0.00025   0.00027   2.09136
   A10        2.11050  -0.00003   0.00002  -0.00021  -0.00020   2.11030
   A11        2.10485   0.00005   0.00004   0.00017   0.00020   2.10505
   A12        2.06752  -0.00001  -0.00003  -0.00005  -0.00008   2.06744
   A13        2.11082  -0.00004  -0.00001  -0.00011  -0.00012   2.11069
   A14        2.10719  -0.00004   0.00000  -0.00017  -0.00017   2.10702
   A15        2.07674  -0.00003  -0.00005  -0.00021  -0.00026   2.07648
   A16        2.09925   0.00007   0.00005   0.00038   0.00043   2.09968
    D1       -0.00000  -0.00000   0.00000  -0.00000   0.00000   0.00000
    D2        3.14159   0.00000   0.00000   0.00000   0.00000   3.14159
    D3        0.00000   0.00000   0.00000  -0.00000   0.00000   0.00000
    D4        3.14159  -0.00000   0.00000  -0.00000   0.00000   3.14159
    D5        0.00000  -0.00000   0.00000  -0.00000   0.00000   0.00000
    D6        3.14159   0.00000   0.00000   0.00000   0.00000   3.14159
    D7        3.14159  -0.00000   0.00000  -0.00000   0.00000   3.14159
    D8       -0.00000   0.00000   0.00000   0.00000   0.00000   0.00000
    D9        0.00000   0.00000   0.00000   0.00000  -0.00000   0.00000
   D10        3.14159   0.00000   0.00000   0.00000   0.00000   3.14159
   D11        3.14159  -0.00000   0.00000  -0.00000   0.00000   3.14159
   D12       -0.00000  -0.00000   0.00000  -0.00000   0.00000   0.00000
   D13        0.00000  -0.00000   0.00000  -0.00000   0.00000   0.00000
   D14        3.14159  -0.00000   0.00000  -0.00000   0.00000   3.14159
   D15        3.14159  -0.00000   0.00000  -0.00000   0.00000   3.14159
   D16        0.00000  -0.00000   0.00000  -0.00000  -0.00000   0.00000
   D17       -0.00000   0.00000   0.00000   0.00000   0.00000   0.00000
   D18        3.14159   0.00000   0.00000   0.00000   0.00000   3.14159
   D19        3.14159  -0.00000   0.00000  -0.00000   0.00000   3.14159
   D20        0.00000   0.00000   0.00000   0.00000   0.00000   0.00000
         Item               Value     Threshold  Converged?
 Maximum Force            0.000172     0.000450     YES
 RMS     Force            0.000047     0.000300     YES
 Maximum Displacement     0.000521     0.001800     YES
 RMS     Displacement     0.000165     0.001200     YES
 Predicted change in Energy=-1.344542D-07
 Optimization completed.
    -- Stationary point found.
                           ----------------------------
                           !   Optimized Parameters   !
                           ! (Angstroms and Degrees)  !
 --------------------------                            --------------------------
 ! Name  Definition              Value          Derivative Info.                !
 --------------------------------------------------------------------------------
 ! R1    R(1,2)                  1.3839         -DE/DX =    0.0001              !
 ! R2    R(1,6)                  1.3961         -DE/DX =    0.0001              !
 ! R3    R(2,3)                  1.3994         -DE/DX =    0.0002              !
 ! R4    R(2,7)                  1.8998         -DE/DX =    0.0                 !
 ! R5    R(3,4)                  1.3938         -DE/DX =    0.0                 !
 ! R6    R(3,8)                  1.099          -DE/DX =    0.0001              !
 ! R7    R(4,5)                  1.4014         -DE/DX =    0.0001              !
 ! R8    R(4,9)                  1.0973         -DE/DX =    0.0                 !
 ! R9    R(5,6)                  1.3934         -DE/DX =    0.0                 !
 ! R10   R(5,10)                 1.8995         -DE/DX =    0.0                 !
 ! R11   R(6,11)                 1.0988         -DE/DX =    0.0001              !
 ! A1    A(2,1,6)              117.8438         -DE/DX =    0.0001              !
 ! A2    A(1,2,3)              122.682          -DE/DX =   -0.0001              !
 ! A3    A(1,2,7)              119.4988         -DE/DX =    0.0                 !
 ! A4    A(3,2,7)              117.8191         -DE/DX =    0.0001              !
 ! A5    A(2,3,4)              118.8753         -DE/DX =    0.0                 !
 ! A6    A(2,3,8)              121.9918         -DE/DX =    0.0                 !
 ! A7    A(4,3,8)              119.1329         -DE/DX =    0.0                 !
 ! A8    A(3,4,5)              119.2668         -DE/DX =    0.0                 !
 ! A9    A(3,4,9)              119.8104         -DE/DX =    0.0                 !
 ! A10   A(5,4,9)              120.9228         -DE/DX =    0.0                 !
 ! A11   A(4,5,6)              120.5989         -DE/DX =    0.0001              !
 ! A12   A(4,5,10)             118.4602         -DE/DX =    0.0                 !
 ! A13   A(6,5,10)             120.9409         -DE/DX =    0.0                 !
 ! A14   A(1,6,5)              120.7332         -DE/DX =    0.0                 !
 ! A15   A(1,6,11)             118.9885         -DE/DX =    0.0                 !
 ! A16   A(5,6,11)             120.2784         -DE/DX =    0.0001              !
 ! D1    D(6,1,2,3)              0.0            -DE/DX =    0.0                 !
 ! D2    D(6,1,2,7)            180.0            -DE/DX =    0.0                 !
 ! D3    D(2,1,6,5)              0.0            -DE/DX =    0.0                 !
 ! D4    D(2,1,6,11)           180.0            -DE/DX =    0.0                 !
 ! D5    D(1,2,3,4)              0.0            -DE/DX =    0.0                 !
 ! D6    D(1,2,3,8)            180.0            -DE/DX =    0.0                 !
 ! D7    D(7,2,3,4)            180.0            -DE/DX =    0.0                 !
 ! D8    D(7,2,3,8)              0.0            -DE/DX =    0.0                 !
 ! D9    D(2,3,4,5)              0.0            -DE/DX =    0.0                 !
 ! D10   D(2,3,4,9)            180.0            -DE/DX =    0.0                 !
 ! D11   D(8,3,4,5)            180.0            -DE/DX =    0.0                 !
 ! D12   D(8,3,4,9)              0.0            -DE/DX =    0.0                 !
 ! D13   D(3,4,5,6)              0.0            -DE/DX =    0.0                 !
 ! D14   D(3,4,5,10)           180.0            -DE/DX =    0.0                 !
 ! D15   D(9,4,5,6)            180.0            -DE/DX =    0.0                 !
 ! D16   D(9,4,5,10)             0.0            -DE/DX =    0.0                 !
 ! D17   D(4,5,6,1)              0.0            -DE/DX =    0.0                 !
 ! D18   D(4,5,6,11)           180.0            -DE/DX =    0.0                 !
 ! D19   D(10,5,6,1)           180.0            -DE/DX =    0.0                 !
 ! D20   D(10,5,6,11)            0.0            -DE/DX =    0.0                 !
 --------------------------------------------------------------------------------
 GradGradGradGradGradGradGradGradGradGradGradGradGradGradGradGradGradGrad

                          Input orientation:                          
 ---------------------------------------------------------------------
 Center     Atomic      Atomic             Coordinates (Angstroms)
 Number     Number       Type             X           Y           Z
 ---------------------------------------------------------------------
      1          6           0       -0.003367    1.423027   -0.000000
      2          6           0        1.177808    0.701962   -0.000000
      3          6           0        1.209054   -0.697040   -0.000000
      4          6           0        0.003876   -1.397196    0.000000
      5          6           0       -1.202656   -0.684268    0.000000
      6          6           0       -1.203153    0.709127    0.000000
      7         35           0        2.837789    1.625843   -0.000000
      8          1           0        2.153953   -1.258355   -0.000000
      9          1           0        0.010470   -2.494451    0.000000
     10         35           0       -2.831485   -1.661472    0.000000
     11          1           0       -2.152290    1.262824    0.000000
 ---------------------------------------------------------------------
                    Distance matrix (angstroms):
                    1          2          3          4          5
     1  C    0.000000
     2  C    1.383874   0.000000
     3  C    2.442263   1.399351   0.000000
     4  C    2.820233   2.405116   1.393798   0.000000
     5  C    2.424663   2.754677   2.411744   1.401422   0.000000
     6  C    1.396116   2.380972   2.792140   2.427656   1.393395
     7  Br   2.848386   1.899761   2.836999   4.143649   4.654225
     8  H    3.441488   2.189910   1.099050   2.154556   3.405349
     9  H    3.917502   3.402901   2.160391   1.097274   2.179090
    10  Br   4.184781   4.654058   4.154045   2.847650   1.899477
    11  H    2.154887   3.376999   3.890977   3.424143   2.166327
                    6          7          8          9         10
     6  C    0.000000
     7  Br   4.143619   0.000000
     8  H    3.891163   2.964157   0.000000
     9  H    3.425754   4.997054   2.474359   0.000000
    10  Br   2.875971   6.553405   5.001710   2.961514   0.000000
    11  H    1.098837   5.003267   4.989998   4.335279   3.002135
                   11
    11  H    0.000000
 Stoichiometry    C6H3Br2(1-)
 Framework group  CS[SG(C6H3Br2)]
 Deg. of freedom    19
 Full point group                 CS      NOp   2
 Largest Abelian subgroup         CS      NOp   2
 Largest concise Abelian subgroup C1      NOp   1
                         Standard orientation:                         
 ---------------------------------------------------------------------
 Center     Atomic      Atomic             Coordinates (Angstroms)
 Number     Number       Type             X           Y           Z
 ---------------------------------------------------------------------
      1          6           0        0.001554    1.454257   -0.000000
      2          6           0       -1.178164    0.730811    0.000000
      3          6           0       -1.206588   -0.668251    0.000000
      4          6           0        0.000000   -1.365976   -0.000000
      5          6           0        1.205091   -0.650616   -0.000000
      6          6           0        1.202778    0.742778   -0.000000
      7         35           0       -2.840005    1.651341    0.000000
      8          1           0       -2.150353   -1.231471    0.000000
      9          1           0       -0.004381   -2.463241    0.000000
     10         35           0        2.835888   -1.624532   -0.000000
     11          1           0        2.150797    1.298388   -0.000000
 ---------------------------------------------------------------------
 Rotational constants (GHZ):           5.9222418           0.2858257           0.2726660

 **********************************************************************

            Population analysis using the SCF Density.

 **********************************************************************

 Orbital symmetries:
       Occupied  (A') (A') (A') (A') (A') (A') (A') (A') (A') (A')
                 (A') (A") (A') (A") (A') (A') (A") (A') (A") (A")
                 (A')
       Virtual   (A") (A') (A") (A') (A") (A') (A') (A') (A') (A')
                 (A') (A') (A') (A')
 The electronic state is 1-A'.
 Alpha  occ. eigenvalues --   -1.26319  -1.06421  -0.99837  -0.96721  -0.89152
 Alpha  occ. eigenvalues --   -0.67655  -0.64191  -0.47551  -0.41178  -0.40752
 Alpha  occ. eigenvalues --   -0.36049  -0.35375  -0.32758  -0.30010  -0.27724
 Alpha  occ. eigenvalues --   -0.27090  -0.25743  -0.24322  -0.18680  -0.16643
 Alpha  occ. eigenvalues --   -0.11228
 Alpha virt. eigenvalues --    0.17373   0.17611   0.19491   0.20552   0.28959
 Alpha virt. eigenvalues --    0.29876   0.30133   0.32415   0.34168   0.34588
 Alpha virt. eigenvalues --    0.35335   0.36366   0.39588   0.41080
          Condensed to atoms (all electrons):
               1          2          3          4          5          6
     1  C    4.358356   0.000000   0.000000   0.000000   0.000000   0.000000
     2  C    0.000000   4.153364   0.000000   0.000000   0.000000   0.000000
     3  C    0.000000   0.000000   4.132873   0.000000   0.000000   0.000000
     4  C    0.000000   0.000000   0.000000   4.204359   0.000000   0.000000
     5  C    0.000000   0.000000   0.000000   0.000000   4.154544   0.000000
     6  C    0.000000   0.000000   0.000000   0.000000   0.000000   4.120896
     7  Br   0.000000   0.000000   0.000000   0.000000   0.000000   0.000000
     8  H    0.000000   0.000000   0.000000   0.000000   0.000000   0.000000
     9  H    0.000000   0.000000   0.000000   0.000000   0.000000   0.000000
    10  Br   0.000000   0.000000   0.000000   0.000000   0.000000   0.000000
    11  H    0.000000   0.000000   0.000000   0.000000   0.000000   0.000000
               7          8          9         10         11
     1  C    0.000000   0.000000   0.000000   0.000000   0.000000
     2  C    0.000000   0.000000   0.000000   0.000000   0.000000
     3  C    0.000000   0.000000   0.000000   0.000000   0.000000
     4  C    0.000000   0.000000   0.000000   0.000000   0.000000
     5  C    0.000000   0.000000   0.000000   0.000000   0.000000
     6  C    0.000000   0.000000   0.000000   0.000000   0.000000
     7  Br   7.090922   0.000000   0.000000   0.000000   0.000000
     8  H    0.000000   0.902666   0.000000   0.000000   0.000000
     9  H    0.000000   0.000000   0.897276   0.000000   0.000000
    10  Br   0.000000   0.000000   0.000000   7.089470   0.000000
    11  H    0.000000   0.000000   0.000000   0.000000   0.895275
 Mulliken charges:
               1
     1  C   -0.358356
     2  C   -0.153364
     3  C   -0.132873
     4  C   -0.204359
     5  C   -0.154544
     6  C   -0.120896
     7  Br  -0.090922
     8  H    0.097334
     9  H    0.102724
    10  Br  -0.089470
    11  H    0.104725
 Sum of Mulliken charges =  -1.00000
 Mulliken charges with hydrogens summed into heavy atoms:
               1
     1  C   -0.358356
     2  C   -0.153364
     3  C   -0.035539
     4  C   -0.101635
     5  C   -0.154544
     6  C   -0.016171
     7  Br  -0.090922
    10  Br  -0.089470
 Charge=             -1.0000 electrons
 Dipole moment (field-independent basis, Debye):
    X=              0.0835    Y=             -4.4150    Z=              0.0000  Tot=              4.4157
 N-N= 1.906069848863D+02 E-N=-2.694621599714D+02  KE=-9.028894390254D+01
 Symmetry A'   KE=-7.007652401752D+01
 Symmetry A"   KE=-2.021241988502D+01
 1\1\GINC-SH04-14N20\FOpt\RAM1\ZDO\C6H3Br2(1-)\JLAPIER\28-Sep-2026\0\\#
  Opt AM1 SCF=XQC\\BrPh_25_anion am1\\-1,1\C,-0.0033665351,1.4230271094
 ,0.\C,1.177808053,0.701962451,0.\C,1.2090540357,-0.6970396138,0.\C,0.0
 038757443,-1.3971962775,0.\C,-1.2026558255,-0.6842684256,0.\C,-1.20315
 28692,0.7091268633,0.\Br,2.8377891816,1.6258427264,0.\H,2.1539534743,-
 1.2583551391,0.\H,0.0104702736,-2.4944508358,0.\Br,-2.831485097,-1.661
 4723645,0.\H,-2.1522904356,1.2628235061,0.\\Version=ES64L-G16RevB.01\S
 tate=1-A'\HF=0.0774658\RMSD=8.890e-09\RMSF=7.508e-05\Dipole=-0.0293468
 ,-1.7370416,0.\PG=CS [SG(C6H3Br2)]\\@


 AND HERE I AM, FOR ALL MY LORE,
 THE WRETCHED FOOL I WAS BEFORE.
 CALLED MASTER OF ARTS, AND DOCTOR TO BOOT,
 FOR TEN YEARS ALMOST I CONFUTE
 AND UP AND DOWN, WHEREVER IT GOES
 I DRAG MY STUDENTS BY THE NOSE --
 AND SEE THAT FOR ALL OUR SCIENCE AND ART
 WE CAN KNOW NOTHING.  IT BURNS MY HEART.

                                       -- FAUST
 Job cpu time:       0 days  0 hours  0 minutes  1.9 seconds.
 Elapsed time:       0 days  0 hours  0 minutes  1.7 seconds.
 File lengths (MBytes):  RWF=      6 Int=      0 D2E=      0 Chk=      3 Scr=      1
 Normal termination of Gaussian 16 at Mon Sep 28 01:24:06 2026.
