 Entering Gaussian System, Link 0=g16
 Initial command:
 /share/software/user/restricted/gaussian/g16.B01/l1.exe "/lscratch/jlapier/g16_45667338_125/Gau-1572.inp" -scrdir="/lscratch/jlapier/g16_45667338_125/"
 Entering Link 1 = /share/software/user/restricted/gaussian/g16.B01/l1.exe PID=      1573.
  
 Copyright (c) 1988-2017, Gaussian, Inc.  All Rights Reserved.
  
 This is part of the Gaussian(R) 16 program.  It is based on
 the Gaussian(R) 09 system (copyright 2009, Gaussian, Inc.),
 the Gaussian(R) 03 system (copyright 2003, Gaussian, Inc.),
 the Gaussian(R) 98 system (copyright 1998, Gaussian, Inc.),
 the Gaussian(R) 94 system (copyright 1995, Gaussian, Inc.),
 the Gaussian 92(TM) system (copyright 1992, Gaussian, Inc.),
 the Gaussian 90(TM) system (copyright 1990, Gaussian, Inc.),
 the Gaussian 88(TM) system (copyright 1988, Gaussian, Inc.),
 the Gaussian 86(TM) system (copyright 1986, Carnegie Mellon
 University), and the Gaussian 82(TM) system (copyright 1983,
 Carnegie Mellon University). Gaussian is a federally registered
 trademark of Gaussian, Inc.
  
 This software contains proprietary and confidential information,
 including trade secrets, belonging to Gaussian, Inc.
  
 This software is provided under written license and may be
 used, copied, transmitted, or stored only in accord with that
 written license.
  
 The following legend is applicable only to US Government
 contracts under FAR:
  
                    RESTRICTED RIGHTS LEGEND
  
 Use, reproduction and disclosure by the US Government is
 subject to restrictions as set forth in subparagraphs (a)
 and (c) of the Commercial Computer Software - Restricted
 Rights clause in FAR 52.227-19.
  
 Gaussian, Inc.
 340 Quinnipiac St., Bldg. 40, Wallingford CT 06492
  
  
 ---------------------------------------------------------------
 Warning -- This program may not be used in any manner that
 competes with the business of Gaussian, Inc. or will provide
 assistance to any competitor of Gaussian, Inc.  The licensee
 of this program is prohibited from giving any competitor of
 Gaussian, Inc. access to this program.  By using this program,
 the user acknowledges that Gaussian, Inc. is engaged in the
 business of creating and licensing software in the field of
 computational chemistry and represents and warrants to the
 licensee that it is not a competitor of Gaussian, Inc. and that
 it will not use this program in any manner prohibited above.
 ---------------------------------------------------------------
  

 Cite this work as:
 Gaussian 16, Revision B.01,
 M. J. Frisch, G. W. Trucks, H. B. Schlegel, G. E. Scuseria, 
 M. A. Robb, J. R. Cheeseman, G. Scalmani, V. Barone, 
 G. A. Petersson, H. Nakatsuji, X. Li, M. Caricato, A. V. Marenich, 
 J. Bloino, B. G. Janesko, R. Gomperts, B. Mennucci, H. P. Hratchian, 
 J. V. Ortiz, A. F. Izmaylov, J. L. Sonnenberg, D. Williams-Young, 
 F. Ding, F. Lipparini, F. Egidi, J. Goings, B. Peng, A. Petrone, 
 T. Henderson, D. Ranasinghe, V. G. Zakrzewski, J. Gao, N. Rega, 
 G. Zheng, W. Liang, M. Hada, M. Ehara, K. Toyota, R. Fukuda, 
 J. Hasegawa, M. Ishida, T. Nakajima, Y. Honda, O. Kitao, H. Nakai, 
 T. Vreven, K. Throssell, J. A. Montgomery, Jr., J. E. Peralta, 
 F. Ogliaro, M. J. Bearpark, J. J. Heyd, E. N. Brothers, K. N. Kudin, 
 V. N. Staroverov, T. A. Keith, R. Kobayashi, J. Normand, 
 K. Raghavachari, A. P. Rendell, J. C. Burant, S. S. Iyengar, 
 J. Tomasi, M. Cossi, J. M. Millam, M. Klene, C. Adamo, R. Cammi, 
 J. W. Ochterski, R. L. Martin, K. Morokuma, O. Farkas, 
 J. B. Foresman, and D. J. Fox, Gaussian, Inc., Wallingford CT, 2016.
 
 ******************************************
 Gaussian 16:  ES64L-G16RevB.01 20-Dec-2017
                28-Sep-2026 
 ******************************************
 %nprocshared=1
 Will use up to    1 processors via shared memory.
 %mem=1GB
 %chk=calcs/am1/chks/BrPh_23456_anion.chk
 -----------------
 # Opt AM1 SCF=XQC
 -----------------
 1/18=20,19=15,26=1,38=1/1,3;
 2/9=110,12=2,17=6,18=5,40=1/2;
 3/5=2,25=1,41=700000,71=1/1,2,3;
 4/35=1/1;
 5/5=2,8=3,13=1,35=1,38=5/2,8;
 6/7=2,8=2,9=2,10=2,28=1/1;
 7//1,2,3,16;
 1/18=20,19=15,26=1/3(2);
 2/9=110/2;
 99//99;
 2/9=110/2;
 3/5=2,25=1,41=700000,71=1,135=20/1,2,3;
 4/5=5,16=3,35=1/1;
 5/5=2,8=3,13=1,35=1,38=5/2,8;
 7//1,2,3,16;
 1/18=20,19=15,26=1/3(-5);
 2/9=110/2;
 6/7=2,8=2,9=2,10=2,19=2,28=1/1;
 99/9=1/99;
 --------------------
 BrPh_23456_anion am1
 --------------------
 Symbolic Z-matrix:
 Charge = -1 Multiplicity = 1
 C                     0.        1.39      0. 
 C                     1.20378   0.695     0. 
 C                     1.20378  -0.695     0. 
 C                     0.       -1.39      0. 
 C                    -1.20378  -0.695     0. 
 C                    -1.20378   0.695     0. 
 Br                    2.84922   1.645     0. 
 Br                    2.84922  -1.645     0. 
 Br                    0.       -3.29      0. 
 Br                   -2.84922  -1.645     0. 
 Br                   -2.84922   1.645     0. 
 

 GradGradGradGradGradGradGradGradGradGradGradGradGradGradGradGradGradGrad
 Berny optimization.
 Initialization pass.
                           ----------------------------
                           !    Initial Parameters    !
                           ! (Angstroms and Degrees)  !
 --------------------------                            --------------------------
 ! Name  Definition              Value          Derivative Info.                !
 --------------------------------------------------------------------------------
 ! R1    R(1,2)                  1.39           estimate D2E/DX2                !
 ! R2    R(1,6)                  1.39           estimate D2E/DX2                !
 ! R3    R(2,3)                  1.39           estimate D2E/DX2                !
 ! R4    R(2,7)                  1.9            estimate D2E/DX2                !
 ! R5    R(3,4)                  1.39           estimate D2E/DX2                !
 ! R6    R(3,8)                  1.9            estimate D2E/DX2                !
 ! R7    R(4,5)                  1.39           estimate D2E/DX2                !
 ! R8    R(4,9)                  1.9            estimate D2E/DX2                !
 ! R9    R(5,6)                  1.39           estimate D2E/DX2                !
 ! R10   R(5,10)                 1.9            estimate D2E/DX2                !
 ! R11   R(6,11)                 1.9            estimate D2E/DX2                !
 ! A1    A(2,1,6)              120.0            estimate D2E/DX2                !
 ! A2    A(1,2,3)              120.0            estimate D2E/DX2                !
 ! A3    A(1,2,7)              120.0            estimate D2E/DX2                !
 ! A4    A(3,2,7)              120.0            estimate D2E/DX2                !
 ! A5    A(2,3,4)              120.0            estimate D2E/DX2                !
 ! A6    A(2,3,8)              120.0            estimate D2E/DX2                !
 ! A7    A(4,3,8)              120.0            estimate D2E/DX2                !
 ! A8    A(3,4,5)              120.0            estimate D2E/DX2                !
 ! A9    A(3,4,9)              120.0            estimate D2E/DX2                !
 ! A10   A(5,4,9)              120.0            estimate D2E/DX2                !
 ! A11   A(4,5,6)              120.0            estimate D2E/DX2                !
 ! A12   A(4,5,10)             120.0            estimate D2E/DX2                !
 ! A13   A(6,5,10)             120.0            estimate D2E/DX2                !
 ! A14   A(1,6,5)              120.0            estimate D2E/DX2                !
 ! A15   A(1,6,11)             120.0            estimate D2E/DX2                !
 ! A16   A(5,6,11)             120.0            estimate D2E/DX2                !
 ! D1    D(6,1,2,3)              0.0            estimate D2E/DX2                !
 ! D2    D(6,1,2,7)            180.0            estimate D2E/DX2                !
 ! D3    D(2,1,6,5)              0.0            estimate D2E/DX2                !
 ! D4    D(2,1,6,11)           180.0            estimate D2E/DX2                !
 ! D5    D(1,2,3,4)              0.0            estimate D2E/DX2                !
 ! D6    D(1,2,3,8)            180.0            estimate D2E/DX2                !
 ! D7    D(7,2,3,4)            180.0            estimate D2E/DX2                !
 ! D8    D(7,2,3,8)              0.0            estimate D2E/DX2                !
 ! D9    D(2,3,4,5)              0.0            estimate D2E/DX2                !
 ! D10   D(2,3,4,9)            180.0            estimate D2E/DX2                !
 ! D11   D(8,3,4,5)            180.0            estimate D2E/DX2                !
 ! D12   D(8,3,4,9)              0.0            estimate D2E/DX2                !
 ! D13   D(3,4,5,6)              0.0            estimate D2E/DX2                !
 ! D14   D(3,4,5,10)           180.0            estimate D2E/DX2                !
 ! D15   D(9,4,5,6)            180.0            estimate D2E/DX2                !
 ! D16   D(9,4,5,10)             0.0            estimate D2E/DX2                !
 ! D17   D(4,5,6,1)              0.0            estimate D2E/DX2                !
 ! D18   D(4,5,6,11)           180.0            estimate D2E/DX2                !
 ! D19   D(10,5,6,1)           180.0            estimate D2E/DX2                !
 ! D20   D(10,5,6,11)            0.0            estimate D2E/DX2                !
 --------------------------------------------------------------------------------
 Trust Radius=3.00D-01 FncErr=1.00D-07 GrdErr=1.00D-07 EigMax=2.50D+02 EigMin=1.00D-04
 Number of steps in this run=     57 maximum allowed number of steps=    100.
 GradGradGradGradGradGradGradGradGradGradGradGradGradGradGradGradGradGrad

                          Input orientation:                          
 ---------------------------------------------------------------------
 Center     Atomic      Atomic             Coordinates (Angstroms)
 Number     Number       Type             X           Y           Z
 ---------------------------------------------------------------------
      1          6           0        0.000000    1.390000    0.000000
      2          6           0        1.203775    0.695000    0.000000
      3          6           0        1.203775   -0.695000    0.000000
      4          6           0        0.000000   -1.390000    0.000000
      5          6           0       -1.203775   -0.695000    0.000000
      6          6           0       -1.203775    0.695000    0.000000
      7         35           0        2.849224    1.645000    0.000000
      8         35           0        2.849224   -1.645000    0.000000
      9         35           0        0.000000   -3.290000    0.000000
     10         35           0       -2.849224   -1.645000    0.000000
     11         35           0       -2.849224    1.645000    0.000000
 ---------------------------------------------------------------------
                    Distance matrix (angstroms):
                    1          2          3          4          5
     1  C    0.000000
     2  C    1.390000   0.000000
     3  C    2.407551   1.390000   0.000000
     4  C    2.780000   2.407551   1.390000   0.000000
     5  C    2.407551   2.780000   2.407551   1.390000   0.000000
     6  C    1.390000   2.407551   2.780000   2.407551   1.390000
     7  Br   2.860612   1.900000   2.860612   4.162848   4.680000
     8  Br   4.162848   2.860612   1.900000   2.860612   4.162848
     9  Br   4.680000   4.162848   2.860612   1.900000   2.860612
    10  Br   4.162848   4.680000   4.162848   2.860612   1.900000
    11  Br   2.860612   4.162848   4.680000   4.162848   2.860612
                    6          7          8          9         10
     6  C    0.000000
     7  Br   4.162848   0.000000
     8  Br   4.680000   3.290000   0.000000
     9  Br   4.162848   5.698447   3.290000   0.000000
    10  Br   2.860612   6.580000   5.698447   3.290000   0.000000
    11  Br   1.900000   5.698447   6.580000   5.698447   3.290000
                   11
    11  Br   0.000000
 Stoichiometry    C6Br5(1-)
 Framework group  C2V[C2(CCBr),SGV(C4Br4)]
 Deg. of freedom    10
 Full point group                 C2V     NOp   4
 Largest Abelian subgroup         C2V     NOp   4
 Largest concise Abelian subgroup C2      NOp   2
                         Standard orientation:                         
 ---------------------------------------------------------------------
 Center     Atomic      Atomic             Coordinates (Angstroms)
 Number     Number       Type             X           Y           Z
 ---------------------------------------------------------------------
      1          6           0        0.000000   -0.000000   -1.935735
      2          6           0        0.000000    1.203775   -1.240735
      3          6           0        0.000000    1.203775    0.149265
      4          6           0       -0.000000    0.000000    0.844265
      5          6           0       -0.000000   -1.203775    0.149265
      6          6           0       -0.000000   -1.203775   -1.240735
      7         35           0        0.000000    2.849224   -2.190735
      8         35           0        0.000000    2.849224    1.099265
      9         35           0       -0.000000    0.000000    2.744265
     10         35           0       -0.000000   -2.849224    1.099265
     11         35           0       -0.000000   -2.849224   -2.190735
 ---------------------------------------------------------------------
 Rotational constants (GHZ):           0.3093814           0.1919976           0.1184742
 Standard basis: VSTO-6G (5D, 7F)
 There are    18 symmetry adapted cartesian basis functions of A1  symmetry.
 There are     4 symmetry adapted cartesian basis functions of A2  symmetry.
 There are     7 symmetry adapted cartesian basis functions of B1  symmetry.
 There are    15 symmetry adapted cartesian basis functions of B2  symmetry.
 There are    18 symmetry adapted basis functions of A1  symmetry.
 There are     4 symmetry adapted basis functions of A2  symmetry.
 There are     7 symmetry adapted basis functions of B1  symmetry.
 There are    15 symmetry adapted basis functions of B2  symmetry.
    44 basis functions,   264 primitive gaussians,    44 cartesian basis functions
    30 alpha electrons       30 beta electrons
       nuclear repulsion energy       339.3156885407 Hartrees.
 Integral buffers will be    131072 words long.
 Regular integral format.
 Two-electron integral symmetry is turned off.
 Do NDO integrals.
 One-electron integrals computed using PRISM.
 NBasis=    44 RedAO= T EigKep=  1.00D+00  NBF=    18     4     7    15
 NBsUse=    44 1.00D-06 EigRej= -1.00D+00 NBFU=    18     4     7    15
 Nonelectrostatic core Hamiltonian diagonalized for initial guess.
 Initial guess orbital symmetries:
       Occupied  (A1) (B2) (A1) (B2) (A1) (A1) (A1) (B2) (B2) (A1)
                 (A1) (B2) (A1) (B1) (B2) (A2) (A1) (B1) (B2) (A1)
                 (B2) (A2) (B1) (B2) (B1) (A1) (B1) (A2) (A1) (B2)
       Virtual   (B1) (A2) (A1) (B2) (A1) (A1) (B1) (B2) (A1) (B2)
                 (A1) (B2) (A1) (B2)
 The electronic state of the initial guess is 1-A1.
 Keep J ints in memory in canonical form, NReq=865421.
 Overlap will be assumed to be unity.
 Requested convergence on RMS density matrix=1.00D-08 within  32 cycles.
 Requested convergence on MAX density matrix=1.00D-06.
 Requested convergence on             energy=1.00D-06.
 No special actions if energy rises.
 Fock symm off for IB=2 I1=    1 I=   19 J=   15 Cut=1.00D-07 Err=8.55D-03
 Fock matrix is not symmetric: symmetry in diagonalization turned off.
 SCF Done:  E(RAM1) =  0.811617854014E-01 A.U. after   15 cycles
            NFock= 14  Conv=0.47D-08     -V/T= 1.0005
 QCSCF skips out because SCF is already converged.

 **********************************************************************

            Population analysis using the SCF Density.

 **********************************************************************

 Orbital symmetries:
       Occupied  (A1) (B2) (A1) (A1) (B2) (A1) (A1) (B2) (B2) (A1)
                 (A1) (B2) (A1) (B1) (B2) (A1) (A2) (B1) (B2) (B2)
                 (A1) (B1) (A2) (B2) (B1) (A1) (B2) (A2) (B1) (A1)
       Virtual   (A1) (A2) (B1) (B2) (A1) (A1) (B2) (B1) (B2) (A1)
                 (B2) (A1) (A1) (B2)
 The electronic state is 1-A1.
 Alpha  occ. eigenvalues --   -1.31344  -1.12210  -1.09333  -1.03537  -1.03481
 Alpha  occ. eigenvalues --   -1.01241  -0.91694  -0.91693  -0.69108  -0.68425
 Alpha  occ. eigenvalues --   -0.49657  -0.48162  -0.42968  -0.42017  -0.39684
 Alpha  occ. eigenvalues --   -0.36604  -0.34332  -0.32319  -0.32210  -0.31549
 Alpha  occ. eigenvalues --   -0.31070  -0.29713  -0.29418  -0.27596  -0.27031
 Alpha  occ. eigenvalues --   -0.25971  -0.24668  -0.21243  -0.19643  -0.14611
 Alpha virt. eigenvalues --    0.13030   0.13049   0.14766   0.14806   0.15095
 Alpha virt. eigenvalues --    0.17302   0.18146   0.24733   0.28882   0.28959
 Alpha virt. eigenvalues --    0.30002   0.30966   0.34624   0.36680
          Condensed to atoms (all electrons):
               1          2          3          4          5          6
     1  C    4.306545   0.000000   0.000000   0.000000   0.000000   0.000000
     2  C    0.000000   4.123968   0.000000   0.000000   0.000000   0.000000
     3  C    0.000000   0.000000   4.108202   0.000000   0.000000   0.000000
     4  C    0.000000   0.000000   0.000000   4.194362   0.000000   0.000000
     5  C    0.000000   0.000000   0.000000   0.000000   4.108202   0.000000
     6  C    0.000000   0.000000   0.000000   0.000000   0.000000   4.123968
     7  Br   0.000000   0.000000   0.000000   0.000000   0.000000   0.000000
     8  Br   0.000000   0.000000   0.000000   0.000000   0.000000   0.000000
     9  Br   0.000000   0.000000   0.000000   0.000000   0.000000   0.000000
    10  Br   0.000000   0.000000   0.000000   0.000000   0.000000   0.000000
    11  Br   0.000000   0.000000   0.000000   0.000000   0.000000   0.000000
               7          8          9         10         11
     1  C    0.000000   0.000000   0.000000   0.000000   0.000000
     2  C    0.000000   0.000000   0.000000   0.000000   0.000000
     3  C    0.000000   0.000000   0.000000   0.000000   0.000000
     4  C    0.000000   0.000000   0.000000   0.000000   0.000000
     5  C    0.000000   0.000000   0.000000   0.000000   0.000000
     6  C    0.000000   0.000000   0.000000   0.000000   0.000000
     7  Br   7.015389   0.000000   0.000000   0.000000   0.000000
     8  Br   0.000000   7.006287   0.000000   0.000000   0.000000
     9  Br   0.000000   0.000000   6.991402   0.000000   0.000000
    10  Br   0.000000   0.000000   0.000000   7.006287   0.000000
    11  Br   0.000000   0.000000   0.000000   0.000000   7.015389
 Mulliken charges:
               1
     1  C   -0.306545
     2  C   -0.123968
     3  C   -0.108202
     4  C   -0.194362
     5  C   -0.108202
     6  C   -0.123968
     7  Br  -0.015389
     8  Br  -0.006287
     9  Br   0.008598
    10  Br  -0.006287
    11  Br  -0.015389
 Sum of Mulliken charges =  -1.00000
 Mulliken charges with hydrogens summed into heavy atoms:
               1
     1  C   -0.306545
     2  C   -0.123968
     3  C   -0.108202
     4  C   -0.194362
     5  C   -0.108202
     6  C   -0.123968
     7  Br  -0.015389
     8  Br  -0.006287
     9  Br   0.008598
    10  Br  -0.006287
    11  Br  -0.015389
 Charge=             -1.0000 electrons
 Dipole moment (field-independent basis, Debye):
    X=             -0.0000    Y=              0.0000    Z=              5.1402  Tot=              5.1402
 N-N= 3.393156885407D+02 E-N=-4.932556635048D+02  KE=-1.527627063465D+02
 Symmetry A1   KE=-6.384436839153D+01
 Symmetry A2   KE=-1.397447258827D+01
 Symmetry B1   KE=-2.268939575353D+01
 Symmetry B2   KE=-5.225446961313D+01
 Calling FoFJK, ICntrl=      2127 FMM=F ISym2X=1 I1Cent= 0 IOpClX= 0 NMat=1 NMatS=1 NMatT=0.
 ***** Axes restored to original set *****
 -------------------------------------------------------------------
 Center     Atomic                   Forces (Hartrees/Bohr)
 Number     Number              X              Y              Z
 -------------------------------------------------------------------
      1        6          -0.000000000    0.005081780    0.000000000
      2        6          -0.005260104    0.012796863    0.000000000
      3        6           0.022990129   -0.006628531    0.000000000
      4        6          -0.000000000   -0.022683800    0.000000000
      5        6          -0.022990129   -0.006628531    0.000000000
      6        6           0.005260104    0.012796863   -0.000000000
      7       35          -0.008278333   -0.002858263   -0.000000000
      8       35          -0.005200540    0.001022571   -0.000000000
      9       35          -0.000000000    0.008936740    0.000000000
     10       35           0.005200540    0.001022571   -0.000000000
     11       35           0.008278333   -0.002858263   -0.000000000
 -------------------------------------------------------------------
 Cartesian Forces:  Max     0.022990129 RMS     0.008452455

 GradGradGradGradGradGradGradGradGradGradGradGradGradGradGradGradGradGrad
 Berny optimization.
 FormGI is forming the generalized inverse of G from B-inverse, IUseBI=4.
 Internal  Forces:  Max     0.013288427 RMS     0.005209887
 Search for a local minimum.
 Step number   1 out of a maximum of   57
 All quantities printed in internal units (Hartrees-Bohrs-Radians)
 Mixed Optimization -- RFO/linear search
 Second derivative matrix not updated -- first step.
 ITU=  0
     Eigenvalues ---    0.02221   0.02221   0.02221   0.02221   0.02221
     Eigenvalues ---    0.02221   0.02221   0.02221   0.18251   0.18251
     Eigenvalues ---    0.18251   0.18251   0.18251   0.25000   0.25000
     Eigenvalues ---    0.25000   0.25000   0.25000   0.25000   0.25000
     Eigenvalues ---    0.25000   0.43333   0.43780   0.47319   0.47319
     Eigenvalues ---    0.47319   0.47319
 RFO step:  Lambda=-4.05669225D-03 EMin= 2.22103665D-02
 Linear search not attempted -- first point.
 Iteration  1 RMS(Cart)=  0.02226389 RMS(Int)=  0.00015922
 Iteration  2 RMS(Cart)=  0.00025374 RMS(Int)=  0.00002944
 Iteration  3 RMS(Cart)=  0.00000004 RMS(Int)=  0.00002944
 ClnCor:  largest displacement from symmetrization is 1.28D-12 for atom     9.
 Variable       Old X    -DE/DX   Delta X   Delta X   Delta X     New X
                                 (Linear)    (Quad)   (Total)
    R1        2.62672  -0.00490   0.00000  -0.01179  -0.01183   2.61489
    R2        2.62672  -0.00490   0.00000  -0.01179  -0.01183   2.61489
    R3        2.62672   0.01248   0.00000   0.02615   0.02615   2.65287
    R4        3.59048  -0.00860   0.00000  -0.04609  -0.04609   3.54439
    R5        2.62672   0.01329   0.00000   0.02937   0.02941   2.65613
    R6        3.59048  -0.00502   0.00000  -0.02688  -0.02688   3.56360
    R7        2.62672   0.01329   0.00000   0.02937   0.02941   2.65613
    R8        3.59048  -0.00894   0.00000  -0.04790  -0.04790   3.54258
    R9        2.62672   0.01248   0.00000   0.02615   0.02615   2.65287
   R10        3.59048  -0.00502   0.00000  -0.02688  -0.02688   3.56360
   R11        3.59048  -0.00860   0.00000  -0.04609  -0.04609   3.54439
    A1        2.09440  -0.00198   0.00000  -0.01582  -0.01593   2.07847
    A2        2.09440   0.00678   0.00000   0.02424   0.02420   2.11860
    A3        2.09440  -0.00638   0.00000  -0.02388  -0.02386   2.07054
    A4        2.09440  -0.00040   0.00000  -0.00036  -0.00034   2.09405
    A5        2.09440  -0.00439   0.00000  -0.01394  -0.01389   2.08051
    A6        2.09440   0.00527   0.00000   0.01908   0.01906   2.11346
    A7        2.09440  -0.00088   0.00000  -0.00515  -0.00517   2.08922
    A8        2.09440  -0.00280   0.00000  -0.00479  -0.00470   2.08970
    A9        2.09440   0.00140   0.00000   0.00239   0.00235   2.09674
   A10        2.09440   0.00140   0.00000   0.00239   0.00235   2.09674
   A11        2.09440  -0.00439   0.00000  -0.01394  -0.01389   2.08051
   A12        2.09440  -0.00088   0.00000  -0.00515  -0.00517   2.08922
   A13        2.09440   0.00527   0.00000   0.01908   0.01906   2.11346
   A14        2.09440   0.00678   0.00000   0.02424   0.02420   2.11860
   A15        2.09440  -0.00638   0.00000  -0.02388  -0.02386   2.07054
   A16        2.09440  -0.00040   0.00000  -0.00036  -0.00034   2.09405
    D1        0.00000  -0.00000   0.00000  -0.00000   0.00000   0.00000
    D2        3.14159  -0.00000   0.00000  -0.00000   0.00000   3.14159
    D3       -0.00000   0.00000   0.00000   0.00000   0.00000   0.00000
    D4        3.14159   0.00000   0.00000   0.00000   0.00000   3.14159
    D5       -0.00000   0.00000   0.00000   0.00000   0.00000   0.00000
    D6        3.14159  -0.00000   0.00000  -0.00000   0.00000   3.14159
    D7        3.14159   0.00000   0.00000   0.00000   0.00000   3.14159
    D8        0.00000   0.00000   0.00000   0.00000  -0.00000   0.00000
    D9       -0.00000   0.00000   0.00000   0.00000   0.00000   0.00000
   D10        3.14159  -0.00000   0.00000  -0.00000   0.00000   3.14159
   D11        3.14159   0.00000   0.00000   0.00000   0.00000   3.14159
   D12       -0.00000   0.00000   0.00000   0.00000   0.00000   0.00000
   D13        0.00000  -0.00000   0.00000  -0.00000   0.00000   0.00000
   D14        3.14159  -0.00000   0.00000  -0.00000   0.00000   3.14159
   D15        3.14159   0.00000   0.00000   0.00000   0.00000   3.14159
   D16       -0.00000  -0.00000   0.00000  -0.00000   0.00000   0.00000
   D17        0.00000   0.00000   0.00000   0.00000  -0.00000   0.00000
   D18        3.14159  -0.00000   0.00000  -0.00000   0.00000   3.14159
   D19        3.14159   0.00000   0.00000   0.00000   0.00000   3.14159
   D20       -0.00000   0.00000   0.00000   0.00000   0.00000   0.00000
         Item               Value     Threshold  Converged?
 Maximum Force            0.013288     0.000450     NO 
 RMS     Force            0.005210     0.000300     NO 
 Maximum Displacement     0.089199     0.001800     NO 
 RMS     Displacement     0.022177     0.001200     NO 
 Predicted change in Energy=-2.058287D-03
 GradGradGradGradGradGradGradGradGradGradGradGradGradGradGradGradGradGrad

                          Input orientation:                          
 ---------------------------------------------------------------------
 Center     Atomic      Atomic             Coordinates (Angstroms)
 Number     Number       Type             X           Y           Z
 ---------------------------------------------------------------------
      1          6           0        0.000000    1.399976    0.000000
      2          6           0        1.192805    0.698585   -0.000000
      3          6           0        1.215599   -0.705067   -0.000000
      4          6           0       -0.000000   -1.410706   -0.000000
      5          6           0       -1.215599   -0.705067    0.000000
      6          6           0       -1.192805    0.698585    0.000000
      7         35           0        2.802022    1.662088   -0.000000
      8         35           0        2.846060   -1.652562   -0.000000
      9         35           0       -0.000000   -3.285358   -0.000000
     10         35           0       -2.846060   -1.652562    0.000000
     11         35           0       -2.802022    1.662088    0.000000
 ---------------------------------------------------------------------
                    Distance matrix (angstroms):
                    1          2          3          4          5
     1  C    0.000000
     2  C    1.383739   0.000000
     3  C    2.430821   1.403837   0.000000
     4  C    2.810682   2.423198   1.405563   0.000000
     5  C    2.430821   2.787588   2.431198   1.405563   0.000000
     6  C    1.383739   2.385609   2.787588   2.423198   1.403837
     7  Br   2.814254   1.875611   2.849589   4.158532   4.663121
     8  Br   4.173493   2.874220   1.885775   2.856318   4.170710
     9  Br   4.685334   4.158675   2.852294   1.874652   2.852294
    10  Br   4.173493   4.673362   4.170710   2.856318   1.885775
    11  Br   2.814254   4.109376   4.663121   4.158532   2.849589
                    6          7          8          9         10
     6  C    0.000000
     7  Br   4.109376   0.000000
     8  Br   4.673362   3.314942   0.000000
     9  Br   4.158675   5.685820   3.281171   0.000000
    10  Br   2.874220   6.548872   5.692120   3.281171   0.000000
    11  Br   1.875611   5.604043   6.548872   5.685820   3.314942
                   11
    11  Br   0.000000
 Stoichiometry    C6Br5(1-)
 Framework group  C2V[C2(CCBr),SGV(C4Br4)]
 Deg. of freedom    10
 Full point group                 C2V     NOp   4
 Largest Abelian subgroup         C2V     NOp   4
 Largest concise Abelian subgroup C2      NOp   2
                         Standard orientation:                         
 ---------------------------------------------------------------------
 Center     Atomic      Atomic             Coordinates (Angstroms)
 Number     Number       Type             X           Y           Z
 ---------------------------------------------------------------------
      1          6           0        0.000000   -0.000000   -1.942454
      2          6           0       -0.000000    1.192805   -1.241063
      3          6           0       -0.000000    1.215599    0.162589
      4          6           0       -0.000000    0.000000    0.868228
      5          6           0       -0.000000   -1.215599    0.162589
      6          6           0       -0.000000   -1.192805   -1.241063
      7         35           0       -0.000000    2.802022   -2.204566
      8         35           0       -0.000000    2.846060    1.110084
      9         35           0       -0.000000    0.000000    2.742880
     10         35           0       -0.000000   -2.846060    1.110084
     11         35           0       -0.000000   -2.802022   -2.204566
 ---------------------------------------------------------------------
 Rotational constants (GHZ):           0.3068094           0.1953288           0.1193471
 Standard basis: VSTO-6G (5D, 7F)
 There are    18 symmetry adapted cartesian basis functions of A1  symmetry.
 There are     4 symmetry adapted cartesian basis functions of A2  symmetry.
 There are     7 symmetry adapted cartesian basis functions of B1  symmetry.
 There are    15 symmetry adapted cartesian basis functions of B2  symmetry.
 There are    18 symmetry adapted basis functions of A1  symmetry.
 There are     4 symmetry adapted basis functions of A2  symmetry.
 There are     7 symmetry adapted basis functions of B1  symmetry.
 There are    15 symmetry adapted basis functions of B2  symmetry.
    44 basis functions,   264 primitive gaussians,    44 cartesian basis functions
    30 alpha electrons       30 beta electrons
       nuclear repulsion energy       339.7263574622 Hartrees.
 Integral buffers will be    131072 words long.
 Regular integral format.
 Two-electron integral symmetry is turned off.
 Do NDO integrals.
 One-electron integrals computed using PRISM.
 NBasis=    44 RedAO= T EigKep=  1.00D+00  NBF=    18     4     7    15
 NBsUse=    44 1.00D-06 EigRej= -1.00D+00 NBFU=    18     4     7    15
 Initial guess from the checkpoint file:  "calcs/am1/chks/BrPh_23456_anion.chk"
 B after Tr=     0.000000    0.000000   -0.000000
         Rot=    1.000000    0.000000    0.000000   -0.000000 Ang=   0.00 deg.
 Initial guess orbital symmetries:
       Occupied  (A1) (B2) (A1) (A1) (B2) (A1) (A1) (B2) (B2) (A1)
                 (A1) (B2) (A1) (B1) (B2) (A1) (A2) (B1) (B2) (B2)
                 (A1) (B1) (A2) (B2) (B1) (A1) (B2) (A2) (B1) (A1)
       Virtual   (A1) (A2) (B1) (B2) (A1) (A1) (B2) (B1) (B2) (A1)
                 (B2) (A1) (A1) (B2)
 Keep J ints in memory in canonical form, NReq=865421.
 Overlap will be assumed to be unity.
 Requested convergence on RMS density matrix=1.00D-08 within  32 cycles.
 Requested convergence on MAX density matrix=1.00D-06.
 Requested convergence on             energy=1.00D-06.
 No special actions if energy rises.
 Fock symm off for IB=2 I1=    1 I=   19 J=   12 Cut=1.00D-07 Err=1.11D-03
 Fock matrix is not symmetric: symmetry in diagonalization turned off.
 SCF Done:  E(RAM1) =  0.794777629894E-01 A.U. after   13 cycles
            NFock= 12  Conv=0.44D-08     -V/T= 1.0005
 QCSCF skips out because SCF is already converged.
 Calling FoFJK, ICntrl=      2127 FMM=F ISym2X=1 I1Cent= 0 IOpClX= 0 NMat=1 NMatS=1 NMatT=0.
 ***** Axes restored to original set *****
 -------------------------------------------------------------------
 Center     Atomic                   Forces (Hartrees/Bohr)
 Number     Number              X              Y              Z
 -------------------------------------------------------------------
      1        6           0.000000000    0.001333278    0.000000000
      2        6          -0.000364822   -0.006689256    0.000000000
      3        6          -0.000716594    0.002281037   -0.000000000
      4        6           0.000000000    0.003673077    0.000000000
      5        6           0.000716594    0.002281037   -0.000000000
      6        6           0.000364822   -0.006689256    0.000000000
      7       35           0.002426113    0.000967555   -0.000000000
      8       35          -0.001886027    0.000912573   -0.000000000
      9       35          -0.000000000    0.000049828    0.000000000
     10       35           0.001886027    0.000912573   -0.000000000
     11       35          -0.002426113    0.000967555   -0.000000000
 -------------------------------------------------------------------
 Cartesian Forces:  Max     0.006689256 RMS     0.002051515

 GradGradGradGradGradGradGradGradGradGradGradGradGradGradGradGradGradGrad
 Berny optimization.
 Using GEDIIS/GDIIS optimizer.
 FormGI is forming the generalized inverse of G from B-inverse, IUseBI=4.
 Internal  Forces:  Max     0.005058575 RMS     0.001496287
 Search for a local minimum.
 Step number   2 out of a maximum of   57
 All quantities printed in internal units (Hartrees-Bohrs-Radians)
 Mixed Optimization -- RFO/linear search
 Update second derivatives using D2CorX and points    1    2
 DE= -1.68D-03 DEPred=-2.06D-03 R= 8.18D-01
 TightC=F SS=  1.41D+00  RLast= 1.23D-01 DXNew= 5.0454D-01 3.6899D-01
 Trust test= 8.18D-01 RLast= 1.23D-01 DXMaxT set to 3.69D-01
 ITU=  1  0
 Use linear search instead of GDIIS.
     Eigenvalues ---    0.02221   0.02221   0.02221   0.02221   0.02221
     Eigenvalues ---    0.02221   0.02221   0.02221   0.16682   0.18251
     Eigenvalues ---    0.18251   0.18251   0.19609   0.24497   0.25000
     Eigenvalues ---    0.25000   0.25000   0.25000   0.25000   0.25000
     Eigenvalues ---    0.25410   0.43317   0.44833   0.47184   0.47319
     Eigenvalues ---    0.47319   0.56285
 RFO step:  Lambda=-1.39205228D-04 EMin= 2.22103665D-02
 Quartic linear search produced a step of -0.14474.
 Iteration  1 RMS(Cart)=  0.00576296 RMS(Int)=  0.00000696
 Iteration  2 RMS(Cart)=  0.00001139 RMS(Int)=  0.00000314
 Iteration  3 RMS(Cart)=  0.00000000 RMS(Int)=  0.00000314
 ClnCor:  largest displacement from symmetrization is 4.95D-12 for atom     8.
 Variable       Old X    -DE/DX   Delta X   Delta X   Delta X     New X
                                 (Linear)    (Quad)   (Total)
    R1        2.61489   0.00189   0.00171   0.00164   0.00335   2.61824
    R2        2.61489   0.00189   0.00171   0.00164   0.00335   2.61824
    R3        2.65287  -0.00506  -0.00378  -0.00444  -0.00823   2.64464
    R4        3.54439   0.00258   0.00667   0.00373   0.01040   3.55479
    R5        2.65613  -0.00296  -0.00426  -0.00041  -0.00467   2.65145
    R6        3.56360  -0.00209   0.00389  -0.01465  -0.01076   3.55284
    R7        2.65613  -0.00296  -0.00426  -0.00041  -0.00467   2.65145
    R8        3.54258  -0.00005   0.00693  -0.00891  -0.00197   3.54060
    R9        2.65287  -0.00506  -0.00378  -0.00444  -0.00823   2.64464
   R10        3.56360  -0.00209   0.00389  -0.01465  -0.01076   3.55284
   R11        3.54439   0.00258   0.00667   0.00373   0.01040   3.55479
    A1        2.07847  -0.00079   0.00231  -0.00378  -0.00147   2.07700
    A2        2.11860  -0.00063  -0.00350   0.00277  -0.00073   2.11787
    A3        2.07054   0.00105   0.00345  -0.00098   0.00247   2.07300
    A4        2.09405  -0.00042   0.00005  -0.00179  -0.00174   2.09231
    A5        2.08051   0.00036   0.00201  -0.00201  -0.00000   2.08050
    A6        2.11346   0.00010  -0.00276   0.00416   0.00140   2.11486
    A7        2.08922  -0.00046   0.00075  -0.00215  -0.00140   2.08783
    A8        2.08970   0.00132   0.00068   0.00227   0.00294   2.09263
    A9        2.09674  -0.00066  -0.00034  -0.00113  -0.00147   2.09528
   A10        2.09674  -0.00066  -0.00034  -0.00113  -0.00147   2.09528
   A11        2.08051   0.00036   0.00201  -0.00201  -0.00000   2.08050
   A12        2.08922  -0.00046   0.00075  -0.00215  -0.00140   2.08783
   A13        2.11346   0.00010  -0.00276   0.00416   0.00140   2.11486
   A14        2.11860  -0.00063  -0.00350   0.00277  -0.00073   2.11787
   A15        2.07054   0.00105   0.00345  -0.00098   0.00247   2.07300
   A16        2.09405  -0.00042   0.00005  -0.00179  -0.00174   2.09231
    D1        0.00000  -0.00000   0.00000  -0.00000   0.00000   0.00000
    D2        3.14159  -0.00000   0.00000  -0.00000   0.00000   3.14159
    D3       -0.00000   0.00000   0.00000   0.00000   0.00000   0.00000
    D4        3.14159   0.00000   0.00000   0.00000   0.00000   3.14159
    D5       -0.00000  -0.00000   0.00000  -0.00000   0.00000   0.00000
    D6        3.14159  -0.00000   0.00000  -0.00000   0.00000   3.14159
    D7        3.14159   0.00000   0.00000   0.00000   0.00000   3.14159
    D8        0.00000  -0.00000   0.00000  -0.00000  -0.00000   0.00000
    D9       -0.00000   0.00000   0.00000   0.00000   0.00000   0.00000
   D10        3.14159   0.00000   0.00000   0.00000   0.00000   3.14159
   D11        3.14159   0.00000   0.00000   0.00000   0.00000   3.14159
   D12        0.00000   0.00000   0.00000   0.00000   0.00000   0.00000
   D13        0.00000  -0.00000   0.00000  -0.00000   0.00000   0.00000
   D14        3.14159  -0.00000   0.00000  -0.00000   0.00000   3.14159
   D15        3.14159  -0.00000   0.00000  -0.00000   0.00000   3.14159
   D16       -0.00000  -0.00000   0.00000  -0.00000   0.00000   0.00000
   D17        0.00000   0.00000   0.00000   0.00000  -0.00000   0.00000
   D18        3.14159  -0.00000   0.00000  -0.00000   0.00000   3.14159
   D19        3.14159   0.00000   0.00000   0.00000   0.00000   3.14159
   D20       -0.00000  -0.00000   0.00000  -0.00000   0.00000   0.00000
         Item               Value     Threshold  Converged?
 Maximum Force            0.005059     0.000450     NO 
 RMS     Force            0.001496     0.000300     NO 
 Maximum Displacement     0.016669     0.001800     NO 
 RMS     Displacement     0.005767     0.001200     NO 
 Predicted change in Energy=-1.192072D-04
 GradGradGradGradGradGradGradGradGradGradGradGradGradGradGradGradGradGrad

                          Input orientation:                          
 ---------------------------------------------------------------------
 Center     Atomic      Atomic             Coordinates (Angstroms)
 Number     Number       Type             X           Y           Z
 ---------------------------------------------------------------------
      1          6           0        0.000000    1.399340    0.000000
      2          6           0        1.193818    0.696173   -0.000000
      3          6           0        1.214492   -0.703157   -0.000000
      4          6           0       -0.000000   -1.405771    0.000000
      5          6           0       -1.214492   -0.703157    0.000000
      6          6           0       -1.193818    0.696173    0.000000
      7         35           0        2.810842    1.657331   -0.000000
      8         35           0        2.837318   -1.652442   -0.000000
      9         35           0       -0.000000   -3.279379   -0.000000
     10         35           0       -2.837318   -1.652442    0.000000
     11         35           0       -2.810842    1.657331    0.000000
 ---------------------------------------------------------------------
                    Distance matrix (angstroms):
                    1          2          3          4          5
     1  C    0.000000
     2  C    1.385512   0.000000
     3  C    2.428061   1.399482   0.000000
     4  C    2.805111   2.417307   1.403089   0.000000
     5  C    2.428061   2.785333   2.428985   1.403089   0.000000
     6  C    1.385512   2.387636   2.785333   2.417307   1.399482
     7  Br   2.822657   1.881115   2.849602   4.157334   4.666393
     8  Br   4.166983   2.866546   1.880082   2.848021   4.161528
     9  Br   4.678718   4.150929   2.848142   1.873607   2.848142
    10  Br   4.166983   4.665410   4.161528   2.848021   1.880082
    11  Br   2.822657   4.118389   4.666393   4.157334   2.849602
                    6          7          8          9         10
     6  C    0.000000
     7  Br   4.118389   0.000000
     8  Br   4.665410   3.309879   0.000000
     9  Br   4.150929   5.680839   3.270672   0.000000
    10  Br   2.866546   6.546474   5.674637   3.270672   0.000000
    11  Br   1.881115   5.621685   6.546474   5.680839   3.309879
                   11
    11  Br   0.000000
 Stoichiometry    C6Br5(1-)
 Framework group  C2V[C2(CCBr),SGV(C4Br4)]
 Deg. of freedom    10
 Full point group                 C2V     NOp   4
 Largest Abelian subgroup         C2V     NOp   4
 Largest concise Abelian subgroup C2      NOp   2
                         Standard orientation:                         
 ---------------------------------------------------------------------
 Center     Atomic      Atomic             Coordinates (Angstroms)
 Number     Number       Type             X           Y           Z
 ---------------------------------------------------------------------
      1          6           0        0.000000    0.000000   -1.942271
      2          6           0       -0.000000    1.193818   -1.239104
      3          6           0       -0.000000    1.214492    0.160226
      4          6           0        0.000000   -0.000000    0.862840
      5          6           0       -0.000000   -1.214492    0.160226
      6          6           0       -0.000000   -1.193818   -1.239104
      7         35           0       -0.000000    2.810842   -2.200262
      8         35           0       -0.000000    2.837318    1.109511
      9         35           0        0.000000   -0.000000    2.736448
     10         35           0       -0.000000   -2.837318    1.109511
     11         35           0       -0.000000   -2.810842   -2.200262
 ---------------------------------------------------------------------
 Rotational constants (GHZ):           0.3079742           0.1953314           0.1195239
 Standard basis: VSTO-6G (5D, 7F)
 There are    18 symmetry adapted cartesian basis functions of A1  symmetry.
 There are     4 symmetry adapted cartesian basis functions of A2  symmetry.
 There are     7 symmetry adapted cartesian basis functions of B1  symmetry.
 There are    15 symmetry adapted cartesian basis functions of B2  symmetry.
 There are    18 symmetry adapted basis functions of A1  symmetry.
 There are     4 symmetry adapted basis functions of A2  symmetry.
 There are     7 symmetry adapted basis functions of B1  symmetry.
 There are    15 symmetry adapted basis functions of B2  symmetry.
    44 basis functions,   264 primitive gaussians,    44 cartesian basis functions
    30 alpha electrons       30 beta electrons
       nuclear repulsion energy       339.9295698110 Hartrees.
 Integral buffers will be    131072 words long.
 Regular integral format.
 Two-electron integral symmetry is turned off.
 Do NDO integrals.
 One-electron integrals computed using PRISM.
 NBasis=    44 RedAO= T EigKep=  1.00D+00  NBF=    18     4     7    15
 NBsUse=    44 1.00D-06 EigRej= -1.00D+00 NBFU=    18     4     7    15
 Initial guess from the checkpoint file:  "calcs/am1/chks/BrPh_23456_anion.chk"
 B after Tr=    -0.000000   -0.000000   -0.000000
         Rot=    1.000000   -0.000000   -0.000000   -0.000000 Ang=   0.00 deg.
 Initial guess orbital symmetries:
       Occupied  (A1) (B2) (A1) (B2) (A1) (A1) (A1) (B2) (B2) (A1)
                 (A1) (B2) (A1) (B1) (B2) (A1) (A2) (B1) (B2) (B2)
                 (A1) (B1) (A2) (B2) (B1) (A1) (B2) (A2) (B1) (A1)
       Virtual   (A2) (A1) (B1) (B2) (A1) (A1) (B2) (B1) (B2) (A1)
                 (B2) (A1) (A1) (B2)
 Keep J ints in memory in canonical form, NReq=865421.
 Overlap will be assumed to be unity.
 Requested convergence on RMS density matrix=1.00D-08 within  32 cycles.
 Requested convergence on MAX density matrix=1.00D-06.
 Requested convergence on             energy=1.00D-06.
 No special actions if energy rises.
 Fock symm off for IB=2 I1=    1 I=   19 J=   15 Cut=1.00D-07 Err=1.34D-04
 Fock matrix is not symmetric: symmetry in diagonalization turned off.
 SCF Done:  E(RAM1) =  0.793688321220E-01 A.U. after   12 cycles
            NFock= 11  Conv=0.31D-08     -V/T= 1.0005
 QCSCF skips out because SCF is already converged.
 Calling FoFJK, ICntrl=      2127 FMM=F ISym2X=1 I1Cent= 0 IOpClX= 0 NMat=1 NMatS=1 NMatT=0.
 ***** Axes restored to original set *****
 -------------------------------------------------------------------
 Center     Atomic                   Forces (Hartrees/Bohr)
 Number     Number              X              Y              Z
 -------------------------------------------------------------------
      1        6          -0.000000000    0.001246092    0.000000000
      2        6          -0.000649840   -0.000641491    0.000000000
      3        6           0.000666028    0.000525381    0.000000000
      4        6           0.000000000    0.000202779    0.000000000
      5        6          -0.000666028    0.000525381   -0.000000000
      6        6           0.000649840   -0.000641491    0.000000000
      7       35           0.000327555    0.000227662   -0.000000000
      8       35           0.000645954   -0.000342003   -0.000000000
      9       35           0.000000000   -0.000987967    0.000000000
     10       35          -0.000645954   -0.000342003   -0.000000000
     11       35          -0.000327555    0.000227662   -0.000000000
 -------------------------------------------------------------------
 Cartesian Forces:  Max     0.001246092 RMS     0.000462650

 GradGradGradGradGradGradGradGradGradGradGradGradGradGradGradGradGradGrad
 Berny optimization.
 Using GEDIIS/GDIIS optimizer.
 FormGI is forming the generalized inverse of G from B-inverse, IUseBI=4.
 Internal  Forces:  Max     0.000987967 RMS     0.000355589
 Search for a local minimum.
 Step number   3 out of a maximum of   57
 All quantities printed in internal units (Hartrees-Bohrs-Radians)
 Mixed Optimization -- En-DIIS/RFO-DIIS
 Update second derivatives using D2CorX and points    1    2    3
 DE= -1.09D-04 DEPred=-1.19D-04 R= 9.14D-01
 TightC=F SS=  1.41D+00  RLast= 2.64D-02 DXNew= 6.2057D-01 7.9119D-02
 Trust test= 9.14D-01 RLast= 2.64D-02 DXMaxT set to 3.69D-01
 ITU=  1  1  0
 Use linear search instead of GDIIS.
     Eigenvalues ---    0.02221   0.02221   0.02221   0.02221   0.02221
     Eigenvalues ---    0.02221   0.02221   0.02221   0.17341   0.18251
     Eigenvalues ---    0.18251   0.18268   0.19322   0.24148   0.25000
     Eigenvalues ---    0.25000   0.25000   0.25000   0.25000   0.25018
     Eigenvalues ---    0.26185   0.43318   0.44920   0.45698   0.47319
     Eigenvalues ---    0.47319   0.62516
 RFO step:  Lambda=-1.71007181D-05 EMin= 2.22103665D-02
 Quartic linear search produced a step of -0.08087.
 Iteration  1 RMS(Cart)=  0.00137865 RMS(Int)=  0.00000041
 Iteration  2 RMS(Cart)=  0.00000064 RMS(Int)=  0.00000022
 ClnCor:  largest displacement from symmetrization is 7.39D-12 for atom     9.
 Variable       Old X    -DE/DX   Delta X   Delta X   Delta X     New X
                                 (Linear)    (Quad)   (Total)
    R1        2.61824   0.00039  -0.00027   0.00123   0.00096   2.61920
    R2        2.61824   0.00039  -0.00027   0.00123   0.00096   2.61920
    R3        2.64464   0.00022   0.00067  -0.00093  -0.00027   2.64437
    R4        3.55479   0.00040  -0.00084   0.00366   0.00282   3.55761
    R5        2.65145   0.00098   0.00038   0.00117   0.00155   2.65300
    R6        3.55284   0.00073   0.00087   0.00182   0.00269   3.55552
    R7        2.65145   0.00098   0.00038   0.00117   0.00155   2.65300
    R8        3.54060   0.00099   0.00016   0.00453   0.00469   3.54529
    R9        2.64464   0.00022   0.00067  -0.00093  -0.00027   2.64437
   R10        3.55284   0.00073   0.00087   0.00182   0.00269   3.55552
   R11        3.55479   0.00040  -0.00084   0.00366   0.00282   3.55761
    A1        2.07700  -0.00046   0.00012  -0.00217  -0.00205   2.07495
    A2        2.11787   0.00052   0.00006   0.00171   0.00177   2.11963
    A3        2.07300  -0.00031  -0.00020  -0.00070  -0.00090   2.07211
    A4        2.09231  -0.00021   0.00014  -0.00101  -0.00087   2.09144
    A5        2.08050  -0.00025   0.00000  -0.00081  -0.00081   2.07969
    A6        2.11486   0.00007  -0.00011   0.00044   0.00033   2.11519
    A7        2.08783   0.00018   0.00011   0.00037   0.00048   2.08831
    A8        2.09263  -0.00008  -0.00024   0.00037   0.00014   2.09277
    A9        2.09528   0.00004   0.00012  -0.00019  -0.00007   2.09521
   A10        2.09528   0.00004   0.00012  -0.00019  -0.00007   2.09521
   A11        2.08050  -0.00025   0.00000  -0.00081  -0.00081   2.07969
   A12        2.08783   0.00018   0.00011   0.00037   0.00048   2.08831
   A13        2.11486   0.00007  -0.00011   0.00044   0.00033   2.11519
   A14        2.11787   0.00052   0.00006   0.00171   0.00177   2.11963
   A15        2.07300  -0.00031  -0.00020  -0.00070  -0.00090   2.07211
   A16        2.09231  -0.00021   0.00014  -0.00101  -0.00087   2.09144
    D1        0.00000  -0.00000   0.00000  -0.00000   0.00000   0.00000
    D2        3.14159  -0.00000   0.00000  -0.00000   0.00000   3.14159
    D3       -0.00000   0.00000   0.00000   0.00000   0.00000   0.00000
    D4        3.14159   0.00000   0.00000   0.00000   0.00000   3.14159
    D5       -0.00000  -0.00000   0.00000  -0.00000   0.00000   0.00000
    D6        3.14159  -0.00000   0.00000  -0.00000   0.00000   3.14159
    D7        3.14159   0.00000   0.00000   0.00000   0.00000   3.14159
    D8       -0.00000  -0.00000   0.00000  -0.00000   0.00000   0.00000
    D9       -0.00000   0.00000   0.00000   0.00000   0.00000   0.00000
   D10        3.14159   0.00000   0.00000   0.00000   0.00000   3.14159
   D11        3.14159   0.00000   0.00000   0.00000   0.00000   3.14159
   D12        0.00000   0.00000   0.00000   0.00000   0.00000   0.00000
   D13        0.00000  -0.00000   0.00000  -0.00000   0.00000   0.00000
   D14        3.14159  -0.00000   0.00000  -0.00000   0.00000   3.14159
   D15        3.14159  -0.00000   0.00000  -0.00000   0.00000   3.14159
   D16       -0.00000  -0.00000   0.00000  -0.00000   0.00000   0.00000
   D17       -0.00000   0.00000   0.00000   0.00000   0.00000   0.00000
   D18        3.14159  -0.00000   0.00000  -0.00000   0.00000   3.14159
   D19        3.14159   0.00000   0.00000   0.00000   0.00000   3.14159
   D20        0.00000   0.00000   0.00000   0.00000   0.00000   0.00000
         Item               Value     Threshold  Converged?
 Maximum Force            0.000988     0.000450     NO 
 RMS     Force            0.000356     0.000300     NO 
 Maximum Displacement     0.005060     0.001800     NO 
 RMS     Displacement     0.001379     0.001200     NO 
 Predicted change in Energy=-9.401414D-06
 GradGradGradGradGradGradGradGradGradGradGradGradGradGradGradGradGradGrad

                          Input orientation:                          
 ---------------------------------------------------------------------
 Center     Atomic      Atomic             Coordinates (Angstroms)
 Number     Number       Type             X           Y           Z
 ---------------------------------------------------------------------
      1          6           0        0.000000    1.400795    0.000000
      2          6           0        1.193536    0.696147   -0.000000
      3          6           0        1.215248   -0.703027   -0.000000
      4          6           0       -0.000000   -1.405969    0.000000
      5          6           0       -1.215248   -0.703027    0.000000
      6          6           0       -1.193536    0.696147    0.000000
      7         35           0        2.811966    1.657857   -0.000000
      8         35           0        2.839691   -1.652361   -0.000000
      9         35           0       -0.000000   -3.282057    0.000000
     10         35           0       -2.839691   -1.652361    0.000000
     11         35           0       -2.811966    1.657857    0.000000
 ---------------------------------------------------------------------
                    Distance matrix (angstroms):
                    1          2          3          4          5
     1  C    0.000000
     2  C    1.386022   0.000000
     3  C    2.429587   1.399342   0.000000
     4  C    2.806763   2.417316   1.403907   0.000000
     5  C    2.429587   2.785664   2.430496   1.403907   0.000000
     6  C    1.386022   2.387072   2.785664   2.417316   1.399342
     7  Br   2.823691   1.882605   2.850137   4.158627   4.668214
     8  Br   4.169605   2.867981   1.881503   2.850361   4.164585
     9  Br   4.682851   4.153388   2.851004   1.876088   2.851004
    10  Br   4.169605   4.667163   4.164585   2.850361   1.881503
    11  Br   2.823691   4.119336   4.668214   4.158627   2.850137
                    6          7          8          9         10
     6  C    0.000000
     7  Br   4.119336   0.000000
     8  Br   4.667163   3.310334   0.000000
     9  Br   4.153388   5.684179   3.274103   0.000000
    10  Br   2.867981   6.549715   5.679382   3.274103   0.000000
    11  Br   1.882605   5.623931   6.549715   5.684179   3.310334
                   11
    11  Br   0.000000
 Stoichiometry    C6Br5(1-)
 Framework group  C2V[C2(CCBr),SGV(C4Br4)]
 Deg. of freedom    10
 Full point group                 C2V     NOp   4
 Largest Abelian subgroup         C2V     NOp   4
 Largest concise Abelian subgroup C2      NOp   2
                         Standard orientation:                         
 ---------------------------------------------------------------------
 Center     Atomic      Atomic             Coordinates (Angstroms)
 Number     Number       Type             X           Y           Z
 ---------------------------------------------------------------------
      1          6           0       -0.000000    0.000000   -1.943927
      2          6           0       -0.000000    1.193536   -1.239279
      3          6           0       -0.000000    1.215248    0.159894
      4          6           0        0.000000   -0.000000    0.862836
      5          6           0       -0.000000   -1.215248    0.159894
      6          6           0       -0.000000   -1.193536   -1.239279
      7         35           0       -0.000000    2.811966   -2.200989
      8         35           0       -0.000000    2.839691    1.109229
      9         35           0        0.000000   -0.000000    2.738924
     10         35           0       -0.000000   -2.839691    1.109229
     11         35           0       -0.000000   -2.811966   -2.200989
 ---------------------------------------------------------------------
 Rotational constants (GHZ):           0.3076814           0.1950938           0.1193908
 Standard basis: VSTO-6G (5D, 7F)
 There are    18 symmetry adapted cartesian basis functions of A1  symmetry.
 There are     4 symmetry adapted cartesian basis functions of A2  symmetry.
 There are     7 symmetry adapted cartesian basis functions of B1  symmetry.
 There are    15 symmetry adapted cartesian basis functions of B2  symmetry.
 There are    18 symmetry adapted basis functions of A1  symmetry.
 There are     4 symmetry adapted basis functions of A2  symmetry.
 There are     7 symmetry adapted basis functions of B1  symmetry.
 There are    15 symmetry adapted basis functions of B2  symmetry.
    44 basis functions,   264 primitive gaussians,    44 cartesian basis functions
    30 alpha electrons       30 beta electrons
       nuclear repulsion energy       339.8114349058 Hartrees.
 Integral buffers will be    131072 words long.
 Regular integral format.
 Two-electron integral symmetry is turned off.
 Do NDO integrals.
 One-electron integrals computed using PRISM.
 NBasis=    44 RedAO= T EigKep=  1.00D+00  NBF=    18     4     7    15
 NBsUse=    44 1.00D-06 EigRej= -1.00D+00 NBFU=    18     4     7    15
 Initial guess from the checkpoint file:  "calcs/am1/chks/BrPh_23456_anion.chk"
 B after Tr=    -0.000000    0.000000   -0.000000
         Rot=    1.000000   -0.000000    0.000000    0.000000 Ang=   0.00 deg.
 Initial guess orbital symmetries:
       Occupied  (A1) (B2) (A1) (A1) (B2) (A1) (A1) (B2) (B2) (A1)
                 (A1) (B2) (A1) (B1) (B2) (A1) (A2) (B1) (B2) (B2)
                 (A1) (B1) (A2) (B2) (B1) (A1) (B2) (A2) (B1) (A1)
       Virtual   (A2) (A1) (B1) (B2) (A1) (A1) (B2) (B1) (A1) (B2)
                 (B2) (A1) (A1) (B2)
 Keep J ints in memory in canonical form, NReq=865421.
 Overlap will be assumed to be unity.
 Requested convergence on RMS density matrix=1.00D-08 within  32 cycles.
 Requested convergence on MAX density matrix=1.00D-06.
 Requested convergence on             energy=1.00D-06.
 No special actions if energy rises.
 Fock symm off for IB=2 I1=    1 I=   19 J=   12 Cut=1.00D-07 Err=6.56D-05
 Fock matrix is not symmetric: symmetry in diagonalization turned off.
 SCF Done:  E(RAM1) =  0.793598115961E-01 A.U. after   11 cycles
            NFock= 10  Conv=0.34D-08     -V/T= 1.0005
 QCSCF skips out because SCF is already converged.
 Calling FoFJK, ICntrl=      2127 FMM=F ISym2X=1 I1Cent= 0 IOpClX= 0 NMat=1 NMatS=1 NMatT=0.
 ***** Axes restored to original set *****
 -------------------------------------------------------------------
 Center     Atomic                   Forces (Hartrees/Bohr)
 Number     Number              X              Y              Z
 -------------------------------------------------------------------
      1        6          -0.000000000    0.000458555    0.000000000
      2        6          -0.000269322   -0.000202745    0.000000000
      3        6          -0.000081097   -0.000103968    0.000000000
      4        6          -0.000000000    0.000112335    0.000000000
      5        6           0.000081097   -0.000103968   -0.000000000
      6        6           0.000269322   -0.000202745   -0.000000000
      7       35          -0.000138829   -0.000034501   -0.000000000
      8       35          -0.000029649   -0.000047562   -0.000000000
      9       35          -0.000000000    0.000206663    0.000000000
     10       35           0.000029649   -0.000047562   -0.000000000
     11       35           0.000138829   -0.000034501   -0.000000000
 -------------------------------------------------------------------
 Cartesian Forces:  Max     0.000458555 RMS     0.000131985

 GradGradGradGradGradGradGradGradGradGradGradGradGradGradGradGradGradGrad
 Berny optimization.
 Using GEDIIS/GDIIS optimizer.
 FormGI is forming the generalized inverse of G from B-inverse, IUseBI=4.
 Internal  Forces:  Max     0.000408486 RMS     0.000122478
 Search for a local minimum.
 Step number   4 out of a maximum of   57
 All quantities printed in internal units (Hartrees-Bohrs-Radians)
 Mixed Optimization -- En-DIIS/RFO-DIIS
 Swapping is turned off.
 Update second derivatives using D2CorX and points    1    2    3    4
 DE= -9.02D-06 DEPred=-9.40D-06 R= 9.59D-01
 TightC=F SS=  1.41D+00  RLast= 8.64D-03 DXNew= 6.2057D-01 2.5914D-02
 Trust test= 9.59D-01 RLast= 8.64D-03 DXMaxT set to 3.69D-01
 ITU=  1  1  1  0
     Eigenvalues ---    0.02221   0.02221   0.02221   0.02221   0.02221
     Eigenvalues ---    0.02221   0.02221   0.02221   0.14917   0.18146
     Eigenvalues ---    0.18251   0.18251   0.19671   0.23106   0.24935
     Eigenvalues ---    0.25000   0.25000   0.25000   0.25000   0.25190
     Eigenvalues ---    0.26127   0.43317   0.44956   0.47319   0.47319
     Eigenvalues ---    0.50875   0.66163
 En-DIIS/RFO-DIIS/Sim-DIIS IScMMF=       -3 using points:     4    3
 RFO step:  Lambda=-2.39353480D-06.
 DidBck=F Rises=F RFO-DIIS coefs:    1.09907   -0.09907
 Iteration  1 RMS(Cart)=  0.00055081 RMS(Int)=  0.00000024
 Iteration  2 RMS(Cart)=  0.00000033 RMS(Int)=  0.00000008
 ClnCor:  largest displacement from symmetrization is 8.01D-12 for atom     9.
 Variable       Old X    -DE/DX   Delta X   Delta X   Delta X     New X
                                 (Linear)    (Quad)   (Total)
    R1        2.61920  -0.00009   0.00010  -0.00007   0.00003   2.61923
    R2        2.61920  -0.00009   0.00010  -0.00007   0.00003   2.61923
    R3        2.64437  -0.00001  -0.00003  -0.00014  -0.00016   2.64421
    R4        3.55761  -0.00014   0.00028  -0.00045  -0.00017   3.55744
    R5        2.65300  -0.00032   0.00015  -0.00063  -0.00047   2.65253
    R6        3.55552  -0.00000   0.00027  -0.00012   0.00015   3.55567
    R7        2.65300  -0.00032   0.00015  -0.00063  -0.00047   2.65253
    R8        3.54529  -0.00021   0.00046  -0.00096  -0.00050   3.54479
    R9        2.64437  -0.00001  -0.00003  -0.00014  -0.00016   2.64421
   R10        3.55552  -0.00000   0.00027  -0.00012   0.00015   3.55567
   R11        3.55761  -0.00014   0.00028  -0.00045  -0.00017   3.55744
    A1        2.07495  -0.00041  -0.00020  -0.00166  -0.00186   2.07309
    A2        2.11963   0.00024   0.00018   0.00108   0.00125   2.12089
    A3        2.07211  -0.00019  -0.00009  -0.00080  -0.00089   2.07122
    A4        2.09144  -0.00004  -0.00009  -0.00027  -0.00036   2.09108
    A5        2.07969  -0.00004  -0.00008  -0.00028  -0.00036   2.07933
    A6        2.11519   0.00012   0.00003   0.00057   0.00060   2.11579
    A7        2.08831  -0.00008   0.00005  -0.00029  -0.00025   2.08806
    A8        2.09277   0.00002   0.00001   0.00006   0.00007   2.09284
    A9        2.09521  -0.00001  -0.00001  -0.00003  -0.00004   2.09517
   A10        2.09521  -0.00001  -0.00001  -0.00003  -0.00004   2.09517
   A11        2.07969  -0.00004  -0.00008  -0.00028  -0.00036   2.07933
   A12        2.08831  -0.00008   0.00005  -0.00029  -0.00025   2.08806
   A13        2.11519   0.00012   0.00003   0.00057   0.00060   2.11579
   A14        2.11963   0.00024   0.00018   0.00108   0.00125   2.12089
   A15        2.07211  -0.00019  -0.00009  -0.00080  -0.00089   2.07122
   A16        2.09144  -0.00004  -0.00009  -0.00027  -0.00036   2.09108
    D1        0.00000  -0.00000   0.00000  -0.00000   0.00000   0.00000
    D2        3.14159  -0.00000  -0.00000  -0.00000   0.00000   3.14159
    D3       -0.00000   0.00000   0.00000   0.00000   0.00000   0.00000
    D4        3.14159   0.00000  -0.00000   0.00000   0.00000   3.14159
    D5       -0.00000   0.00000   0.00000   0.00000   0.00000   0.00000
    D6        3.14159  -0.00000  -0.00000  -0.00000   0.00000   3.14159
    D7        3.14159   0.00000  -0.00000   0.00000   0.00000   3.14159
    D8        0.00000   0.00000   0.00000   0.00000   0.00000   0.00000
    D9       -0.00000   0.00000   0.00000   0.00000   0.00000   0.00000
   D10        3.14159  -0.00000  -0.00000  -0.00000   0.00000   3.14159
   D11        3.14159   0.00000  -0.00000   0.00000   0.00000   3.14159
   D12        0.00000   0.00000   0.00000   0.00000  -0.00000   0.00000
   D13        0.00000  -0.00000   0.00000  -0.00000   0.00000   0.00000
   D14        3.14159  -0.00000  -0.00000  -0.00000   0.00000   3.14159
   D15        3.14159  -0.00000  -0.00000  -0.00000   0.00000   3.14159
   D16       -0.00000  -0.00000   0.00000  -0.00000   0.00000   0.00000
   D17        0.00000   0.00000   0.00000   0.00000   0.00000   0.00000
   D18        3.14159  -0.00000  -0.00000  -0.00000   0.00000   3.14159
   D19        3.14159   0.00000  -0.00000   0.00000   0.00000   3.14159
   D20       -0.00000   0.00000   0.00000   0.00000   0.00000   0.00000
         Item               Value     Threshold  Converged?
 Maximum Force            0.000408     0.000450     YES
 RMS     Force            0.000122     0.000300     YES
 Maximum Displacement     0.001923     0.001800     NO 
 RMS     Displacement     0.000551     0.001200     YES
 Predicted change in Energy=-1.196746D-06
 GradGradGradGradGradGradGradGradGradGradGradGradGradGradGradGradGradGrad

                          Input orientation:                          
 ---------------------------------------------------------------------
 Center     Atomic      Atomic             Coordinates (Angstroms)
 Number     Number       Type             X           Y           Z
 ---------------------------------------------------------------------
      1          6           0        0.000000    1.401812    0.000000
      2          6           0        1.192893    0.696048    0.000000
      3          6           0        1.215056   -0.703031   -0.000000
      4          6           0       -0.000000   -1.405804    0.000000
      5          6           0       -1.215056   -0.703031    0.000000
      6          6           0       -1.192893    0.696048    0.000000
      7         35           0        2.811281    1.657654   -0.000000
      8         35           0        2.839299   -1.652862   -0.000000
      9         35           0       -0.000000   -3.281628    0.000000
     10         35           0       -2.839299   -1.652862    0.000000
     11         35           0       -2.811281    1.657654    0.000000
 ---------------------------------------------------------------------
                    Distance matrix (angstroms):
                    1          2          3          4          5
     1  C    0.000000
     2  C    1.386036   0.000000
     3  C    2.430376   1.399255   0.000000
     4  C    2.807616   2.416770   1.403656   0.000000
     5  C    2.430376   2.784896   2.430112   1.403656   0.000000
     6  C    1.386036   2.385787   2.784896   2.416770   1.399255
     7  Br   2.822898   1.882516   2.849696   4.157893   4.667357
     8  Br   4.170449   2.868454   1.881580   2.850027   4.164129
     9  Br   4.683440   4.152698   2.850531   1.875824   2.850531
    10  Br   4.170449   4.666471   4.164129   2.850027   1.881580
    11  Br   2.822898   4.118021   4.667357   4.157893   2.849696
                    6          7          8          9         10
     6  C    0.000000
     7  Br   4.118021   0.000000
     8  Br   4.666471   3.310635   0.000000
     9  Br   4.152698   5.683292   3.273301   0.000000
    10  Br   2.868454   6.548936   5.678597   3.273301   0.000000
    11  Br   1.882516   5.622562   6.548936   5.683292   3.310635
                   11
    11  Br   0.000000
 Stoichiometry    C6Br5(1-)
 Framework group  C2V[C2(CCBr),SGV(C4Br4)]
 Deg. of freedom    10
 Full point group                 C2V     NOp   4
 Largest Abelian subgroup         C2V     NOp   4
 Largest concise Abelian subgroup C2      NOp   2
                         Standard orientation:                         
 ---------------------------------------------------------------------
 Center     Atomic      Atomic             Coordinates (Angstroms)
 Number     Number       Type             X           Y           Z
 ---------------------------------------------------------------------
      1          6           0        0.000000    0.000000   -1.945079
      2          6           0       -0.000000    1.192893   -1.239315
      3          6           0       -0.000000    1.215056    0.159764
      4          6           0       -0.000000   -0.000000    0.862537
      5          6           0       -0.000000   -1.215056    0.159764
      6          6           0       -0.000000   -1.192893   -1.239315
      7         35           0       -0.000000    2.811281   -2.200921
      8         35           0       -0.000000    2.839299    1.109595
      9         35           0       -0.000000   -0.000000    2.738362
     10         35           0       -0.000000   -2.839299    1.109595
     11         35           0       -0.000000   -2.811281   -2.200921
 ---------------------------------------------------------------------
 Rotational constants (GHZ):           0.3077028           0.1951697           0.1194224
 Standard basis: VSTO-6G (5D, 7F)
 There are    18 symmetry adapted cartesian basis functions of A1  symmetry.
 There are     4 symmetry adapted cartesian basis functions of A2  symmetry.
 There are     7 symmetry adapted cartesian basis functions of B1  symmetry.
 There are    15 symmetry adapted cartesian basis functions of B2  symmetry.
 There are    18 symmetry adapted basis functions of A1  symmetry.
 There are     4 symmetry adapted basis functions of A2  symmetry.
 There are     7 symmetry adapted basis functions of B1  symmetry.
 There are    15 symmetry adapted basis functions of B2  symmetry.
    44 basis functions,   264 primitive gaussians,    44 cartesian basis functions
    30 alpha electrons       30 beta electrons
       nuclear repulsion energy       339.8322276542 Hartrees.
 Integral buffers will be    131072 words long.
 Regular integral format.
 Two-electron integral symmetry is turned off.
 Do NDO integrals.
 One-electron integrals computed using PRISM.
 NBasis=    44 RedAO= T EigKep=  1.00D+00  NBF=    18     4     7    15
 NBsUse=    44 1.00D-06 EigRej= -1.00D+00 NBFU=    18     4     7    15
 Initial guess from the checkpoint file:  "calcs/am1/chks/BrPh_23456_anion.chk"
 B after Tr=     0.000000   -0.000000    0.000000
         Rot=    1.000000    0.000000   -0.000000   -0.000000 Ang=   0.00 deg.
 Initial guess orbital symmetries:
       Occupied  (A1) (B2) (A1) (A1) (B2) (A1) (A1) (B2) (B2) (A1)
                 (A1) (B2) (A1) (B1) (B2) (A1) (A2) (B1) (B2) (B2)
                 (A1) (B1) (A2) (B2) (B1) (A1) (B2) (A2) (B1) (A1)
       Virtual   (A2) (A1) (B1) (B2) (A1) (A1) (B2) (B1) (A1) (B2)
                 (B2) (A1) (A1) (B2)
 Keep J ints in memory in canonical form, NReq=865421.
 Overlap will be assumed to be unity.
 Requested convergence on RMS density matrix=1.00D-08 within  32 cycles.
 Requested convergence on MAX density matrix=1.00D-06.
 Requested convergence on             energy=1.00D-06.
 No special actions if energy rises.
 Fock symm off for IB=2 I1=    1 I=   19 J=   15 Cut=1.00D-07 Err=7.01D-06
 Fock matrix is not symmetric: symmetry in diagonalization turned off.
 SCF Done:  E(RAM1) =  0.793586320880E-01 A.U. after   10 cycles
            NFock=  9  Conv=0.63D-08     -V/T= 1.0005
 QCSCF skips out because SCF is already converged.
 Calling FoFJK, ICntrl=      2127 FMM=F ISym2X=1 I1Cent= 0 IOpClX= 0 NMat=1 NMatS=1 NMatT=0.
 ***** Axes restored to original set *****
 -------------------------------------------------------------------
 Center     Atomic                   Forces (Hartrees/Bohr)
 Number     Number              X              Y              Z
 -------------------------------------------------------------------
      1        6          -0.000000000    0.000205888    0.000000000
      2        6           0.000177343   -0.000062239    0.000000000
      3        6           0.000056240   -0.000013535   -0.000000000
      4        6          -0.000000000   -0.000172524    0.000000000
      5        6          -0.000056240   -0.000013535    0.000000000
      6        6          -0.000177343   -0.000062239   -0.000000000
      7       35          -0.000017771    0.000006351   -0.000000000
      8       35          -0.000038043    0.000031828   -0.000000000
      9       35          -0.000000000    0.000041824    0.000000000
     10       35           0.000038043    0.000031828   -0.000000000
     11       35           0.000017771    0.000006351   -0.000000000
 -------------------------------------------------------------------
 Cartesian Forces:  Max     0.000205888 RMS     0.000068948

 GradGradGradGradGradGradGradGradGradGradGradGradGradGradGradGradGradGrad
 Berny optimization.
 Using GEDIIS/GDIIS optimizer.
 FormGI is forming the generalized inverse of G from B-inverse, IUseBI=4.
 Internal  Forces:  Max     0.000159258 RMS     0.000042429
 Search for a local minimum.
 Step number   5 out of a maximum of   57
 All quantities printed in internal units (Hartrees-Bohrs-Radians)
 Mixed Optimization -- En-DIIS/RFO-DIIS
 Swapping is turned off.
 Update second derivatives using D2CorX and points    1    2    3    4    5
 DE= -1.18D-06 DEPred=-1.20D-06 R= 9.86D-01
 TightC=F SS=  1.41D+00  RLast= 3.23D-03 DXNew= 6.2057D-01 9.6799D-03
 Trust test= 9.86D-01 RLast= 3.23D-03 DXMaxT set to 3.69D-01
 ITU=  1  1  1  1  0
     Eigenvalues ---    0.02221   0.02221   0.02221   0.02221   0.02221
     Eigenvalues ---    0.02221   0.02221   0.02221   0.13441   0.18251
     Eigenvalues ---    0.18251   0.18287   0.21264   0.21624   0.25000
     Eigenvalues ---    0.25000   0.25000   0.25000   0.25121   0.25276
     Eigenvalues ---    0.25464   0.43313   0.45647   0.47319   0.47319
     Eigenvalues ---    0.53853   0.71548
 En-DIIS/RFO-DIIS/Sim-DIIS IScMMF=       -3 using points:     5    4    3
 RFO step:  Lambda=-2.15555615D-07.
 DidBck=F Rises=F RFO-DIIS coefs:    1.12025   -0.13139    0.01113
 Iteration  1 RMS(Cart)=  0.00010141 RMS(Int)=  0.00000001
 Iteration  2 RMS(Cart)=  0.00000002 RMS(Int)=  0.00000001
 ClnCor:  largest displacement from symmetrization is 1.15D-11 for atom     9.
 Variable       Old X    -DE/DX   Delta X   Delta X   Delta X     New X
                                 (Linear)    (Quad)   (Total)
    R1        2.61923   0.00016  -0.00001   0.00037   0.00036   2.61959
    R2        2.61923   0.00016  -0.00001   0.00037   0.00036   2.61959
    R3        2.64421   0.00005  -0.00002   0.00008   0.00006   2.64427
    R4        3.55744  -0.00001  -0.00005   0.00002  -0.00003   3.55741
    R5        2.65253   0.00008  -0.00007   0.00020   0.00012   2.65265
    R6        3.55567  -0.00005  -0.00001  -0.00024  -0.00025   3.55542
    R7        2.65253   0.00008  -0.00007   0.00020   0.00012   2.65265
    R8        3.54479  -0.00004  -0.00011  -0.00012  -0.00024   3.54456
    R9        2.64421   0.00005  -0.00002   0.00008   0.00006   2.64427
   R10        3.55567  -0.00005  -0.00001  -0.00024  -0.00025   3.55542
   R11        3.55744  -0.00001  -0.00005   0.00002  -0.00003   3.55741
    A1        2.07309  -0.00004  -0.00020  -0.00015  -0.00035   2.07275
    A2        2.12089  -0.00000   0.00013   0.00002   0.00015   2.12104
    A3        2.07122  -0.00003  -0.00010  -0.00010  -0.00020   2.07101
    A4        2.09108   0.00003  -0.00003   0.00008   0.00005   2.09113
    A5        2.07933   0.00004  -0.00003   0.00011   0.00008   2.07941
    A6        2.11579  -0.00003   0.00007  -0.00012  -0.00005   2.11574
    A7        2.08806  -0.00000  -0.00003   0.00001  -0.00003   2.08803
    A8        2.09284  -0.00003   0.00001  -0.00013  -0.00012   2.09272
    A9        2.09517   0.00001  -0.00000   0.00006   0.00006   2.09523
   A10        2.09517   0.00001  -0.00000   0.00006   0.00006   2.09523
   A11        2.07933   0.00004  -0.00003   0.00011   0.00008   2.07941
   A12        2.08806  -0.00000  -0.00003   0.00001  -0.00003   2.08803
   A13        2.11579  -0.00003   0.00007  -0.00012  -0.00005   2.11574
   A14        2.12089  -0.00000   0.00013   0.00002   0.00015   2.12104
   A15        2.07122  -0.00003  -0.00010  -0.00010  -0.00020   2.07101
   A16        2.09108   0.00003  -0.00003   0.00008   0.00005   2.09113
    D1        0.00000  -0.00000   0.00000  -0.00000   0.00000   0.00000
    D2        3.14159  -0.00000   0.00000  -0.00000   0.00000   3.14159
    D3       -0.00000   0.00000   0.00000   0.00000   0.00000   0.00000
    D4        3.14159   0.00000   0.00000   0.00000   0.00000   3.14159
    D5       -0.00000  -0.00000   0.00000  -0.00000   0.00000   0.00000
    D6        3.14159  -0.00000   0.00000  -0.00000   0.00000   3.14159
    D7        3.14159   0.00000   0.00000   0.00000   0.00000   3.14159
    D8        0.00000  -0.00000   0.00000  -0.00000  -0.00000   0.00000
    D9       -0.00000   0.00000   0.00000   0.00000   0.00000   0.00000
   D10        3.14159   0.00000   0.00000   0.00000   0.00000   3.14159
   D11        3.14159   0.00000   0.00000   0.00000   0.00000   3.14159
   D12        0.00000   0.00000   0.00000   0.00000  -0.00000   0.00000
   D13        0.00000  -0.00000   0.00000  -0.00000   0.00000   0.00000
   D14        3.14159  -0.00000   0.00000  -0.00000   0.00000   3.14159
   D15        3.14159  -0.00000   0.00000  -0.00000   0.00000   3.14159
   D16       -0.00000  -0.00000   0.00000  -0.00000   0.00000   0.00000
   D17       -0.00000   0.00000   0.00000   0.00000   0.00000   0.00000
   D18        3.14159  -0.00000   0.00000  -0.00000   0.00000   3.14159
   D19        3.14159   0.00000   0.00000   0.00000   0.00000   3.14159
   D20        0.00000   0.00000   0.00000   0.00000   0.00000   0.00000
         Item               Value     Threshold  Converged?
 Maximum Force            0.000159     0.000450     YES
 RMS     Force            0.000042     0.000300     YES
 Maximum Displacement     0.000517     0.001800     YES
 RMS     Displacement     0.000101     0.001200     YES
 Predicted change in Energy=-1.077726D-07
 Optimization completed.
    -- Stationary point found.
                           ----------------------------
                           !   Optimized Parameters   !
                           ! (Angstroms and Degrees)  !
 --------------------------                            --------------------------
 ! Name  Definition              Value          Derivative Info.                !
 --------------------------------------------------------------------------------
 ! R1    R(1,2)                  1.386          -DE/DX =    0.0002              !
 ! R2    R(1,6)                  1.386          -DE/DX =    0.0002              !
 ! R3    R(2,3)                  1.3993         -DE/DX =    0.0                 !
 ! R4    R(2,7)                  1.8825         -DE/DX =    0.0                 !
 ! R5    R(3,4)                  1.4037         -DE/DX =    0.0001              !
 ! R6    R(3,8)                  1.8816         -DE/DX =    0.0                 !
 ! R7    R(4,5)                  1.4037         -DE/DX =    0.0001              !
 ! R8    R(4,9)                  1.8758         -DE/DX =    0.0                 !
 ! R9    R(5,6)                  1.3993         -DE/DX =    0.0                 !
 ! R10   R(5,10)                 1.8816         -DE/DX =    0.0                 !
 ! R11   R(6,11)                 1.8825         -DE/DX =    0.0                 !
 ! A1    A(2,1,6)              118.7795         -DE/DX =    0.0                 !
 ! A2    A(1,2,3)              121.5178         -DE/DX =    0.0                 !
 ! A3    A(1,2,7)              118.672          -DE/DX =    0.0                 !
 ! A4    A(3,2,7)              119.8102         -DE/DX =    0.0                 !
 ! A5    A(2,3,4)              119.137          -DE/DX =    0.0                 !
 ! A6    A(2,3,8)              121.226          -DE/DX =    0.0                 !
 ! A7    A(4,3,8)              119.6371         -DE/DX =    0.0                 !
 ! A8    A(3,4,5)              119.9109         -DE/DX =    0.0                 !
 ! A9    A(3,4,9)              120.0445         -DE/DX =    0.0                 !
 ! A10   A(5,4,9)              120.0445         -DE/DX =    0.0                 !
 ! A11   A(4,5,6)              119.137          -DE/DX =    0.0                 !
 ! A12   A(4,5,10)             119.6371         -DE/DX =    0.0                 !
 ! A13   A(6,5,10)             121.226          -DE/DX =    0.0                 !
 ! A14   A(1,6,5)              121.5178         -DE/DX =    0.0                 !
 ! A15   A(1,6,11)             118.672          -DE/DX =    0.0                 !
 ! A16   A(5,6,11)             119.8102         -DE/DX =    0.0                 !
 ! D1    D(6,1,2,3)              0.0            -DE/DX =    0.0                 !
 ! D2    D(6,1,2,7)            180.0            -DE/DX =    0.0                 !
 ! D3    D(2,1,6,5)              0.0            -DE/DX =    0.0                 !
 ! D4    D(2,1,6,11)           180.0            -DE/DX =    0.0                 !
 ! D5    D(1,2,3,4)              0.0            -DE/DX =    0.0                 !
 ! D6    D(1,2,3,8)            180.0            -DE/DX =    0.0                 !
 ! D7    D(7,2,3,4)            180.0            -DE/DX =    0.0                 !
 ! D8    D(7,2,3,8)              0.0            -DE/DX =    0.0                 !
 ! D9    D(2,3,4,5)              0.0            -DE/DX =    0.0                 !
 ! D10   D(2,3,4,9)            180.0            -DE/DX =    0.0                 !
 ! D11   D(8,3,4,5)            180.0            -DE/DX =    0.0                 !
 ! D12   D(8,3,4,9)              0.0            -DE/DX =    0.0                 !
 ! D13   D(3,4,5,6)              0.0            -DE/DX =    0.0                 !
 ! D14   D(3,4,5,10)           180.0            -DE/DX =    0.0                 !
 ! D15   D(9,4,5,6)            180.0            -DE/DX =    0.0                 !
 ! D16   D(9,4,5,10)             0.0            -DE/DX =    0.0                 !
 ! D17   D(4,5,6,1)              0.0            -DE/DX =    0.0                 !
 ! D18   D(4,5,6,11)           180.0            -DE/DX =    0.0                 !
 ! D19   D(10,5,6,1)           180.0            -DE/DX =    0.0                 !
 ! D20   D(10,5,6,11)            0.0            -DE/DX =    0.0                 !
 --------------------------------------------------------------------------------
 GradGradGradGradGradGradGradGradGradGradGradGradGradGradGradGradGradGrad

                          Input orientation:                          
 ---------------------------------------------------------------------
 Center     Atomic      Atomic             Coordinates (Angstroms)
 Number     Number       Type             X           Y           Z
 ---------------------------------------------------------------------
      1          6           0        0.000000    1.401812    0.000000
      2          6           0        1.192893    0.696048    0.000000
      3          6           0        1.215056   -0.703031    0.000000
      4          6           0       -0.000000   -1.405804    0.000000
      5          6           0       -1.215056   -0.703031    0.000000
      6          6           0       -1.192893    0.696048    0.000000
      7         35           0        2.811281    1.657654   -0.000000
      8         35           0        2.839299   -1.652862   -0.000000
      9         35           0       -0.000000   -3.281628    0.000000
     10         35           0       -2.839299   -1.652862    0.000000
     11         35           0       -2.811281    1.657654    0.000000
 ---------------------------------------------------------------------
                    Distance matrix (angstroms):
                    1          2          3          4          5
     1  C    0.000000
     2  C    1.386036   0.000000
     3  C    2.430376   1.399255   0.000000
     4  C    2.807616   2.416770   1.403656   0.000000
     5  C    2.430376   2.784896   2.430112   1.403656   0.000000
     6  C    1.386036   2.385787   2.784896   2.416770   1.399255
     7  Br   2.822898   1.882516   2.849696   4.157893   4.667357
     8  Br   4.170449   2.868454   1.881580   2.850027   4.164129
     9  Br   4.683440   4.152698   2.850531   1.875824   2.850531
    10  Br   4.170449   4.666471   4.164129   2.850027   1.881580
    11  Br   2.822898   4.118021   4.667357   4.157893   2.849696
                    6          7          8          9         10
     6  C    0.000000
     7  Br   4.118021   0.000000
     8  Br   4.666471   3.310635   0.000000
     9  Br   4.152698   5.683292   3.273301   0.000000
    10  Br   2.868454   6.548936   5.678597   3.273301   0.000000
    11  Br   1.882516   5.622562   6.548936   5.683292   3.310635
                   11
    11  Br   0.000000
 Stoichiometry    C6Br5(1-)
 Framework group  C2V[C2(CCBr),SGV(C4Br4)]
 Deg. of freedom    10
 Full point group                 C2V     NOp   4
 Largest Abelian subgroup         C2V     NOp   4
 Largest concise Abelian subgroup C2      NOp   2
                         Standard orientation:                         
 ---------------------------------------------------------------------
 Center     Atomic      Atomic             Coordinates (Angstroms)
 Number     Number       Type             X           Y           Z
 ---------------------------------------------------------------------
      1          6           0       -0.000000    0.000000   -1.945079
      2          6           0       -0.000000    1.192893   -1.239315
      3          6           0        0.000000    1.215056    0.159764
      4          6           0        0.000000   -0.000000    0.862537
      5          6           0       -0.000000   -1.215056    0.159764
      6          6           0       -0.000000   -1.192893   -1.239315
      7         35           0       -0.000000    2.811281   -2.200921
      8         35           0        0.000000    2.839299    1.109595
      9         35           0        0.000000    0.000000    2.738362
     10         35           0       -0.000000   -2.839299    1.109595
     11         35           0       -0.000000   -2.811281   -2.200921
 ---------------------------------------------------------------------
 Rotational constants (GHZ):           0.3077028           0.1951697           0.1194224

 **********************************************************************

            Population analysis using the SCF Density.

 **********************************************************************

 Orbital symmetries:
       Occupied  (A1) (B2) (A1) (A1) (B2) (A1) (A1) (B2) (B2) (A1)
                 (A1) (B2) (A1) (B1) (B2) (A1) (A2) (B1) (B2) (B2)
                 (A1) (B1) (A2) (B2) (B1) (A1) (B2) (A2) (B1) (A1)
       Virtual   (A2) (A1) (B1) (B2) (A1) (A1) (B2) (B1) (A1) (B2)
                 (B2) (A1) (A1) (B2)
 The electronic state is 1-A1.
 Alpha  occ. eigenvalues --   -1.30692  -1.12450  -1.09968  -1.03961  -1.03904
 Alpha  occ. eigenvalues --   -1.01227  -0.91500  -0.91207  -0.69064  -0.68443
 Alpha  occ. eigenvalues --   -0.49672  -0.48244  -0.43403  -0.41883  -0.39683
 Alpha  occ. eigenvalues --   -0.36731  -0.34440  -0.32492  -0.32383  -0.31315
 Alpha  occ. eigenvalues --   -0.30943  -0.29842  -0.29495  -0.27367  -0.26739
 Alpha  occ. eigenvalues --   -0.26060  -0.24687  -0.20884  -0.19423  -0.14696
 Alpha virt. eigenvalues --    0.13052   0.13482   0.14681   0.15106   0.15350
 Alpha virt. eigenvalues --    0.17665   0.18437   0.24847   0.28849   0.28900
 Alpha virt. eigenvalues --    0.29900   0.31099   0.34908   0.36728
          Condensed to atoms (all electrons):
               1          2          3          4          5          6
     1  C    4.298915   0.000000   0.000000   0.000000   0.000000   0.000000
     2  C    0.000000   4.130660   0.000000   0.000000   0.000000   0.000000
     3  C    0.000000   0.000000   4.119512   0.000000   0.000000   0.000000
     4  C    0.000000   0.000000   0.000000   4.202457   0.000000   0.000000
     5  C    0.000000   0.000000   0.000000   0.000000   4.119512   0.000000
     6  C    0.000000   0.000000   0.000000   0.000000   0.000000   4.130660
     7  Br   0.000000   0.000000   0.000000   0.000000   0.000000   0.000000
     8  Br   0.000000   0.000000   0.000000   0.000000   0.000000   0.000000
     9  Br   0.000000   0.000000   0.000000   0.000000   0.000000   0.000000
    10  Br   0.000000   0.000000   0.000000   0.000000   0.000000   0.000000
    11  Br   0.000000   0.000000   0.000000   0.000000   0.000000   0.000000
               7          8          9         10         11
     1  C    0.000000   0.000000   0.000000   0.000000   0.000000
     2  C    0.000000   0.000000   0.000000   0.000000   0.000000
     3  C    0.000000   0.000000   0.000000   0.000000   0.000000
     4  C    0.000000   0.000000   0.000000   0.000000   0.000000
     5  C    0.000000   0.000000   0.000000   0.000000   0.000000
     6  C    0.000000   0.000000   0.000000   0.000000   0.000000
     7  Br   7.012434   0.000000   0.000000   0.000000   0.000000
     8  Br   0.000000   6.995256   0.000000   0.000000   0.000000
     9  Br   0.000000   0.000000   6.982904   0.000000   0.000000
    10  Br   0.000000   0.000000   0.000000   6.995256   0.000000
    11  Br   0.000000   0.000000   0.000000   0.000000   7.012434
 Mulliken charges:
               1
     1  C   -0.298915
     2  C   -0.130660
     3  C   -0.119512
     4  C   -0.202457
     5  C   -0.119512
     6  C   -0.130660
     7  Br  -0.012434
     8  Br   0.004744
     9  Br   0.017096
    10  Br   0.004744
    11  Br  -0.012434
 Sum of Mulliken charges =  -1.00000
 Mulliken charges with hydrogens summed into heavy atoms:
               1
     1  C   -0.298915
     2  C   -0.130660
     3  C   -0.119512
     4  C   -0.202457
     5  C   -0.119512
     6  C   -0.130660
     7  Br  -0.012434
     8  Br   0.004744
     9  Br   0.017096
    10  Br   0.004744
    11  Br  -0.012434
 Charge=             -1.0000 electrons
 Dipole moment (field-independent basis, Debye):
    X=             -0.0000    Y=              0.0000    Z=              5.2546  Tot=              5.2546
 N-N= 3.398322276542D+02 E-N=-4.943234095891D+02  KE=-1.527263712217D+02
 Symmetry A1   KE=-6.383628938424D+01
 Symmetry A2   KE=-1.396840439035D+01
 Symmetry B1   KE=-2.268194929655D+01
 Symmetry B2   KE=-5.223972815060D+01
 1\1\GINC-SH02-01N19\FOpt\RAM1\ZDO\C6Br5(1-)\JLAPIER\28-Sep-2026\0\\# O
 pt AM1 SCF=XQC\\BrPh_23456_anion am1\\-1,1\C,0.,1.4018120276,0.\C,1.19
 28932826,0.6960481704,0.\C,1.2150562045,-0.7030309166,0.\C,0.,-1.40580
 36727,0.\C,-1.2150562045,-0.7030309166,0.\C,-1.1928932826,0.6960481704
 ,0.\Br,2.8112808757,1.6576543441,0.\Br,2.8392986347,-1.6528617374,0.\B
 r,0.,-3.2816280756,0.\Br,-2.8392986347,-1.6528617374,0.\Br,-2.81128087
 57,1.6576543441,0.\\Version=ES64L-G16RevB.01\State=1-A1\HF=0.0793586\R
 MSD=6.254e-09\RMSF=6.895e-05\Dipole=0.,-2.0673127,0.\PG=C02V [C2(C1C1B
 r1),SGV(C4Br4)]\\@


 TOM, TOM, THE BURGLAR'S SON
 STOLE A MACHINE AND AWAY HE RUN
 THE JOB WAS NEAT, BUT TOM GOT BEAT
 BY THE TIME HE GOT HOME IT WAS OBSOLETE.
 Job cpu time:       0 days  0 hours  0 minutes  3.2 seconds.
 Elapsed time:       0 days  0 hours  0 minutes  3.1 seconds.
 File lengths (MBytes):  RWF=      6 Int=      0 D2E=      0 Chk=      3 Scr=      1
 Normal termination of Gaussian 16 at Mon Sep 28 01:25:42 2026.
