 Entering Gaussian System, Link 0=g16
 Initial command:
 /share/software/user/restricted/gaussian/g16.B01/l1.exe "/lscratch/jlapier/g16_45667967_105/Gau-21181.inp" -scrdir="/lscratch/jlapier/g16_45667967_105/"
 Entering Link 1 = /share/software/user/restricted/gaussian/g16.B01/l1.exe PID=     21182.
  
 Copyright (c) 1988-2017, Gaussian, Inc.  All Rights Reserved.
  
 This is part of the Gaussian(R) 16 program.  It is based on
 the Gaussian(R) 09 system (copyright 2009, Gaussian, Inc.),
 the Gaussian(R) 03 system (copyright 2003, Gaussian, Inc.),
 the Gaussian(R) 98 system (copyright 1998, Gaussian, Inc.),
 the Gaussian(R) 94 system (copyright 1995, Gaussian, Inc.),
 the Gaussian 92(TM) system (copyright 1992, Gaussian, Inc.),
 the Gaussian 90(TM) system (copyright 1990, Gaussian, Inc.),
 the Gaussian 88(TM) system (copyright 1988, Gaussian, Inc.),
 the Gaussian 86(TM) system (copyright 1986, Carnegie Mellon
 University), and the Gaussian 82(TM) system (copyright 1983,
 Carnegie Mellon University). Gaussian is a federally registered
 trademark of Gaussian, Inc.
  
 This software contains proprietary and confidential information,
 including trade secrets, belonging to Gaussian, Inc.
  
 This software is provided under written license and may be
 used, copied, transmitted, or stored only in accord with that
 written license.
  
 The following legend is applicable only to US Government
 contracts under FAR:
  
                    RESTRICTED RIGHTS LEGEND
  
 Use, reproduction and disclosure by the US Government is
 subject to restrictions as set forth in subparagraphs (a)
 and (c) of the Commercial Computer Software - Restricted
 Rights clause in FAR 52.227-19.
  
 Gaussian, Inc.
 340 Quinnipiac St., Bldg. 40, Wallingford CT 06492
  
  
 ---------------------------------------------------------------
 Warning -- This program may not be used in any manner that
 competes with the business of Gaussian, Inc. or will provide
 assistance to any competitor of Gaussian, Inc.  The licensee
 of this program is prohibited from giving any competitor of
 Gaussian, Inc. access to this program.  By using this program,
 the user acknowledges that Gaussian, Inc. is engaged in the
 business of creating and licensing software in the field of
 computational chemistry and represents and warrants to the
 licensee that it is not a competitor of Gaussian, Inc. and that
 it will not use this program in any manner prohibited above.
 ---------------------------------------------------------------
  

 Cite this work as:
 Gaussian 16, Revision B.01,
 M. J. Frisch, G. W. Trucks, H. B. Schlegel, G. E. Scuseria, 
 M. A. Robb, J. R. Cheeseman, G. Scalmani, V. Barone, 
 G. A. Petersson, H. Nakatsuji, X. Li, M. Caricato, A. V. Marenich, 
 J. Bloino, B. G. Janesko, R. Gomperts, B. Mennucci, H. P. Hratchian, 
 J. V. Ortiz, A. F. Izmaylov, J. L. Sonnenberg, D. Williams-Young, 
 F. Ding, F. Lipparini, F. Egidi, J. Goings, B. Peng, A. Petrone, 
 T. Henderson, D. Ranasinghe, V. G. Zakrzewski, J. Gao, N. Rega, 
 G. Zheng, W. Liang, M. Hada, M. Ehara, K. Toyota, R. Fukuda, 
 J. Hasegawa, M. Ishida, T. Nakajima, Y. Honda, O. Kitao, H. Nakai, 
 T. Vreven, K. Throssell, J. A. Montgomery, Jr., J. E. Peralta, 
 F. Ogliaro, M. J. Bearpark, J. J. Heyd, E. N. Brothers, K. N. Kudin, 
 V. N. Staroverov, T. A. Keith, R. Kobayashi, J. Normand, 
 K. Raghavachari, A. P. Rendell, J. C. Burant, S. S. Iyengar, 
 J. Tomasi, M. Cossi, J. M. Millam, M. Klene, C. Adamo, R. Cammi, 
 J. W. Ochterski, R. L. Martin, K. Morokuma, O. Farkas, 
 J. B. Foresman, and D. J. Fox, Gaussian, Inc., Wallingford CT, 2016.
 
 ******************************************
 Gaussian 16:  ES64L-G16RevB.01 20-Dec-2017
                28-Sep-2026 
 ******************************************
 %nprocshared=1
 Will use up to    1 processors via shared memory.
 %mem=1GB
 %chk=calcs/am1/chks/BrPh_235_anion.chk
 -----------------
 # Opt AM1 SCF=XQC
 -----------------
 1/18=20,19=15,26=1,38=1/1,3;
 2/9=110,12=2,17=6,18=5,40=1/2;
 3/5=2,25=1,41=700000,71=1/1,2,3;
 4/35=1/1;
 5/5=2,8=3,13=1,35=1,38=5/2,8;
 6/7=2,8=2,9=2,10=2,28=1/1;
 7//1,2,3,16;
 1/18=20,19=15,26=1/3(2);
 2/9=110/2;
 99//99;
 2/9=110/2;
 3/5=2,25=1,41=700000,71=1,135=20/1,2,3;
 4/5=5,16=3,35=1/1;
 5/5=2,8=3,13=1,35=1,38=5/2,8;
 7//1,2,3,16;
 1/18=20,19=15,26=1/3(-5);
 2/9=110/2;
 6/7=2,8=2,9=2,10=2,19=2,28=1/1;
 99/9=1/99;
 ------------------
 BrPh_235_anion am1
 ------------------
 Symbolic Z-matrix:
 Charge = -1 Multiplicity = 1
 C                     0.        1.39      0. 
 C                     1.20378   0.695     0. 
 C                     1.20378  -0.695     0. 
 C                     0.       -1.39      0. 
 C                    -1.20378  -0.695     0. 
 C                    -1.20378   0.695     0. 
 Br                    2.84922   1.645     0. 
 Br                    2.84922  -1.645     0. 
 H                     0.       -2.47      0. 
 Br                   -2.84922  -1.645     0. 
 H                    -2.13908   1.235     0. 
 

 GradGradGradGradGradGradGradGradGradGradGradGradGradGradGradGradGradGrad
 Berny optimization.
 Initialization pass.
                           ----------------------------
                           !    Initial Parameters    !
                           ! (Angstroms and Degrees)  !
 --------------------------                            --------------------------
 ! Name  Definition              Value          Derivative Info.                !
 --------------------------------------------------------------------------------
 ! R1    R(1,2)                  1.39           estimate D2E/DX2                !
 ! R2    R(1,6)                  1.39           estimate D2E/DX2                !
 ! R3    R(2,3)                  1.39           estimate D2E/DX2                !
 ! R4    R(2,7)                  1.9            estimate D2E/DX2                !
 ! R5    R(3,4)                  1.39           estimate D2E/DX2                !
 ! R6    R(3,8)                  1.9            estimate D2E/DX2                !
 ! R7    R(4,5)                  1.39           estimate D2E/DX2                !
 ! R8    R(4,9)                  1.08           estimate D2E/DX2                !
 ! R9    R(5,6)                  1.39           estimate D2E/DX2                !
 ! R10   R(5,10)                 1.9            estimate D2E/DX2                !
 ! R11   R(6,11)                 1.08           estimate D2E/DX2                !
 ! A1    A(2,1,6)              120.0            estimate D2E/DX2                !
 ! A2    A(1,2,3)              120.0            estimate D2E/DX2                !
 ! A3    A(1,2,7)              120.0            estimate D2E/DX2                !
 ! A4    A(3,2,7)              120.0            estimate D2E/DX2                !
 ! A5    A(2,3,4)              120.0            estimate D2E/DX2                !
 ! A6    A(2,3,8)              120.0            estimate D2E/DX2                !
 ! A7    A(4,3,8)              120.0            estimate D2E/DX2                !
 ! A8    A(3,4,5)              120.0            estimate D2E/DX2                !
 ! A9    A(3,4,9)              120.0            estimate D2E/DX2                !
 ! A10   A(5,4,9)              120.0            estimate D2E/DX2                !
 ! A11   A(4,5,6)              120.0            estimate D2E/DX2                !
 ! A12   A(4,5,10)             120.0            estimate D2E/DX2                !
 ! A13   A(6,5,10)             120.0            estimate D2E/DX2                !
 ! A14   A(1,6,5)              120.0            estimate D2E/DX2                !
 ! A15   A(1,6,11)             120.0            estimate D2E/DX2                !
 ! A16   A(5,6,11)             120.0            estimate D2E/DX2                !
 ! D1    D(6,1,2,3)              0.0            estimate D2E/DX2                !
 ! D2    D(6,1,2,7)            180.0            estimate D2E/DX2                !
 ! D3    D(2,1,6,5)              0.0            estimate D2E/DX2                !
 ! D4    D(2,1,6,11)           180.0            estimate D2E/DX2                !
 ! D5    D(1,2,3,4)              0.0            estimate D2E/DX2                !
 ! D6    D(1,2,3,8)            180.0            estimate D2E/DX2                !
 ! D7    D(7,2,3,4)            180.0            estimate D2E/DX2                !
 ! D8    D(7,2,3,8)              0.0            estimate D2E/DX2                !
 ! D9    D(2,3,4,5)              0.0            estimate D2E/DX2                !
 ! D10   D(2,3,4,9)            180.0            estimate D2E/DX2                !
 ! D11   D(8,3,4,5)            180.0            estimate D2E/DX2                !
 ! D12   D(8,3,4,9)              0.0            estimate D2E/DX2                !
 ! D13   D(3,4,5,6)              0.0            estimate D2E/DX2                !
 ! D14   D(3,4,5,10)           180.0            estimate D2E/DX2                !
 ! D15   D(9,4,5,6)            180.0            estimate D2E/DX2                !
 ! D16   D(9,4,5,10)             0.0            estimate D2E/DX2                !
 ! D17   D(4,5,6,1)              0.0            estimate D2E/DX2                !
 ! D18   D(4,5,6,11)           180.0            estimate D2E/DX2                !
 ! D19   D(10,5,6,1)           180.0            estimate D2E/DX2                !
 ! D20   D(10,5,6,11)            0.0            estimate D2E/DX2                !
 --------------------------------------------------------------------------------
 Trust Radius=3.00D-01 FncErr=1.00D-07 GrdErr=1.00D-07 EigMax=2.50D+02 EigMin=1.00D-04
 Number of steps in this run=     57 maximum allowed number of steps=    100.
 GradGradGradGradGradGradGradGradGradGradGradGradGradGradGradGradGradGrad

                          Input orientation:                          
 ---------------------------------------------------------------------
 Center     Atomic      Atomic             Coordinates (Angstroms)
 Number     Number       Type             X           Y           Z
 ---------------------------------------------------------------------
      1          6           0        0.000000    1.390000    0.000000
      2          6           0        1.203775    0.695000    0.000000
      3          6           0        1.203775   -0.695000    0.000000
      4          6           0        0.000000   -1.390000    0.000000
      5          6           0       -1.203775   -0.695000    0.000000
      6          6           0       -1.203775    0.695000    0.000000
      7         35           0        2.849224    1.645000    0.000000
      8         35           0        2.849224   -1.645000    0.000000
      9          1           0        0.000000   -2.470000    0.000000
     10         35           0       -2.849224   -1.645000    0.000000
     11          1           0       -2.139083    1.235000    0.000000
 ---------------------------------------------------------------------
                    Distance matrix (angstroms):
                    1          2          3          4          5
     1  C    0.000000
     2  C    1.390000   0.000000
     3  C    2.407551   1.390000   0.000000
     4  C    2.780000   2.407551   1.390000   0.000000
     5  C    2.407551   2.780000   2.407551   1.390000   0.000000
     6  C    1.390000   2.407551   2.780000   2.407551   1.390000
     7  Br   2.860612   1.900000   2.860612   4.162848   4.680000
     8  Br   4.162848   2.860612   1.900000   2.860612   4.162848
     9  H    3.860000   3.386193   2.144691   1.080000   2.144691
    10  Br   4.162848   4.680000   4.162848   2.860612   1.900000
    11  H    2.144691   3.386193   3.860000   3.386193   2.144691
                    6          7          8          9         10
     6  C    0.000000
     7  Br   4.162848   0.000000
     8  Br   4.680000   3.290000   0.000000
     9  H    3.386193   5.005127   2.966260   0.000000
    10  Br   2.860612   6.580000   5.698447   2.966260   0.000000
    11  H    1.080000   5.005127   5.760000   4.278165   2.966260
                   11
    11  H    0.000000
 Stoichiometry    C6H2Br3(1-)
 Framework group  CS[SG(C6H2Br3)]
 Deg. of freedom    19
 Full point group                 CS      NOp   2
 Largest Abelian subgroup         CS      NOp   2
 Largest concise Abelian subgroup C1      NOp   1
                         Standard orientation:                         
 ---------------------------------------------------------------------
 Center     Atomic      Atomic             Coordinates (Angstroms)
 Number     Number       Type             X           Y           Z
 ---------------------------------------------------------------------
      1          6           0        1.901138   -0.309650    0.000000
      2          6           0        0.697362   -1.004650    0.000000
      3          6           0       -0.506413   -0.309650    0.000000
      4          6           0       -0.506413    1.080350    0.000000
      5          6           0        0.697362    1.775350    0.000000
      6          6           0        1.901138    1.080350    0.000000
      7         35           0        0.697362   -2.904650    0.000000
      8         35           0       -2.151861   -1.259650    0.000000
      9          1           0       -1.441720    1.620350    0.000000
     10         35           0        0.697362    3.675350    0.000000
     11          1           0        2.836445    1.620350    0.000000
 ---------------------------------------------------------------------
 Rotational constants (GHZ):           1.0044332           0.2531888           0.2022160
 Standard basis: VSTO-6G (5D, 7F)
 There are    29 symmetry adapted cartesian basis functions of A'  symmetry.
 There are     9 symmetry adapted cartesian basis functions of A"  symmetry.
 There are    29 symmetry adapted basis functions of A'  symmetry.
 There are     9 symmetry adapted basis functions of A"  symmetry.
    38 basis functions,   228 primitive gaussians,    38 cartesian basis functions
    24 alpha electrons       24 beta electrons
       nuclear repulsion energy       236.6269683910 Hartrees.
 Integral buffers will be    131072 words long.
 Regular integral format.
 Two-electron integral symmetry is turned off.
 Do NDO integrals.
 One-electron integrals computed using PRISM.
 NBasis=    38 RedAO= T EigKep=  1.00D+00  NBF=    29     9
 NBsUse=    38 1.00D-06 EigRej= -1.00D+00 NBFU=    29     9
 Nonelectrostatic core Hamiltonian diagonalized for initial guess.
 Initial guess orbital symmetries:
       Occupied  (A') (A') (A') (A') (A') (A') (A') (A') (A') (A')
                 (A') (A") (A') (A') (A") (A") (A') (A') (A") (A')
                 (A") (A') (A") (A')
       Virtual   (A') (A") (A") (A') (A') (A') (A") (A') (A') (A')
                 (A') (A') (A') (A')
 The electronic state of the initial guess is 1-A'.
 Keep J ints in memory in canonical form, NReq=863588.
 Overlap will be assumed to be unity.
 Requested convergence on RMS density matrix=1.00D-08 within  32 cycles.
 Requested convergence on MAX density matrix=1.00D-06.
 Requested convergence on             energy=1.00D-06.
 No special actions if energy rises.
 Fock symm off for IB=2 I1=    1 I=   30 J=   27 Cut=1.00D-07 Err=1.16D-02
 Fock matrix is not symmetric: symmetry in diagonalization turned off.
 SCF Done:  E(RAM1) =  0.781920592000E-01 A.U. after   16 cycles
            NFock= 15  Conv=0.74D-08     -V/T= 1.0007
 QCSCF skips out because SCF is already converged.

 **********************************************************************

            Population analysis using the SCF Density.

 **********************************************************************

 Orbital symmetries:
       Occupied  (A') (A') (A') (A') (A') (A') (A') (A') (A') (A')
                 (A') (A") (A') (A') (A") (A') (A') (A") (A') (A")
                 (A') (A") (A") (A')
       Virtual   (A") (A') (A') (A") (A') (A") (A') (A') (A') (A')
                 (A') (A') (A') (A')
 The electronic state is 1-A'.
 Alpha  occ. eigenvalues --   -1.28715  -1.09223  -1.03734  -1.01061  -0.94870
 Alpha  occ. eigenvalues --   -0.90497  -0.67630  -0.66326  -0.48989  -0.43755
 Alpha  occ. eigenvalues --   -0.41407  -0.38101  -0.37614  -0.34234  -0.32222
 Alpha  occ. eigenvalues --   -0.29551  -0.28667  -0.28521  -0.27969  -0.26523
 Alpha  occ. eigenvalues --   -0.24113  -0.19694  -0.17947  -0.12227
 Alpha virt. eigenvalues --    0.15728   0.15891   0.16892   0.17774   0.19555
 Alpha virt. eigenvalues --    0.27502   0.29401   0.30897   0.32009   0.32776
 Alpha virt. eigenvalues --    0.33748   0.34681   0.37897   0.39739
          Condensed to atoms (all electrons):
               1          2          3          4          5          6
     1  C    4.358928   0.000000   0.000000   0.000000   0.000000   0.000000
     2  C    0.000000   4.127227   0.000000   0.000000   0.000000   0.000000
     3  C    0.000000   0.000000   4.132749   0.000000   0.000000   0.000000
     4  C    0.000000   0.000000   0.000000   4.177484   0.000000   0.000000
     5  C    0.000000   0.000000   0.000000   0.000000   4.152378   0.000000
     6  C    0.000000   0.000000   0.000000   0.000000   0.000000   4.111385
     7  Br   0.000000   0.000000   0.000000   0.000000   0.000000   0.000000
     8  Br   0.000000   0.000000   0.000000   0.000000   0.000000   0.000000
     9  H    0.000000   0.000000   0.000000   0.000000   0.000000   0.000000
    10  Br   0.000000   0.000000   0.000000   0.000000   0.000000   0.000000
    11  H    0.000000   0.000000   0.000000   0.000000   0.000000   0.000000
               7          8          9         10         11
     1  C    0.000000   0.000000   0.000000   0.000000   0.000000
     2  C    0.000000   0.000000   0.000000   0.000000   0.000000
     3  C    0.000000   0.000000   0.000000   0.000000   0.000000
     4  C    0.000000   0.000000   0.000000   0.000000   0.000000
     5  C    0.000000   0.000000   0.000000   0.000000   0.000000
     6  C    0.000000   0.000000   0.000000   0.000000   0.000000
     7  Br   7.045841   0.000000   0.000000   0.000000   0.000000
     8  Br   0.000000   7.051399   0.000000   0.000000   0.000000
     9  H    0.000000   0.000000   0.881609   0.000000   0.000000
    10  Br   0.000000   0.000000   0.000000   7.072052   0.000000
    11  H    0.000000   0.000000   0.000000   0.000000   0.888948
 Mulliken charges:
               1
     1  C   -0.358928
     2  C   -0.127227
     3  C   -0.132749
     4  C   -0.177484
     5  C   -0.152378
     6  C   -0.111385
     7  Br  -0.045841
     8  Br  -0.051399
     9  H    0.118391
    10  Br  -0.072052
    11  H    0.111052
 Sum of Mulliken charges =  -1.00000
 Mulliken charges with hydrogens summed into heavy atoms:
               1
     1  C   -0.358928
     2  C   -0.127227
     3  C   -0.132749
     4  C   -0.059093
     5  C   -0.152378
     6  C   -0.000333
     7  Br  -0.045841
     8  Br  -0.051399
    10  Br  -0.072052
 Charge=             -1.0000 electrons
 Dipole moment (field-independent basis, Debye):
    X=             -4.9952    Y=              1.2429    Z=              0.0000  Tot=              5.1475
 N-N= 2.366269683910D+02 E-N=-3.368133454944D+02  KE=-1.112124098338D+02
 Symmetry A'   KE=-8.551109186891D+01
 Symmetry A"   KE=-2.570131796489D+01
 Calling FoFJK, ICntrl=      2127 FMM=F ISym2X=1 I1Cent= 0 IOpClX= 0 NMat=1 NMatS=1 NMatT=0.
 ***** Axes restored to original set *****
 -------------------------------------------------------------------
 Center     Atomic                   Forces (Hartrees/Bohr)
 Number     Number              X              Y              Z
 -------------------------------------------------------------------
      1        6           0.007172911    0.005180138   -0.000000000
      2        6          -0.007874947    0.014862096    0.000000000
      3        6           0.014756165   -0.004933912    0.000000000
      4        6           0.002185244   -0.004925628    0.000000000
      5        6          -0.009480638    0.000391572    0.000000000
      6        6           0.011318301    0.000705027   -0.000000000
      7       35          -0.005977594   -0.001595135   -0.000000000
      8       35          -0.004064169   -0.002548607   -0.000000000
      9        1           0.000544228   -0.014397817   -0.000000000
     10       35           0.002267290   -0.001058914   -0.000000000
     11        1          -0.010846792    0.008321180   -0.000000000
 -------------------------------------------------------------------
 Cartesian Forces:  Max     0.014862096 RMS     0.006307720

 GradGradGradGradGradGradGradGradGradGradGradGradGradGradGradGradGradGrad
 Berny optimization.
 FormGI is forming the generalized inverse of G from B-inverse, IUseBI=4.
 Internal  Forces:  Max     0.015603435 RMS     0.005342987
 Search for a local minimum.
 Step number   1 out of a maximum of   57
 All quantities printed in internal units (Hartrees-Bohrs-Radians)
 Mixed Optimization -- RFO/linear search
 Second derivative matrix not updated -- first step.
 ITU=  0
     Eigenvalues ---    0.02221   0.02221   0.02221   0.02221   0.02221
     Eigenvalues ---    0.02221   0.02221   0.02221   0.16000   0.16000
     Eigenvalues ---    0.18251   0.18251   0.18251   0.23316   0.23492
     Eigenvalues ---    0.25000   0.25000   0.25000   0.25000   0.35994
     Eigenvalues ---    0.35994   0.43203   0.43618   0.47319   0.47319
     Eigenvalues ---    0.47319   0.47319
 RFO step:  Lambda=-3.78626028D-03 EMin= 2.22103665D-02
 Linear search not attempted -- first point.
 Iteration  1 RMS(Cart)=  0.02466129 RMS(Int)=  0.00014366
 Iteration  2 RMS(Cart)=  0.00020140 RMS(Int)=  0.00003374
 Iteration  3 RMS(Cart)=  0.00000001 RMS(Int)=  0.00003374
 ClnCor:  largest displacement from symmetrization is 1.98D-11 for atom    10.
 Variable       Old X    -DE/DX   Delta X   Delta X   Delta X     New X
                                 (Linear)    (Quad)   (Total)
    R1        2.62672  -0.00512   0.00000  -0.01193  -0.01195   2.61477
    R2        2.62672   0.00134   0.00000   0.00167   0.00161   2.62833
    R3        2.62672   0.01560   0.00000   0.03267   0.03270   2.65942
    R4        3.59048  -0.00597   0.00000  -0.03207  -0.03207   3.55841
    R5        2.62672   0.00761   0.00000   0.01711   0.01716   2.64388
    R6        3.59048  -0.00225   0.00000  -0.01205  -0.01205   3.57843
    R7        2.62672   0.01152   0.00000   0.02534   0.02536   2.65208
    R8        2.04090   0.01440   0.00000   0.03958   0.03958   2.08049
    R9        2.62672   0.01187   0.00000   0.02493   0.02490   2.65162
   R10        3.59048  -0.00143   0.00000  -0.00770  -0.00770   3.58278
   R11        2.04090   0.01355   0.00000   0.03726   0.03726   2.07817
    A1        2.09440  -0.00233   0.00000  -0.01489  -0.01500   2.07940
    A2        2.09440   0.00643   0.00000   0.02362   0.02363   2.11803
    A3        2.09440  -0.00610   0.00000  -0.02318  -0.02319   2.07121
    A4        2.09440  -0.00033   0.00000  -0.00044  -0.00045   2.09395
    A5        2.09440  -0.00196   0.00000  -0.00499  -0.00490   2.08949
    A6        2.09440   0.00859   0.00000   0.03248   0.03244   2.12683
    A7        2.09440  -0.00663   0.00000  -0.02749  -0.02754   2.06686
    A8        2.09440  -0.00598   0.00000  -0.02098  -0.02089   2.07350
    A9        2.09440   0.00243   0.00000   0.00710   0.00705   2.10145
   A10        2.09440   0.00354   0.00000   0.01388   0.01384   2.10823
   A11        2.09440   0.00220   0.00000   0.01164   0.01164   2.10603
   A12        2.09440  -0.00478   0.00000  -0.02033  -0.02033   2.07407
   A13        2.09440   0.00258   0.00000   0.00869   0.00869   2.10308
   A14        2.09440   0.00163   0.00000   0.00560   0.00552   2.09991
   A15        2.09440  -0.00263   0.00000  -0.01391  -0.01387   2.08053
   A16        2.09440   0.00101   0.00000   0.00831   0.00835   2.10274
    D1        0.00000   0.00000   0.00000   0.00000   0.00000   0.00000
    D2        3.14159  -0.00000   0.00000  -0.00000   0.00000   3.14159
    D3        0.00000   0.00000   0.00000   0.00000   0.00000   0.00000
    D4        3.14159   0.00000   0.00000   0.00000   0.00000   3.14159
    D5        0.00000  -0.00000   0.00000  -0.00000   0.00000   0.00000
    D6        3.14159  -0.00000   0.00000  -0.00000   0.00000   3.14159
    D7        3.14159   0.00000   0.00000   0.00000   0.00000   3.14159
    D8        0.00000   0.00000   0.00000   0.00000   0.00000   0.00000
    D9        0.00000   0.00000   0.00000   0.00000   0.00000   0.00000
   D10        3.14159  -0.00000   0.00000  -0.00000   0.00000   3.14159
   D11        3.14159   0.00000   0.00000   0.00000   0.00000   3.14159
   D12        0.00000  -0.00000   0.00000  -0.00000   0.00000   0.00000
   D13        0.00000   0.00000   0.00000   0.00000   0.00000   0.00000
   D14        3.14159  -0.00000   0.00000  -0.00000   0.00000   3.14159
   D15        3.14159   0.00000   0.00000   0.00000   0.00000   3.14159
   D16        0.00000   0.00000   0.00000   0.00000   0.00000   0.00000
   D17        0.00000  -0.00000   0.00000  -0.00000   0.00000   0.00000
   D18        3.14159  -0.00000   0.00000  -0.00000   0.00000   3.14159
   D19        3.14159   0.00000   0.00000   0.00000   0.00000   3.14159
   D20        0.00000   0.00000   0.00000   0.00000   0.00000   0.00000
         Item               Value     Threshold  Converged?
 Maximum Force            0.015603     0.000450     NO 
 RMS     Force            0.005343     0.000300     NO 
 Maximum Displacement     0.077175     0.001800     NO 
 RMS     Displacement     0.024641     0.001200     NO 
 Predicted change in Energy=-1.914748D-03
 GradGradGradGradGradGradGradGradGradGradGradGradGradGradGradGradGradGrad

                          Input orientation:                          
 ---------------------------------------------------------------------
 Center     Atomic      Atomic             Coordinates (Angstroms)
 Number     Number       Type             X           Y           Z
 ---------------------------------------------------------------------
      1          6           0        0.005170    1.411162    0.000000
      2          6           0        1.195912    0.706398    0.000000
      3          6           0        1.213940   -0.700792    0.000000
      4          6           0        0.007868   -1.409893    0.000000
      5          6           0       -1.198316   -0.692463    0.000000
      6          6           0       -1.196431    0.710711    0.000000
      7         35           0        2.814898    1.668004    0.000000
      8         35           0        2.834965   -1.679608    0.000000
      9          1           0        0.008808   -2.510839    0.000000
     10         35           0       -2.833232   -1.652456    0.000000
     11          1           0       -2.143441    1.269776    0.000000
 ---------------------------------------------------------------------
                    Distance matrix (angstroms):
                    1          2          3          4          5
     1  C    0.000000
     2  C    1.383676   0.000000
     3  C    2.433408   1.407305   0.000000
     4  C    2.821056   2.426960   1.399083   0.000000
     5  C    2.423554   2.772930   2.412271   1.403420   0.000000
     6  C    1.390855   2.392347   2.793247   2.438708   1.403175
     7  Br   2.821442   1.883030   2.859066   4.165677   4.655931
     8  Br   4.190537   2.894739   1.893622   2.839934   4.152327
     9  H    3.922003   3.429261   2.174538   1.100947   2.182577
    10  Br   4.176396   4.668854   4.157555   2.851436   1.895926
    11  H    2.153259   3.386544   3.892961   3.436388   2.177990
                    6          7          8          9         10
     6  C    0.000000
     7  Br   4.123975   0.000000
     8  Br   4.686766   3.347672   0.000000
     9  H    3.439620   5.033575   2.945864   0.000000
    10  Br   2.874661   6.551857   5.668263   2.968840   0.000000
    11  H    1.099720   4.974305   5.786484   4.350314   3.002541
                   11
    11  H    0.000000
 Stoichiometry    C6H2Br3(1-)
 Framework group  CS[SG(C6H2Br3)]
 Deg. of freedom    19
 Full point group                 CS      NOp   2
 Largest Abelian subgroup         CS      NOp   2
 Largest concise Abelian subgroup C1      NOp   1
                         Standard orientation:                         
 ---------------------------------------------------------------------
 Center     Atomic      Atomic             Coordinates (Angstroms)
 Number     Number       Type             X           Y           Z
 ---------------------------------------------------------------------
      1          6           0        1.298275    1.448639   -0.000000
      2          6           0        1.234344    0.066441   -0.000000
      3          6           0        0.000000   -0.609504    0.000000
      4          6           0       -1.191955    0.123078    0.000000
      5          6           0       -1.124080    1.524856    0.000000
      6          6           0        0.116057    2.181330   -0.000000
      7         35           0        2.842978   -0.912384   -0.000000
      8         35           0       -0.104149   -2.500260    0.000000
      9          1           0       -2.163847   -0.394136    0.000000
     10         35           0       -2.738762    2.518506    0.000000
     11          1           0        0.165629    3.279932   -0.000000
 ---------------------------------------------------------------------
 Rotational constants (GHZ):           0.9711451           0.2564084           0.2028504
 Standard basis: VSTO-6G (5D, 7F)
 There are    29 symmetry adapted cartesian basis functions of A'  symmetry.
 There are     9 symmetry adapted cartesian basis functions of A"  symmetry.
 There are    29 symmetry adapted basis functions of A'  symmetry.
 There are     9 symmetry adapted basis functions of A"  symmetry.
    38 basis functions,   228 primitive gaussians,    38 cartesian basis functions
    24 alpha electrons       24 beta electrons
       nuclear repulsion energy       236.3186413583 Hartrees.
 Integral buffers will be    131072 words long.
 Regular integral format.
 Two-electron integral symmetry is turned off.
 Do NDO integrals.
 One-electron integrals computed using PRISM.
 NBasis=    38 RedAO= T EigKep=  1.00D+00  NBF=    29     9
 NBsUse=    38 1.00D-06 EigRej= -1.00D+00 NBFU=    29     9
 Initial guess from the checkpoint file:  "calcs/am1/chks/BrPh_235_anion.chk"
 B after Tr=    -0.000000    0.000000   -0.000000
         Rot=    0.874229   -0.000000    0.000000   -0.485514 Ang= -58.09 deg.
 Initial guess orbital symmetries:
       Occupied  (A') (A') (A') (A') (A') (A') (A') (A') (A') (A')
                 (A') (A") (A') (A') (A") (A') (A') (A") (A') (A")
                 (A') (A") (A") (A')
       Virtual   (A") (A') (A') (A") (A') (A") (A') (A') (A') (A')
                 (A') (A') (A') (A')
 Keep J ints in memory in canonical form, NReq=863588.
 Overlap will be assumed to be unity.
 Requested convergence on RMS density matrix=1.00D-08 within  32 cycles.
 Requested convergence on MAX density matrix=1.00D-06.
 Requested convergence on             energy=1.00D-06.
 No special actions if energy rises.
 Fock symm off for IB=2 I1=    1 I=   30 J=   28 Cut=1.00D-07 Err=2.41D-04
 Fock matrix is not symmetric: symmetry in diagonalization turned off.
 SCF Done:  E(RAM1) =  0.767517456308E-01 A.U. after   13 cycles
            NFock= 12  Conv=0.79D-08     -V/T= 1.0007
 QCSCF skips out because SCF is already converged.
 Calling FoFJK, ICntrl=      2127 FMM=F ISym2X=1 I1Cent= 0 IOpClX= 0 NMat=1 NMatS=1 NMatT=0.
 ***** Axes restored to original set *****
 -------------------------------------------------------------------
 Center     Atomic                   Forces (Hartrees/Bohr)
 Number     Number              X              Y              Z
 -------------------------------------------------------------------
      1        6          -0.000072130   -0.000525356    0.000000000
      2        6          -0.002722642   -0.006265581    0.000000000
      3        6          -0.000627240    0.003476032    0.000000000
      4        6          -0.000452639    0.004141283    0.000000000
      5        6           0.002198604    0.006513593    0.000000000
      6        6           0.000650419   -0.008909672   -0.000000000
      7       35           0.001814912   -0.000044591   -0.000000000
      8       35          -0.001765769    0.000614555   -0.000000000
      9        1          -0.000293232    0.002254221   -0.000000000
     10       35           0.000751200   -0.000293531    0.000000000
     11        1           0.000518517   -0.000960952   -0.000000000
 -------------------------------------------------------------------
 Cartesian Forces:  Max     0.008909672 RMS     0.002568165

 GradGradGradGradGradGradGradGradGradGradGradGradGradGradGradGradGradGrad
 Berny optimization.
 Using GEDIIS/GDIIS optimizer.
 FormGI is forming the generalized inverse of G from B-inverse, IUseBI=4.
 Internal  Forces:  Max     0.009595532 RMS     0.002146604
 Search for a local minimum.
 Step number   2 out of a maximum of   57
 All quantities printed in internal units (Hartrees-Bohrs-Radians)
 Mixed Optimization -- RFO/linear search
 Update second derivatives using D2CorX and points    1    2
 DE= -1.44D-03 DEPred=-1.91D-03 R= 7.52D-01
 TightC=F SS=  1.41D+00  RLast= 1.08D-01 DXNew= 5.0454D-01 3.2465D-01
 Trust test= 7.52D-01 RLast= 1.08D-01 DXMaxT set to 3.25D-01
 ITU=  1  0
 Use linear search instead of GDIIS.
     Eigenvalues ---    0.02221   0.02221   0.02221   0.02221   0.02221
     Eigenvalues ---    0.02221   0.02221   0.02221   0.15998   0.16049
     Eigenvalues ---    0.17771   0.18251   0.18489   0.22754   0.23502
     Eigenvalues ---    0.23710   0.25000   0.25000   0.25402   0.35267
     Eigenvalues ---    0.36073   0.43139   0.44073   0.47006   0.47319
     Eigenvalues ---    0.47319   0.64179
 RFO step:  Lambda=-2.09303618D-04 EMin= 2.22103665D-02
 Quartic linear search produced a step of -0.18944.
 Iteration  1 RMS(Cart)=  0.00685673 RMS(Int)=  0.00001477
 Iteration  2 RMS(Cart)=  0.00001666 RMS(Int)=  0.00000545
 Iteration  3 RMS(Cart)=  0.00000000 RMS(Int)=  0.00000545
 ClnCor:  largest displacement from symmetrization is 1.88D-11 for atom     8.
 Variable       Old X    -DE/DX   Delta X   Delta X   Delta X     New X
                                 (Linear)    (Quad)   (Total)
    R1        2.61477  -0.00054   0.00226  -0.00341  -0.00114   2.61363
    R2        2.62833  -0.00006  -0.00031   0.00055   0.00025   2.62858
    R3        2.65942  -0.00710  -0.00620  -0.00408  -0.01028   2.64914
    R4        3.55841   0.00154   0.00608  -0.00082   0.00526   3.56367
    R5        2.64388  -0.00424  -0.00325  -0.00336  -0.00662   2.63726
    R6        3.57843  -0.00183   0.00228  -0.01098  -0.00870   3.56973
    R7        2.65208  -0.00507  -0.00480  -0.00295  -0.00776   2.64432
    R8        2.08049  -0.00225  -0.00750   0.00448  -0.00302   2.07747
    R9        2.65162  -0.00960  -0.00472  -0.01055  -0.01526   2.63635
   R10        3.58278  -0.00050   0.00146  -0.00405  -0.00259   3.58019
   R11        2.07817  -0.00094  -0.00706   0.00689  -0.00017   2.07800
    A1        2.07940  -0.00102   0.00284  -0.00530  -0.00245   2.07695
    A2        2.11803  -0.00059  -0.00448   0.00462   0.00014   2.11816
    A3        2.07121   0.00201   0.00439   0.00053   0.00492   2.07613
    A4        2.09395  -0.00142   0.00008  -0.00514  -0.00506   2.08889
    A5        2.08949  -0.00048   0.00093  -0.00314  -0.00222   2.08727
    A6        2.12683   0.00093  -0.00615   0.01100   0.00487   2.13170
    A7        2.06686  -0.00045   0.00522  -0.00787  -0.00264   2.06421
    A8        2.07350   0.00196   0.00396   0.00052   0.00446   2.07797
    A9        2.10145  -0.00068  -0.00134   0.00047  -0.00086   2.10059
   A10        2.10823  -0.00128  -0.00262  -0.00099  -0.00360   2.10463
   A11        2.10603  -0.00021  -0.00220   0.00081  -0.00140   2.10464
   A12        2.07407  -0.00103   0.00385  -0.00756  -0.00371   2.07036
   A13        2.10308   0.00124  -0.00165   0.00675   0.00511   2.10819
   A14        2.09991   0.00033  -0.00105   0.00250   0.00146   2.10138
   A15        2.08053   0.00042   0.00263  -0.00092   0.00170   2.08223
   A16        2.10274  -0.00075  -0.00158  -0.00158  -0.00316   2.09958
    D1       -0.00000   0.00000   0.00000   0.00000   0.00000   0.00000
    D2        3.14159  -0.00000   0.00000  -0.00000   0.00000   3.14159
    D3       -0.00000   0.00000   0.00000   0.00000   0.00000   0.00000
    D4        3.14159   0.00000   0.00000   0.00000   0.00000   3.14159
    D5        0.00000  -0.00000   0.00000  -0.00000  -0.00000   0.00000
    D6        3.14159  -0.00000   0.00000  -0.00000   0.00000   3.14159
    D7        3.14159   0.00000   0.00000   0.00000   0.00000   3.14159
    D8       -0.00000   0.00000   0.00000   0.00000   0.00000   0.00000
    D9        0.00000   0.00000   0.00000   0.00000   0.00000   0.00000
   D10        3.14159  -0.00000   0.00000  -0.00000   0.00000   3.14159
   D11        3.14159   0.00000   0.00000   0.00000   0.00000   3.14159
   D12        0.00000   0.00000   0.00000   0.00000  -0.00000   0.00000
   D13       -0.00000   0.00000   0.00000   0.00000   0.00000   0.00000
   D14        3.14159  -0.00000   0.00000  -0.00000   0.00000   3.14159
   D15        3.14159   0.00000   0.00000   0.00000   0.00000   3.14159
   D16       -0.00000   0.00000   0.00000   0.00000   0.00000   0.00000
   D17        0.00000  -0.00000   0.00000  -0.00000   0.00000   0.00000
   D18        3.14159  -0.00000   0.00000  -0.00000   0.00000   3.14159
   D19        3.14159   0.00000   0.00000   0.00000   0.00000   3.14159
   D20       -0.00000  -0.00000   0.00000  -0.00000   0.00000   0.00000
         Item               Value     Threshold  Converged?
 Maximum Force            0.009596     0.000450     NO 
 RMS     Force            0.002147     0.000300     NO 
 Maximum Displacement     0.019773     0.001800     NO 
 RMS     Displacement     0.006862     0.001200     NO 
 Predicted change in Energy=-1.860029D-04
 GradGradGradGradGradGradGradGradGradGradGradGradGradGradGradGradGradGrad

                          Input orientation:                          
 ---------------------------------------------------------------------
 Center     Atomic      Atomic             Coordinates (Angstroms)
 Number     Number       Type             X           Y           Z
 ---------------------------------------------------------------------
      1          6           0        0.004266    1.409997   -0.000000
      2          6           0        1.194424    0.705430   -0.000000
      3          6           0        1.212445   -0.696321   -0.000000
      4          6           0        0.007856   -1.401025    0.000000
      5          6           0       -1.196432   -0.688443    0.000000
      6          6           0       -1.195798    0.706654   -0.000000
      7         35           0        2.820608    1.660319   -0.000000
      8         35           0        2.824801   -1.680543    0.000000
      9          1           0        0.007345   -2.500376    0.000000
     10         35           0       -2.824385   -1.657522    0.000000
     11          1           0       -2.144991    1.261830   -0.000000
 ---------------------------------------------------------------------
                    Distance matrix (angstroms):
                    1          2          3          4          5
     1  C    0.000000
     2  C    1.383072   0.000000
     3  C    2.428223   1.401867   0.000000
     4  C    2.811024   2.417663   1.395580   0.000000
     5  C    2.417670   2.767503   2.408889   1.399315   0.000000
     6  C    1.390987   2.390222   2.787108   2.427157   1.395097
     7  Br   2.827444   1.885812   2.853058   4.157331   4.653309
     8  Br   4.184119   2.889809   1.889017   2.830779   4.141808
     9  H    3.910374   3.418530   2.169534   1.099351   2.175357
    10  Br   4.172641   4.662012   4.149686   2.843831   1.894556
    11  H    2.154358   3.385450   3.886738   3.424259   2.168717
                    6          7          8          9         10
     6  C    0.000000
     7  Br   4.128073   0.000000
     8  Br   4.675888   3.340864   0.000000
     9  H    3.425287   5.022532   2.934312   0.000000
    10  Br   2.870823   6.547824   5.649233   2.954505   0.000000
    11  H    1.099631   4.981562   5.775499   4.334368   2.997364
                   11
    11  H    0.000000
 Stoichiometry    C6H2Br3(1-)
 Framework group  CS[SG(C6H2Br3)]
 Deg. of freedom    19
 Full point group                 CS      NOp   2
 Largest Abelian subgroup         CS      NOp   2
 Largest concise Abelian subgroup C1      NOp   1
                         Standard orientation:                         
 ---------------------------------------------------------------------
 Center     Atomic      Atomic             Coordinates (Angstroms)
 Number     Number       Type             X           Y           Z
 ---------------------------------------------------------------------
      1          6           0        1.311591    1.439638    0.000000
      2          6           0        1.235416    0.058666    0.000000
      3          6           0        0.000000   -0.603887   -0.000000
      4          6           0       -1.180883    0.139858   -0.000000
      5          6           0       -1.104114    1.537066   -0.000000
      6          6           0        0.134003    2.179997    0.000000
      7         35           0        2.832743   -0.943749    0.000000
      8         35           0       -0.129562   -2.488456   -0.000000
      9          1           0       -2.156537   -0.366769   -0.000000
     10         35           0       -2.714847    2.534505   -0.000000
     11          1           0        0.188774    3.278263    0.000000
 ---------------------------------------------------------------------
 Rotational constants (GHZ):           0.9768643           0.2571145           0.2035416
 Standard basis: VSTO-6G (5D, 7F)
 There are    29 symmetry adapted cartesian basis functions of A'  symmetry.
 There are     9 symmetry adapted cartesian basis functions of A"  symmetry.
 There are    29 symmetry adapted basis functions of A'  symmetry.
 There are     9 symmetry adapted basis functions of A"  symmetry.
    38 basis functions,   228 primitive gaussians,    38 cartesian basis functions
    24 alpha electrons       24 beta electrons
       nuclear repulsion energy       236.5812828287 Hartrees.
 Integral buffers will be    131072 words long.
 Regular integral format.
 Two-electron integral symmetry is turned off.
 Do NDO integrals.
 One-electron integrals computed using PRISM.
 NBasis=    38 RedAO= T EigKep=  1.00D+00  NBF=    29     9
 NBsUse=    38 1.00D-06 EigRej= -1.00D+00 NBFU=    29     9
 Initial guess from the checkpoint file:  "calcs/am1/chks/BrPh_235_anion.chk"
 B after Tr=     0.000000   -0.000000    0.000000
         Rot=    0.999989   -0.000000    0.000000    0.004616 Ang=   0.53 deg.
 Initial guess orbital symmetries:
       Occupied  (A') (A') (A') (A') (A') (A') (A') (A') (A') (A')
                 (A') (A") (A') (A') (A") (A') (A") (A') (A') (A")
                 (A') (A") (A") (A')
       Virtual   (A") (A') (A') (A") (A') (A") (A') (A') (A') (A')
                 (A') (A') (A') (A')
 Keep J ints in memory in canonical form, NReq=863588.
 Overlap will be assumed to be unity.
 Requested convergence on RMS density matrix=1.00D-08 within  32 cycles.
 Requested convergence on MAX density matrix=1.00D-06.
 Requested convergence on             energy=1.00D-06.
 No special actions if energy rises.
 Fock symm off for IB=2 I1=    1 I=   30 J=   20 Cut=1.00D-07 Err=9.25D-05
 Fock matrix is not symmetric: symmetry in diagonalization turned off.
 SCF Done:  E(RAM1) =  0.765679153894E-01 A.U. after   12 cycles
            NFock= 11  Conv=0.83D-08     -V/T= 1.0007
 QCSCF skips out because SCF is already converged.
 Calling FoFJK, ICntrl=      2127 FMM=F ISym2X=1 I1Cent= 0 IOpClX= 0 NMat=1 NMatS=1 NMatT=0.
 ***** Axes restored to original set *****
 -------------------------------------------------------------------
 Center     Atomic                   Forces (Hartrees/Bohr)
 Number     Number              X              Y              Z
 -------------------------------------------------------------------
      1        6           0.000221831    0.001436206    0.000000000
      2        6          -0.000585359   -0.000271174   -0.000000000
      3        6           0.001586554    0.000265827    0.000000000
      4        6           0.000157002   -0.001475693    0.000000000
      5        6          -0.001301357    0.000953533    0.000000000
      6        6          -0.001215919   -0.000712804   -0.000000000
      7       35           0.000901435    0.000178299   -0.000000000
      8       35           0.000286771   -0.000328930   -0.000000000
      9        1          -0.000100547    0.000626542   -0.000000000
     10       35          -0.000404115   -0.000583500   -0.000000000
     11        1           0.000453704   -0.000088307   -0.000000000
 -------------------------------------------------------------------
 Cartesian Forces:  Max     0.001586554 RMS     0.000652789

 GradGradGradGradGradGradGradGradGradGradGradGradGradGradGradGradGradGrad
 Berny optimization.
 Using GEDIIS/GDIIS optimizer.
 FormGI is forming the generalized inverse of G from B-inverse, IUseBI=4.
 Internal  Forces:  Max     0.001475266 RMS     0.000482476
 Search for a local minimum.
 Step number   3 out of a maximum of   57
 All quantities printed in internal units (Hartrees-Bohrs-Radians)
 Mixed Optimization -- En-DIIS/RFO-DIIS
 Update second derivatives using D2CorX and points    1    2    3
 DE= -1.84D-04 DEPred=-1.86D-04 R= 9.88D-01
 TightC=F SS=  1.41D+00  RLast= 2.73D-02 DXNew= 5.4599D-01 8.1887D-02
 Trust test= 9.88D-01 RLast= 2.73D-02 DXMaxT set to 3.25D-01
 ITU=  1  1  0
 Use linear search instead of GDIIS.
     Eigenvalues ---    0.02221   0.02221   0.02221   0.02221   0.02221
     Eigenvalues ---    0.02221   0.02221   0.02221   0.15942   0.16058
     Eigenvalues ---    0.17528   0.18267   0.18793   0.20888   0.23346
     Eigenvalues ---    0.23719   0.25000   0.25021   0.25151   0.35849
     Eigenvalues ---    0.36172   0.43055   0.44009   0.45630   0.47319
     Eigenvalues ---    0.47429   0.74100
 RFO step:  Lambda=-3.03122679D-05 EMin= 2.22103665D-02
 Quartic linear search produced a step of -0.02108.
 Iteration  1 RMS(Cart)=  0.00238136 RMS(Int)=  0.00000280
 Iteration  2 RMS(Cart)=  0.00000381 RMS(Int)=  0.00000010
 Iteration  3 RMS(Cart)=  0.00000000 RMS(Int)=  0.00000010
 ClnCor:  largest displacement from symmetrization is 7.16D-11 for atom     9.
 Variable       Old X    -DE/DX   Delta X   Delta X   Delta X     New X
                                 (Linear)    (Quad)   (Total)
    R1        2.61363   0.00108   0.00002   0.00201   0.00203   2.61566
    R2        2.62858   0.00148  -0.00001   0.00308   0.00308   2.63166
    R3        2.64914   0.00043   0.00022  -0.00014   0.00008   2.64923
    R4        3.56367   0.00087  -0.00011   0.00504   0.00493   3.56859
    R5        2.63726   0.00125   0.00014   0.00187   0.00201   2.63928
    R6        3.56973   0.00042   0.00018   0.00103   0.00122   3.57094
    R7        2.64432   0.00136   0.00016   0.00201   0.00217   2.64650
    R8        2.07747  -0.00063   0.00006  -0.00177  -0.00171   2.07577
    R9        2.63635   0.00012   0.00032  -0.00149  -0.00117   2.63519
   R10        3.58019   0.00065   0.00005   0.00306   0.00311   3.58330
   R11        2.07800  -0.00044   0.00000  -0.00092  -0.00091   2.07709
    A1        2.07695  -0.00011   0.00005  -0.00087  -0.00081   2.07614
    A2        2.11816   0.00022  -0.00000   0.00105   0.00105   2.11921
    A3        2.07613   0.00043  -0.00010   0.00211   0.00201   2.07814
    A4        2.08889  -0.00065   0.00011  -0.00316  -0.00306   2.08584
    A5        2.08727  -0.00038   0.00005  -0.00181  -0.00177   2.08550
    A6        2.13170   0.00042  -0.00010   0.00252   0.00242   2.13412
    A7        2.06421  -0.00005   0.00006  -0.00071  -0.00065   2.06356
    A8        2.07797   0.00040  -0.00009   0.00208   0.00199   2.07995
    A9        2.10059  -0.00010   0.00002  -0.00026  -0.00024   2.10035
   A10        2.10463  -0.00031   0.00008  -0.00182  -0.00175   2.10288
   A11        2.10464  -0.00030   0.00003  -0.00136  -0.00133   2.10330
   A12        2.07036  -0.00038   0.00008  -0.00203  -0.00196   2.06840
   A13        2.10819   0.00068  -0.00011   0.00340   0.00329   2.11148
   A14        2.10138   0.00017  -0.00003   0.00091   0.00088   2.10226
   A15        2.08223  -0.00024  -0.00004  -0.00120  -0.00124   2.08099
   A16        2.09958   0.00007   0.00007   0.00029   0.00036   2.09994
    D1       -0.00000  -0.00000   0.00000  -0.00000   0.00000   0.00000
    D2        3.14159  -0.00000   0.00000  -0.00000   0.00000   3.14159
    D3        0.00000   0.00000   0.00000   0.00000  -0.00000   0.00000
    D4        3.14159   0.00000   0.00000   0.00000   0.00000   3.14159
    D5        0.00000  -0.00000   0.00000  -0.00000   0.00000   0.00000
    D6        3.14159  -0.00000   0.00000  -0.00000   0.00000   3.14159
    D7        3.14159   0.00000   0.00000   0.00000   0.00000   3.14159
    D8        0.00000   0.00000   0.00000   0.00000   0.00000   0.00000
    D9        0.00000   0.00000   0.00000   0.00000  -0.00000   0.00000
   D10        3.14159  -0.00000   0.00000  -0.00000   0.00000   3.14159
   D11        3.14159   0.00000   0.00000   0.00000   0.00000   3.14159
   D12        0.00000  -0.00000   0.00000  -0.00000  -0.00000   0.00000
   D13       -0.00000   0.00000   0.00000   0.00000   0.00000   0.00000
   D14        3.14159  -0.00000   0.00000  -0.00000   0.00000   3.14159
   D15        3.14159   0.00000   0.00000   0.00000   0.00000   3.14159
   D16       -0.00000   0.00000   0.00000   0.00000   0.00000   0.00000
   D17        0.00000  -0.00000   0.00000  -0.00000   0.00000   0.00000
   D18        3.14159  -0.00000   0.00000  -0.00000   0.00000   3.14159
   D19        3.14159   0.00000   0.00000   0.00000   0.00000   3.14159
   D20       -0.00000  -0.00000   0.00000  -0.00000   0.00000   0.00000
         Item               Value     Threshold  Converged?
 Maximum Force            0.001475     0.000450     NO 
 RMS     Force            0.000482     0.000300     NO 
 Maximum Displacement     0.009817     0.001800     NO 
 RMS     Displacement     0.002383     0.001200     NO 
 Predicted change in Energy=-1.522816D-05
 GradGradGradGradGradGradGradGradGradGradGradGradGradGradGradGradGradGrad

                          Input orientation:                          
 ---------------------------------------------------------------------
 Center     Atomic      Atomic             Coordinates (Angstroms)
 Number     Number       Type             X           Y           Z
 ---------------------------------------------------------------------
      1          6           0        0.003578    1.411662   -0.000000
      2          6           0        1.194556    0.706373   -0.000000
      3          6           0        1.213841   -0.695404    0.000000
      4          6           0        0.007723   -1.399604    0.000000
      5          6           0       -1.198353   -0.687787    0.000000
      6          6           0       -1.197420    0.706693   -0.000000
      7         35           0        2.825044    1.659071   -0.000000
      8         35           0        2.825254   -1.682404    0.000000
      9          1           0        0.006526   -2.498051    0.000000
     10         35           0       -2.824729   -1.662716    0.000000
     11          1           0       -2.145879    1.262167   -0.000000
 ---------------------------------------------------------------------
                    Distance matrix (angstroms):
                    1          2          3          4          5
     1  C    0.000000
     2  C    1.384146   0.000000
     3  C    2.429911   1.401910   0.000000
     4  C    2.811269   2.417376   1.396645   0.000000
     5  C    2.419157   2.769421   2.412206   1.400465   0.000000
     6  C    1.392615   2.391976   2.789276   2.426697   1.394481
     7  Br   2.832293   1.888419   2.852986   4.158460   4.657839
     8  Br   4.187493   2.892306   1.889661   2.831688   4.144717
     9  H    3.909714   3.417565   2.169596   1.098448   2.174578
    10  Br   4.177454   4.665537   4.152800   2.844647   1.896203
    11  H    2.154650   3.386357   3.888420   3.423891   2.167978
                    6          7          8          9         10
     6  C    0.000000
     7  Br   4.133672   0.000000
     8  Br   4.678642   3.341476   0.000000
     9  H    3.423430   5.022521   2.934367   0.000000
    10  Br   2.874411   6.553946   5.650017   2.951913   0.000000
    11  H    1.099148   4.986744   5.777774   4.332677   3.002629
                   11
    11  H    0.000000
 Stoichiometry    C6H2Br3(1-)
 Framework group  CS[SG(C6H2Br3)]
 Deg. of freedom    19
 Full point group                 CS      NOp   2
 Largest Abelian subgroup         CS      NOp   2
 Largest concise Abelian subgroup C1      NOp   1
                         Standard orientation:                         
 ---------------------------------------------------------------------
 Center     Atomic      Atomic             Coordinates (Angstroms)
 Number     Number       Type             X           Y           Z
 ---------------------------------------------------------------------
      1          6           0        1.320039    1.437070   -0.000000
      2          6           0        1.237687    0.055375   -0.000000
      3          6           0        0.000000   -0.603019    0.000000
      4          6           0       -1.177939    0.147366   -0.000000
      5          6           0       -1.096688    1.545472   -0.000000
      6          6           0        0.143759    2.182550   -0.000000
      7         35           0        2.830728   -0.958698    0.000000
      8         35           0       -0.140532   -2.487447    0.000000
      9          1           0       -2.155264   -0.354055    0.000000
     10         35           0       -2.707617    2.545720   -0.000000
     11          1           0        0.203832    3.280055   -0.000000
 ---------------------------------------------------------------------
 Rotational constants (GHZ):           0.9766227           0.2567346           0.2032929
 Standard basis: VSTO-6G (5D, 7F)
 There are    29 symmetry adapted cartesian basis functions of A'  symmetry.
 There are     9 symmetry adapted cartesian basis functions of A"  symmetry.
 There are    29 symmetry adapted basis functions of A'  symmetry.
 There are     9 symmetry adapted basis functions of A"  symmetry.
    38 basis functions,   228 primitive gaussians,    38 cartesian basis functions
    24 alpha electrons       24 beta electrons
       nuclear repulsion energy       236.4949933235 Hartrees.
 Integral buffers will be    131072 words long.
 Regular integral format.
 Two-electron integral symmetry is turned off.
 Do NDO integrals.
 One-electron integrals computed using PRISM.
 NBasis=    38 RedAO= T EigKep=  1.00D+00  NBF=    29     9
 NBsUse=    38 1.00D-06 EigRej= -1.00D+00 NBFU=    29     9
 Initial guess from the checkpoint file:  "calcs/am1/chks/BrPh_235_anion.chk"
 B after Tr=    -0.000000    0.000000   -0.000000
         Rot=    0.999998    0.000000    0.000000    0.002103 Ang=   0.24 deg.
 Initial guess orbital symmetries:
       Occupied  (A') (A') (A') (A') (A') (A') (A') (A') (A') (A')
                 (A') (A") (A') (A') (A") (A') (A") (A') (A') (A")
                 (A') (A") (A") (A')
       Virtual   (A") (A') (A') (A") (A') (A") (A') (A') (A') (A')
                 (A') (A') (A') (A')
 Keep J ints in memory in canonical form, NReq=863588.
 Overlap will be assumed to be unity.
 Requested convergence on RMS density matrix=1.00D-08 within  32 cycles.
 Requested convergence on MAX density matrix=1.00D-06.
 Requested convergence on             energy=1.00D-06.
 No special actions if energy rises.
 Fock symm off for IB=2 I1=    1 I=   30 J=   28 Cut=1.00D-07 Err=9.62D-05
 Fock matrix is not symmetric: symmetry in diagonalization turned off.
 SCF Done:  E(RAM1) =  0.765537359713E-01 A.U. after   12 cycles
            NFock= 11  Conv=0.67D-08     -V/T= 1.0007
 QCSCF skips out because SCF is already converged.
 Calling FoFJK, ICntrl=      2127 FMM=F ISym2X=1 I1Cent= 0 IOpClX= 0 NMat=1 NMatS=1 NMatT=0.
 ***** Axes restored to original set *****
 -------------------------------------------------------------------
 Center     Atomic                   Forces (Hartrees/Bohr)
 Number     Number              X              Y              Z
 -------------------------------------------------------------------
      1        6           0.000342867    0.000081021    0.000000000
      2        6          -0.000702457    0.000255653   -0.000000000
      3        6          -0.000064021   -0.000096043    0.000000000
      4        6           0.000238670   -0.000273202    0.000000000
      5        6          -0.000001861    0.000097853    0.000000000
      6        6           0.000023633   -0.000029871    0.000000000
      7       35          -0.000142276   -0.000135190   -0.000000000
      8       35          -0.000055221   -0.000005187   -0.000000000
      9        1          -0.000008998    0.000029769   -0.000000000
     10       35           0.000174573   -0.000005648   -0.000000000
     11        1           0.000195090    0.000080843   -0.000000000
 -------------------------------------------------------------------
 Cartesian Forces:  Max     0.000702457 RMS     0.000170254

 GradGradGradGradGradGradGradGradGradGradGradGradGradGradGradGradGradGrad
 Berny optimization.
 Using GEDIIS/GDIIS optimizer.
 FormGI is forming the generalized inverse of G from B-inverse, IUseBI=4.
 Internal  Forces:  Max     0.000522772 RMS     0.000150557
 Search for a local minimum.
 Step number   4 out of a maximum of   57
 All quantities printed in internal units (Hartrees-Bohrs-Radians)
 Mixed Optimization -- En-DIIS/RFO-DIIS
 Swapping is turned off.
 Update second derivatives using D2CorX and points    1    2    3    4
 DE= -1.42D-05 DEPred=-1.52D-05 R= 9.31D-01
 TightC=F SS=  1.41D+00  RLast= 1.06D-02 DXNew= 5.4599D-01 3.1941D-02
 Trust test= 9.31D-01 RLast= 1.06D-02 DXMaxT set to 3.25D-01
 ITU=  1  1  1  0
     Eigenvalues ---    0.02221   0.02221   0.02221   0.02221   0.02221
     Eigenvalues ---    0.02221   0.02221   0.02221   0.14028   0.16037
     Eigenvalues ---    0.17194   0.18247   0.18842   0.19689   0.23457
     Eigenvalues ---    0.24422   0.24820   0.25004   0.26727   0.35303
     Eigenvalues ---    0.36091   0.43212   0.44200   0.45958   0.47317
     Eigenvalues ---    0.54883   0.74576
 En-DIIS/RFO-DIIS/Sim-DIIS IScMMF=       -3 using points:     4    3
 RFO step:  Lambda=-3.31741817D-06.
 Use linear search instead of GDIIS.
 RFO step:  Lambda=-3.18360170D-06 EMin= 2.22103665D-02
 Quartic linear search produced a step of -0.06391.
 Iteration  1 RMS(Cart)=  0.00084276 RMS(Int)=  0.00000033
 Iteration  2 RMS(Cart)=  0.00000038 RMS(Int)=  0.00000006
 ClnCor:  largest displacement from symmetrization is 1.46D-11 for atom     7.
 Variable       Old X    -DE/DX   Delta X   Delta X   Delta X     New X
                                 (Linear)    (Quad)   (Total)
    R1        2.61566  -0.00052  -0.00013  -0.00074  -0.00087   2.61478
    R2        2.63166  -0.00017  -0.00020   0.00023   0.00003   2.63169
    R3        2.64923   0.00010  -0.00001   0.00013   0.00012   2.64935
    R4        3.56859  -0.00019  -0.00031  -0.00006  -0.00038   3.56822
    R5        2.63928  -0.00032  -0.00013  -0.00031  -0.00043   2.63884
    R6        3.57094  -0.00004  -0.00008  -0.00014  -0.00021   3.57073
    R7        2.64650   0.00000  -0.00014   0.00039   0.00026   2.64675
    R8        2.07577  -0.00003   0.00011  -0.00036  -0.00025   2.07551
    R9        2.63519   0.00015   0.00007  -0.00004   0.00003   2.63522
   R10        3.58330  -0.00015  -0.00020  -0.00023  -0.00043   3.58288
   R11        2.07709  -0.00013   0.00006  -0.00044  -0.00038   2.07671
    A1        2.07614  -0.00029   0.00005  -0.00143  -0.00137   2.07476
    A2        2.11921   0.00036  -0.00007   0.00150   0.00143   2.12065
    A3        2.07814  -0.00010  -0.00013   0.00007  -0.00006   2.07808
    A4        2.08584  -0.00026   0.00020  -0.00157  -0.00137   2.08446
    A5        2.08550   0.00001   0.00011  -0.00031  -0.00020   2.08530
    A6        2.13412   0.00005  -0.00015   0.00077   0.00061   2.13473
    A7        2.06356  -0.00007   0.00004  -0.00045  -0.00041   2.06315
    A8        2.07995  -0.00027  -0.00013  -0.00063  -0.00076   2.07920
    A9        2.10035   0.00014   0.00002   0.00052   0.00054   2.10089
   A10        2.10288   0.00012   0.00011   0.00011   0.00022   2.10310
   A11        2.10330   0.00012   0.00009   0.00035   0.00043   2.10374
   A12        2.06840  -0.00023   0.00013  -0.00138  -0.00126   2.06714
   A13        2.11148   0.00011  -0.00021   0.00104   0.00083   2.11230
   A14        2.10226   0.00007  -0.00006   0.00052   0.00046   2.10272
   A15        2.08099  -0.00021   0.00008  -0.00143  -0.00135   2.07964
   A16        2.09994   0.00014  -0.00002   0.00091   0.00089   2.10082
    D1       -0.00000  -0.00000   0.00000  -0.00000   0.00000   0.00000
    D2        3.14159   0.00000   0.00000   0.00000   0.00000   3.14159
    D3        0.00000   0.00000   0.00000   0.00000   0.00000   0.00000
    D4        3.14159   0.00000   0.00000   0.00000   0.00000   3.14159
    D5       -0.00000   0.00000   0.00000   0.00000   0.00000   0.00000
    D6        3.14159   0.00000   0.00000   0.00000   0.00000   3.14159
    D7        3.14159  -0.00000   0.00000  -0.00000   0.00000   3.14159
    D8       -0.00000  -0.00000   0.00000  -0.00000   0.00000   0.00000
    D9        0.00000  -0.00000   0.00000  -0.00000   0.00000   0.00000
   D10        3.14159  -0.00000   0.00000  -0.00000   0.00000   3.14159
   D11        3.14159   0.00000   0.00000   0.00000   0.00000   3.14159
   D12        0.00000  -0.00000   0.00000  -0.00000   0.00000   0.00000
   D13        0.00000  -0.00000   0.00000  -0.00000  -0.00000   0.00000
   D14        3.14159  -0.00000   0.00000  -0.00000   0.00000   3.14159
   D15        3.14159   0.00000   0.00000   0.00000   0.00000   3.14159
   D16       -0.00000  -0.00000   0.00000  -0.00000   0.00000   0.00000
   D17       -0.00000   0.00000   0.00000   0.00000   0.00000   0.00000
   D18        3.14159  -0.00000   0.00000  -0.00000   0.00000   3.14159
   D19        3.14159   0.00000   0.00000   0.00000   0.00000   3.14159
   D20       -0.00000   0.00000   0.00000   0.00000   0.00000   0.00000
         Item               Value     Threshold  Converged?
 Maximum Force            0.000523     0.000450     NO 
 RMS     Force            0.000151     0.000300     YES
 Maximum Displacement     0.002542     0.001800     NO 
 RMS     Displacement     0.000843     0.001200     YES
 Predicted change in Energy=-1.658750D-06
 GradGradGradGradGradGradGradGradGradGradGradGradGradGradGradGradGradGrad

                          Input orientation:                          
 ---------------------------------------------------------------------
 Center     Atomic      Atomic             Coordinates (Angstroms)
 Number     Number       Type             X           Y           Z
 ---------------------------------------------------------------------
      1          6           0        0.003403    1.412574   -0.000000
      2          6           0        1.193389    0.706516   -0.000000
      3          6           0        1.213503   -0.695314    0.000000
      4          6           0        0.007858   -1.399867    0.000000
      5          6           0       -1.198074   -0.687539    0.000000
      6          6           0       -1.197236    0.706959   -0.000000
      7         35           0        2.824451    1.657836   -0.000000
      8         35           0        2.824799   -1.682288    0.000000
      9          1           0        0.006497   -2.498180    0.000000
     10         35           0       -2.823384   -1.663804    0.000000
     11          1           0       -2.145065    1.263107   -0.000000
 ---------------------------------------------------------------------
                    Distance matrix (angstroms):
                    1          2          3          4          5
     1  C    0.000000
     2  C    1.383684   0.000000
     3  C    2.430541   1.401975   0.000000
     4  C    2.812444   2.417092   1.396415   0.000000
     5  C    2.419508   2.768119   2.411589   1.400601   0.000000
     6  C    1.392633   2.390624   2.788912   2.427132   1.394499
     7  Br   2.831689   1.888220   2.851749   4.157253   4.656339
     8  Br   4.187892   2.892729   1.889548   2.831063   4.144036
     9  H    3.910755   3.417424   2.169605   1.098314   2.174721
    10  Br   4.177897   4.663998   4.151437   2.843517   1.895976
    11  H    2.153661   3.384534   3.887852   3.424399   2.168366
                    6          7          8          9         10
     6  C    0.000000
     7  Br   4.132570   0.000000
     8  Br   4.678169   3.340124   0.000000
     9  H    3.423725   5.021288   2.934025   0.000000
    10  Br   2.874869   6.552200   5.648213   2.950324   0.000000
    11  H    1.098945   4.985168   5.777101   4.333186   3.004484
                   11
    11  H    0.000000
 Stoichiometry    C6H2Br3(1-)
 Framework group  CS[SG(C6H2Br3)]
 Deg. of freedom    19
 Full point group                 CS      NOp   2
 Largest Abelian subgroup         CS      NOp   2
 Largest concise Abelian subgroup C1      NOp   1
                         Standard orientation:                         
 ---------------------------------------------------------------------
 Center     Atomic      Atomic             Coordinates (Angstroms)
 Number     Number       Type             X           Y           Z
 ---------------------------------------------------------------------
      1          6           0        1.321973    1.437158   -0.000000
      2          6           0        1.237719    0.056041   -0.000000
      3          6           0        0.000000   -0.602430   -0.000000
      4          6           0       -1.177622    0.148024    0.000000
      5          6           0       -1.095077    1.546191    0.000000
      6          6           0        0.145695    2.182674    0.000000
      7         35           0        2.829236   -0.960054   -0.000000
      8         35           0       -0.141604   -2.486665   -0.000000
      9          1           0       -2.155179   -0.352650    0.000000
     10         35           0       -2.706153    2.545770    0.000000
     11          1           0        0.207262    3.279893    0.000000
 ---------------------------------------------------------------------
 Rotational constants (GHZ):           0.9770097           0.2568778           0.2033995
 Standard basis: VSTO-6G (5D, 7F)
 There are    29 symmetry adapted cartesian basis functions of A'  symmetry.
 There are     9 symmetry adapted cartesian basis functions of A"  symmetry.
 There are    29 symmetry adapted basis functions of A'  symmetry.
 There are     9 symmetry adapted basis functions of A"  symmetry.
    38 basis functions,   228 primitive gaussians,    38 cartesian basis functions
    24 alpha electrons       24 beta electrons
       nuclear repulsion energy       236.5147911032 Hartrees.
 Integral buffers will be    131072 words long.
 Regular integral format.
 Two-electron integral symmetry is turned off.
 Do NDO integrals.
 One-electron integrals computed using PRISM.
 NBasis=    38 RedAO= T EigKep=  1.00D+00  NBF=    29     9
 NBsUse=    38 1.00D-06 EigRej= -1.00D+00 NBFU=    29     9
 Initial guess from the checkpoint file:  "calcs/am1/chks/BrPh_235_anion.chk"
 B after Tr=    -0.000000    0.000000   -0.000000
         Rot=    1.000000   -0.000000    0.000000    0.000219 Ang=   0.03 deg.
 Initial guess orbital symmetries:
       Occupied  (A') (A') (A') (A') (A') (A') (A') (A') (A') (A')
                 (A') (A") (A') (A') (A") (A') (A") (A') (A') (A")
                 (A') (A") (A") (A')
       Virtual   (A") (A') (A') (A") (A') (A") (A') (A') (A') (A')
                 (A') (A') (A') (A')
 Keep J ints in memory in canonical form, NReq=863588.
 Overlap will be assumed to be unity.
 Requested convergence on RMS density matrix=1.00D-08 within  32 cycles.
 Requested convergence on MAX density matrix=1.00D-06.
 Requested convergence on             energy=1.00D-06.
 No special actions if energy rises.
 Fock symm off for IB=2 I1=    1 I=   30 J=   25 Cut=1.00D-07 Err=2.15D-05
 Fock matrix is not symmetric: symmetry in diagonalization turned off.
 SCF Done:  E(RAM1) =  0.765520872867E-01 A.U. after   11 cycles
            NFock= 10  Conv=0.32D-08     -V/T= 1.0007
 QCSCF skips out because SCF is already converged.
 Calling FoFJK, ICntrl=      2127 FMM=F ISym2X=1 I1Cent= 0 IOpClX= 0 NMat=1 NMatS=1 NMatT=0.
 ***** Axes restored to original set *****
 -------------------------------------------------------------------
 Center     Atomic                   Forces (Hartrees/Bohr)
 Number     Number              X              Y              Z
 -------------------------------------------------------------------
      1        6           0.000086006    0.000035939    0.000000000
      2        6           0.000012871    0.000111254    0.000000000
      3        6          -0.000037631   -0.000111256    0.000000000
      4        6           0.000049819   -0.000055755    0.000000000
      5        6          -0.000004902    0.000098741    0.000000000
      6        6          -0.000137820   -0.000136940    0.000000000
      7       35           0.000026872    0.000026415   -0.000000000
      8       35           0.000001462    0.000012186    0.000000000
      9        1          -0.000008902   -0.000043941   -0.000000000
     10       35           0.000025807    0.000027670   -0.000000000
     11        1          -0.000013584    0.000035686   -0.000000000
 -------------------------------------------------------------------
 Cartesian Forces:  Max     0.000137820 RMS     0.000053543

 GradGradGradGradGradGradGradGradGradGradGradGradGradGradGradGradGradGrad
 Berny optimization.
 Using GEDIIS/GDIIS optimizer.
 FormGI is forming the generalized inverse of G from B-inverse, IUseBI=4.
 Internal  Forces:  Max     0.000126753 RMS     0.000033321
 Search for a local minimum.
 Step number   5 out of a maximum of   57
 All quantities printed in internal units (Hartrees-Bohrs-Radians)
 Mixed Optimization -- En-DIIS/RFO-DIIS
 Swapping is turned off.
 Update second derivatives using D2CorX and points    1    2    3    4    5
 DE= -1.65D-06 DEPred=-1.66D-06 R= 9.94D-01
 TightC=F SS=  1.41D+00  RLast= 3.77D-03 DXNew= 5.4599D-01 1.1312D-02
 Trust test= 9.94D-01 RLast= 3.77D-03 DXMaxT set to 3.25D-01
 ITU=  1  1  1  1  0
     Eigenvalues ---    0.02221   0.02221   0.02221   0.02221   0.02221
     Eigenvalues ---    0.02221   0.02221   0.02221   0.13209   0.16035
     Eigenvalues ---    0.17359   0.18218   0.19143   0.20667   0.23520
     Eigenvalues ---    0.24012   0.24967   0.25013   0.25982   0.35989
     Eigenvalues ---    0.36635   0.43432   0.44126   0.46192   0.47315
     Eigenvalues ---    0.55291   0.76257
 En-DIIS/RFO-DIIS/Sim-DIIS IScMMF=       -3 using points:     5    4    3
 RFO step:  Lambda=-1.39542627D-07.
 DidBck=F Rises=F RFO-DIIS coefs:    1.04689   -0.05165    0.00476
 Iteration  1 RMS(Cart)=  0.00011309 RMS(Int)=  0.00000001
 Iteration  2 RMS(Cart)=  0.00000001 RMS(Int)=  0.00000000
 ClnCor:  largest displacement from symmetrization is 5.00D-12 for atom    10.
 Variable       Old X    -DE/DX   Delta X   Delta X   Delta X     New X
                                 (Linear)    (Quad)   (Total)
    R1        2.61478  -0.00000  -0.00005   0.00002  -0.00004   2.61475
    R2        2.63169   0.00010  -0.00001   0.00023   0.00021   2.63191
    R3        2.64935   0.00013   0.00001   0.00024   0.00024   2.64959
    R4        3.56822   0.00004  -0.00004   0.00024   0.00020   3.56842
    R5        2.63884   0.00001  -0.00003   0.00002  -0.00001   2.63883
    R6        3.57073  -0.00001  -0.00002  -0.00004  -0.00006   3.57067
    R7        2.64675   0.00007   0.00000   0.00013   0.00013   2.64688
    R8        2.07551   0.00004  -0.00000   0.00010   0.00010   2.07561
    R9        2.63522  -0.00005   0.00001  -0.00017  -0.00016   2.63506
   R10        3.58288  -0.00004  -0.00003  -0.00019  -0.00022   3.58265
   R11        2.07671   0.00003  -0.00001   0.00007   0.00006   2.07676
    A1        2.07476   0.00001  -0.00006   0.00006  -0.00001   2.07476
    A2        2.12065  -0.00002   0.00006  -0.00008  -0.00002   2.12063
    A3        2.07808  -0.00000  -0.00001  -0.00000  -0.00001   2.07806
    A4        2.08446   0.00003  -0.00005   0.00009   0.00004   2.08450
    A5        2.08530   0.00001  -0.00000   0.00007   0.00007   2.08537
    A6        2.13473  -0.00003   0.00002  -0.00011  -0.00009   2.13464
    A7        2.06315   0.00001  -0.00002   0.00004   0.00002   2.06318
    A8        2.07920  -0.00004  -0.00004  -0.00013  -0.00018   2.07902
    A9        2.10089   0.00003   0.00003   0.00013   0.00016   2.10105
   A10        2.10310   0.00001   0.00002   0.00000   0.00002   2.10312
   A11        2.10374   0.00006   0.00003   0.00019   0.00022   2.10396
   A12        2.06714  -0.00001  -0.00005  -0.00004  -0.00009   2.06706
   A13        2.11230  -0.00005   0.00002  -0.00016  -0.00014   2.11217
   A14        2.10272  -0.00002   0.00002  -0.00010  -0.00008   2.10264
   A15        2.07964  -0.00001  -0.00006  -0.00009  -0.00015   2.07949
   A16        2.10082   0.00003   0.00004   0.00019   0.00023   2.10105
    D1        0.00000   0.00000   0.00000   0.00000  -0.00000   0.00000
    D2        3.14159  -0.00000   0.00000  -0.00000   0.00000   3.14159
    D3       -0.00000   0.00000   0.00000   0.00000   0.00000   0.00000
    D4        3.14159   0.00000   0.00000   0.00000   0.00000   3.14159
    D5       -0.00000   0.00000   0.00000   0.00000   0.00000   0.00000
    D6        3.14159  -0.00000   0.00000  -0.00000   0.00000   3.14159
    D7        3.14159   0.00000   0.00000   0.00000   0.00000   3.14159
    D8       -0.00000   0.00000   0.00000   0.00000   0.00000   0.00000
    D9        0.00000  -0.00000   0.00000  -0.00000  -0.00000   0.00000
   D10        3.14159  -0.00000   0.00000  -0.00000   0.00000   3.14159
   D11        3.14159   0.00000   0.00000   0.00000   0.00000   3.14159
   D12        0.00000  -0.00000   0.00000  -0.00000   0.00000   0.00000
   D13       -0.00000   0.00000   0.00000   0.00000   0.00000   0.00000
   D14        3.14159  -0.00000   0.00000  -0.00000   0.00000   3.14159
   D15        3.14159   0.00000   0.00000   0.00000   0.00000   3.14159
   D16        0.00000   0.00000   0.00000   0.00000  -0.00000   0.00000
   D17        0.00000  -0.00000   0.00000  -0.00000  -0.00000   0.00000
   D18        3.14159  -0.00000   0.00000  -0.00000   0.00000   3.14159
   D19        3.14159   0.00000   0.00000   0.00000   0.00000   3.14159
   D20       -0.00000  -0.00000   0.00000  -0.00000   0.00000   0.00000
         Item               Value     Threshold  Converged?
 Maximum Force            0.000127     0.000450     YES
 RMS     Force            0.000033     0.000300     YES
 Maximum Displacement     0.000388     0.001800     YES
 RMS     Displacement     0.000113     0.001200     YES
 Predicted change in Energy=-6.977122D-08
 Optimization completed.
    -- Stationary point found.
                           ----------------------------
                           !   Optimized Parameters   !
                           ! (Angstroms and Degrees)  !
 --------------------------                            --------------------------
 ! Name  Definition              Value          Derivative Info.                !
 --------------------------------------------------------------------------------
 ! R1    R(1,2)                  1.3837         -DE/DX =    0.0                 !
 ! R2    R(1,6)                  1.3926         -DE/DX =    0.0001              !
 ! R3    R(2,3)                  1.402          -DE/DX =    0.0001              !
 ! R4    R(2,7)                  1.8882         -DE/DX =    0.0                 !
 ! R5    R(3,4)                  1.3964         -DE/DX =    0.0                 !
 ! R6    R(3,8)                  1.8895         -DE/DX =    0.0                 !
 ! R7    R(4,5)                  1.4006         -DE/DX =    0.0001              !
 ! R8    R(4,9)                  1.0983         -DE/DX =    0.0                 !
 ! R9    R(5,6)                  1.3945         -DE/DX =   -0.0001              !
 ! R10   R(5,10)                 1.896          -DE/DX =    0.0                 !
 ! R11   R(6,11)                 1.0989         -DE/DX =    0.0                 !
 ! A1    A(2,1,6)              118.8752         -DE/DX =    0.0                 !
 ! A2    A(1,2,3)              121.5041         -DE/DX =    0.0                 !
 ! A3    A(1,2,7)              119.065          -DE/DX =    0.0                 !
 ! A4    A(3,2,7)              119.4309         -DE/DX =    0.0                 !
 ! A5    A(2,3,4)              119.479          -DE/DX =    0.0                 !
 ! A6    A(2,3,8)              122.3109         -DE/DX =    0.0                 !
 ! A7    A(4,3,8)              118.21           -DE/DX =    0.0                 !
 ! A8    A(3,4,5)              119.1291         -DE/DX =    0.0                 !
 ! A9    A(3,4,9)              120.3721         -DE/DX =    0.0                 !
 ! A10   A(5,4,9)              120.4988         -DE/DX =    0.0                 !
 ! A11   A(4,5,6)              120.5353         -DE/DX =    0.0001              !
 ! A12   A(4,5,10)             118.4385         -DE/DX =    0.0                 !
 ! A13   A(6,5,10)             121.0261         -DE/DX =    0.0                 !
 ! A14   A(1,6,5)              120.4772         -DE/DX =    0.0                 !
 ! A15   A(1,6,11)             119.1546         -DE/DX =    0.0                 !
 ! A16   A(5,6,11)             120.3682         -DE/DX =    0.0                 !
 ! D1    D(6,1,2,3)              0.0            -DE/DX =    0.0                 !
 ! D2    D(6,1,2,7)            180.0            -DE/DX =    0.0                 !
 ! D3    D(2,1,6,5)              0.0            -DE/DX =    0.0                 !
 ! D4    D(2,1,6,11)           180.0            -DE/DX =    0.0                 !
 ! D5    D(1,2,3,4)              0.0            -DE/DX =    0.0                 !
 ! D6    D(1,2,3,8)            180.0            -DE/DX =    0.0                 !
 ! D7    D(7,2,3,4)            180.0            -DE/DX =    0.0                 !
 ! D8    D(7,2,3,8)              0.0            -DE/DX =    0.0                 !
 ! D9    D(2,3,4,5)              0.0            -DE/DX =    0.0                 !
 ! D10   D(2,3,4,9)            180.0            -DE/DX =    0.0                 !
 ! D11   D(8,3,4,5)            180.0            -DE/DX =    0.0                 !
 ! D12   D(8,3,4,9)              0.0            -DE/DX =    0.0                 !
 ! D13   D(3,4,5,6)              0.0            -DE/DX =    0.0                 !
 ! D14   D(3,4,5,10)           180.0            -DE/DX =    0.0                 !
 ! D15   D(9,4,5,6)            180.0            -DE/DX =    0.0                 !
 ! D16   D(9,4,5,10)             0.0            -DE/DX =    0.0                 !
 ! D17   D(4,5,6,1)              0.0            -DE/DX =    0.0                 !
 ! D18   D(4,5,6,11)           180.0            -DE/DX =    0.0                 !
 ! D19   D(10,5,6,1)           180.0            -DE/DX =    0.0                 !
 ! D20   D(10,5,6,11)            0.0            -DE/DX =    0.0                 !
 --------------------------------------------------------------------------------
 GradGradGradGradGradGradGradGradGradGradGradGradGradGradGradGradGradGrad

                          Input orientation:                          
 ---------------------------------------------------------------------
 Center     Atomic      Atomic             Coordinates (Angstroms)
 Number     Number       Type             X           Y           Z
 ---------------------------------------------------------------------
      1          6           0        0.003403    1.412574   -0.000000
      2          6           0        1.193389    0.706516   -0.000000
      3          6           0        1.213503   -0.695314    0.000000
      4          6           0        0.007858   -1.399867    0.000000
      5          6           0       -1.198074   -0.687539    0.000000
      6          6           0       -1.197236    0.706959   -0.000000
      7         35           0        2.824451    1.657836   -0.000000
      8         35           0        2.824799   -1.682288    0.000000
      9          1           0        0.006497   -2.498180    0.000000
     10         35           0       -2.823384   -1.663804    0.000000
     11          1           0       -2.145065    1.263107   -0.000000
 ---------------------------------------------------------------------
                    Distance matrix (angstroms):
                    1          2          3          4          5
     1  C    0.000000
     2  C    1.383684   0.000000
     3  C    2.430541   1.401975   0.000000
     4  C    2.812444   2.417092   1.396415   0.000000
     5  C    2.419508   2.768119   2.411589   1.400601   0.000000
     6  C    1.392633   2.390624   2.788912   2.427132   1.394499
     7  Br   2.831689   1.888220   2.851749   4.157253   4.656339
     8  Br   4.187892   2.892729   1.889548   2.831063   4.144036
     9  H    3.910755   3.417424   2.169605   1.098314   2.174721
    10  Br   4.177897   4.663998   4.151437   2.843517   1.895976
    11  H    2.153661   3.384534   3.887852   3.424399   2.168366
                    6          7          8          9         10
     6  C    0.000000
     7  Br   4.132570   0.000000
     8  Br   4.678169   3.340124   0.000000
     9  H    3.423725   5.021288   2.934025   0.000000
    10  Br   2.874869   6.552200   5.648213   2.950324   0.000000
    11  H    1.098945   4.985168   5.777101   4.333186   3.004484
                   11
    11  H    0.000000
 Stoichiometry    C6H2Br3(1-)
 Framework group  CS[SG(C6H2Br3)]
 Deg. of freedom    19
 Full point group                 CS      NOp   2
 Largest Abelian subgroup         CS      NOp   2
 Largest concise Abelian subgroup C1      NOp   1
                         Standard orientation:                         
 ---------------------------------------------------------------------
 Center     Atomic      Atomic             Coordinates (Angstroms)
 Number     Number       Type             X           Y           Z
 ---------------------------------------------------------------------
      1          6           0        1.321973    1.437158    0.000000
      2          6           0        1.237719    0.056041    0.000000
      3          6           0        0.000000   -0.602430    0.000000
      4          6           0       -1.177622    0.148024   -0.000000
      5          6           0       -1.095077    1.546191   -0.000000
      6          6           0        0.145695    2.182674    0.000000
      7         35           0        2.829236   -0.960054    0.000000
      8         35           0       -0.141604   -2.486665   -0.000000
      9          1           0       -2.155179   -0.352650   -0.000000
     10         35           0       -2.706153    2.545770   -0.000000
     11          1           0        0.207262    3.279893    0.000000
 ---------------------------------------------------------------------
 Rotational constants (GHZ):           0.9770097           0.2568778           0.2033995

 **********************************************************************

            Population analysis using the SCF Density.

 **********************************************************************

 Orbital symmetries:
       Occupied  (A') (A') (A') (A') (A') (A') (A') (A') (A') (A')
                 (A') (A") (A') (A') (A") (A') (A") (A') (A') (A")
                 (A') (A") (A") (A')
       Virtual   (A") (A') (A') (A") (A') (A") (A') (A') (A') (A')
                 (A') (A') (A') (A')
 The electronic state is 1-A'.
 Alpha  occ. eigenvalues --   -1.27989  -1.09058  -1.04175  -1.01045  -0.94629
 Alpha  occ. eigenvalues --   -0.90054  -0.67598  -0.66152  -0.48696  -0.43695
 Alpha  occ. eigenvalues --   -0.41511  -0.37932  -0.37432  -0.34249  -0.32204
 Alpha  occ. eigenvalues --   -0.29346  -0.28694  -0.28585  -0.27886  -0.26364
 Alpha  occ. eigenvalues --   -0.24228  -0.19498  -0.17870  -0.12413
 Alpha virt. eigenvalues --    0.15689   0.16057   0.17038   0.17707   0.19765
 Alpha virt. eigenvalues --    0.27501   0.28995   0.30619   0.31975   0.32650
 Alpha virt. eigenvalues --    0.33537   0.34678   0.37948   0.39671
          Condensed to atoms (all electrons):
               1          2          3          4          5          6
     1  C    4.351625   0.000000   0.000000   0.000000   0.000000   0.000000
     2  C    0.000000   4.132352   0.000000   0.000000   0.000000   0.000000
     3  C    0.000000   0.000000   4.141631   0.000000   0.000000   0.000000
     4  C    0.000000   0.000000   0.000000   4.177477   0.000000   0.000000
     5  C    0.000000   0.000000   0.000000   0.000000   4.157846   0.000000
     6  C    0.000000   0.000000   0.000000   0.000000   0.000000   4.110370
     7  Br   0.000000   0.000000   0.000000   0.000000   0.000000   0.000000
     8  Br   0.000000   0.000000   0.000000   0.000000   0.000000   0.000000
     9  H    0.000000   0.000000   0.000000   0.000000   0.000000   0.000000
    10  Br   0.000000   0.000000   0.000000   0.000000   0.000000   0.000000
    11  H    0.000000   0.000000   0.000000   0.000000   0.000000   0.000000
               7          8          9         10         11
     1  C    0.000000   0.000000   0.000000   0.000000   0.000000
     2  C    0.000000   0.000000   0.000000   0.000000   0.000000
     3  C    0.000000   0.000000   0.000000   0.000000   0.000000
     4  C    0.000000   0.000000   0.000000   0.000000   0.000000
     5  C    0.000000   0.000000   0.000000   0.000000   0.000000
     6  C    0.000000   0.000000   0.000000   0.000000   0.000000
     7  Br   7.045414   0.000000   0.000000   0.000000   0.000000
     8  Br   0.000000   7.044371   0.000000   0.000000   0.000000
     9  H    0.000000   0.000000   0.878341   0.000000   0.000000
    10  Br   0.000000   0.000000   0.000000   7.071618   0.000000
    11  H    0.000000   0.000000   0.000000   0.000000   0.888955
 Mulliken charges:
               1
     1  C   -0.351625
     2  C   -0.132352
     3  C   -0.141631
     4  C   -0.177477
     5  C   -0.157846
     6  C   -0.110370
     7  Br  -0.045414
     8  Br  -0.044371
     9  H    0.121659
    10  Br  -0.071618
    11  H    0.111045
 Sum of Mulliken charges =  -1.00000
 Mulliken charges with hydrogens summed into heavy atoms:
               1
     1  C   -0.351625
     2  C   -0.132352
     3  C   -0.141631
     4  C   -0.055818
     5  C   -0.157846
     6  C    0.000675
     7  Br  -0.045414
     8  Br  -0.044371
    10  Br  -0.071618
 Charge=             -1.0000 electrons
 Dipole moment (field-independent basis, Debye):
    X=             -3.8344    Y=             -3.5494    Z=              0.0000  Tot=              5.2250
 N-N= 2.365147911032D+02 E-N=-3.366640365648D+02  KE=-1.111863829382D+02
 Symmetry A'   KE=-8.549058241621D+01
 Symmetry A"   KE=-2.569580052196D+01
 1\1\GINC-SH02-01N37\FOpt\RAM1\ZDO\C6H2Br3(1-)\JLAPIER\28-Sep-2026\0\\#
  Opt AM1 SCF=XQC\\BrPh_235_anion am1\\-1,1\C,0.0034032271,1.4125735488
 ,0.\C,1.1933887319,0.7065160911,0.\C,1.2135028114,-0.6953141516,0.\C,0
 .0078576429,-1.3998673097,0.\C,-1.1980740743,-0.6875392071,0.\C,-1.197
 235725,0.706959079,0.\Br,2.8244509151,1.6578364732,0.\Br,2.8247990517,
 -1.6822878177,0.\H,0.0064973549,-2.4981800513,0.\Br,-2.8233839456,-1.6
 638035612,0.\H,-2.14506516,1.2631069064,0.\\Version=ES64L-G16RevB.01\S
 tate=1-A'\HF=0.0765521\RMSD=3.166e-09\RMSF=5.354e-05\Dipole=0.5527697,
 -1.9799628,0.\PG=CS [SG(C6H2Br3)]\\@


 OPTIMIST - A PESSIMIST WHO LACKS EXPERIENCE
 Job cpu time:       0 days  0 hours  0 minutes  3.2 seconds.
 Elapsed time:       0 days  0 hours  0 minutes  3.3 seconds.
 File lengths (MBytes):  RWF=      6 Int=      0 D2E=      0 Chk=      3 Scr=      1
 Normal termination of Gaussian 16 at Mon Sep 28 01:25:36 2026.
