 Entering Gaussian System, Link 0=g16
 Initial command:
 /share/software/user/restricted/gaussian/g16.B01/l1.exe "/lscratch/jlapier/g16_45667979_117/Gau-6646.inp" -scrdir="/lscratch/jlapier/g16_45667979_117/"
 Entering Link 1 = /share/software/user/restricted/gaussian/g16.B01/l1.exe PID=      6648.
  
 Copyright (c) 1988-2017, Gaussian, Inc.  All Rights Reserved.
  
 This is part of the Gaussian(R) 16 program.  It is based on
 the Gaussian(R) 09 system (copyright 2009, Gaussian, Inc.),
 the Gaussian(R) 03 system (copyright 2003, Gaussian, Inc.),
 the Gaussian(R) 98 system (copyright 1998, Gaussian, Inc.),
 the Gaussian(R) 94 system (copyright 1995, Gaussian, Inc.),
 the Gaussian 92(TM) system (copyright 1992, Gaussian, Inc.),
 the Gaussian 90(TM) system (copyright 1990, Gaussian, Inc.),
 the Gaussian 88(TM) system (copyright 1988, Gaussian, Inc.),
 the Gaussian 86(TM) system (copyright 1986, Carnegie Mellon
 University), and the Gaussian 82(TM) system (copyright 1983,
 Carnegie Mellon University). Gaussian is a federally registered
 trademark of Gaussian, Inc.
  
 This software contains proprietary and confidential information,
 including trade secrets, belonging to Gaussian, Inc.
  
 This software is provided under written license and may be
 used, copied, transmitted, or stored only in accord with that
 written license.
  
 The following legend is applicable only to US Government
 contracts under FAR:
  
                    RESTRICTED RIGHTS LEGEND
  
 Use, reproduction and disclosure by the US Government is
 subject to restrictions as set forth in subparagraphs (a)
 and (c) of the Commercial Computer Software - Restricted
 Rights clause in FAR 52.227-19.
  
 Gaussian, Inc.
 340 Quinnipiac St., Bldg. 40, Wallingford CT 06492
  
  
 ---------------------------------------------------------------
 Warning -- This program may not be used in any manner that
 competes with the business of Gaussian, Inc. or will provide
 assistance to any competitor of Gaussian, Inc.  The licensee
 of this program is prohibited from giving any competitor of
 Gaussian, Inc. access to this program.  By using this program,
 the user acknowledges that Gaussian, Inc. is engaged in the
 business of creating and licensing software in the field of
 computational chemistry and represents and warrants to the
 licensee that it is not a competitor of Gaussian, Inc. and that
 it will not use this program in any manner prohibited above.
 ---------------------------------------------------------------
  

 Cite this work as:
 Gaussian 16, Revision B.01,
 M. J. Frisch, G. W. Trucks, H. B. Schlegel, G. E. Scuseria, 
 M. A. Robb, J. R. Cheeseman, G. Scalmani, V. Barone, 
 G. A. Petersson, H. Nakatsuji, X. Li, M. Caricato, A. V. Marenich, 
 J. Bloino, B. G. Janesko, R. Gomperts, B. Mennucci, H. P. Hratchian, 
 J. V. Ortiz, A. F. Izmaylov, J. L. Sonnenberg, D. Williams-Young, 
 F. Ding, F. Lipparini, F. Egidi, J. Goings, B. Peng, A. Petrone, 
 T. Henderson, D. Ranasinghe, V. G. Zakrzewski, J. Gao, N. Rega, 
 G. Zheng, W. Liang, M. Hada, M. Ehara, K. Toyota, R. Fukuda, 
 J. Hasegawa, M. Ishida, T. Nakajima, Y. Honda, O. Kitao, H. Nakai, 
 T. Vreven, K. Throssell, J. A. Montgomery, Jr., J. E. Peralta, 
 F. Ogliaro, M. J. Bearpark, J. J. Heyd, E. N. Brothers, K. N. Kudin, 
 V. N. Staroverov, T. A. Keith, R. Kobayashi, J. Normand, 
 K. Raghavachari, A. P. Rendell, J. C. Burant, S. S. Iyengar, 
 J. Tomasi, M. Cossi, J. M. Millam, M. Klene, C. Adamo, R. Cammi, 
 J. W. Ochterski, R. L. Martin, K. Morokuma, O. Farkas, 
 J. B. Foresman, and D. J. Fox, Gaussian, Inc., Wallingford CT, 2016.
 
 ******************************************
 Gaussian 16:  ES64L-G16RevB.01 20-Dec-2017
                28-Sep-2026 
 ******************************************
 %nprocshared=1
 Will use up to    1 processors via shared memory.
 %mem=1GB
 %chk=calcs/am1/chks/BrPh_2345_anion.chk
 -----------------
 # Opt AM1 SCF=XQC
 -----------------
 1/18=20,19=15,26=1,38=1/1,3;
 2/9=110,12=2,17=6,18=5,40=1/2;
 3/5=2,25=1,41=700000,71=1/1,2,3;
 4/35=1/1;
 5/5=2,8=3,13=1,35=1,38=5/2,8;
 6/7=2,8=2,9=2,10=2,28=1/1;
 7//1,2,3,16;
 1/18=20,19=15,26=1/3(2);
 2/9=110/2;
 99//99;
 2/9=110/2;
 3/5=2,25=1,41=700000,71=1,135=20/1,2,3;
 4/5=5,16=3,35=1/1;
 5/5=2,8=3,13=1,35=1,38=5/2,8;
 7//1,2,3,16;
 1/18=20,19=15,26=1/3(-5);
 2/9=110/2;
 6/7=2,8=2,9=2,10=2,19=2,28=1/1;
 99/9=1/99;
 -------------------
 BrPh_2345_anion am1
 -------------------
 Symbolic Z-matrix:
 Charge = -1 Multiplicity = 1
 C                     0.        1.39      0. 
 C                     1.20378   0.695     0. 
 C                     1.20378  -0.695     0. 
 C                     0.       -1.39      0. 
 C                    -1.20378  -0.695     0. 
 C                    -1.20378   0.695     0. 
 Br                    2.84922   1.645     0. 
 Br                    2.84922  -1.645     0. 
 Br                    0.       -3.29      0. 
 Br                   -2.84922  -1.645     0. 
 H                    -2.13908   1.235     0. 
 

 GradGradGradGradGradGradGradGradGradGradGradGradGradGradGradGradGradGrad
 Berny optimization.
 Initialization pass.
                           ----------------------------
                           !    Initial Parameters    !
                           ! (Angstroms and Degrees)  !
 --------------------------                            --------------------------
 ! Name  Definition              Value          Derivative Info.                !
 --------------------------------------------------------------------------------
 ! R1    R(1,2)                  1.39           estimate D2E/DX2                !
 ! R2    R(1,6)                  1.39           estimate D2E/DX2                !
 ! R3    R(2,3)                  1.39           estimate D2E/DX2                !
 ! R4    R(2,7)                  1.9            estimate D2E/DX2                !
 ! R5    R(3,4)                  1.39           estimate D2E/DX2                !
 ! R6    R(3,8)                  1.9            estimate D2E/DX2                !
 ! R7    R(4,5)                  1.39           estimate D2E/DX2                !
 ! R8    R(4,9)                  1.9            estimate D2E/DX2                !
 ! R9    R(5,6)                  1.39           estimate D2E/DX2                !
 ! R10   R(5,10)                 1.9            estimate D2E/DX2                !
 ! R11   R(6,11)                 1.08           estimate D2E/DX2                !
 ! A1    A(2,1,6)              120.0            estimate D2E/DX2                !
 ! A2    A(1,2,3)              120.0            estimate D2E/DX2                !
 ! A3    A(1,2,7)              120.0            estimate D2E/DX2                !
 ! A4    A(3,2,7)              120.0            estimate D2E/DX2                !
 ! A5    A(2,3,4)              120.0            estimate D2E/DX2                !
 ! A6    A(2,3,8)              120.0            estimate D2E/DX2                !
 ! A7    A(4,3,8)              120.0            estimate D2E/DX2                !
 ! A8    A(3,4,5)              120.0            estimate D2E/DX2                !
 ! A9    A(3,4,9)              120.0            estimate D2E/DX2                !
 ! A10   A(5,4,9)              120.0            estimate D2E/DX2                !
 ! A11   A(4,5,6)              120.0            estimate D2E/DX2                !
 ! A12   A(4,5,10)             120.0            estimate D2E/DX2                !
 ! A13   A(6,5,10)             120.0            estimate D2E/DX2                !
 ! A14   A(1,6,5)              120.0            estimate D2E/DX2                !
 ! A15   A(1,6,11)             120.0            estimate D2E/DX2                !
 ! A16   A(5,6,11)             120.0            estimate D2E/DX2                !
 ! D1    D(6,1,2,3)              0.0            estimate D2E/DX2                !
 ! D2    D(6,1,2,7)            180.0            estimate D2E/DX2                !
 ! D3    D(2,1,6,5)              0.0            estimate D2E/DX2                !
 ! D4    D(2,1,6,11)           180.0            estimate D2E/DX2                !
 ! D5    D(1,2,3,4)              0.0            estimate D2E/DX2                !
 ! D6    D(1,2,3,8)            180.0            estimate D2E/DX2                !
 ! D7    D(7,2,3,4)            180.0            estimate D2E/DX2                !
 ! D8    D(7,2,3,8)              0.0            estimate D2E/DX2                !
 ! D9    D(2,3,4,5)              0.0            estimate D2E/DX2                !
 ! D10   D(2,3,4,9)            180.0            estimate D2E/DX2                !
 ! D11   D(8,3,4,5)            180.0            estimate D2E/DX2                !
 ! D12   D(8,3,4,9)              0.0            estimate D2E/DX2                !
 ! D13   D(3,4,5,6)              0.0            estimate D2E/DX2                !
 ! D14   D(3,4,5,10)           180.0            estimate D2E/DX2                !
 ! D15   D(9,4,5,6)            180.0            estimate D2E/DX2                !
 ! D16   D(9,4,5,10)             0.0            estimate D2E/DX2                !
 ! D17   D(4,5,6,1)              0.0            estimate D2E/DX2                !
 ! D18   D(4,5,6,11)           180.0            estimate D2E/DX2                !
 ! D19   D(10,5,6,1)           180.0            estimate D2E/DX2                !
 ! D20   D(10,5,6,11)            0.0            estimate D2E/DX2                !
 --------------------------------------------------------------------------------
 Trust Radius=3.00D-01 FncErr=1.00D-07 GrdErr=1.00D-07 EigMax=2.50D+02 EigMin=1.00D-04
 Number of steps in this run=     57 maximum allowed number of steps=    100.
 GradGradGradGradGradGradGradGradGradGradGradGradGradGradGradGradGradGrad

                          Input orientation:                          
 ---------------------------------------------------------------------
 Center     Atomic      Atomic             Coordinates (Angstroms)
 Number     Number       Type             X           Y           Z
 ---------------------------------------------------------------------
      1          6           0        0.000000    1.390000    0.000000
      2          6           0        1.203775    0.695000    0.000000
      3          6           0        1.203775   -0.695000    0.000000
      4          6           0        0.000000   -1.390000    0.000000
      5          6           0       -1.203775   -0.695000    0.000000
      6          6           0       -1.203775    0.695000    0.000000
      7         35           0        2.849224    1.645000    0.000000
      8         35           0        2.849224   -1.645000    0.000000
      9         35           0        0.000000   -3.290000    0.000000
     10         35           0       -2.849224   -1.645000    0.000000
     11          1           0       -2.139083    1.235000    0.000000
 ---------------------------------------------------------------------
                    Distance matrix (angstroms):
                    1          2          3          4          5
     1  C    0.000000
     2  C    1.390000   0.000000
     3  C    2.407551   1.390000   0.000000
     4  C    2.780000   2.407551   1.390000   0.000000
     5  C    2.407551   2.780000   2.407551   1.390000   0.000000
     6  C    1.390000   2.407551   2.780000   2.407551   1.390000
     7  Br   2.860612   1.900000   2.860612   4.162848   4.680000
     8  Br   4.162848   2.860612   1.900000   2.860612   4.162848
     9  Br   4.680000   4.162848   2.860612   1.900000   2.860612
    10  Br   4.162848   4.680000   4.162848   2.860612   1.900000
    11  H    2.144691   3.386193   3.860000   3.386193   2.144691
                    6          7          8          9         10
     6  C    0.000000
     7  Br   4.162848   0.000000
     8  Br   4.680000   3.290000   0.000000
     9  Br   4.162848   5.698447   3.290000   0.000000
    10  Br   2.860612   6.580000   5.698447   3.290000   0.000000
    11  H    1.080000   5.005127   5.760000   5.005127   2.966260
                   11
    11  H    0.000000
 Stoichiometry    C6HBr4(1-)
 Framework group  CS[SG(C6HBr4)]
 Deg. of freedom    19
 Full point group                 CS      NOp   2
 Largest Abelian subgroup         CS      NOp   2
 Largest concise Abelian subgroup C1      NOp   1
                         Standard orientation:                         
 ---------------------------------------------------------------------
 Center     Atomic      Atomic             Coordinates (Angstroms)
 Number     Number       Type             X           Y           Z
 ---------------------------------------------------------------------
      1          6           0        2.318502    0.701977    0.000000
      2          6           0        1.114726    1.396977   -0.000000
      3          6           0       -0.089049    0.701977   -0.000000
      4          6           0       -0.089049   -0.688023    0.000000
      5          6           0        1.114726   -1.383023    0.000000
      6          6           0        2.318502   -0.688023    0.000000
      7         35           0        1.114726    3.296977   -0.000000
      8         35           0       -1.734497    1.651977   -0.000000
      9         35           0       -1.734497   -1.638023    0.000000
     10         35           0        1.114726   -3.283023    0.000000
     11          1           0        3.253809   -1.228023    0.000000
 ---------------------------------------------------------------------
 Rotational constants (GHZ):           0.6015446           0.2290254           0.1658728
 Standard basis: VSTO-6G (5D, 7F)
 There are    31 symmetry adapted cartesian basis functions of A'  symmetry.
 There are    10 symmetry adapted cartesian basis functions of A"  symmetry.
 There are    31 symmetry adapted basis functions of A'  symmetry.
 There are    10 symmetry adapted basis functions of A"  symmetry.
    41 basis functions,   246 primitive gaussians,    41 cartesian basis functions
    27 alpha electrons       27 beta electrons
       nuclear repulsion energy       287.9549129087 Hartrees.
 Integral buffers will be    131072 words long.
 Regular integral format.
 Two-electron integral symmetry is turned off.
 Do NDO integrals.
 One-electron integrals computed using PRISM.
 NBasis=    41 RedAO= T EigKep=  1.00D+00  NBF=    31    10
 NBsUse=    41 1.00D-06 EigRej= -1.00D+00 NBFU=    31    10
 Nonelectrostatic core Hamiltonian diagonalized for initial guess.
 Initial guess orbital symmetries:
       Occupied  (A') (A') (A') (A') (A') (A') (A') (A') (A') (A')
                 (A') (A') (A") (A') (A') (A") (A") (A') (A') (A')
                 (A") (A") (A') (A") (A') (A") (A')
       Virtual   (A') (A") (A") (A') (A') (A') (A") (A') (A') (A')
                 (A') (A') (A') (A')
 The electronic state of the initial guess is 1-A'.
 Keep J ints in memory in canonical form, NReq=864464.
 Overlap will be assumed to be unity.
 Requested convergence on RMS density matrix=1.00D-08 within  32 cycles.
 Requested convergence on MAX density matrix=1.00D-06.
 Requested convergence on             energy=1.00D-06.
 No special actions if energy rises.
 Fock symm off for IB=2 I1=    1 I=   32 J=   27 Cut=1.00D-07 Err=9.07D-03
 Fock matrix is not symmetric: symmetry in diagonalization turned off.
 SCF Done:  E(RAM1) =  0.807032988379E-01 A.U. after   16 cycles
            NFock= 15  Conv=0.71D-08     -V/T= 1.0006
 QCSCF skips out because SCF is already converged.

 **********************************************************************

            Population analysis using the SCF Density.

 **********************************************************************

 Orbital symmetries:
       Occupied  (A') (A') (A') (A') (A') (A') (A') (A') (A') (A')
                 (A') (A') (A") (A') (A') (A") (A') (A") (A') (A')
                 (A") (A") (A') (A') (A") (A") (A')
       Virtual   (A') (A") (A') (A") (A') (A') (A") (A') (A') (A')
                 (A') (A') (A') (A')
 The electronic state is 1-A'.
 Alpha  occ. eigenvalues --   -1.30025  -1.10422  -1.07526  -1.02585  -1.01544
 Alpha  occ. eigenvalues --   -0.93380  -0.90486  -0.69166  -0.66711  -0.49087
 Alpha  occ. eigenvalues --   -0.46021  -0.42254  -0.40497  -0.38632  -0.35262
 Alpha  occ. eigenvalues --   -0.32997  -0.31187  -0.30599  -0.30385  -0.29395
 Alpha  occ. eigenvalues --   -0.28823  -0.26844  -0.26263  -0.24232  -0.20637
 Alpha  occ. eigenvalues --   -0.18784  -0.13306
 Alpha virt. eigenvalues --    0.14102   0.14715   0.15888   0.15912   0.16501
 Alpha virt. eigenvalues --    0.18816   0.26368   0.29205   0.30271   0.31394
 Alpha virt. eigenvalues --    0.32259   0.32844   0.36688   0.38627
          Condensed to atoms (all electrons):
               1          2          3          4          5          6
     1  C    4.342857   0.000000   0.000000   0.000000   0.000000   0.000000
     2  C    0.000000   4.129175   0.000000   0.000000   0.000000   0.000000
     3  C    0.000000   0.000000   4.112783   0.000000   0.000000   0.000000
     4  C    0.000000   0.000000   0.000000   4.195109   0.000000   0.000000
     5  C    0.000000   0.000000   0.000000   0.000000   4.131878   0.000000
     6  C    0.000000   0.000000   0.000000   0.000000   0.000000   4.111535
     7  Br   0.000000   0.000000   0.000000   0.000000   0.000000   0.000000
     8  Br   0.000000   0.000000   0.000000   0.000000   0.000000   0.000000
     9  Br   0.000000   0.000000   0.000000   0.000000   0.000000   0.000000
    10  Br   0.000000   0.000000   0.000000   0.000000   0.000000   0.000000
    11  H    0.000000   0.000000   0.000000   0.000000   0.000000   0.000000
               7          8          9         10         11
     1  C    0.000000   0.000000   0.000000   0.000000   0.000000
     2  C    0.000000   0.000000   0.000000   0.000000   0.000000
     3  C    0.000000   0.000000   0.000000   0.000000   0.000000
     4  C    0.000000   0.000000   0.000000   0.000000   0.000000
     5  C    0.000000   0.000000   0.000000   0.000000   0.000000
     6  C    0.000000   0.000000   0.000000   0.000000   0.000000
     7  Br   7.031035   0.000000   0.000000   0.000000   0.000000
     8  Br   0.000000   7.018797   0.000000   0.000000   0.000000
     9  Br   0.000000   0.000000   7.006078   0.000000   0.000000
    10  Br   0.000000   0.000000   0.000000   7.039378   0.000000
    11  H    0.000000   0.000000   0.000000   0.000000   0.881374
 Mulliken charges:
               1
     1  C   -0.342857
     2  C   -0.129175
     3  C   -0.112783
     4  C   -0.195109
     5  C   -0.131878
     6  C   -0.111535
     7  Br  -0.031035
     8  Br  -0.018797
     9  Br  -0.006078
    10  Br  -0.039378
    11  H    0.118626
 Sum of Mulliken charges =  -1.00000
 Mulliken charges with hydrogens summed into heavy atoms:
               1
     1  C   -0.342857
     2  C   -0.129175
     3  C   -0.112783
     4  C   -0.195109
     5  C   -0.131878
     6  C    0.007091
     7  Br  -0.031035
     8  Br  -0.018797
     9  Br  -0.006078
    10  Br  -0.039378
 Charge=             -1.0000 electrons
 Dipole moment (field-independent basis, Debye):
    X=             -5.5492    Y=             -2.1638    Z=              0.0000  Tot=              5.9562
 N-N= 2.879549129087D+02 E-N=-4.150233504152D+02  KE=-1.319840628244D+02
 Symmetry A'   KE=-1.007997154617D+02
 Symmetry A"   KE=-3.118434736264D+01
 Calling FoFJK, ICntrl=      2127 FMM=F ISym2X=1 I1Cent= 0 IOpClX= 0 NMat=1 NMatS=1 NMatT=0.
 ***** Axes restored to original set *****
 -------------------------------------------------------------------
 Center     Atomic                   Forces (Hartrees/Bohr)
 Number     Number              X              Y              Z
 -------------------------------------------------------------------
      1        6           0.006623729    0.006794398   -0.000000000
      2        6          -0.007287194    0.013765300   -0.000000000
      3        6           0.021101048   -0.008180565   -0.000000000
      4        6           0.002117830   -0.023987621    0.000000000
      5        6          -0.016048185   -0.003053180   -0.000000000
      6        6           0.012890936   -0.000965002    0.000000000
      7       35          -0.007055053   -0.002449355    0.000000000
      8       35          -0.004398694    0.000444016    0.000000000
      9       35           0.000268568    0.007760367    0.000000000
     10       35           0.002746828    0.001958733    0.000000000
     11        1          -0.010959812    0.007912910    0.000000000
 -------------------------------------------------------------------
 Cartesian Forces:  Max     0.023987621 RMS     0.008143398

 GradGradGradGradGradGradGradGradGradGradGradGradGradGradGradGradGradGrad
 Berny optimization.
 FormGI is forming the generalized inverse of G from B-inverse, IUseBI=4.
 Internal  Forces:  Max     0.015055146 RMS     0.005133051
 Search for a local minimum.
 Step number   1 out of a maximum of   57
 All quantities printed in internal units (Hartrees-Bohrs-Radians)
 Mixed Optimization -- RFO/linear search
 Second derivative matrix not updated -- first step.
 ITU=  0
     Eigenvalues ---    0.02221   0.02221   0.02221   0.02221   0.02221
     Eigenvalues ---    0.02221   0.02221   0.02221   0.16000   0.18251
     Eigenvalues ---    0.18251   0.18251   0.18251   0.23354   0.25000
     Eigenvalues ---    0.25000   0.25000   0.25000   0.25000   0.25000
     Eigenvalues ---    0.35994   0.43205   0.43763   0.47319   0.47319
     Eigenvalues ---    0.47319   0.47319
 RFO step:  Lambda=-3.54870685D-03 EMin= 2.22103665D-02
 Linear search not attempted -- first point.
 Iteration  1 RMS(Cart)=  0.01790900 RMS(Int)=  0.00012271
 Iteration  2 RMS(Cart)=  0.00019298 RMS(Int)=  0.00003626
 Iteration  3 RMS(Cart)=  0.00000002 RMS(Int)=  0.00003626
 ClnCor:  largest displacement from symmetrization is 2.87D-10 for atom     9.
 Variable       Old X    -DE/DX   Delta X   Delta X   Delta X     New X
                                 (Linear)    (Quad)   (Total)
    R1        2.62672  -0.00462   0.00000  -0.01096  -0.01098   2.61574
    R2        2.62672   0.00135   0.00000   0.00150   0.00144   2.62816
    R3        2.62672   0.01448   0.00000   0.03044   0.03047   2.65719
    R4        3.59048  -0.00733   0.00000  -0.03942  -0.03942   3.55106
    R5        2.62672   0.01162   0.00000   0.02570   0.02576   2.65248
    R6        3.59048  -0.00403   0.00000  -0.02167  -0.02167   3.56881
    R7        2.62672   0.01506   0.00000   0.03285   0.03287   2.65959
    R8        3.59048  -0.00776   0.00000  -0.04171  -0.04171   3.54877
    R9        2.62672   0.01058   0.00000   0.02213   0.02209   2.64881
   R10        3.59048  -0.00336   0.00000  -0.01805  -0.01805   3.57243
   R11        2.04090   0.01345   0.00000   0.03700   0.03700   2.07790
    A1        2.09440  -0.00237   0.00000  -0.01655  -0.01666   2.07774
    A2        2.09440   0.00780   0.00000   0.02864   0.02866   2.12306
    A3        2.09440  -0.00643   0.00000  -0.02428  -0.02429   2.07011
    A4        2.09440  -0.00138   0.00000  -0.00436  -0.00438   2.09002
    A5        2.09440  -0.00428   0.00000  -0.01407  -0.01397   2.08043
    A6        2.09440   0.00540   0.00000   0.01989   0.01983   2.11423
    A7        2.09440  -0.00112   0.00000  -0.00581  -0.00587   2.08853
    A8        2.09440  -0.00432   0.00000  -0.01193  -0.01185   2.08255
    A9        2.09440   0.00168   0.00000   0.00406   0.00402   2.09842
   A10        2.09440   0.00264   0.00000   0.00787   0.00783   2.10222
   A11        2.09440  -0.00030   0.00000   0.00127   0.00126   2.09565
   A12        2.09440   0.00073   0.00000   0.00165   0.00166   2.09605
   A13        2.09440  -0.00043   0.00000  -0.00292  -0.00291   2.09148
   A14        2.09440   0.00346   0.00000   0.01264   0.01255   2.10695
   A15        2.09440  -0.00313   0.00000  -0.01489  -0.01484   2.07955
   A16        2.09440  -0.00033   0.00000   0.00224   0.00229   2.09668
    D1        0.00000   0.00000   0.00000   0.00000  -0.00000   0.00000
    D2        3.14159   0.00000   0.00000   0.00000   0.00000   3.14159
    D3       -0.00000  -0.00000   0.00000  -0.00000   0.00000   0.00000
    D4        3.14159  -0.00000   0.00000  -0.00000   0.00000   3.14159
    D5       -0.00000  -0.00000   0.00000  -0.00000   0.00000   0.00000
    D6        3.14159   0.00000   0.00000   0.00000   0.00000   3.14159
    D7        3.14159  -0.00000   0.00000  -0.00000   0.00000   3.14159
    D8       -0.00000  -0.00000   0.00000  -0.00000   0.00000   0.00000
    D9        0.00000  -0.00000   0.00000  -0.00000   0.00000   0.00000
   D10        3.14159   0.00000   0.00000   0.00000   0.00000   3.14159
   D11        3.14159  -0.00000   0.00000  -0.00000   0.00000   3.14159
   D12        0.00000  -0.00000   0.00000  -0.00000  -0.00000   0.00000
   D13       -0.00000   0.00000   0.00000   0.00000   0.00000   0.00000
   D14        3.14159   0.00000   0.00000   0.00000   0.00000   3.14159
   D15        3.14159  -0.00000   0.00000  -0.00000   0.00000   3.14159
   D16        0.00000   0.00000   0.00000   0.00000   0.00000   0.00000
   D17        0.00000   0.00000   0.00000   0.00000  -0.00000   0.00000
   D18        3.14159   0.00000   0.00000   0.00000   0.00000   3.14159
   D19        3.14159  -0.00000   0.00000  -0.00000   0.00000   3.14159
   D20       -0.00000   0.00000   0.00000   0.00000   0.00000   0.00000
         Item               Value     Threshold  Converged?
 Maximum Force            0.015055     0.000450     NO 
 RMS     Force            0.005133     0.000300     NO 
 Maximum Displacement     0.071416     0.001800     NO 
 RMS     Displacement     0.017871     0.001200     NO 
 Predicted change in Energy=-1.794451D-03
 GradGradGradGradGradGradGradGradGradGradGradGradGradGradGradGradGradGrad

                          Input orientation:                          
 ---------------------------------------------------------------------
 Center     Atomic      Atomic             Coordinates (Angstroms)
 Number     Number       Type             X           Y           Z
 ---------------------------------------------------------------------
      1          6           0        0.005572    1.401371   -0.000000
      2          6           0        1.196493    0.695901   -0.000000
      3          6           0        1.221058   -0.710010   -0.000000
      4          6           0        0.007942   -1.416079    0.000000
      5          6           0       -1.204980   -0.702235    0.000000
      6          6           0       -1.195044    0.699418    0.000000
      7         35           0        2.811432    1.656702   -0.000000
      8         35           0        2.854341   -1.658140   -0.000000
      9         35           0        0.006965   -3.294007    0.000000
     10         35           0       -2.851531   -1.631034    0.000000
     11          1           0       -2.142109    1.258113    0.000000
 ---------------------------------------------------------------------
                    Distance matrix (angstroms):
                    1          2          3          4          5
     1  C    0.000000
     2  C    1.384189   0.000000
     3  C    2.436255   1.406126   0.000000
     4  C    2.817451   2.423450   1.403632   0.000000
     5  C    2.427055   2.778823   2.426051   1.407393   0.000000
     6  C    1.390761   2.391540   2.797148   2.433619   1.401688
     7  Br   2.817453   1.879139   2.851423   4.159511   4.657913
     8  Br   4.180441   2.879230   1.888534   2.856672   4.170353
     9  Br   4.695378   4.163453   2.855006   1.877928   2.861135
    10  Br   4.166356   4.669168   4.175436   2.867541   1.890449
    11  H    2.152454   3.385609   3.896717   3.431329   2.172826
                    6          7          8          9         10
     6  C    0.000000
     7  Br   4.119253   0.000000
     8  Br   4.685680   3.315119   0.000000
     9  Br   4.170404   5.689864   3.283840   0.000000
    10  Br   2.859188   6.548157   5.705936   3.307034   0.000000
    11  H    1.099578   4.969551   5.785243   5.033916   2.974971
                   11
    11  H    0.000000
 Stoichiometry    C6HBr4(1-)
 Framework group  CS[SG(C6HBr4)]
 Deg. of freedom    19
 Full point group                 CS      NOp   2
 Largest Abelian subgroup         CS      NOp   2
 Largest concise Abelian subgroup C1      NOp   1
                         Standard orientation:                         
 ---------------------------------------------------------------------
 Center     Atomic      Atomic             Coordinates (Angstroms)
 Number     Number       Type             X           Y           Z
 ---------------------------------------------------------------------
      1          6           0        2.168132    1.098485    0.000000
      2          6           0        0.864330    1.563331    0.000000
      3          6           0       -0.232518    0.683493   -0.000000
      4          6           0       -0.000000   -0.700746   -0.000000
      5          6           0        1.324306   -1.177158    0.000000
      6          6           0        2.395824   -0.273511    0.000000
      7         35           0        0.570836    3.419409    0.000000
      8         35           0       -2.005704    1.333394   -0.000000
      9         35           0       -1.443501   -1.901963   -0.000000
     10         35           0        1.662616   -3.037089    0.000000
     11          1           0        3.430871   -0.644658    0.000000
 ---------------------------------------------------------------------
 Rotational constants (GHZ):           0.5917272           0.2309012           0.1660902
 Standard basis: VSTO-6G (5D, 7F)
 There are    31 symmetry adapted cartesian basis functions of A'  symmetry.
 There are    10 symmetry adapted cartesian basis functions of A"  symmetry.
 There are    31 symmetry adapted basis functions of A'  symmetry.
 There are    10 symmetry adapted basis functions of A"  symmetry.
    41 basis functions,   246 primitive gaussians,    41 cartesian basis functions
    27 alpha electrons       27 beta electrons
       nuclear repulsion energy       287.8284894201 Hartrees.
 Integral buffers will be    131072 words long.
 Regular integral format.
 Two-electron integral symmetry is turned off.
 Do NDO integrals.
 One-electron integrals computed using PRISM.
 NBasis=    41 RedAO= T EigKep=  1.00D+00  NBF=    31    10
 NBsUse=    41 1.00D-06 EigRej= -1.00D+00 NBFU=    31    10
 Initial guess from the checkpoint file:  "calcs/am1/chks/BrPh_2345_anion.chk"
 B after Tr=     0.000000   -0.000000    0.000000
         Rot=    0.996462   -0.000000   -0.000000   -0.084039 Ang=  -9.64 deg.
 Initial guess orbital symmetries:
       Occupied  (A') (A') (A') (A') (A') (A') (A') (A') (A') (A')
                 (A') (A') (A") (A') (A') (A") (A') (A") (A') (A')
                 (A") (A") (A') (A') (A") (A") (A')
       Virtual   (A') (A") (A') (A") (A') (A') (A") (A') (A') (A')
                 (A') (A') (A') (A')
 Keep J ints in memory in canonical form, NReq=864464.
 Overlap will be assumed to be unity.
 Requested convergence on RMS density matrix=1.00D-08 within  32 cycles.
 Requested convergence on MAX density matrix=1.00D-06.
 Requested convergence on             energy=1.00D-06.
 No special actions if energy rises.
 Fock symm off for IB=2 I1=    1 I=   32 J=    4 Cut=1.00D-07 Err=8.02D-04
 Fock matrix is not symmetric: symmetry in diagonalization turned off.
 SCF Done:  E(RAM1) =  0.792437429106E-01 A.U. after   13 cycles
            NFock= 12  Conv=0.73D-08     -V/T= 1.0006
 QCSCF skips out because SCF is already converged.
 Calling FoFJK, ICntrl=      2127 FMM=F ISym2X=1 I1Cent= 0 IOpClX= 0 NMat=1 NMatS=1 NMatT=0.
 ***** Axes restored to original set *****
 -------------------------------------------------------------------
 Center     Atomic                   Forces (Hartrees/Bohr)
 Number     Number              X              Y              Z
 -------------------------------------------------------------------
      1        6          -0.000501290    0.000263183   -0.000000000
      2        6          -0.003114137   -0.005870751    0.000000000
      3        6          -0.001075532    0.002252888   -0.000000000
      4        6          -0.000286347    0.003407665   -0.000000000
      5        6           0.002324904    0.005353216   -0.000000000
      6        6           0.001287117   -0.008090914    0.000000000
      7       35           0.002401537    0.000785047    0.000000000
      8       35          -0.002067770    0.001086683    0.000000000
      9       35          -0.000446274    0.001122516    0.000000000
     10       35           0.001238040    0.000319382    0.000000000
     11        1           0.000239753   -0.000628913    0.000000000
 -------------------------------------------------------------------
 Cartesian Forces:  Max     0.008090914 RMS     0.002328866

 GradGradGradGradGradGradGradGradGradGradGradGradGradGradGradGradGradGrad
 Berny optimization.
 Using GEDIIS/GDIIS optimizer.
 FormGI is forming the generalized inverse of G from B-inverse, IUseBI=4.
 Internal  Forces:  Max     0.008256338 RMS     0.001836378
 Search for a local minimum.
 Step number   2 out of a maximum of   57
 All quantities printed in internal units (Hartrees-Bohrs-Radians)
 Mixed Optimization -- RFO/linear search
 Update second derivatives using D2CorX and points    1    2
 DE= -1.46D-03 DEPred=-1.79D-03 R= 8.13D-01
 TightC=F SS=  1.41D+00  RLast= 1.08D-01 DXNew= 5.0454D-01 3.2430D-01
 Trust test= 8.13D-01 RLast= 1.08D-01 DXMaxT set to 3.24D-01
 ITU=  1  0
 Use linear search instead of GDIIS.
     Eigenvalues ---    0.02221   0.02221   0.02221   0.02221   0.02221
     Eigenvalues ---    0.02221   0.02221   0.02221   0.16020   0.16522
     Eigenvalues ---    0.18251   0.18251   0.18851   0.22980   0.24342
     Eigenvalues ---    0.25000   0.25000   0.25000   0.25000   0.25288
     Eigenvalues ---    0.35427   0.43021   0.44167   0.47036   0.47319
     Eigenvalues ---    0.47319   0.62799
 RFO step:  Lambda=-2.14766134D-04 EMin= 2.22103665D-02
 Quartic linear search produced a step of -0.14741.
 Iteration  1 RMS(Cart)=  0.00593016 RMS(Int)=  0.00000851
 Iteration  2 RMS(Cart)=  0.00000822 RMS(Int)=  0.00000588
 Iteration  3 RMS(Cart)=  0.00000000 RMS(Int)=  0.00000588
 ClnCor:  largest displacement from symmetrization is 6.91D-11 for atom     9.
 Variable       Old X    -DE/DX   Delta X   Delta X   Delta X     New X
                                 (Linear)    (Quad)   (Total)
    R1        2.61574  -0.00056   0.00162  -0.00292  -0.00130   2.61444
    R2        2.62816  -0.00066  -0.00021  -0.00076  -0.00096   2.62720
    R3        2.65719  -0.00528  -0.00449  -0.00298  -0.00748   2.64971
    R4        3.55106   0.00247   0.00581   0.00341   0.00922   3.56028
    R5        2.65248  -0.00385  -0.00380  -0.00174  -0.00555   2.64693
    R6        3.56881  -0.00233   0.00319  -0.01533  -0.01214   3.55667
    R7        2.65959  -0.00481  -0.00485  -0.00222  -0.00707   2.65252
    R8        3.54877  -0.00112   0.00615  -0.01379  -0.00765   3.54112
    R9        2.64881  -0.00826  -0.00326  -0.01052  -0.01377   2.63503
   R10        3.57243  -0.00124   0.00266  -0.00947  -0.00681   3.56562
   R11        2.07790  -0.00053  -0.00545   0.00639   0.00094   2.07884
    A1        2.07774  -0.00168   0.00246  -0.00791  -0.00544   2.07230
    A2        2.12306  -0.00028  -0.00423   0.00592   0.00169   2.12475
    A3        2.07011   0.00112   0.00358  -0.00166   0.00192   2.07202
    A4        2.09002  -0.00084   0.00064  -0.00426  -0.00361   2.08641
    A5        2.08043   0.00001   0.00206  -0.00278  -0.00074   2.07968
    A6        2.11423   0.00017  -0.00292   0.00463   0.00172   2.11595
    A7        2.08853  -0.00018   0.00086  -0.00185  -0.00098   2.08755
    A8        2.08255   0.00067   0.00175  -0.00122   0.00051   2.08306
    A9        2.09842   0.00046  -0.00059   0.00292   0.00233   2.10075
   A10        2.10222  -0.00113  -0.00115  -0.00170  -0.00285   2.09937
   A11        2.09565   0.00050  -0.00019   0.00071   0.00053   2.09618
   A12        2.09605  -0.00084  -0.00024  -0.00189  -0.00214   2.09391
   A13        2.09148   0.00034   0.00043   0.00118   0.00161   2.09309
   A14        2.10695   0.00078  -0.00185   0.00528   0.00345   2.11040
   A15        2.07955   0.00004   0.00219  -0.00207   0.00011   2.07966
   A16        2.09668  -0.00083  -0.00034  -0.00321  -0.00355   2.09313
    D1        0.00000   0.00000   0.00000   0.00000   0.00000   0.00000
    D2        3.14159   0.00000   0.00000   0.00000   0.00000   3.14159
    D3       -0.00000  -0.00000   0.00000  -0.00000   0.00000   0.00000
    D4        3.14159  -0.00000   0.00000  -0.00000   0.00000   3.14159
    D5       -0.00000  -0.00000   0.00000  -0.00000   0.00000   0.00000
    D6        3.14159   0.00000   0.00000   0.00000   0.00000   3.14159
    D7        3.14159  -0.00000   0.00000  -0.00000   0.00000   3.14159
    D8        0.00000  -0.00000   0.00000  -0.00000   0.00000   0.00000
    D9        0.00000   0.00000   0.00000   0.00000  -0.00000   0.00000
   D10        3.14159   0.00000   0.00000   0.00000   0.00000   3.14159
   D11        3.14159  -0.00000   0.00000  -0.00000   0.00000   3.14159
   D12        0.00000   0.00000   0.00000   0.00000   0.00000   0.00000
   D13       -0.00000  -0.00000   0.00000  -0.00000   0.00000   0.00000
   D14        3.14159   0.00000   0.00000   0.00000   0.00000   3.14159
   D15        3.14159  -0.00000   0.00000  -0.00000   0.00000   3.14159
   D16        0.00000   0.00000   0.00000   0.00000  -0.00000   0.00000
   D17        0.00000   0.00000   0.00000   0.00000   0.00000   0.00000
   D18        3.14159   0.00000   0.00000   0.00000   0.00000   3.14159
   D19        3.14159  -0.00000   0.00000  -0.00000   0.00000   3.14159
   D20       -0.00000   0.00000   0.00000   0.00000   0.00000   0.00000
         Item               Value     Threshold  Converged?
 Maximum Force            0.008256     0.000450     NO 
 RMS     Force            0.001836     0.000300     NO 
 Maximum Displacement     0.016860     0.001800     NO 
 RMS     Displacement     0.005932     0.001200     NO 
 Predicted change in Energy=-1.522519D-04
 GradGradGradGradGradGradGradGradGradGradGradGradGradGradGradGradGradGrad

                          Input orientation:                          
 ---------------------------------------------------------------------
 Center     Atomic      Atomic             Coordinates (Angstroms)
 Number     Number       Type             X           Y           Z
 ---------------------------------------------------------------------
      1          6           0        0.004586    1.400930    0.000000
      2          6           0        1.194000    0.694263    0.000000
      3          6           0        1.219045   -0.707680   -0.000000
      4          6           0        0.008221   -1.411847    0.000000
      5          6           0       -1.201594   -0.700098    0.000000
      6          6           0       -1.192676    0.694272    0.000000
      7         35           0        2.816226    1.652343    0.000000
      8         35           0        2.845516   -1.654744   -0.000000
      9         35           0        0.002216   -3.285720   -0.000000
     10         35           0       -2.842867   -1.630912    0.000000
     11          1           0       -2.142532    1.249191    0.000000
 ---------------------------------------------------------------------
                    Distance matrix (angstroms):
                    1          2          3          4          5
     1  C    0.000000
     2  C    1.383504   0.000000
     3  C    2.433341   1.402166   0.000000
     4  C    2.812780   2.416976   1.400696   0.000000
     5  C    2.422641   2.771843   2.420651   1.403651   0.000000
     6  C    1.390253   2.386676   2.789600   2.424436   1.394399
     7  Br   2.822858   1.884021   2.849683   4.156219   4.655841
     8  Br   4.172293   2.871470   1.882110   2.847673   4.158178
     9  Br   4.686651   4.154589   2.850783   1.873882   2.852121
    10  Br   4.159334   4.658619   4.165512   2.859491   1.886847
    11  H    2.152473   3.382364   3.889672   3.421529   2.164508
                    6          7          8          9         10
     6  C    0.000000
     7  Br   4.121795   0.000000
     8  Br   4.671709   3.307216   0.000000
     9  Br   4.155491   5.683583   3.277871   0.000000
    10  Br   2.851247   6.542560   5.688433   3.291335   0.000000
    11  H    1.100073   4.975119   5.771781   5.016509   2.964028
                   11
    11  H    0.000000
 Stoichiometry    C6HBr4(1-)
 Framework group  CS[SG(C6HBr4)]
 Deg. of freedom    19
 Full point group                 CS      NOp   2
 Largest Abelian subgroup         CS      NOp   2
 Largest concise Abelian subgroup C1      NOp   1
                         Standard orientation:                         
 ---------------------------------------------------------------------
 Center     Atomic      Atomic             Coordinates (Angstroms)
 Number     Number       Type             X           Y           Z
 ---------------------------------------------------------------------
      1          6           0        2.170322    1.090489   -0.000000
      2          6           0        0.867853    1.557028   -0.000000
      3          6           0       -0.228680    0.683137    0.000000
      4          6           0        0.000000   -0.698766   -0.000000
      5          6           0        1.319383   -1.177791   -0.000000
      6          6           0        2.388442   -0.282546   -0.000000
      7         35           0        0.572772    3.417797   -0.000000
      8         35           0       -1.994894    1.333386    0.000000
      9         35           0       -1.440501   -1.897262    0.000000
     10         35           0        1.647615   -3.035869   -0.000000
     11          1           0        3.421322   -0.661122   -0.000000
 ---------------------------------------------------------------------
 Rotational constants (GHZ):           0.5965066           0.2314009           0.1667241
 Standard basis: VSTO-6G (5D, 7F)
 There are    31 symmetry adapted cartesian basis functions of A'  symmetry.
 There are    10 symmetry adapted cartesian basis functions of A"  symmetry.
 There are    31 symmetry adapted basis functions of A'  symmetry.
 There are    10 symmetry adapted basis functions of A"  symmetry.
    41 basis functions,   246 primitive gaussians,    41 cartesian basis functions
    27 alpha electrons       27 beta electrons
       nuclear repulsion energy       288.1900491069 Hartrees.
 Integral buffers will be    131072 words long.
 Regular integral format.
 Two-electron integral symmetry is turned off.
 Do NDO integrals.
 One-electron integrals computed using PRISM.
 NBasis=    41 RedAO= T EigKep=  1.00D+00  NBF=    31    10
 NBsUse=    41 1.00D-06 EigRej= -1.00D+00 NBFU=    31    10
 Initial guess from the checkpoint file:  "calcs/am1/chks/BrPh_2345_anion.chk"
 B after Tr=    -0.000000    0.000000   -0.000000
         Rot=    0.999999    0.000000    0.000000    0.001014 Ang=   0.12 deg.
 Initial guess orbital symmetries:
       Occupied  (A') (A') (A') (A') (A') (A') (A') (A') (A') (A')
                 (A') (A') (A") (A') (A') (A") (A') (A") (A') (A')
                 (A") (A") (A') (A') (A") (A") (A')
       Virtual   (A') (A") (A") (A') (A') (A') (A") (A') (A') (A')
                 (A') (A') (A') (A')
 Keep J ints in memory in canonical form, NReq=864464.
 Overlap will be assumed to be unity.
 Requested convergence on RMS density matrix=1.00D-08 within  32 cycles.
 Requested convergence on MAX density matrix=1.00D-06.
 Requested convergence on             energy=1.00D-06.
 No special actions if energy rises.
 Fock symm off for IB=2 I1=    1 I=   32 J=    4 Cut=1.00D-07 Err=2.23D-04
 Fock matrix is not symmetric: symmetry in diagonalization turned off.
 SCF Done:  E(RAM1) =  0.791110142829E-01 A.U. after   12 cycles
            NFock= 11  Conv=0.45D-08     -V/T= 1.0006
 QCSCF skips out because SCF is already converged.
 Calling FoFJK, ICntrl=      2127 FMM=F ISym2X=1 I1Cent= 0 IOpClX= 0 NMat=1 NMatS=1 NMatT=0.
 ***** Axes restored to original set *****
 -------------------------------------------------------------------
 Center     Atomic                   Forces (Hartrees/Bohr)
 Number     Number              X              Y              Z
 -------------------------------------------------------------------
      1        6           0.000343240    0.001901485    0.000000000
      2        6          -0.000341774   -0.000846908   -0.000000000
      3        6           0.000720329    0.000636289   -0.000000000
      4        6           0.000511679   -0.000300210   -0.000000000
      5        6          -0.000759357    0.000778099   -0.000000000
      6        6          -0.001454890   -0.000552939    0.000000000
      7       35           0.000886753    0.000379751    0.000000000
      8       35           0.000583884   -0.000354180    0.000000000
      9       35          -0.000047672   -0.001122482    0.000000000
     10       35          -0.000824461   -0.000492033    0.000000000
     11        1           0.000382267   -0.000026872    0.000000000
 -------------------------------------------------------------------
 Cartesian Forces:  Max     0.001901485 RMS     0.000631869

 GradGradGradGradGradGradGradGradGradGradGradGradGradGradGradGradGradGrad
 Berny optimization.
 Using GEDIIS/GDIIS optimizer.
 FormGI is forming the generalized inverse of G from B-inverse, IUseBI=4.
 Internal  Forces:  Max     0.001651397 RMS     0.000518183
 Search for a local minimum.
 Step number   3 out of a maximum of   57
 All quantities printed in internal units (Hartrees-Bohrs-Radians)
 Mixed Optimization -- En-DIIS/RFO-DIIS
 Update second derivatives using D2CorX and points    1    2    3
 DE= -1.33D-04 DEPred=-1.52D-04 R= 8.72D-01
 TightC=F SS=  1.41D+00  RLast= 2.77D-02 DXNew= 5.4541D-01 8.3066D-02
 Trust test= 8.72D-01 RLast= 2.77D-02 DXMaxT set to 3.24D-01
 ITU=  1  1  0
 Use linear search instead of GDIIS.
     Eigenvalues ---    0.02221   0.02221   0.02221   0.02221   0.02221
     Eigenvalues ---    0.02221   0.02221   0.02221   0.15962   0.16981
     Eigenvalues ---    0.18251   0.18293   0.19905   0.22163   0.24106
     Eigenvalues ---    0.25000   0.25000   0.25000   0.25022   0.25196
     Eigenvalues ---    0.35738   0.42986   0.44241   0.45621   0.47319
     Eigenvalues ---    0.47494   0.73217
 RFO step:  Lambda=-2.55996110D-05 EMin= 2.22103665D-02
 Quartic linear search produced a step of -0.11652.
 Iteration  1 RMS(Cart)=  0.00169860 RMS(Int)=  0.00000064
 Iteration  2 RMS(Cart)=  0.00000100 RMS(Int)=  0.00000013
 ClnCor:  largest displacement from symmetrization is 4.63D-12 for atom    10.
 Variable       Old X    -DE/DX   Delta X   Delta X   Delta X     New X
                                 (Linear)    (Quad)   (Total)
    R1        2.61444   0.00116   0.00015   0.00182   0.00197   2.61641
    R2        2.62720   0.00159   0.00011   0.00268   0.00279   2.62999
    R3        2.64971   0.00036   0.00087  -0.00101  -0.00014   2.64957
    R4        3.56028   0.00096  -0.00107   0.00653   0.00545   3.56573
    R5        2.64693   0.00117   0.00065   0.00091   0.00156   2.64849
    R6        3.55667   0.00068   0.00141   0.00058   0.00199   3.55866
    R7        2.65252   0.00165   0.00082   0.00147   0.00230   2.65481
    R8        3.54112   0.00112   0.00089   0.00363   0.00452   3.54565
    R9        2.63503   0.00050   0.00161  -0.00205  -0.00044   2.63459
   R10        3.56562   0.00096   0.00079   0.00304   0.00384   3.56946
   R11        2.07884  -0.00034  -0.00011  -0.00064  -0.00075   2.07809
    A1        2.07230  -0.00037   0.00063  -0.00250  -0.00186   2.07043
    A2        2.12475   0.00036  -0.00020   0.00151   0.00131   2.12606
    A3        2.07202   0.00004  -0.00022   0.00061   0.00039   2.07241
    A4        2.08641  -0.00040   0.00042  -0.00212  -0.00170   2.08471
    A5        2.07968  -0.00002   0.00009  -0.00030  -0.00022   2.07947
    A6        2.11595   0.00003  -0.00020   0.00051   0.00031   2.11626
    A7        2.08755  -0.00001   0.00011  -0.00021  -0.00010   2.08746
    A8        2.08306  -0.00005  -0.00006  -0.00003  -0.00009   2.08297
    A9        2.10075   0.00010  -0.00027   0.00085   0.00058   2.10133
   A10        2.09937  -0.00005   0.00033  -0.00081  -0.00048   2.09889
   A11        2.09618  -0.00012  -0.00006  -0.00023  -0.00029   2.09589
   A12        2.09391   0.00002   0.00025  -0.00042  -0.00017   2.09374
   A13        2.09309   0.00010  -0.00019   0.00065   0.00047   2.09356
   A14        2.11040   0.00020  -0.00040   0.00156   0.00116   2.11156
   A15        2.07966  -0.00027  -0.00001  -0.00133  -0.00134   2.07832
   A16        2.09313   0.00008   0.00041  -0.00023   0.00018   2.09331
    D1       -0.00000  -0.00000   0.00000  -0.00000   0.00000   0.00000
    D2        3.14159   0.00000   0.00000   0.00000   0.00000   3.14159
    D3        0.00000   0.00000   0.00000   0.00000   0.00000   0.00000
    D4        3.14159  -0.00000   0.00000  -0.00000   0.00000   3.14159
    D5        0.00000   0.00000   0.00000   0.00000  -0.00000   0.00000
    D6        3.14159   0.00000   0.00000   0.00000   0.00000   3.14159
    D7        3.14159  -0.00000   0.00000  -0.00000   0.00000   3.14159
    D8        0.00000   0.00000   0.00000   0.00000  -0.00000   0.00000
    D9       -0.00000  -0.00000   0.00000  -0.00000   0.00000   0.00000
   D10        3.14159   0.00000   0.00000   0.00000   0.00000   3.14159
   D11        3.14159  -0.00000   0.00000  -0.00000   0.00000   3.14159
   D12        0.00000   0.00000   0.00000   0.00000  -0.00000   0.00000
   D13        0.00000  -0.00000   0.00000  -0.00000  -0.00000   0.00000
   D14        3.14159   0.00000   0.00000   0.00000   0.00000   3.14159
   D15        3.14159  -0.00000   0.00000  -0.00000   0.00000   3.14159
   D16        0.00000  -0.00000   0.00000  -0.00000   0.00000   0.00000
   D17        0.00000   0.00000   0.00000   0.00000  -0.00000   0.00000
   D18        3.14159   0.00000   0.00000   0.00000   0.00000   3.14159
   D19        3.14159  -0.00000   0.00000  -0.00000   0.00000   3.14159
   D20        0.00000  -0.00000   0.00000  -0.00000  -0.00000   0.00000
         Item               Value     Threshold  Converged?
 Maximum Force            0.001651     0.000450     NO 
 RMS     Force            0.000518     0.000300     NO 
 Maximum Displacement     0.006623     0.001800     NO 
 RMS     Displacement     0.001699     0.001200     NO 
 Predicted change in Energy=-1.516351D-05
 GradGradGradGradGradGradGradGradGradGradGradGradGradGradGradGradGradGrad

                          Input orientation:                          
 ---------------------------------------------------------------------
 Center     Atomic      Atomic             Coordinates (Angstroms)
 Number     Number       Type             X           Y           Z
 ---------------------------------------------------------------------
      1          6           0        0.004144    1.402961   -0.000000
      2          6           0        1.193891    0.694819   -0.000000
      3          6           0        1.219661   -0.707038   -0.000000
      4          6           0        0.008335   -1.411983    0.000000
      5          6           0       -1.202673   -0.699867    0.000000
      6          6           0       -1.193632    0.694268    0.000000
      7         35           0        2.819731    1.652450   -0.000000
      8         35           0        2.847236   -1.654301   -0.000000
      9         35           0        0.001804   -3.288248    0.000000
     10         35           0       -2.845360   -1.632303    0.000000
     11          1           0       -2.142996    1.249242    0.000000
 ---------------------------------------------------------------------
                    Distance matrix (angstroms):
                    1          2          3          4          5
     1  C    0.000000
     2  C    1.384544   0.000000
     3  C    2.435072   1.402094   0.000000
     4  C    2.814947   2.417470   1.401521   0.000000
     5  C    2.424519   2.772845   2.422345   1.404866   0.000000
     6  C    1.391731   2.387523   2.790635   2.425081   1.394164
     7  Br   2.826618   1.886905   2.850861   4.158690   4.659735
     8  Br   4.174927   2.872614   1.883164   2.849224   4.160854
     9  Br   4.691210   4.157631   2.854089   1.876276   2.854904
    10  Br   4.163232   4.661658   4.168995   2.862187   1.888878
    11  H    2.152636   3.382632   3.890308   3.422038   2.164078
                    6          7          8          9         10
     6  C    0.000000
     7  Br   4.126160   0.000000
     8  Br   4.673798   3.306866   0.000000
     9  Br   4.158064   5.687813   3.281199   0.000000
    10  Br   2.853268   6.548501   5.692639   3.293706   0.000000
    11  H    1.099676   4.979079   5.773471   5.018862   2.965909
                   11
    11  H    0.000000
 Stoichiometry    C6HBr4(1-)
 Framework group  CS[SG(C6HBr4)]
 Deg. of freedom    19
 Full point group                 CS      NOp   2
 Largest Abelian subgroup         CS      NOp   2
 Largest concise Abelian subgroup C1      NOp   1
                         Standard orientation:                         
 ---------------------------------------------------------------------
 Center     Atomic      Atomic             Coordinates (Angstroms)
 Number     Number       Type             X           Y           Z
 ---------------------------------------------------------------------
      1          6           0        2.173625    1.089939   -0.000000
      2          6           0        0.870140    1.556727   -0.000000
      3          6           0       -0.227412    0.684233   -0.000000
      4          6           0       -0.000000   -0.698715    0.000000
      5          6           0        1.320083   -1.179369    0.000000
      6          6           0        2.389521   -0.284944    0.000000
      7         35           0        0.573744    3.420207   -0.000000
      8         35           0       -1.994017    1.336469   -0.000000
      9         35           0       -1.442866   -1.898110    0.000000
     10         35           0        1.646637   -3.039805    0.000000
     11          1           0        3.421860   -0.663843    0.000000
 ---------------------------------------------------------------------
 Rotational constants (GHZ):           0.5961287           0.2309772           0.1664746
 Standard basis: VSTO-6G (5D, 7F)
 There are    31 symmetry adapted cartesian basis functions of A'  symmetry.
 There are    10 symmetry adapted cartesian basis functions of A"  symmetry.
 There are    31 symmetry adapted basis functions of A'  symmetry.
 There are    10 symmetry adapted basis functions of A"  symmetry.
    41 basis functions,   246 primitive gaussians,    41 cartesian basis functions
    27 alpha electrons       27 beta electrons
       nuclear repulsion energy       288.0618951488 Hartrees.
 Integral buffers will be    131072 words long.
 Regular integral format.
 Two-electron integral symmetry is turned off.
 Do NDO integrals.
 One-electron integrals computed using PRISM.
 NBasis=    41 RedAO= T EigKep=  1.00D+00  NBF=    31    10
 NBsUse=    41 1.00D-06 EigRej= -1.00D+00 NBFU=    31    10
 Initial guess from the checkpoint file:  "calcs/am1/chks/BrPh_2345_anion.chk"
 B after Tr=    -0.000000   -0.000000   -0.000000
         Rot=    1.000000   -0.000000    0.000000    0.000321 Ang=   0.04 deg.
 Initial guess orbital symmetries:
       Occupied  (A') (A') (A') (A') (A') (A') (A') (A') (A') (A')
                 (A') (A') (A") (A') (A') (A") (A') (A") (A') (A')
                 (A") (A") (A') (A') (A") (A") (A')
       Virtual   (A') (A") (A") (A') (A') (A') (A") (A') (A') (A')
                 (A') (A') (A') (A')
 Keep J ints in memory in canonical form, NReq=864464.
 Overlap will be assumed to be unity.
 Requested convergence on RMS density matrix=1.00D-08 within  32 cycles.
 Requested convergence on MAX density matrix=1.00D-06.
 Requested convergence on             energy=1.00D-06.
 No special actions if energy rises.
 Fock symm off for IB=2 I1=    1 I=   32 J=    4 Cut=1.00D-07 Err=6.26D-05
 Fock matrix is not symmetric: symmetry in diagonalization turned off.
 SCF Done:  E(RAM1) =  0.790957408638E-01 A.U. after   12 cycles
            NFock= 11  Conv=0.54D-08     -V/T= 1.0006
 QCSCF skips out because SCF is already converged.
 Calling FoFJK, ICntrl=      2127 FMM=F ISym2X=1 I1Cent= 0 IOpClX= 0 NMat=1 NMatS=1 NMatT=0.
 ***** Axes restored to original set *****
 -------------------------------------------------------------------
 Center     Atomic                   Forces (Hartrees/Bohr)
 Number     Number              X              Y              Z
 -------------------------------------------------------------------
      1        6           0.000383589    0.000520453   -0.000000000
      2        6          -0.000363673   -0.000138322    0.000000000
      3        6          -0.000155102    0.000047646   -0.000000000
      4        6           0.000206606   -0.000002575   -0.000000000
      5        6           0.000143684   -0.000024570   -0.000000000
      6        6          -0.000292431   -0.000256180    0.000000000
      7       35          -0.000192154   -0.000102764    0.000000000
      8       35           0.000092172   -0.000151885    0.000000000
      9       35           0.000014254    0.000075501    0.000000000
     10       35           0.000002418   -0.000058936    0.000000000
     11        1           0.000160637    0.000091632    0.000000000
 -------------------------------------------------------------------
 Cartesian Forces:  Max     0.000520453 RMS     0.000168185

 GradGradGradGradGradGradGradGradGradGradGradGradGradGradGradGradGradGrad
 Berny optimization.
 Using GEDIIS/GDIIS optimizer.
 FormGI is forming the generalized inverse of G from B-inverse, IUseBI=4.
 Internal  Forces:  Max     0.000361512 RMS     0.000124911
 Search for a local minimum.
 Step number   4 out of a maximum of   57
 All quantities printed in internal units (Hartrees-Bohrs-Radians)
 Mixed Optimization -- En-DIIS/RFO-DIIS
 Swapping is turned off.
 Update second derivatives using D2CorX and points    1    2    3    4
 DE= -1.53D-05 DEPred=-1.52D-05 R= 1.01D+00
 TightC=F SS=  1.41D+00  RLast= 1.01D-02 DXNew= 5.4541D-01 3.0219D-02
 Trust test= 1.01D+00 RLast= 1.01D-02 DXMaxT set to 3.24D-01
 ITU=  1  1  1  0
     Eigenvalues ---    0.02221   0.02221   0.02221   0.02221   0.02221
     Eigenvalues ---    0.02221   0.02221   0.02221   0.14430   0.17109
     Eigenvalues ---    0.18181   0.18376   0.18877   0.21838   0.24108
     Eigenvalues ---    0.24983   0.25000   0.25000   0.25061   0.26263
     Eigenvalues ---    0.35439   0.42441   0.44039   0.45775   0.47318
     Eigenvalues ---    0.50863   0.74535
 En-DIIS/RFO-DIIS/Sim-DIIS IScMMF=       -3 using points:     4    3
 RFO step:  Lambda=-2.86828718D-06.
 DidBck=F Rises=F RFO-DIIS coefs:    1.11483   -0.11483
 Iteration  1 RMS(Cart)=  0.00067319 RMS(Int)=  0.00000027
 Iteration  2 RMS(Cart)=  0.00000036 RMS(Int)=  0.00000010
 ClnCor:  largest displacement from symmetrization is 3.44D-12 for atom     7.
 Variable       Old X    -DE/DX   Delta X   Delta X   Delta X     New X
                                 (Linear)    (Quad)   (Total)
    R1        2.61641  -0.00014   0.00023  -0.00034  -0.00012   2.61629
    R2        2.62999   0.00023   0.00032   0.00053   0.00085   2.63084
    R3        2.64957  -0.00002  -0.00002  -0.00017  -0.00019   2.64938
    R4        3.56573  -0.00022   0.00063  -0.00106  -0.00043   3.56530
    R5        2.64849  -0.00034   0.00018  -0.00083  -0.00066   2.64783
    R6        3.55866   0.00016   0.00023   0.00059   0.00082   3.55948
    R7        2.65481  -0.00006   0.00026  -0.00021   0.00006   2.65487
    R8        3.54565  -0.00008   0.00052  -0.00063  -0.00011   3.54554
    R9        2.63459   0.00014  -0.00005   0.00008   0.00002   2.63461
   R10        3.56946   0.00003   0.00044  -0.00000   0.00044   3.56990
   R11        2.07809  -0.00009  -0.00009  -0.00018  -0.00027   2.07782
    A1        2.07043  -0.00036  -0.00021  -0.00153  -0.00174   2.06869
    A2        2.12606   0.00034   0.00015   0.00142   0.00157   2.12763
    A3        2.07241  -0.00019   0.00004  -0.00073  -0.00068   2.07173
    A4        2.08471  -0.00015  -0.00019  -0.00069  -0.00088   2.08383
    A5        2.07947  -0.00003  -0.00003  -0.00030  -0.00032   2.07914
    A6        2.11626   0.00017   0.00004   0.00082   0.00085   2.11712
    A7        2.08746  -0.00014  -0.00001  -0.00052  -0.00053   2.08693
    A8        2.08297  -0.00004  -0.00001  -0.00024  -0.00026   2.08271
    A9        2.10133  -0.00001   0.00007   0.00008   0.00014   2.10147
   A10        2.09889   0.00004  -0.00006   0.00017   0.00011   2.09901
   A11        2.09589   0.00006  -0.00003   0.00030   0.00026   2.09615
   A12        2.09374  -0.00012  -0.00002  -0.00057  -0.00059   2.09315
   A13        2.09356   0.00006   0.00005   0.00027   0.00033   2.09388
   A14        2.11156   0.00003   0.00013   0.00036   0.00049   2.11205
   A15        2.07832  -0.00018  -0.00015  -0.00122  -0.00137   2.07694
   A16        2.09331   0.00015   0.00002   0.00086   0.00088   2.09419
    D1        0.00000   0.00000   0.00000   0.00000   0.00000   0.00000
    D2        3.14159   0.00000  -0.00000   0.00000   0.00000   3.14159
    D3        0.00000  -0.00000   0.00000  -0.00000  -0.00000   0.00000
    D4        3.14159  -0.00000  -0.00000  -0.00000   0.00000   3.14159
    D5       -0.00000  -0.00000   0.00000  -0.00000   0.00000   0.00000
    D6        3.14159   0.00000  -0.00000   0.00000   0.00000   3.14159
    D7        3.14159  -0.00000  -0.00000  -0.00000   0.00000   3.14159
    D8        0.00000  -0.00000   0.00000  -0.00000   0.00000   0.00000
    D9        0.00000  -0.00000   0.00000  -0.00000   0.00000   0.00000
   D10        3.14159   0.00000  -0.00000   0.00000   0.00000   3.14159
   D11        3.14159  -0.00000  -0.00000  -0.00000   0.00000   3.14159
   D12       -0.00000   0.00000   0.00000   0.00000   0.00000   0.00000
   D13        0.00000  -0.00000   0.00000  -0.00000   0.00000   0.00000
   D14        3.14159   0.00000  -0.00000   0.00000   0.00000   3.14159
   D15        3.14159  -0.00000  -0.00000  -0.00000   0.00000   3.14159
   D16       -0.00000   0.00000   0.00000   0.00000   0.00000   0.00000
   D17       -0.00000   0.00000   0.00000   0.00000   0.00000   0.00000
   D18        3.14159   0.00000  -0.00000   0.00000   0.00000   3.14159
   D19        3.14159  -0.00000  -0.00000  -0.00000   0.00000   3.14159
   D20        0.00000   0.00000   0.00000   0.00000   0.00000   0.00000
         Item               Value     Threshold  Converged?
 Maximum Force            0.000362     0.000450     YES
 RMS     Force            0.000125     0.000300     YES
 Maximum Displacement     0.002241     0.001800     NO 
 RMS     Displacement     0.000673     0.001200     YES
 Predicted change in Energy=-1.434149D-06
 GradGradGradGradGradGradGradGradGradGradGradGradGradGradGradGradGradGrad

                          Input orientation:                          
 ---------------------------------------------------------------------
 Center     Atomic      Atomic             Coordinates (Angstroms)
 Number     Number       Type             X           Y           Z
 ---------------------------------------------------------------------
      1          6           0        0.004061    1.404147   -0.000000
      2          6           0        1.193006    0.694781   -0.000000
      3          6           0        1.219489   -0.706963   -0.000000
      4          6           0        0.008594   -1.411960    0.000000
      5          6           0       -1.202389   -0.699745    0.000000
      6          6           0       -1.193615    0.694405    0.000000
      7         35           0        2.819007    1.651688   -0.000000
      8         35           0        2.847113   -1.655002   -0.000000
      9         35           0        0.002147   -3.288167    0.000000
     10         35           0       -2.844797   -1.633144    0.000000
     11          1           0       -2.142475    1.249961    0.000000
 ---------------------------------------------------------------------
                    Distance matrix (angstroms):
                    1          2          3          4          5
     1  C    0.000000
     2  C    1.384483   0.000000
     3  C    2.435991   1.401994   0.000000
     4  C    2.816110   2.416855   1.401174   0.000000
     5  C    2.425259   2.771754   2.421889   1.404895   0.000000
     6  C    1.392179   2.386622   2.790503   2.425300   1.394177
     7  Br   2.825810   1.886677   2.849858   4.157446   4.658419
     8  Br   4.176283   2.873595   1.883597   2.848905   4.160647
     9  Br   4.692315   4.157165   2.853864   1.876219   2.854967
    10  Br   4.164267   4.660803   4.168481   2.861951   1.889110
    11  H    2.152066   3.381370   3.890033   3.422415   2.164513
                    6          7          8          9         10
     6  C    0.000000
     7  Br   4.125231   0.000000
     8  Br   4.674099   3.306809   0.000000
     9  Br   4.158212   5.686552   3.280406   0.000000
    10  Br   2.853749   6.547426   5.691952   3.293052   0.000000
    11  H    1.099536   4.977720   5.773630   5.019364   2.967415
                   11
    11  H    0.000000
 Stoichiometry    C6HBr4(1-)
 Framework group  CS[SG(C6HBr4)]
 Deg. of freedom    19
 Full point group                 CS      NOp   2
 Largest Abelian subgroup         CS      NOp   2
 Largest concise Abelian subgroup C1      NOp   1
                         Standard orientation:                         
 ---------------------------------------------------------------------
 Center     Atomic      Atomic             Coordinates (Angstroms)
 Number     Number       Type             X           Y           Z
 ---------------------------------------------------------------------
      1          6           0        2.175116    1.090421   -0.000000
      2          6           0        0.871295    1.556085    0.000000
      3          6           0       -0.226807    0.684444    0.000000
      4          6           0       -0.000000   -0.698251   -0.000000
      5          6           0        1.320043   -1.179102   -0.000000
      6          6           0        2.389850   -0.285098   -0.000000
      7         35           0        0.574628    3.419292    0.000000
      8         35           0       -1.993905    1.336595    0.000000
      9         35           0       -1.443128   -1.897242   -0.000000
     10         35           0        1.645284   -3.040003   -0.000000
     11          1           0        3.422238   -0.663454   -0.000000
 ---------------------------------------------------------------------
 Rotational constants (GHZ):           0.5961183           0.2310615           0.1665176
 Standard basis: VSTO-6G (5D, 7F)
 There are    31 symmetry adapted cartesian basis functions of A'  symmetry.
 There are    10 symmetry adapted cartesian basis functions of A"  symmetry.
 There are    31 symmetry adapted basis functions of A'  symmetry.
 There are    10 symmetry adapted basis functions of A"  symmetry.
    41 basis functions,   246 primitive gaussians,    41 cartesian basis functions
    27 alpha electrons       27 beta electrons
       nuclear repulsion energy       288.0690401044 Hartrees.
 Integral buffers will be    131072 words long.
 Regular integral format.
 Two-electron integral symmetry is turned off.
 Do NDO integrals.
 One-electron integrals computed using PRISM.
 NBasis=    41 RedAO= T EigKep=  1.00D+00  NBF=    31    10
 NBsUse=    41 1.00D-06 EigRej= -1.00D+00 NBFU=    31    10
 Initial guess from the checkpoint file:  "calcs/am1/chks/BrPh_2345_anion.chk"
 B after Tr=    -0.000000   -0.000000   -0.000000
         Rot=    1.000000   -0.000000    0.000000    0.000137 Ang=   0.02 deg.
 Initial guess orbital symmetries:
       Occupied  (A') (A') (A') (A') (A') (A') (A') (A') (A') (A')
                 (A') (A') (A") (A') (A') (A") (A') (A") (A') (A')
                 (A") (A") (A') (A') (A") (A") (A')
       Virtual   (A') (A") (A") (A') (A') (A') (A") (A') (A') (A')
                 (A') (A') (A') (A')
 Keep J ints in memory in canonical form, NReq=864464.
 Overlap will be assumed to be unity.
 Requested convergence on RMS density matrix=1.00D-08 within  32 cycles.
 Requested convergence on MAX density matrix=1.00D-06.
 Requested convergence on             energy=1.00D-06.
 No special actions if energy rises.
 Fock symm off for IB=2 I1=    1 I=   32 J=   19 Cut=1.00D-07 Err=3.15D-05
 Fock matrix is not symmetric: symmetry in diagonalization turned off.
 SCF Done:  E(RAM1) =  0.790942971038E-01 A.U. after   11 cycles
            NFock= 10  Conv=0.64D-08     -V/T= 1.0006
 QCSCF skips out because SCF is already converged.
 Calling FoFJK, ICntrl=      2127 FMM=F ISym2X=1 I1Cent= 0 IOpClX= 0 NMat=1 NMatS=1 NMatT=0.
 ***** Axes restored to original set *****
 -------------------------------------------------------------------
 Center     Atomic                   Forces (Hartrees/Bohr)
 Number     Number              X              Y              Z
 -------------------------------------------------------------------
      1        6           0.000019360    0.000094300   -0.000000000
      2        6           0.000100080    0.000000461    0.000000000
      3        6           0.000040968   -0.000004548   -0.000000000
      4        6          -0.000048253   -0.000138335   -0.000000000
      5        6           0.000002450    0.000104505   -0.000000000
      6        6          -0.000137767   -0.000194245   -0.000000000
      7       35          -0.000015771    0.000013930    0.000000000
      8       35          -0.000021646    0.000013080    0.000000000
      9       35          -0.000003399    0.000041042    0.000000000
     10       35           0.000047443    0.000035281    0.000000000
     11        1           0.000016535    0.000034530    0.000000000
 -------------------------------------------------------------------
 Cartesian Forces:  Max     0.000194245 RMS     0.000059753

 GradGradGradGradGradGradGradGradGradGradGradGradGradGradGradGradGradGrad
 Berny optimization.
 Using GEDIIS/GDIIS optimizer.
 FormGI is forming the generalized inverse of G from B-inverse, IUseBI=4.
 Internal  Forces:  Max     0.000097993 RMS     0.000031886
 Search for a local minimum.
 Step number   5 out of a maximum of   57
 All quantities printed in internal units (Hartrees-Bohrs-Radians)
 Mixed Optimization -- En-DIIS/RFO-DIIS
 Swapping is turned off.
 Update second derivatives using D2CorX and points    1    2    3    4    5
 DE= -1.44D-06 DEPred=-1.43D-06 R= 1.01D+00
 TightC=F SS=  1.41D+00  RLast= 3.70D-03 DXNew= 5.4541D-01 1.1103D-02
 Trust test= 1.01D+00 RLast= 3.70D-03 DXMaxT set to 3.24D-01
 ITU=  1  1  1  1  0
     Eigenvalues ---    0.02221   0.02221   0.02221   0.02221   0.02221
     Eigenvalues ---    0.02221   0.02221   0.02221   0.12850   0.17458
     Eigenvalues ---    0.18174   0.18448   0.20486   0.21283   0.23867
     Eigenvalues ---    0.24972   0.25000   0.25057   0.25467   0.25554
     Eigenvalues ---    0.35671   0.41861   0.44461   0.46360   0.47385
     Eigenvalues ---    0.53685   0.74549
 En-DIIS/RFO-DIIS/Sim-DIIS IScMMF=       -3 using points:     5    4    3
 RFO step:  Lambda=-1.55899881D-07.
 DidBck=F Rises=F RFO-DIIS coefs:    1.09373   -0.10137    0.00764
 Iteration  1 RMS(Cart)=  0.00011131 RMS(Int)=  0.00000001
 Iteration  2 RMS(Cart)=  0.00000001 RMS(Int)=  0.00000001
 ClnCor:  largest displacement from symmetrization is 6.58D-12 for atom     7.
 Variable       Old X    -DE/DX   Delta X   Delta X   Delta X     New X
                                 (Linear)    (Quad)   (Total)
    R1        2.61629   0.00006  -0.00003   0.00017   0.00015   2.61644
    R2        2.63084   0.00009   0.00006   0.00022   0.00028   2.63111
    R3        2.64938   0.00005  -0.00002   0.00011   0.00009   2.64948
    R4        3.56530  -0.00001  -0.00008   0.00008  -0.00000   3.56530
    R5        2.64783   0.00007  -0.00007   0.00020   0.00013   2.64797
    R6        3.55948  -0.00003   0.00006  -0.00017  -0.00011   3.55938
    R7        2.65487   0.00002  -0.00001   0.00007   0.00006   2.65493
    R8        3.54554  -0.00004  -0.00004  -0.00018  -0.00022   3.54532
    R9        2.63461  -0.00010   0.00001  -0.00025  -0.00025   2.63437
   R10        3.56990  -0.00006   0.00001  -0.00029  -0.00028   3.56962
   R11        2.07782   0.00000  -0.00002   0.00002   0.00000   2.07782
    A1        2.06869  -0.00001  -0.00015   0.00000  -0.00015   2.06854
    A2        2.12763  -0.00003   0.00014  -0.00009   0.00005   2.12768
    A3        2.07173  -0.00002  -0.00007  -0.00008  -0.00015   2.07158
    A4        2.08383   0.00005  -0.00007   0.00017   0.00010   2.08393
    A5        2.07914   0.00001  -0.00003   0.00006   0.00003   2.07917
    A6        2.11712  -0.00000   0.00008  -0.00004   0.00003   2.11715
    A7        2.08693  -0.00000  -0.00005  -0.00001  -0.00006   2.08687
    A8        2.08271  -0.00003  -0.00002  -0.00012  -0.00014   2.08257
    A9        2.10147   0.00002   0.00001   0.00010   0.00011   2.10158
   A10        2.09901   0.00001   0.00001   0.00002   0.00003   2.09904
   A11        2.09615   0.00005   0.00003   0.00016   0.00019   2.09633
   A12        2.09315  -0.00001  -0.00005  -0.00002  -0.00007   2.09308
   A13        2.09388  -0.00004   0.00003  -0.00014  -0.00011   2.09377
   A14        2.11205  -0.00000   0.00004  -0.00001   0.00003   2.11208
   A15        2.07694  -0.00004  -0.00012  -0.00022  -0.00034   2.07660
   A16        2.09419   0.00004   0.00008   0.00023   0.00031   2.09451
    D1       -0.00000   0.00000   0.00000   0.00000   0.00000   0.00000
    D2        3.14159   0.00000   0.00000   0.00000   0.00000   3.14159
    D3       -0.00000  -0.00000   0.00000  -0.00000   0.00000   0.00000
    D4        3.14159  -0.00000   0.00000  -0.00000   0.00000   3.14159
    D5        0.00000  -0.00000   0.00000  -0.00000   0.00000   0.00000
    D6        3.14159   0.00000   0.00000   0.00000   0.00000   3.14159
    D7        3.14159  -0.00000   0.00000  -0.00000   0.00000   3.14159
    D8       -0.00000  -0.00000   0.00000  -0.00000   0.00000   0.00000
    D9       -0.00000  -0.00000   0.00000  -0.00000   0.00000   0.00000
   D10        3.14159   0.00000   0.00000   0.00000   0.00000   3.14159
   D11        3.14159  -0.00000   0.00000  -0.00000   0.00000   3.14159
   D12       -0.00000  -0.00000   0.00000  -0.00000   0.00000   0.00000
   D13       -0.00000   0.00000   0.00000   0.00000   0.00000   0.00000
   D14        3.14159   0.00000   0.00000   0.00000   0.00000   3.14159
   D15        3.14159  -0.00000   0.00000  -0.00000   0.00000   3.14159
   D16        0.00000   0.00000   0.00000   0.00000   0.00000   0.00000
   D17        0.00000   0.00000   0.00000   0.00000   0.00000   0.00000
   D18        3.14159   0.00000   0.00000   0.00000   0.00000   3.14159
   D19        3.14159  -0.00000   0.00000  -0.00000   0.00000   3.14159
   D20       -0.00000   0.00000   0.00000   0.00000   0.00000   0.00000
         Item               Value     Threshold  Converged?
 Maximum Force            0.000098     0.000450     YES
 RMS     Force            0.000032     0.000300     YES
 Maximum Displacement     0.000338     0.001800     YES
 RMS     Displacement     0.000111     0.001200     YES
 Predicted change in Energy=-7.794638D-08
 Optimization completed.
    -- Stationary point found.
                           ----------------------------
                           !   Optimized Parameters   !
                           ! (Angstroms and Degrees)  !
 --------------------------                            --------------------------
 ! Name  Definition              Value          Derivative Info.                !
 --------------------------------------------------------------------------------
 ! R1    R(1,2)                  1.3845         -DE/DX =    0.0001              !
 ! R2    R(1,6)                  1.3922         -DE/DX =    0.0001              !
 ! R3    R(2,3)                  1.402          -DE/DX =    0.0                 !
 ! R4    R(2,7)                  1.8867         -DE/DX =    0.0                 !
 ! R5    R(3,4)                  1.4012         -DE/DX =    0.0001              !
 ! R6    R(3,8)                  1.8836         -DE/DX =    0.0                 !
 ! R7    R(4,5)                  1.4049         -DE/DX =    0.0                 !
 ! R8    R(4,9)                  1.8762         -DE/DX =    0.0                 !
 ! R9    R(5,6)                  1.3942         -DE/DX =   -0.0001              !
 ! R10   R(5,10)                 1.8891         -DE/DX =   -0.0001              !
 ! R11   R(6,11)                 1.0995         -DE/DX =    0.0                 !
 ! A1    A(2,1,6)              118.5273         -DE/DX =    0.0                 !
 ! A2    A(1,2,3)              121.9041         -DE/DX =    0.0                 !
 ! A3    A(1,2,7)              118.7013         -DE/DX =    0.0                 !
 ! A4    A(3,2,7)              119.3946         -DE/DX =    0.0                 !
 ! A5    A(2,3,4)              119.1261         -DE/DX =    0.0                 !
 ! A6    A(2,3,8)              121.3018         -DE/DX =    0.0                 !
 ! A7    A(4,3,8)              119.5721         -DE/DX =    0.0                 !
 ! A8    A(3,4,5)              119.3305         -DE/DX =    0.0                 !
 ! A9    A(3,4,9)              120.4053         -DE/DX =    0.0                 !
 ! A10   A(5,4,9)              120.2642         -DE/DX =    0.0                 !
 ! A11   A(4,5,6)              120.1005         -DE/DX =    0.0001              !
 ! A12   A(4,5,10)             119.9289         -DE/DX =    0.0                 !
 ! A13   A(6,5,10)             119.9706         -DE/DX =    0.0                 !
 ! A14   A(1,6,5)              121.0115         -DE/DX =    0.0                 !
 ! A15   A(1,6,11)             119.0001         -DE/DX =    0.0                 !
 ! A16   A(5,6,11)             119.9884         -DE/DX =    0.0                 !
 ! D1    D(6,1,2,3)              0.0            -DE/DX =    0.0                 !
 ! D2    D(6,1,2,7)            180.0            -DE/DX =    0.0                 !
 ! D3    D(2,1,6,5)              0.0            -DE/DX =    0.0                 !
 ! D4    D(2,1,6,11)           180.0            -DE/DX =    0.0                 !
 ! D5    D(1,2,3,4)              0.0            -DE/DX =    0.0                 !
 ! D6    D(1,2,3,8)            180.0            -DE/DX =    0.0                 !
 ! D7    D(7,2,3,4)            180.0            -DE/DX =    0.0                 !
 ! D8    D(7,2,3,8)              0.0            -DE/DX =    0.0                 !
 ! D9    D(2,3,4,5)              0.0            -DE/DX =    0.0                 !
 ! D10   D(2,3,4,9)            180.0            -DE/DX =    0.0                 !
 ! D11   D(8,3,4,5)            180.0            -DE/DX =    0.0                 !
 ! D12   D(8,3,4,9)              0.0            -DE/DX =    0.0                 !
 ! D13   D(3,4,5,6)              0.0            -DE/DX =    0.0                 !
 ! D14   D(3,4,5,10)           180.0            -DE/DX =    0.0                 !
 ! D15   D(9,4,5,6)            180.0            -DE/DX =    0.0                 !
 ! D16   D(9,4,5,10)             0.0            -DE/DX =    0.0                 !
 ! D17   D(4,5,6,1)              0.0            -DE/DX =    0.0                 !
 ! D18   D(4,5,6,11)           180.0            -DE/DX =    0.0                 !
 ! D19   D(10,5,6,1)           180.0            -DE/DX =    0.0                 !
 ! D20   D(10,5,6,11)            0.0            -DE/DX =    0.0                 !
 --------------------------------------------------------------------------------
 GradGradGradGradGradGradGradGradGradGradGradGradGradGradGradGradGradGrad

                          Input orientation:                          
 ---------------------------------------------------------------------
 Center     Atomic      Atomic             Coordinates (Angstroms)
 Number     Number       Type             X           Y           Z
 ---------------------------------------------------------------------
      1          6           0        0.004061    1.404147   -0.000000
      2          6           0        1.193006    0.694781   -0.000000
      3          6           0        1.219489   -0.706963   -0.000000
      4          6           0        0.008594   -1.411960    0.000000
      5          6           0       -1.202389   -0.699745    0.000000
      6          6           0       -1.193615    0.694405    0.000000
      7         35           0        2.819007    1.651688   -0.000000
      8         35           0        2.847113   -1.655002   -0.000000
      9         35           0        0.002147   -3.288167    0.000000
     10         35           0       -2.844797   -1.633144    0.000000
     11          1           0       -2.142475    1.249961    0.000000
 ---------------------------------------------------------------------
                    Distance matrix (angstroms):
                    1          2          3          4          5
     1  C    0.000000
     2  C    1.384483   0.000000
     3  C    2.435991   1.401994   0.000000
     4  C    2.816110   2.416855   1.401174   0.000000
     5  C    2.425259   2.771754   2.421889   1.404895   0.000000
     6  C    1.392179   2.386622   2.790503   2.425300   1.394177
     7  Br   2.825810   1.886677   2.849858   4.157446   4.658419
     8  Br   4.176283   2.873595   1.883597   2.848905   4.160647
     9  Br   4.692315   4.157165   2.853864   1.876219   2.854967
    10  Br   4.164267   4.660803   4.168481   2.861951   1.889110
    11  H    2.152066   3.381370   3.890033   3.422415   2.164513
                    6          7          8          9         10
     6  C    0.000000
     7  Br   4.125231   0.000000
     8  Br   4.674099   3.306809   0.000000
     9  Br   4.158212   5.686552   3.280406   0.000000
    10  Br   2.853749   6.547426   5.691952   3.293052   0.000000
    11  H    1.099536   4.977720   5.773630   5.019364   2.967415
                   11
    11  H    0.000000
 Stoichiometry    C6HBr4(1-)
 Framework group  CS[SG(C6HBr4)]
 Deg. of freedom    19
 Full point group                 CS      NOp   2
 Largest Abelian subgroup         CS      NOp   2
 Largest concise Abelian subgroup C1      NOp   1
                         Standard orientation:                         
 ---------------------------------------------------------------------
 Center     Atomic      Atomic             Coordinates (Angstroms)
 Number     Number       Type             X           Y           Z
 ---------------------------------------------------------------------
      1          6           0        2.175116    1.090421    0.000000
      2          6           0        0.871295    1.556085    0.000000
      3          6           0       -0.226807    0.684444    0.000000
      4          6           0        0.000000   -0.698251    0.000000
      5          6           0        1.320043   -1.179102    0.000000
      6          6           0        2.389850   -0.285098    0.000000
      7         35           0        0.574628    3.419292    0.000000
      8         35           0       -1.993905    1.336595    0.000000
      9         35           0       -1.443128   -1.897242    0.000000
     10         35           0        1.645284   -3.040003    0.000000
     11          1           0        3.422238   -0.663454    0.000000
 ---------------------------------------------------------------------
 Rotational constants (GHZ):           0.5961183           0.2310615           0.1665176

 **********************************************************************

            Population analysis using the SCF Density.

 **********************************************************************

 Orbital symmetries:
       Occupied  (A') (A') (A') (A') (A') (A') (A') (A') (A') (A')
                 (A') (A') (A") (A') (A') (A") (A') (A") (A') (A')
                 (A") (A") (A') (A') (A") (A") (A')
       Virtual   (A') (A") (A") (A') (A') (A') (A") (A') (A') (A')
                 (A') (A') (A') (A')
 The electronic state is 1-A'.
 Alpha  occ. eigenvalues --   -1.29263  -1.10472  -1.08068  -1.02942  -1.01621
 Alpha  occ. eigenvalues --   -0.93032  -0.90136  -0.69007  -0.66683  -0.48990
 Alpha  occ. eigenvalues --   -0.46039  -0.42454  -0.40348  -0.38481  -0.35434
 Alpha  occ. eigenvalues --   -0.33058  -0.31175  -0.30759  -0.30128  -0.29354
 Alpha  occ. eigenvalues --   -0.28947  -0.26624  -0.26183  -0.24293  -0.20357
 Alpha  occ. eigenvalues --   -0.18587  -0.13471
 Alpha virt. eigenvalues --    0.14472   0.14740   0.15798   0.16140   0.16649
 Alpha virt. eigenvalues --    0.19121   0.26436   0.28981   0.30213   0.31323
 Alpha virt. eigenvalues --    0.32045   0.32965   0.36836   0.38613
          Condensed to atoms (all electrons):
               1          2          3          4          5          6
     1  C    4.331927   0.000000   0.000000   0.000000   0.000000   0.000000
     2  C    0.000000   4.137758   0.000000   0.000000   0.000000   0.000000
     3  C    0.000000   0.000000   4.122104   0.000000   0.000000   0.000000
     4  C    0.000000   0.000000   0.000000   4.203981   0.000000   0.000000
     5  C    0.000000   0.000000   0.000000   0.000000   4.139640   0.000000
     6  C    0.000000   0.000000   0.000000   0.000000   0.000000   4.113689
     7  Br   0.000000   0.000000   0.000000   0.000000   0.000000   0.000000
     8  Br   0.000000   0.000000   0.000000   0.000000   0.000000   0.000000
     9  Br   0.000000   0.000000   0.000000   0.000000   0.000000   0.000000
    10  Br   0.000000   0.000000   0.000000   0.000000   0.000000   0.000000
    11  H    0.000000   0.000000   0.000000   0.000000   0.000000   0.000000
               7          8          9         10         11
     1  C    0.000000   0.000000   0.000000   0.000000   0.000000
     2  C    0.000000   0.000000   0.000000   0.000000   0.000000
     3  C    0.000000   0.000000   0.000000   0.000000   0.000000
     4  C    0.000000   0.000000   0.000000   0.000000   0.000000
     5  C    0.000000   0.000000   0.000000   0.000000   0.000000
     6  C    0.000000   0.000000   0.000000   0.000000   0.000000
     7  Br   7.031238   0.000000   0.000000   0.000000   0.000000
     8  Br   0.000000   7.007707   0.000000   0.000000   0.000000
     9  Br   0.000000   0.000000   6.994948   0.000000   0.000000
    10  Br   0.000000   0.000000   0.000000   7.034361   0.000000
    11  H    0.000000   0.000000   0.000000   0.000000   0.882648
 Mulliken charges:
               1
     1  C   -0.331927
     2  C   -0.137758
     3  C   -0.122104
     4  C   -0.203981
     5  C   -0.139640
     6  C   -0.113689
     7  Br  -0.031238
     8  Br  -0.007707
     9  Br   0.005052
    10  Br  -0.034361
    11  H    0.117352
 Sum of Mulliken charges =  -1.00000
 Mulliken charges with hydrogens summed into heavy atoms:
               1
     1  C   -0.331927
     2  C   -0.137758
     3  C   -0.122104
     4  C   -0.203981
     5  C   -0.139640
     6  C    0.003663
     7  Br  -0.031238
     8  Br  -0.007707
     9  Br   0.005052
    10  Br  -0.034361
 Charge=             -1.0000 electrons
 Dipole moment (field-independent basis, Debye):
    X=             -5.2045    Y=             -3.1412    Z=              0.0000  Tot=              6.0790
 N-N= 2.880690401044D+02 E-N=-4.153206554123D+02  KE=-1.319411319438D+02
 Symmetry A'   KE=-1.007670542825D+02
 Symmetry A"   KE=-3.117407766122D+01
 1\1\GINC-SH02-01N25\FOpt\RAM1\ZDO\C6H1Br4(1-)\JLAPIER\28-Sep-2026\0\\#
  Opt AM1 SCF=XQC\\BrPh_2345_anion am1\\-1,1\C,0.0040605045,1.404146982
 3,0.\C,1.1930064256,0.6947805617,0.\C,1.2194894629,-0.7069629817,0.\C,
 0.0085940996,-1.4119597895,0.\C,-1.2023891878,-0.6997449787,0.\C,-1.19
 3615362,0.6944045134,0.\Br,2.819006988,1.6516878965,0.\Br,2.8471131742
 ,-1.6550019355,0.\Br,0.0021469193,-3.2881674478,0.\Br,-2.8447967212,-1
 .6331439335,0.\H,-2.1424754732,1.2499611129,0.\\Version=ES64L-G16RevB.
 01\State=1-A'\HF=0.0790943\RMSD=6.409e-09\RMSF=5.975e-05\Dipole=0.3498
 03,-2.3659277,0.\PG=CS [SG(C6H1Br4)]\\@


 THERE'S A SUCKER BORN EVERY MINUTE

              -- PHINEAS TAYLOR (P.T.) BARNUM
 Job cpu time:       0 days  0 hours  0 minutes  3.2 seconds.
 Elapsed time:       0 days  0 hours  0 minutes  3.5 seconds.
 File lengths (MBytes):  RWF=      6 Int=      0 D2E=      0 Chk=      3 Scr=      1
 Normal termination of Gaussian 16 at Mon Sep 28 01:25:38 2026.
