 Entering Gaussian System, Link 0=g16
 Initial command:
 /share/software/user/restricted/gaussian/g16.B01/l1.exe "/lscratch/jlapier/g16_45667787_69/Gau-28573.inp" -scrdir="/lscratch/jlapier/g16_45667787_69/"
 Entering Link 1 = /share/software/user/restricted/gaussian/g16.B01/l1.exe PID=     28579.
  
 Copyright (c) 1988-2017, Gaussian, Inc.  All Rights Reserved.
  
 This is part of the Gaussian(R) 16 program.  It is based on
 the Gaussian(R) 09 system (copyright 2009, Gaussian, Inc.),
 the Gaussian(R) 03 system (copyright 2003, Gaussian, Inc.),
 the Gaussian(R) 98 system (copyright 1998, Gaussian, Inc.),
 the Gaussian(R) 94 system (copyright 1995, Gaussian, Inc.),
 the Gaussian 92(TM) system (copyright 1992, Gaussian, Inc.),
 the Gaussian 90(TM) system (copyright 1990, Gaussian, Inc.),
 the Gaussian 88(TM) system (copyright 1988, Gaussian, Inc.),
 the Gaussian 86(TM) system (copyright 1986, Carnegie Mellon
 University), and the Gaussian 82(TM) system (copyright 1983,
 Carnegie Mellon University). Gaussian is a federally registered
 trademark of Gaussian, Inc.
  
 This software contains proprietary and confidential information,
 including trade secrets, belonging to Gaussian, Inc.
  
 This software is provided under written license and may be
 used, copied, transmitted, or stored only in accord with that
 written license.
  
 The following legend is applicable only to US Government
 contracts under FAR:
  
                    RESTRICTED RIGHTS LEGEND
  
 Use, reproduction and disclosure by the US Government is
 subject to restrictions as set forth in subparagraphs (a)
 and (c) of the Commercial Computer Software - Restricted
 Rights clause in FAR 52.227-19.
  
 Gaussian, Inc.
 340 Quinnipiac St., Bldg. 40, Wallingford CT 06492
  
  
 ---------------------------------------------------------------
 Warning -- This program may not be used in any manner that
 competes with the business of Gaussian, Inc. or will provide
 assistance to any competitor of Gaussian, Inc.  The licensee
 of this program is prohibited from giving any competitor of
 Gaussian, Inc. access to this program.  By using this program,
 the user acknowledges that Gaussian, Inc. is engaged in the
 business of creating and licensing software in the field of
 computational chemistry and represents and warrants to the
 licensee that it is not a competitor of Gaussian, Inc. and that
 it will not use this program in any manner prohibited above.
 ---------------------------------------------------------------
  

 Cite this work as:
 Gaussian 16, Revision B.01,
 M. J. Frisch, G. W. Trucks, H. B. Schlegel, G. E. Scuseria, 
 M. A. Robb, J. R. Cheeseman, G. Scalmani, V. Barone, 
 G. A. Petersson, H. Nakatsuji, X. Li, M. Caricato, A. V. Marenich, 
 J. Bloino, B. G. Janesko, R. Gomperts, B. Mennucci, H. P. Hratchian, 
 J. V. Ortiz, A. F. Izmaylov, J. L. Sonnenberg, D. Williams-Young, 
 F. Ding, F. Lipparini, F. Egidi, J. Goings, B. Peng, A. Petrone, 
 T. Henderson, D. Ranasinghe, V. G. Zakrzewski, J. Gao, N. Rega, 
 G. Zheng, W. Liang, M. Hada, M. Ehara, K. Toyota, R. Fukuda, 
 J. Hasegawa, M. Ishida, T. Nakajima, Y. Honda, O. Kitao, H. Nakai, 
 T. Vreven, K. Throssell, J. A. Montgomery, Jr., J. E. Peralta, 
 F. Ogliaro, M. J. Bearpark, J. J. Heyd, E. N. Brothers, K. N. Kudin, 
 V. N. Staroverov, T. A. Keith, R. Kobayashi, J. Normand, 
 K. Raghavachari, A. P. Rendell, J. C. Burant, S. S. Iyengar, 
 J. Tomasi, M. Cossi, J. M. Millam, M. Klene, C. Adamo, R. Cammi, 
 J. W. Ochterski, R. L. Martin, K. Morokuma, O. Farkas, 
 J. B. Foresman, and D. J. Fox, Gaussian, Inc., Wallingford CT, 2016.
 
 ******************************************
 Gaussian 16:  ES64L-G16RevB.01 20-Dec-2017
                28-Sep-2026 
 ******************************************
 %nprocshared=1
 Will use up to    1 processors via shared memory.
 %mem=1GB
 %chk=calcs/am1/chks/BrPh_2_anion.chk
 -----------------
 # Opt AM1 SCF=XQC
 -----------------
 1/18=20,19=15,26=1,38=1/1,3;
 2/9=110,12=2,17=6,18=5,40=1/2;
 3/5=2,25=1,41=700000,71=1/1,2,3;
 4/35=1/1;
 5/5=2,8=3,13=1,35=1,38=5/2,8;
 6/7=2,8=2,9=2,10=2,28=1/1;
 7//1,2,3,16;
 1/18=20,19=15,26=1/3(2);
 2/9=110/2;
 99//99;
 2/9=110/2;
 3/5=2,25=1,41=700000,71=1,135=20/1,2,3;
 4/5=5,16=3,35=1/1;
 5/5=2,8=3,13=1,35=1,38=5/2,8;
 7//1,2,3,16;
 1/18=20,19=15,26=1/3(-5);
 2/9=110/2;
 6/7=2,8=2,9=2,10=2,19=2,28=1/1;
 99/9=1/99;
 ----------------
 BrPh_2_anion am1
 ----------------
 Symbolic Z-matrix:
 Charge = -1 Multiplicity = 1
 C                     0.        1.39      0. 
 C                     1.20378   0.695     0. 
 C                     1.20378  -0.695     0. 
 C                     0.       -1.39      0. 
 C                    -1.20378  -0.695     0. 
 C                    -1.20378   0.695     0. 
 Br                    2.84922   1.645     0. 
 H                     2.13908  -1.235     0. 
 H                     0.       -2.47      0. 
 H                    -2.13908  -1.235     0. 
 H                    -2.13908   1.235     0. 
 

 GradGradGradGradGradGradGradGradGradGradGradGradGradGradGradGradGradGrad
 Berny optimization.
 Initialization pass.
                           ----------------------------
                           !    Initial Parameters    !
                           ! (Angstroms and Degrees)  !
 --------------------------                            --------------------------
 ! Name  Definition              Value          Derivative Info.                !
 --------------------------------------------------------------------------------
 ! R1    R(1,2)                  1.39           estimate D2E/DX2                !
 ! R2    R(1,6)                  1.39           estimate D2E/DX2                !
 ! R3    R(2,3)                  1.39           estimate D2E/DX2                !
 ! R4    R(2,7)                  1.9            estimate D2E/DX2                !
 ! R5    R(3,4)                  1.39           estimate D2E/DX2                !
 ! R6    R(3,8)                  1.08           estimate D2E/DX2                !
 ! R7    R(4,5)                  1.39           estimate D2E/DX2                !
 ! R8    R(4,9)                  1.08           estimate D2E/DX2                !
 ! R9    R(5,6)                  1.39           estimate D2E/DX2                !
 ! R10   R(5,10)                 1.08           estimate D2E/DX2                !
 ! R11   R(6,11)                 1.08           estimate D2E/DX2                !
 ! A1    A(2,1,6)              120.0            estimate D2E/DX2                !
 ! A2    A(1,2,3)              120.0            estimate D2E/DX2                !
 ! A3    A(1,2,7)              120.0            estimate D2E/DX2                !
 ! A4    A(3,2,7)              120.0            estimate D2E/DX2                !
 ! A5    A(2,3,4)              120.0            estimate D2E/DX2                !
 ! A6    A(2,3,8)              120.0            estimate D2E/DX2                !
 ! A7    A(4,3,8)              120.0            estimate D2E/DX2                !
 ! A8    A(3,4,5)              120.0            estimate D2E/DX2                !
 ! A9    A(3,4,9)              120.0            estimate D2E/DX2                !
 ! A10   A(5,4,9)              120.0            estimate D2E/DX2                !
 ! A11   A(4,5,6)              120.0            estimate D2E/DX2                !
 ! A12   A(4,5,10)             120.0            estimate D2E/DX2                !
 ! A13   A(6,5,10)             120.0            estimate D2E/DX2                !
 ! A14   A(1,6,5)              120.0            estimate D2E/DX2                !
 ! A15   A(1,6,11)             120.0            estimate D2E/DX2                !
 ! A16   A(5,6,11)             120.0            estimate D2E/DX2                !
 ! D1    D(6,1,2,3)              0.0            estimate D2E/DX2                !
 ! D2    D(6,1,2,7)            180.0            estimate D2E/DX2                !
 ! D3    D(2,1,6,5)              0.0            estimate D2E/DX2                !
 ! D4    D(2,1,6,11)           180.0            estimate D2E/DX2                !
 ! D5    D(1,2,3,4)              0.0            estimate D2E/DX2                !
 ! D6    D(1,2,3,8)            180.0            estimate D2E/DX2                !
 ! D7    D(7,2,3,4)            180.0            estimate D2E/DX2                !
 ! D8    D(7,2,3,8)              0.0            estimate D2E/DX2                !
 ! D9    D(2,3,4,5)              0.0            estimate D2E/DX2                !
 ! D10   D(2,3,4,9)            180.0            estimate D2E/DX2                !
 ! D11   D(8,3,4,5)            180.0            estimate D2E/DX2                !
 ! D12   D(8,3,4,9)              0.0            estimate D2E/DX2                !
 ! D13   D(3,4,5,6)              0.0            estimate D2E/DX2                !
 ! D14   D(3,4,5,10)           180.0            estimate D2E/DX2                !
 ! D15   D(9,4,5,6)            180.0            estimate D2E/DX2                !
 ! D16   D(9,4,5,10)             0.0            estimate D2E/DX2                !
 ! D17   D(4,5,6,1)              0.0            estimate D2E/DX2                !
 ! D18   D(4,5,6,11)           180.0            estimate D2E/DX2                !
 ! D19   D(10,5,6,1)           180.0            estimate D2E/DX2                !
 ! D20   D(10,5,6,11)            0.0            estimate D2E/DX2                !
 --------------------------------------------------------------------------------
 Trust Radius=3.00D-01 FncErr=1.00D-07 GrdErr=1.00D-07 EigMax=2.50D+02 EigMin=1.00D-04
 Number of steps in this run=     57 maximum allowed number of steps=    100.
 GradGradGradGradGradGradGradGradGradGradGradGradGradGradGradGradGradGrad

                          Input orientation:                          
 ---------------------------------------------------------------------
 Center     Atomic      Atomic             Coordinates (Angstroms)
 Number     Number       Type             X           Y           Z
 ---------------------------------------------------------------------
      1          6           0        0.000000    1.390000    0.000000
      2          6           0        1.203775    0.695000    0.000000
      3          6           0        1.203775   -0.695000    0.000000
      4          6           0        0.000000   -1.390000    0.000000
      5          6           0       -1.203775   -0.695000    0.000000
      6          6           0       -1.203775    0.695000    0.000000
      7         35           0        2.849224    1.645000    0.000000
      8          1           0        2.139083   -1.235000    0.000000
      9          1           0        0.000000   -2.470000    0.000000
     10          1           0       -2.139083   -1.235000    0.000000
     11          1           0       -2.139083    1.235000    0.000000
 ---------------------------------------------------------------------
                    Distance matrix (angstroms):
                    1          2          3          4          5
     1  C    0.000000
     2  C    1.390000   0.000000
     3  C    2.407551   1.390000   0.000000
     4  C    2.780000   2.407551   1.390000   0.000000
     5  C    2.407551   2.780000   2.407551   1.390000   0.000000
     6  C    1.390000   2.407551   2.780000   2.407551   1.390000
     7  Br   2.860612   1.900000   2.860612   4.162848   4.680000
     8  H    3.386193   2.144691   1.080000   2.144691   3.386193
     9  H    3.860000   3.386193   2.144691   1.080000   2.144691
    10  H    3.386193   3.860000   3.386193   2.144691   1.080000
    11  H    2.144691   3.386193   3.860000   3.386193   2.144691
                    6          7          8          9         10
     6  C    0.000000
     7  Br   4.162848   0.000000
     8  H    3.860000   2.966260   0.000000
     9  H    3.386193   5.005127   2.470000   0.000000
    10  H    2.144691   5.760000   4.278166   2.470000   0.000000
    11  H    1.080000   5.005127   4.940000   4.278165   2.470000
                   11
    11  H    0.000000
 Stoichiometry    C6H4Br(1-)
 Framework group  CS[SG(C6H4Br)]
 Deg. of freedom    19
 Full point group                 CS      NOp   2
 Largest Abelian subgroup         CS      NOp   2
 Largest concise Abelian subgroup C1      NOp   1
                         Standard orientation:                         
 ---------------------------------------------------------------------
 Center     Atomic      Atomic             Coordinates (Angstroms)
 Number     Number       Type             X           Y           Z
 ---------------------------------------------------------------------
      1          6           0        1.232296    0.790933    0.000000
      2          6           0        0.028521    0.095933    0.000000
      3          6           0       -1.175254    0.790933    0.000000
      4          6           0       -1.175254    2.180933    0.000000
      5          6           0        0.028521    2.875933    0.000000
      6          6           0        1.232296    2.180933    0.000000
      7         35           0        0.028521   -1.804067    0.000000
      8          1           0       -2.110562    0.250933    0.000000
      9          1           0       -2.110562    2.720933    0.000000
     10          1           0        0.028521    3.955933    0.000000
     11          1           0        2.167604    2.720933    0.000000
 ---------------------------------------------------------------------
 Rotational constants (GHZ):           6.0627416           0.9872740           0.8490176
 Standard basis: VSTO-6G (5D, 7F)
 There are    25 symmetry adapted cartesian basis functions of A'  symmetry.
 There are     7 symmetry adapted cartesian basis functions of A"  symmetry.
 There are    25 symmetry adapted basis functions of A'  symmetry.
 There are     7 symmetry adapted basis functions of A"  symmetry.
    32 basis functions,   192 primitive gaussians,    32 cartesian basis functions
    18 alpha electrons       18 beta electrons
       nuclear repulsion energy       150.7655755202 Hartrees.
 Integral buffers will be    131072 words long.
 Regular integral format.
 Two-electron integral symmetry is turned off.
 Do NDO integrals.
 One-electron integrals computed using PRISM.
 NBasis=    32 RedAO= T EigKep=  1.00D+00  NBF=    25     7
 NBsUse=    32 1.00D-06 EigRej= -1.00D+00 NBFU=    25     7
 Nonelectrostatic core Hamiltonian diagonalized for initial guess.
 Initial guess orbital symmetries:
       Occupied  (A') (A') (A') (A') (A') (A') (A') (A') (A') (A')
                 (A") (A') (A') (A") (A") (A') (A') (A")
       Virtual   (A') (A') (A") (A") (A') (A') (A') (A") (A') (A')
                 (A') (A') (A') (A')
 The electronic state of the initial guess is 1-A'.
 Keep J ints in memory in canonical form, NReq=862079.
 Overlap will be assumed to be unity.
 Requested convergence on RMS density matrix=1.00D-08 within  32 cycles.
 Requested convergence on MAX density matrix=1.00D-06.
 Requested convergence on             energy=1.00D-06.
 No special actions if energy rises.
 Fock symm off for IB=2 I1=    1 I=   26 J=   13 Cut=1.00D-07 Err=1.06D-02
 Fock matrix is not symmetric: symmetry in diagonalization turned off.
 SCF Done:  E(RAM1) =  0.845242984724E-01 A.U. after   17 cycles
            NFock= 16  Conv=0.21D-08     -V/T= 1.0012
 QCSCF skips out because SCF is already converged.

 **********************************************************************

            Population analysis using the SCF Density.

 **********************************************************************

 Orbital symmetries:
       Occupied  (A') (A') (A') (A') (A') (A') (A') (A') (A') (A')
                 (A") (A') (A') (A") (A') (A") (A") (A')
       Virtual   (A") (A") (A') (A") (A') (A') (A') (A') (A') (A')
                 (A') (A') (A') (A')
 The electronic state is 1-A'.
 Alpha  occ. eigenvalues --   -1.24899  -1.02310  -0.95195  -0.90171  -0.65712
 Alpha  occ. eigenvalues --   -0.63738  -0.46459  -0.39811  -0.38201  -0.34613
 Alpha  occ. eigenvalues --   -0.32264  -0.30871  -0.25957  -0.25797  -0.23069
 Alpha  occ. eigenvalues --   -0.17348  -0.14936  -0.08975
 Alpha virt. eigenvalues --    0.19646   0.21682   0.21812   0.31005   0.31182
 Alpha virt. eigenvalues --    0.32159   0.32605   0.34615   0.36756   0.36866
 Alpha virt. eigenvalues --    0.37895   0.38606   0.41902   0.43312
          Condensed to atoms (all electrons):
               1          2          3          4          5          6
     1  C    4.396696   0.000000   0.000000   0.000000   0.000000   0.000000
     2  C    0.000000   4.153133   0.000000   0.000000   0.000000   0.000000
     3  C    0.000000   0.000000   4.130720   0.000000   0.000000   0.000000
     4  C    0.000000   0.000000   0.000000   4.227639   0.000000   0.000000
     5  C    0.000000   0.000000   0.000000   0.000000   4.158067   0.000000
     6  C    0.000000   0.000000   0.000000   0.000000   0.000000   4.149240
     7  Br   0.000000   0.000000   0.000000   0.000000   0.000000   0.000000
     8  H    0.000000   0.000000   0.000000   0.000000   0.000000   0.000000
     9  H    0.000000   0.000000   0.000000   0.000000   0.000000   0.000000
    10  H    0.000000   0.000000   0.000000   0.000000   0.000000   0.000000
    11  H    0.000000   0.000000   0.000000   0.000000   0.000000   0.000000
               7          8          9         10         11
     1  C    0.000000   0.000000   0.000000   0.000000   0.000000
     2  C    0.000000   0.000000   0.000000   0.000000   0.000000
     3  C    0.000000   0.000000   0.000000   0.000000   0.000000
     4  C    0.000000   0.000000   0.000000   0.000000   0.000000
     5  C    0.000000   0.000000   0.000000   0.000000   0.000000
     6  C    0.000000   0.000000   0.000000   0.000000   0.000000
     7  Br   7.102513   0.000000   0.000000   0.000000   0.000000
     8  H    0.000000   0.917198   0.000000   0.000000   0.000000
     9  H    0.000000   0.000000   0.919894   0.000000   0.000000
    10  H    0.000000   0.000000   0.000000   0.929224   0.000000
    11  H    0.000000   0.000000   0.000000   0.000000   0.915677
 Mulliken charges:
               1
     1  C   -0.396696
     2  C   -0.153133
     3  C   -0.130720
     4  C   -0.227639
     5  C   -0.158067
     6  C   -0.149240
     7  Br  -0.102513
     8  H    0.082802
     9  H    0.080106
    10  H    0.070776
    11  H    0.084323
 Sum of Mulliken charges =  -1.00000
 Mulliken charges with hydrogens summed into heavy atoms:
               1
     1  C   -0.396696
     2  C   -0.153133
     3  C   -0.047918
     4  C   -0.147533
     5  C   -0.087290
     6  C   -0.064917
     7  Br  -0.102513
 Charge=             -1.0000 electrons
 Dipole moment (field-independent basis, Debye):
    X=             -3.7752    Y=             -2.3111    Z=              0.0000  Tot=              4.4264
 N-N= 1.507655755202D+02 E-N=-2.145060125604D+02  KE=-6.924954282010D+01
 Symmetry A'   KE=-5.452382016228D+01
 Symmetry A"   KE=-1.472572265783D+01
 Calling FoFJK, ICntrl=      2127 FMM=F ISym2X=1 I1Cent= 0 IOpClX= 0 NMat=1 NMatS=1 NMatT=0.
 ***** Axes restored to original set *****
 -------------------------------------------------------------------
 Center     Atomic                   Forces (Hartrees/Bohr)
 Number     Number              X              Y              Z
 -------------------------------------------------------------------
      1        6           0.008459024    0.013037568    0.000000000
      2        6          -0.018921089    0.008076708    0.000000000
      3        6           0.006393648    0.001168219    0.000000000
      4        6           0.002264188    0.002686753    0.000000000
      5        6          -0.002424432    0.005584839    0.000000000
      6        6           0.015379386   -0.003694811   -0.000000000
      7       35          -0.000973040   -0.001673846   -0.000000000
      8        1           0.011784256   -0.010180244   -0.000000000
      9        1           0.000701055   -0.012954601   -0.000000000
     10        1          -0.011813095   -0.008980718   -0.000000000
     11        1          -0.010849899    0.006930134   -0.000000000
 -------------------------------------------------------------------
 Cartesian Forces:  Max     0.018921089 RMS     0.007400093

 GradGradGradGradGradGradGradGradGradGradGradGradGradGradGradGradGradGrad
 Berny optimization.
 FormGI is forming the generalized inverse of G from B-inverse, IUseBI=4.
 Internal  Forces:  Max     0.015295587 RMS     0.005975179
 Search for a local minimum.
 Step number   1 out of a maximum of   57
 All quantities printed in internal units (Hartrees-Bohrs-Radians)
 Mixed Optimization -- RFO/linear search
 Second derivative matrix not updated -- first step.
 ITU=  0
     Eigenvalues ---    0.02221   0.02221   0.02221   0.02221   0.02221
     Eigenvalues ---    0.02221   0.02221   0.02221   0.16000   0.16000
     Eigenvalues ---    0.16000   0.16000   0.18251   0.22000   0.22409
     Eigenvalues ---    0.24407   0.25000   0.35994   0.35994   0.35994
     Eigenvalues ---    0.35994   0.42938   0.43516   0.47319   0.47319
     Eigenvalues ---    0.47319   0.47319
 RFO step:  Lambda=-4.84916200D-03 EMin= 2.22103665D-02
 Linear search not attempted -- first point.
 Iteration  1 RMS(Cart)=  0.02078788 RMS(Int)=  0.00016233
 Iteration  2 RMS(Cart)=  0.00017864 RMS(Int)=  0.00003905
 Iteration  3 RMS(Cart)=  0.00000002 RMS(Int)=  0.00003905
 ClnCor:  largest displacement from symmetrization is 1.75D-11 for atom     9.
 Variable       Old X    -DE/DX   Delta X   Delta X   Delta X     New X
                                 (Linear)    (Quad)   (Total)
    R1        2.62672  -0.00449   0.00000  -0.01046  -0.01043   2.61629
    R2        2.62672   0.00379   0.00000   0.00682   0.00678   2.63350
    R3        2.62672   0.01197   0.00000   0.02508   0.02514   2.65186
    R4        3.59048  -0.00168   0.00000  -0.00896  -0.00896   3.58151
    R5        2.62672   0.00727   0.00000   0.01630   0.01634   2.64306
    R6        2.04090   0.01530   0.00000   0.04193   0.04193   2.08283
    R7        2.62672   0.01201   0.00000   0.02619   0.02616   2.65288
    R8        2.04090   0.01295   0.00000   0.03551   0.03551   2.07642
    R9        2.62672   0.01070   0.00000   0.02236   0.02229   2.64901
   R10        2.04090   0.01472   0.00000   0.04035   0.04035   2.08126
   R11        2.04090   0.01286   0.00000   0.03526   0.03526   2.07616
    A1        2.09440  -0.00793   0.00000  -0.03659  -0.03660   2.05779
    A2        2.09440   0.01166   0.00000   0.04427   0.04436   2.13876
    A3        2.09440  -0.00410   0.00000  -0.01535  -0.01540   2.07900
    A4        2.09440  -0.00756   0.00000  -0.02892  -0.02896   2.06543
    A5        2.09440  -0.00532   0.00000  -0.02073  -0.02062   2.07378
    A6        2.09440   0.00565   0.00000   0.02846   0.02841   2.12281
    A7        2.09440  -0.00032   0.00000  -0.00774  -0.00779   2.08660
    A8        2.09440  -0.00245   0.00000  -0.00571  -0.00570   2.08869
    A9        2.09440   0.00051   0.00000  -0.00148  -0.00149   2.09291
   A10        2.09440   0.00194   0.00000   0.00720   0.00719   2.10159
   A11        2.09440  -0.00156   0.00000  -0.00421  -0.00430   2.09010
   A12        2.09440  -0.00113   0.00000  -0.00948  -0.00943   2.08496
   A13        2.09440   0.00269   0.00000   0.01368   0.01373   2.10813
   A14        2.09440   0.00560   0.00000   0.02297   0.02287   2.11726
   A15        2.09440  -0.00339   0.00000  -0.01505  -0.01500   2.07939
   A16        2.09440  -0.00221   0.00000  -0.00791  -0.00786   2.08653
    D1        0.00000   0.00000   0.00000   0.00000   0.00000   0.00000
    D2        3.14159  -0.00000   0.00000  -0.00000   0.00000   3.14159
    D3        0.00000   0.00000   0.00000   0.00000   0.00000   0.00000
    D4        3.14159   0.00000   0.00000   0.00000   0.00000   3.14159
    D5        0.00000  -0.00000   0.00000  -0.00000   0.00000   0.00000
    D6        3.14159  -0.00000   0.00000  -0.00000   0.00000   3.14159
    D7        3.14159   0.00000   0.00000   0.00000   0.00000   3.14159
    D8        0.00000   0.00000   0.00000   0.00000   0.00000   0.00000
    D9        0.00000   0.00000   0.00000   0.00000   0.00000   0.00000
   D10        3.14159  -0.00000   0.00000  -0.00000   0.00000   3.14159
   D11        3.14159   0.00000   0.00000   0.00000   0.00000   3.14159
   D12        0.00000   0.00000   0.00000   0.00000   0.00000   0.00000
   D13        0.00000   0.00000   0.00000   0.00000   0.00000   0.00000
   D14        3.14159  -0.00000   0.00000  -0.00000   0.00000   3.14159
   D15        3.14159   0.00000   0.00000   0.00000   0.00000   3.14159
   D16        0.00000   0.00000   0.00000   0.00000   0.00000   0.00000
   D17        0.00000  -0.00000   0.00000  -0.00000   0.00000   0.00000
   D18        3.14159  -0.00000   0.00000  -0.00000   0.00000   3.14159
   D19        3.14159   0.00000   0.00000   0.00000   0.00000   3.14159
   D20        0.00000   0.00000   0.00000   0.00000   0.00000   0.00000
         Item               Value     Threshold  Converged?
 Maximum Force            0.015296     0.000450     NO 
 RMS     Force            0.005975     0.000300     NO 
 Maximum Displacement     0.062089     0.001800     NO 
 RMS     Displacement     0.020759     0.001200     NO 
 Predicted change in Energy=-2.461042D-03
 GradGradGradGradGradGradGradGradGradGradGradGradGradGradGradGradGradGrad

                          Input orientation:                          
 ---------------------------------------------------------------------
 Center     Atomic      Atomic             Coordinates (Angstroms)
 Number     Number       Type             X           Y           Z
 ---------------------------------------------------------------------
      1          6           0        0.001454    1.422856    0.000000
      2          6           0        1.184814    0.704213    0.000000
      3          6           0        1.215959   -0.698745    0.000000
      4          6           0        0.005800   -1.399976    0.000000
      5          6           0       -1.207056   -0.693041    0.000000
      6          6           0       -1.195243    0.708707    0.000000
      7         35           0        2.832530    1.640710    0.000000
      8          1           0        2.167038   -1.255762    0.000000
      9          1           0        0.009166   -2.498763    0.000000
     10          1           0       -2.157923   -1.248769    0.000000
     11          1           0       -2.146398    1.258571    0.000000
 ---------------------------------------------------------------------
                    Distance matrix (angstroms):
                    1          2          3          4          5
     1  C    0.000000
     2  C    1.384482   0.000000
     3  C    2.444630   1.403304   0.000000
     4  C    2.822836   2.411988   1.398646   0.000000
     5  C    2.436702   2.770083   2.423022   1.403844   0.000000
     6  C    1.393590   2.380061   2.791920   2.426736   1.401798
     7  Br   2.839446   1.895256   2.843651   4.151647   4.665260
     8  H    3.444525   2.192319   1.102188   2.166044   3.420697
     9  H    3.921627   3.411921   2.167121   1.098792   2.177115
    10  H    3.435185   3.871438   3.418422   2.169000   1.101354
    11  H    2.154126   3.377024   3.890570   3.420502   2.165907
                    6          7          8          9         10
     6  C    0.000000
     7  Br   4.134197   0.000000
     8  H    3.894107   2.971940   0.000000
     9  H    3.426144   5.010651   2.490274   0.000000
    10  H    2.181391   5.766603   4.324967   2.501751   0.000000
    11  H    1.098657   4.993572   4.992755   4.331746   2.507367
                   11
    11  H    0.000000
 Stoichiometry    C6H4Br(1-)
 Framework group  CS[SG(C6H4Br)]
 Deg. of freedom    19
 Full point group                 CS      NOp   2
 Largest Abelian subgroup         CS      NOp   2
 Largest concise Abelian subgroup C1      NOp   1
                         Standard orientation:                         
 ---------------------------------------------------------------------
 Center     Atomic      Atomic             Coordinates (Angstroms)
 Number     Number       Type             X           Y           Z
 ---------------------------------------------------------------------
      1          6           0        0.873524    1.184274   -0.000000
      2          6           0       -0.000000    0.110149    0.000000
      3          6           0       -1.394066    0.270901    0.000000
      4          6           0       -1.923452    1.565490    0.000000
      5          6           0       -1.057498    2.670434    0.000000
      6          6           0        0.329502    2.467291   -0.000000
      7         35           0        0.702690   -1.650028   -0.000000
      8          1           0       -2.075755   -0.595193    0.000000
      9          1           0       -3.012403    1.712220    0.000000
     10          1           0       -1.478157    3.688288    0.000000
     11          1           0        1.004116    3.334438   -0.000000
 ---------------------------------------------------------------------
 Rotational constants (GHZ):           5.9188639           0.9975571           0.8536792
 Standard basis: VSTO-6G (5D, 7F)
 There are    25 symmetry adapted cartesian basis functions of A'  symmetry.
 There are     7 symmetry adapted cartesian basis functions of A"  symmetry.
 There are    25 symmetry adapted basis functions of A'  symmetry.
 There are     7 symmetry adapted basis functions of A"  symmetry.
    32 basis functions,   192 primitive gaussians,    32 cartesian basis functions
    18 alpha electrons       18 beta electrons
       nuclear repulsion energy       150.4161768359 Hartrees.
 Integral buffers will be    131072 words long.
 Regular integral format.
 Two-electron integral symmetry is turned off.
 Do NDO integrals.
 One-electron integrals computed using PRISM.
 NBasis=    32 RedAO= T EigKep=  1.00D+00  NBF=    25     7
 NBsUse=    32 1.00D-06 EigRej= -1.00D+00 NBFU=    25     7
 Initial guess from the checkpoint file:  "calcs/am1/chks/BrPh_2_anion.chk"
 B after Tr=     0.000000   -0.000000   -0.000000
         Rot=    0.981354   -0.000000    0.000000   -0.192210 Ang= -22.16 deg.
 Initial guess orbital symmetries:
       Occupied  (A') (A') (A') (A') (A') (A') (A') (A') (A') (A')
                 (A") (A') (A') (A") (A') (A") (A") (A')
       Virtual   (A") (A") (A') (A") (A') (A') (A') (A') (A') (A')
                 (A') (A') (A') (A')
 Keep J ints in memory in canonical form, NReq=862079.
 Overlap will be assumed to be unity.
 Requested convergence on RMS density matrix=1.00D-08 within  32 cycles.
 Requested convergence on MAX density matrix=1.00D-06.
 Requested convergence on             energy=1.00D-06.
 No special actions if energy rises.
 Fock symm off for IB=2 I1=    1 I=   26 J=    5 Cut=1.00D-07 Err=9.24D-04
 Fock matrix is not symmetric: symmetry in diagonalization turned off.
 SCF Done:  E(RAM1) =  0.824850511797E-01 A.U. after   14 cycles
            NFock= 13  Conv=0.39D-08     -V/T= 1.0012
 QCSCF skips out because SCF is already converged.
 Calling FoFJK, ICntrl=      2127 FMM=F ISym2X=1 I1Cent= 0 IOpClX= 0 NMat=1 NMatS=1 NMatT=0.
 ***** Axes restored to original set *****
 -------------------------------------------------------------------
 Center     Atomic                   Forces (Hartrees/Bohr)
 Number     Number              X              Y              Z
 -------------------------------------------------------------------
      1        6           0.000677579    0.002023922   -0.000000000
      2        6          -0.004733706   -0.007320035    0.000000000
      3        6          -0.001416216    0.001796032    0.000000000
      4        6          -0.000362843    0.005640017    0.000000000
      5        6           0.002859824    0.006193616    0.000000000
      6        6           0.000582746   -0.011364604    0.000000000
      7       35           0.003155910    0.000658706    0.000000000
      8        1          -0.002244807    0.000860852   -0.000000000
      9        1          -0.000220838    0.001578090   -0.000000000
     10        1           0.001879828    0.000505125   -0.000000000
     11        1          -0.000177478   -0.000571721   -0.000000000
 -------------------------------------------------------------------
 Cartesian Forces:  Max     0.011364604 RMS     0.003097471

 GradGradGradGradGradGradGradGradGradGradGradGradGradGradGradGradGradGrad
 Berny optimization.
 Using GEDIIS/GDIIS optimizer.
 FormGI is forming the generalized inverse of G from B-inverse, IUseBI=4.
 Internal  Forces:  Max     0.010249477 RMS     0.002367774
 Search for a local minimum.
 Step number   2 out of a maximum of   57
 All quantities printed in internal units (Hartrees-Bohrs-Radians)
 Mixed Optimization -- RFO/linear search
 Update second derivatives using D2CorX and points    1    2
 DE= -2.04D-03 DEPred=-2.46D-03 R= 8.29D-01
 TightC=F SS=  1.41D+00  RLast= 1.23D-01 DXNew= 5.0454D-01 3.6835D-01
 Trust test= 8.29D-01 RLast= 1.23D-01 DXMaxT set to 3.68D-01
 ITU=  1  0
 Use linear search instead of GDIIS.
     Eigenvalues ---    0.02221   0.02221   0.02221   0.02221   0.02221
     Eigenvalues ---    0.02221   0.02221   0.02221   0.15617   0.16000
     Eigenvalues ---    0.16000   0.16032   0.18242   0.21139   0.22350
     Eigenvalues ---    0.22603   0.25063   0.35059   0.35994   0.35994
     Eigenvalues ---    0.36200   0.42917   0.44393   0.46979   0.47319
     Eigenvalues ---    0.47319   0.63977
 RFO step:  Lambda=-3.99397029D-04 EMin= 2.22103665D-02
 Quartic linear search produced a step of -0.13142.
 Iteration  1 RMS(Cart)=  0.00726063 RMS(Int)=  0.00002204
 Iteration  2 RMS(Cart)=  0.00002963 RMS(Int)=  0.00000551
 Iteration  3 RMS(Cart)=  0.00000000 RMS(Int)=  0.00000551
 ClnCor:  largest displacement from symmetrization is 2.58D-12 for atom     8.
 Variable       Old X    -DE/DX   Delta X   Delta X   Delta X     New X
                                 (Linear)    (Quad)   (Total)
    R1        2.61629  -0.00031   0.00137  -0.00218  -0.00081   2.61548
    R2        2.63350   0.00095  -0.00089   0.00352   0.00263   2.63614
    R3        2.65186  -0.00630  -0.00330  -0.00596  -0.00927   2.64259
    R4        3.58151   0.00307   0.00118   0.01270   0.01388   3.59539
    R5        2.64306  -0.00587  -0.00215  -0.00765  -0.00981   2.63325
    R6        2.08283  -0.00237  -0.00551   0.00314  -0.00237   2.08046
    R7        2.65288  -0.00632  -0.00344  -0.00666  -0.01009   2.64279
    R8        2.07642  -0.00158  -0.00467   0.00369  -0.00097   2.07544
    R9        2.64901  -0.01025  -0.00293  -0.01433  -0.01725   2.63177
   R10        2.08126  -0.00188  -0.00530   0.00400  -0.00131   2.07995
   R11        2.07616  -0.00013  -0.00463   0.00713   0.00249   2.07865
    A1        2.05779  -0.00295   0.00481  -0.01553  -0.01071   2.04708
    A2        2.13876   0.00024  -0.00583   0.01156   0.00572   2.14447
    A3        2.07900   0.00165   0.00202   0.00177   0.00380   2.08280
    A4        2.06543  -0.00189   0.00381  -0.01333  -0.00952   2.05591
    A5        2.07378  -0.00033   0.00271  -0.00608  -0.00339   2.07039
    A6        2.12281   0.00057  -0.00373   0.00902   0.00529   2.12810
    A7        2.08660  -0.00024   0.00102  -0.00294  -0.00191   2.08470
    A8        2.08869   0.00156   0.00075   0.00259   0.00333   2.09203
    A9        2.09291  -0.00055   0.00020  -0.00099  -0.00079   2.09212
   A10        2.10159  -0.00100  -0.00095  -0.00161  -0.00255   2.09904
   A11        2.09010   0.00059   0.00056  -0.00073  -0.00015   2.08994
   A12        2.08496  -0.00083   0.00124  -0.00494  -0.00370   2.08126
   A13        2.10813   0.00024  -0.00180   0.00566   0.00385   2.11198
   A14        2.11726   0.00088  -0.00301   0.00819   0.00520   2.12246
   A15        2.07939   0.00016   0.00197  -0.00156   0.00041   2.07980
   A16        2.08653  -0.00105   0.00103  -0.00663  -0.00561   2.08092
    D1        0.00000   0.00000   0.00000   0.00000   0.00000   0.00000
    D2        3.14159  -0.00000   0.00000  -0.00000   0.00000   3.14159
    D3       -0.00000   0.00000   0.00000   0.00000   0.00000   0.00000
    D4        3.14159   0.00000   0.00000   0.00000   0.00000   3.14159
    D5       -0.00000  -0.00000   0.00000  -0.00000   0.00000   0.00000
    D6        3.14159  -0.00000   0.00000  -0.00000   0.00000   3.14159
    D7        3.14159   0.00000   0.00000   0.00000   0.00000   3.14159
    D8        0.00000  -0.00000   0.00000  -0.00000   0.00000   0.00000
    D9        0.00000   0.00000   0.00000   0.00000  -0.00000   0.00000
   D10        3.14159  -0.00000   0.00000  -0.00000   0.00000   3.14159
   D11        3.14159   0.00000   0.00000   0.00000   0.00000   3.14159
   D12       -0.00000   0.00000   0.00000   0.00000   0.00000   0.00000
   D13       -0.00000   0.00000   0.00000   0.00000   0.00000   0.00000
   D14        3.14159  -0.00000   0.00000  -0.00000   0.00000   3.14159
   D15        3.14159   0.00000   0.00000   0.00000   0.00000   3.14159
   D16        0.00000  -0.00000   0.00000  -0.00000  -0.00000   0.00000
   D17        0.00000  -0.00000   0.00000  -0.00000  -0.00000   0.00000
   D18        3.14159  -0.00000   0.00000  -0.00000   0.00000   3.14159
   D19        3.14159   0.00000   0.00000   0.00000   0.00000   3.14159
   D20        0.00000  -0.00000   0.00000  -0.00000   0.00000   0.00000
         Item               Value     Threshold  Converged?
 Maximum Force            0.010249     0.000450     NO 
 RMS     Force            0.002368     0.000300     NO 
 Maximum Displacement     0.021569     0.001800     NO 
 RMS     Displacement     0.007275     0.001200     NO 
 Predicted change in Energy=-2.480988D-04
 GradGradGradGradGradGradGradGradGradGradGradGradGradGradGradGradGradGrad

                          Input orientation:                          
 ---------------------------------------------------------------------
 Center     Atomic      Atomic             Coordinates (Angstroms)
 Number     Number       Type             X           Y           Z
 ---------------------------------------------------------------------
      1          6           0       -0.000609    1.426233    0.000000
      2          6           0        1.179472    0.703041   -0.000000
      3          6           0        1.212857   -0.694958   -0.000000
      4          6           0        0.005996   -1.391527   -0.000000
      5          6           0       -1.203388   -0.689248   -0.000000
      6          6           0       -1.193705    0.703389    0.000000
      7         35           0        2.840894    1.630166    0.000000
      8          1           0        2.160835   -1.254770   -0.000000
      9          1           0        0.008349   -2.489802   -0.000000
     10          1           0       -2.150685   -1.249683   -0.000000
     11          1           0       -2.149876    1.247158    0.000000
 ---------------------------------------------------------------------
                    Distance matrix (angstroms):
                    1          2          3          4          5
     1  C    0.000000
     2  C    1.384051   0.000000
     3  C    2.443757   1.398398   0.000000
     4  C    2.817768   2.400887   1.393456   0.000000
     5  C    2.433504   2.759800   2.416252   1.398502   0.000000
     6  C    1.394984   2.373177   2.783328   2.414116   1.392671
     7  Br   2.848812   1.902599   2.838435   4.143341   4.662178
     8  H    3.443780   2.190000   1.100933   2.159174   3.411424
     9  H    3.916046   3.400850   2.161551   1.098278   2.170323
    10  H    3.432689   3.860451   3.408978   2.161341   1.100663
    11  H    2.156715   3.373518   3.883270   3.407410   2.155343
                    6          7          8          9         10
     6  C    0.000000
     7  Br   4.139674   0.000000
     8  H    3.884241   2.964008   0.000000
     9  H    3.411950   4.999745   2.481632   0.000000
    10  H    2.174926   5.762760   4.311524   2.489845   0.000000
    11  H    1.099976   5.005446   4.984162   4.315415   2.496840
                   11
    11  H    0.000000
 Stoichiometry    C6H4Br(1-)
 Framework group  CS[SG(C6H4Br)]
 Deg. of freedom    19
 Full point group                 CS      NOp   2
 Largest Abelian subgroup         CS      NOp   2
 Largest concise Abelian subgroup C1      NOp   1
                         Standard orientation:                         
 ---------------------------------------------------------------------
 Center     Atomic      Atomic             Coordinates (Angstroms)
 Number     Number       Type             X           Y           Z
 ---------------------------------------------------------------------
      1          6           0        0.841692    1.217254    0.000000
      2          6           0        0.000000    0.118549    0.000000
      3          6           0       -1.393922    0.230349    0.000000
      4          6           0       -1.961555    1.502950    0.000000
      5          6           0       -1.137623    2.632969    0.000000
      6          6           0        0.246498    2.478890    0.000000
      7         35           0        0.749798   -1.630075    0.000000
      8          1           0       -2.049041   -0.654451    0.000000
      9          1           0       -3.054150    1.614525    0.000000
     10          1           0       -1.596779    3.633287    0.000000
     11          1           0        0.886510    3.373503    0.000000
 ---------------------------------------------------------------------
 Rotational constants (GHZ):           5.9528864           0.9975623           0.8543873
 Standard basis: VSTO-6G (5D, 7F)
 There are    25 symmetry adapted cartesian basis functions of A'  symmetry.
 There are     7 symmetry adapted cartesian basis functions of A"  symmetry.
 There are    25 symmetry adapted basis functions of A'  symmetry.
 There are     7 symmetry adapted basis functions of A"  symmetry.
    32 basis functions,   192 primitive gaussians,    32 cartesian basis functions
    18 alpha electrons       18 beta electrons
       nuclear repulsion energy       150.5539938005 Hartrees.
 Integral buffers will be    131072 words long.
 Regular integral format.
 Two-electron integral symmetry is turned off.
 Do NDO integrals.
 One-electron integrals computed using PRISM.
 NBasis=    32 RedAO= T EigKep=  1.00D+00  NBF=    25     7
 NBsUse=    32 1.00D-06 EigRej= -1.00D+00 NBFU=    25     7
 Initial guess from the checkpoint file:  "calcs/am1/chks/BrPh_2_anion.chk"
 B after Tr=    -0.000000   -0.000000    0.000000
         Rot=    0.999885    0.000000   -0.000000   -0.015140 Ang=  -1.74 deg.
 Initial guess orbital symmetries:
       Occupied  (A') (A') (A') (A') (A') (A') (A') (A') (A') (A')
                 (A") (A') (A') (A") (A') (A") (A") (A')
       Virtual   (A") (A") (A') (A') (A") (A') (A') (A') (A') (A')
                 (A') (A') (A') (A')
 Keep J ints in memory in canonical form, NReq=862079.
 Overlap will be assumed to be unity.
 Requested convergence on RMS density matrix=1.00D-08 within  32 cycles.
 Requested convergence on MAX density matrix=1.00D-06.
 Requested convergence on             energy=1.00D-06.
 No special actions if energy rises.
 Fock symm off for IB=2 I1=    1 I=   26 J=   14 Cut=1.00D-07 Err=2.28D-04
 Fock matrix is not symmetric: symmetry in diagonalization turned off.
 SCF Done:  E(RAM1) =  0.822430125352E-01 A.U. after   12 cycles
            NFock= 11  Conv=0.34D-08     -V/T= 1.0012
 QCSCF skips out because SCF is already converged.
 Calling FoFJK, ICntrl=      2127 FMM=F ISym2X=1 I1Cent= 0 IOpClX= 0 NMat=1 NMatS=1 NMatT=0.
 ***** Axes restored to original set *****
 -------------------------------------------------------------------
 Center     Atomic                   Forces (Hartrees/Bohr)
 Number     Number              X              Y              Z
 -------------------------------------------------------------------
      1        6           0.000678530    0.002055970    0.000000000
      2        6          -0.000204003   -0.000412183    0.000000000
      3        6           0.002476851   -0.000375224   -0.000000000
      4        6           0.000487664   -0.002566993    0.000000000
      5        6          -0.002233502    0.000319395    0.000000000
      6        6          -0.002372774   -0.000805127   -0.000000000
      7       35           0.001059776    0.000273687    0.000000000
      8        1          -0.001042511    0.000650846   -0.000000000
      9        1          -0.000122599    0.000600645   -0.000000000
     10        1           0.000789880    0.000273495   -0.000000000
     11        1           0.000482689   -0.000014511   -0.000000000
 -------------------------------------------------------------------
 Cartesian Forces:  Max     0.002566993 RMS     0.001005843

 GradGradGradGradGradGradGradGradGradGradGradGradGradGradGradGradGradGrad
 Berny optimization.
 Using GEDIIS/GDIIS optimizer.
 FormGI is forming the generalized inverse of G from B-inverse, IUseBI=4.
 Internal  Forces:  Max     0.002225031 RMS     0.000614254
 Search for a local minimum.
 Step number   3 out of a maximum of   57
 All quantities printed in internal units (Hartrees-Bohrs-Radians)
 Mixed Optimization -- En-DIIS/RFO-DIIS
 Update second derivatives using D2CorX and points    1    2    3
 DE= -2.42D-04 DEPred=-2.48D-04 R= 9.76D-01
 TightC=F SS=  1.41D+00  RLast= 3.46D-02 DXNew= 6.1948D-01 1.0381D-01
 Trust test= 9.76D-01 RLast= 3.46D-02 DXMaxT set to 3.68D-01
 ITU=  1  1  0
 Use linear search instead of GDIIS.
     Eigenvalues ---    0.02221   0.02221   0.02221   0.02221   0.02221
     Eigenvalues ---    0.02221   0.02221   0.02221   0.14734   0.16000
     Eigenvalues ---    0.16015   0.16092   0.16971   0.21296   0.22239
     Eigenvalues ---    0.22496   0.24987   0.35690   0.35994   0.36004
     Eigenvalues ---    0.37375   0.42889   0.43879   0.45726   0.47319
     Eigenvalues ---    0.47615   0.74560
 RFO step:  Lambda=-4.21410952D-05 EMin= 2.22103665D-02
 Quartic linear search produced a step of -0.02743.
 Iteration  1 RMS(Cart)=  0.00208328 RMS(Int)=  0.00000231
 Iteration  2 RMS(Cart)=  0.00000338 RMS(Int)=  0.00000018
 Iteration  3 RMS(Cart)=  0.00000000 RMS(Int)=  0.00000018
 ClnCor:  largest displacement from symmetrization is 2.73D-10 for atom     9.
 Variable       Old X    -DE/DX   Delta X   Delta X   Delta X     New X
                                 (Linear)    (Quad)   (Total)
    R1        2.61548   0.00135   0.00002   0.00259   0.00261   2.61809
    R2        2.63614   0.00223  -0.00007   0.00496   0.00489   2.64102
    R3        2.64259   0.00061   0.00025   0.00022   0.00047   2.64306
    R4        3.59539   0.00106  -0.00038   0.00733   0.00695   3.60234
    R5        2.63325   0.00145   0.00027   0.00180   0.00207   2.63532
    R6        2.08046  -0.00123   0.00007  -0.00333  -0.00326   2.07720
    R7        2.64279   0.00186   0.00028   0.00272   0.00299   2.64578
    R8        2.07544  -0.00060   0.00003  -0.00150  -0.00147   2.07397
    R9        2.63177   0.00049   0.00047  -0.00101  -0.00053   2.63123
   R10        2.07995  -0.00082   0.00004  -0.00210  -0.00206   2.07789
   R11        2.07865  -0.00043  -0.00007  -0.00059  -0.00066   2.07799
    A1        2.04708  -0.00026   0.00029  -0.00259  -0.00229   2.04478
    A2        2.14447   0.00024  -0.00016   0.00188   0.00172   2.14620
    A3        2.08280   0.00038  -0.00010   0.00189   0.00178   2.08458
    A4        2.05591  -0.00062   0.00026  -0.00377  -0.00351   2.05240
    A5        2.07039   0.00009   0.00009  -0.00028  -0.00018   2.07020
    A6        2.12810  -0.00008  -0.00015   0.00053   0.00039   2.12849
    A7        2.08470  -0.00002   0.00005  -0.00026  -0.00020   2.08449
    A8        2.09203  -0.00017  -0.00009  -0.00039  -0.00048   2.09155
    A9        2.09212   0.00021   0.00002   0.00104   0.00106   2.09318
   A10        2.09904  -0.00004   0.00007  -0.00065  -0.00058   2.09846
   A11        2.08994   0.00010   0.00000   0.00048   0.00048   2.09042
   A12        2.08126  -0.00022   0.00010  -0.00185  -0.00175   2.07951
   A13        2.11198   0.00012  -0.00011   0.00137   0.00127   2.11325
   A14        2.12246  -0.00001  -0.00014   0.00089   0.00075   2.12321
   A15        2.07980  -0.00023  -0.00001  -0.00151  -0.00152   2.07828
   A16        2.08092   0.00024   0.00015   0.00062   0.00077   2.08169
    D1        0.00000  -0.00000   0.00000  -0.00000  -0.00000   0.00000
    D2        3.14159  -0.00000   0.00000  -0.00000   0.00000   3.14159
    D3        0.00000   0.00000   0.00000   0.00000   0.00000   0.00000
    D4        3.14159   0.00000   0.00000   0.00000   0.00000   3.14159
    D5       -0.00000  -0.00000   0.00000  -0.00000   0.00000   0.00000
    D6        3.14159  -0.00000   0.00000  -0.00000   0.00000   3.14159
    D7        3.14159   0.00000   0.00000   0.00000   0.00000   3.14159
    D8       -0.00000  -0.00000   0.00000  -0.00000   0.00000   0.00000
    D9       -0.00000   0.00000   0.00000   0.00000   0.00000   0.00000
   D10        3.14159  -0.00000   0.00000  -0.00000   0.00000   3.14159
   D11        3.14159   0.00000   0.00000   0.00000   0.00000   3.14159
   D12       -0.00000  -0.00000   0.00000  -0.00000   0.00000   0.00000
   D13        0.00000  -0.00000   0.00000  -0.00000   0.00000   0.00000
   D14        3.14159  -0.00000   0.00000  -0.00000   0.00000   3.14159
   D15        3.14159   0.00000   0.00000   0.00000   0.00000   3.14159
   D16       -0.00000   0.00000   0.00000   0.00000   0.00000   0.00000
   D17       -0.00000  -0.00000   0.00000  -0.00000   0.00000   0.00000
   D18        3.14159  -0.00000   0.00000  -0.00000   0.00000   3.14159
   D19        3.14159   0.00000   0.00000   0.00000   0.00000   3.14159
   D20        0.00000   0.00000   0.00000   0.00000  -0.00000   0.00000
         Item               Value     Threshold  Converged?
 Maximum Force            0.002225     0.000450     NO 
 RMS     Force            0.000614     0.000300     NO 
 Maximum Displacement     0.010126     0.001800     NO 
 RMS     Displacement     0.002084     0.001200     NO 
 Predicted change in Energy=-2.123411D-05
 GradGradGradGradGradGradGradGradGradGradGradGradGradGradGradGradGradGrad

                          Input orientation:                          
 ---------------------------------------------------------------------
 Center     Atomic      Atomic             Coordinates (Angstroms)
 Number     Number       Type             X           Y           Z
 ---------------------------------------------------------------------
      1          6           0       -0.001478    1.428745    0.000000
      2          6           0        1.179105    0.703731   -0.000000
      3          6           0        1.213602   -0.694492   -0.000000
      4          6           0        0.006215   -1.392342   -0.000000
      5          6           0       -1.204631   -0.689424   -0.000000
      6          6           0       -1.195799    0.702936    0.000000
      7         35           0        2.846253    1.628126    0.000000
      8          1           0        2.160321   -1.253045   -0.000000
      9          1           0        0.008069   -2.489838   -0.000000
     10          1           0       -2.149936   -1.251080   -0.000000
     11          1           0       -2.151579    1.246684    0.000000
 ---------------------------------------------------------------------
                    Distance matrix (angstroms):
                    1          2          3          4          5
     1  C    0.000000
     2  C    1.385432   0.000000
     3  C    2.446335   1.398649   0.000000
     4  C    2.821098   2.401915   1.394553   0.000000
     5  C    2.436026   2.760993   2.418238   1.400086   0.000000
     6  C    1.397570   2.374904   2.785322   2.415580   1.392389
     7  Br   2.854702   1.906276   2.839032   4.145967   4.666980
     8  H    3.444615   2.189008   1.099208   2.158605   3.411828
     9  H    3.918595   3.401501   2.162539   1.097498   2.170745
    10  H    3.434725   3.860544   3.409278   2.160773   1.099572
    11  H    2.157795   3.374649   3.884920   3.408890   2.155279
                    6          7          8          9         10
     6  C    0.000000
     7  Br   4.146584   0.000000
     8  H    3.884508   2.961697   0.000000
     9  H    3.412200   5.001291   2.482306   0.000000
    10  H    2.174525   5.766431   4.310257   2.488274   0.000000
    11  H    1.099626   5.012367   4.984087   4.315748   2.497765
                   11
    11  H    0.000000
 Stoichiometry    C6H4Br(1-)
 Framework group  CS[SG(C6H4Br)]
 Deg. of freedom    19
 Full point group                 CS      NOp   2
 Largest Abelian subgroup         CS      NOp   2
 Largest concise Abelian subgroup C1      NOp   1
                         Standard orientation:                         
 ---------------------------------------------------------------------
 Center     Atomic      Atomic             Coordinates (Angstroms)
 Number     Number       Type             X           Y           Z
 ---------------------------------------------------------------------
      1          6           0        0.827808    1.231877   -0.000000
      2          6           0       -0.000000    0.120951   -0.000000
      3          6           0       -1.395696    0.211786    0.000000
      4          6           0       -1.982637    1.476807    0.000000
      5          6           0       -1.174127    2.619852    0.000000
      6          6           0        0.211850    2.486388   -0.000000
      7         35           0        0.771411   -1.622268   -0.000000
      8          1           0       -2.036771   -0.681120    0.000000
      9          1           0       -3.075892    1.573226    0.000000
     10          1           0       -1.648888    3.611649    0.000000
     11          1           0        0.838991    3.389644   -0.000000
 ---------------------------------------------------------------------
 Rotational constants (GHZ):           5.9452404           0.9953518           0.8526082
 Standard basis: VSTO-6G (5D, 7F)
 There are    25 symmetry adapted cartesian basis functions of A'  symmetry.
 There are     7 symmetry adapted cartesian basis functions of A"  symmetry.
 There are    25 symmetry adapted basis functions of A'  symmetry.
 There are     7 symmetry adapted basis functions of A"  symmetry.
    32 basis functions,   192 primitive gaussians,    32 cartesian basis functions
    18 alpha electrons       18 beta electrons
       nuclear repulsion energy       150.4886276641 Hartrees.
 Integral buffers will be    131072 words long.
 Regular integral format.
 Two-electron integral symmetry is turned off.
 Do NDO integrals.
 One-electron integrals computed using PRISM.
 NBasis=    32 RedAO= T EigKep=  1.00D+00  NBF=    25     7
 NBsUse=    32 1.00D-06 EigRej= -1.00D+00 NBFU=    25     7
 Initial guess from the checkpoint file:  "calcs/am1/chks/BrPh_2_anion.chk"
 B after Tr=     0.000000    0.000000   -0.000000
         Rot=    0.999978    0.000000   -0.000000   -0.006675 Ang=  -0.76 deg.
 Initial guess orbital symmetries:
       Occupied  (A') (A') (A') (A') (A') (A') (A') (A') (A') (A')
                 (A") (A') (A") (A') (A') (A") (A") (A')
       Virtual   (A") (A") (A') (A') (A") (A') (A') (A') (A') (A')
                 (A') (A') (A') (A')
 Keep J ints in memory in canonical form, NReq=862079.
 Overlap will be assumed to be unity.
 Requested convergence on RMS density matrix=1.00D-08 within  32 cycles.
 Requested convergence on MAX density matrix=1.00D-06.
 Requested convergence on             energy=1.00D-06.
 No special actions if energy rises.
 Fock symm off for IB=2 I1=    1 I=   26 J=   18 Cut=1.00D-07 Err=1.10D-04
 Fock matrix is not symmetric: symmetry in diagonalization turned off.
 SCF Done:  E(RAM1) =  0.822226705759E-01 A.U. after   12 cycles
            NFock= 11  Conv=0.61D-08     -V/T= 1.0012
 QCSCF skips out because SCF is already converged.
 Calling FoFJK, ICntrl=      2127 FMM=F ISym2X=1 I1Cent= 0 IOpClX= 0 NMat=1 NMatS=1 NMatT=0.
 ***** Axes restored to original set *****
 -------------------------------------------------------------------
 Center     Atomic                   Forces (Hartrees/Bohr)
 Number     Number              X              Y              Z
 -------------------------------------------------------------------
      1        6           0.000388614   -0.000034565    0.000000000
      2        6          -0.000616120    0.000243900    0.000000000
      3        6           0.000011727   -0.000057665    0.000000000
      4        6           0.000338554   -0.000420544    0.000000000
      5        6          -0.000062623    0.000168135   -0.000000000
      6        6          -0.000099157   -0.000092407   -0.000000000
      7       35          -0.000303427   -0.000182718   -0.000000000
      8        1          -0.000092360    0.000088635   -0.000000000
      9        1          -0.000051699    0.000215833   -0.000000000
     10        1           0.000132102    0.000011324   -0.000000000
     11        1           0.000354387    0.000060071   -0.000000000
 -------------------------------------------------------------------
 Cartesian Forces:  Max     0.000616120 RMS     0.000196537

 GradGradGradGradGradGradGradGradGradGradGradGradGradGradGradGradGradGrad
 Berny optimization.
 Using GEDIIS/GDIIS optimizer.
 FormGI is forming the generalized inverse of G from B-inverse, IUseBI=4.
 Internal  Forces:  Max     0.000649952 RMS     0.000168253
 Search for a local minimum.
 Step number   4 out of a maximum of   57
 All quantities printed in internal units (Hartrees-Bohrs-Radians)
 Mixed Optimization -- En-DIIS/RFO-DIIS
 Swapping is turned off.
 Update second derivatives using D2CorX and points    1    2    3    4
 DE= -2.03D-05 DEPred=-2.12D-05 R= 9.58D-01
 TightC=F SS=  1.41D+00  RLast= 1.20D-02 DXNew= 6.1948D-01 3.6024D-02
 Trust test= 9.58D-01 RLast= 1.20D-02 DXMaxT set to 3.68D-01
 ITU=  1  1  1  0
     Eigenvalues ---    0.02221   0.02221   0.02221   0.02221   0.02221
     Eigenvalues ---    0.02221   0.02221   0.02221   0.13162   0.15973
     Eigenvalues ---    0.16000   0.16051   0.17712   0.21049   0.22029
     Eigenvalues ---    0.22457   0.25497   0.35108   0.35967   0.36005
     Eigenvalues ---    0.36272   0.42588   0.44854   0.45680   0.47317
     Eigenvalues ---    0.53650   0.76416
 En-DIIS/RFO-DIIS/Sim-DIIS IScMMF=       -3 using points:     4    3
 RFO step:  Lambda=-4.24187129D-06.
 DidBck=F Rises=F RFO-DIIS coefs:    1.08852   -0.08852
 Iteration  1 RMS(Cart)=  0.00085820 RMS(Int)=  0.00000034
 Iteration  2 RMS(Cart)=  0.00000041 RMS(Int)=  0.00000009
 ClnCor:  largest displacement from symmetrization is 7.76D-14 for atom     1.
 Variable       Old X    -DE/DX   Delta X   Delta X   Delta X     New X
                                 (Linear)    (Quad)   (Total)
    R1        2.61809  -0.00065   0.00023  -0.00134  -0.00111   2.61698
    R2        2.64102  -0.00024   0.00043  -0.00039   0.00004   2.64106
    R3        2.64306  -0.00003   0.00004  -0.00014  -0.00009   2.64297
    R4        3.60234  -0.00035   0.00062  -0.00163  -0.00102   3.60132
    R5        2.63532  -0.00026   0.00018  -0.00054  -0.00035   2.63497
    R6        2.07720  -0.00012  -0.00029  -0.00038  -0.00067   2.07653
    R7        2.64578   0.00010   0.00027   0.00023   0.00049   2.64627
    R8        2.07397  -0.00022  -0.00013  -0.00059  -0.00072   2.07325
    R9        2.63123   0.00003  -0.00005  -0.00006  -0.00011   2.63112
   R10        2.07789  -0.00012  -0.00018  -0.00034  -0.00052   2.07737
   R11        2.07799  -0.00028  -0.00006  -0.00071  -0.00077   2.07722
    A1        2.04478  -0.00022  -0.00020  -0.00120  -0.00141   2.04338
    A2        2.14620   0.00037   0.00015   0.00141   0.00156   2.14776
    A3        2.08458  -0.00016   0.00016  -0.00051  -0.00035   2.08424
    A4        2.05240  -0.00021  -0.00031  -0.00090  -0.00121   2.05119
    A5        2.07020  -0.00002  -0.00002  -0.00011  -0.00012   2.07008
    A6        2.12849  -0.00002   0.00003  -0.00008  -0.00005   2.12844
    A7        2.08449   0.00004  -0.00002   0.00019   0.00017   2.08467
    A8        2.09155  -0.00026  -0.00004  -0.00095  -0.00099   2.09056
    A9        2.09318   0.00018   0.00009   0.00081   0.00091   2.09409
   A10        2.09846   0.00008  -0.00005   0.00013   0.00008   2.09854
   A11        2.09042   0.00006   0.00004   0.00044   0.00049   2.09091
   A12        2.07951  -0.00009  -0.00015  -0.00065  -0.00080   2.07871
   A13        2.11325   0.00003   0.00011   0.00021   0.00032   2.11357
   A14        2.12321   0.00007   0.00007   0.00041   0.00047   2.12369
   A15        2.07828  -0.00027  -0.00013  -0.00162  -0.00176   2.07652
   A16        2.08169   0.00020   0.00007   0.00122   0.00129   2.08298
    D1       -0.00000  -0.00000   0.00000  -0.00000   0.00000   0.00000
    D2        3.14159  -0.00000   0.00000  -0.00000   0.00000   3.14159
    D3       -0.00000   0.00000   0.00000   0.00000   0.00000   0.00000
    D4        3.14159   0.00000   0.00000   0.00000   0.00000   3.14159
    D5        0.00000   0.00000   0.00000  -0.00000   0.00000   0.00000
    D6        3.14159  -0.00000   0.00000  -0.00000   0.00000   3.14159
    D7        3.14159   0.00000   0.00000   0.00000   0.00000   3.14159
    D8       -0.00000   0.00000   0.00000   0.00000   0.00000   0.00000
    D9       -0.00000   0.00000   0.00000   0.00000   0.00000   0.00000
   D10        3.14159  -0.00000   0.00000  -0.00000   0.00000   3.14159
   D11        3.14159   0.00000   0.00000   0.00000   0.00000   3.14159
   D12        0.00000   0.00000   0.00000   0.00000   0.00000   0.00000
   D13       -0.00000  -0.00000   0.00000  -0.00000   0.00000   0.00000
   D14        3.14159  -0.00000   0.00000  -0.00000   0.00000   3.14159
   D15        3.14159   0.00000   0.00000   0.00000   0.00000   3.14159
   D16        0.00000   0.00000   0.00000   0.00000  -0.00000   0.00000
   D17        0.00000   0.00000   0.00000  -0.00000  -0.00000   0.00000
   D18        3.14159  -0.00000   0.00000  -0.00000   0.00000   3.14159
   D19        3.14159   0.00000   0.00000   0.00000   0.00000   3.14159
   D20       -0.00000  -0.00000   0.00000  -0.00000   0.00000   0.00000
         Item               Value     Threshold  Converged?
 Maximum Force            0.000650     0.000450     NO 
 RMS     Force            0.000168     0.000300     YES
 Maximum Displacement     0.002384     0.001800     NO 
 RMS     Displacement     0.000858     0.001200     YES
 Predicted change in Energy=-2.120997D-06
 GradGradGradGradGradGradGradGradGradGradGradGradGradGradGradGradGradGrad

                          Input orientation:                          
 ---------------------------------------------------------------------
 Center     Atomic      Atomic             Coordinates (Angstroms)
 Number     Number       Type             X           Y           Z
 ---------------------------------------------------------------------
      1          6           0       -0.001614    1.429363    0.000000
      2          6           0        1.177857    0.703657   -0.000000
      3          6           0        1.213350   -0.694491   -0.000000
      4          6           0        0.006537   -1.392961   -0.000000
      5          6           0       -1.204255   -0.689429   -0.000000
      6          6           0       -1.195545    0.702875    0.000000
      7         35           0        2.844991    1.626964    0.000000
      8          1           0        2.160188   -1.252140   -0.000000
      9          1           0        0.008043   -2.490076   -0.000000
     10          1           0       -2.149093   -1.251327   -0.000000
     11          1           0       -2.150318    1.247565    0.000000
 ---------------------------------------------------------------------
                    Distance matrix (angstroms):
                    1          2          3          4          5
     1  C    0.000000
     2  C    1.384846   0.000000
     3  C    2.446813   1.398599   0.000000
     4  C    2.822336   2.401624   1.394366   0.000000
     5  C    2.436314   2.759555   2.417610   1.400347   0.000000
     6  C    1.397590   2.373402   2.784853   2.416097   1.392331
     7  Br   2.853455   1.905737   2.837500   4.144486   4.664983
     8  H    3.444394   2.188634   1.098852   2.158251   3.411176
     9  H    3.919452   3.401235   2.162612   1.097117   2.170714
    10  H    3.434788   3.858829   3.408239   2.160278   1.099295
    11  H    2.156382   3.372326   3.884050   3.409457   2.155686
                    6          7          8          9         10
     6  C    0.000000
     7  Br   4.144861   0.000000
     8  H    3.883688   2.959425   0.000000
     9  H    3.412266   4.999829   2.482784   0.000000
    10  H    2.174433   5.764151   4.309282   2.487517   0.000000
    11  H    1.099218   5.009697   4.982870   4.316073   2.498892
                   11
    11  H    0.000000
 Stoichiometry    C6H4Br(1-)
 Framework group  CS[SG(C6H4Br)]
 Deg. of freedom    19
 Full point group                 CS      NOp   2
 Largest Abelian subgroup         CS      NOp   2
 Largest concise Abelian subgroup C1      NOp   1
                         Standard orientation:                         
 ---------------------------------------------------------------------
 Center     Atomic      Atomic             Coordinates (Angstroms)
 Number     Number       Type             X           Y           Z
 ---------------------------------------------------------------------
      1          6           0        0.823668    1.234810    0.000000
      2          6           0        0.000000    0.121540    0.000000
      3          6           0       -1.396081    0.205436    0.000000
      4          6           0       -1.989065    1.467429    0.000000
      5          6           0       -1.184819    2.613797    0.000000
      6          6           0        0.201668    2.486358    0.000000
      7         35           0        0.777737   -1.618276    0.000000
      8          1           0       -2.032461   -0.690386    0.000000
      9          1           0       -3.082311    1.559510    0.000000
     10          1           0       -1.664075    3.603122    0.000000
     11          1           0        0.825814    3.391190    0.000000
 ---------------------------------------------------------------------
 Rotational constants (GHZ):           5.9433509           0.9962713           0.8532438
 Standard basis: VSTO-6G (5D, 7F)
 There are    25 symmetry adapted cartesian basis functions of A'  symmetry.
 There are     7 symmetry adapted cartesian basis functions of A"  symmetry.
 There are    25 symmetry adapted basis functions of A'  symmetry.
 There are     7 symmetry adapted basis functions of A"  symmetry.
    32 basis functions,   192 primitive gaussians,    32 cartesian basis functions
    18 alpha electrons       18 beta electrons
       nuclear repulsion energy       150.5065161348 Hartrees.
 Integral buffers will be    131072 words long.
 Regular integral format.
 Two-electron integral symmetry is turned off.
 Do NDO integrals.
 One-electron integrals computed using PRISM.
 NBasis=    32 RedAO= T EigKep=  1.00D+00  NBF=    25     7
 NBsUse=    32 1.00D-06 EigRej= -1.00D+00 NBFU=    25     7
 Initial guess from the checkpoint file:  "calcs/am1/chks/BrPh_2_anion.chk"
 B after Tr=     0.000000    0.000000   -0.000000
         Rot=    0.999998    0.000000   -0.000000   -0.002101 Ang=  -0.24 deg.
 Initial guess orbital symmetries:
       Occupied  (A') (A') (A') (A') (A') (A') (A') (A') (A') (A')
                 (A") (A') (A") (A') (A') (A") (A") (A')
       Virtual   (A") (A") (A') (A') (A") (A') (A') (A') (A') (A')
                 (A') (A') (A') (A')
 Keep J ints in memory in canonical form, NReq=862079.
 Overlap will be assumed to be unity.
 Requested convergence on RMS density matrix=1.00D-08 within  32 cycles.
 Requested convergence on MAX density matrix=1.00D-06.
 Requested convergence on             energy=1.00D-06.
 No special actions if energy rises.
 Fock symm off for IB=2 I1=    1 I=   26 J=   14 Cut=1.00D-07 Err=2.11D-05
 Fock matrix is not symmetric: symmetry in diagonalization turned off.
 SCF Done:  E(RAM1) =  0.822207658248E-01 A.U. after   10 cycles
            NFock=  9  Conv=0.55D-08     -V/T= 1.0012
 QCSCF skips out because SCF is already converged.
 Calling FoFJK, ICntrl=      2127 FMM=F ISym2X=1 I1Cent= 0 IOpClX= 0 NMat=1 NMatS=1 NMatT=0.
 ***** Axes restored to original set *****
 -------------------------------------------------------------------
 Center     Atomic                   Forces (Hartrees/Bohr)
 Number     Number              X              Y              Z
 -------------------------------------------------------------------
      1        6           0.000024831   -0.000023995    0.000000000
      2        6           0.000113515    0.000176148    0.000000000
      3        6          -0.000153321   -0.000130879   -0.000000000
      4        6           0.000058717    0.000004928    0.000000000
      5        6           0.000073239    0.000134471   -0.000000000
      6        6          -0.000152885   -0.000152268    0.000000000
      7       35           0.000016475    0.000024821    0.000000000
      8        1           0.000121664   -0.000040345   -0.000000000
      9        1          -0.000031346   -0.000005088   -0.000000000
     10        1          -0.000071951   -0.000035816   -0.000000000
     11        1           0.000001062    0.000048023   -0.000000000
 -------------------------------------------------------------------
 Cartesian Forces:  Max     0.000176148 RMS     0.000075139

 GradGradGradGradGradGradGradGradGradGradGradGradGradGradGradGradGradGrad
 Berny optimization.
 Using GEDIIS/GDIIS optimizer.
 FormGI is forming the generalized inverse of G from B-inverse, IUseBI=4.
 Internal  Forces:  Max     0.000158364 RMS     0.000046359
 Search for a local minimum.
 Step number   5 out of a maximum of   57
 All quantities printed in internal units (Hartrees-Bohrs-Radians)
 Mixed Optimization -- En-DIIS/RFO-DIIS
 Swapping is turned off.
 Update second derivatives using D2CorX and points    1    2    3    4    5
 DE= -1.90D-06 DEPred=-2.12D-06 R= 8.98D-01
 TightC=F SS=  1.41D+00  RLast= 4.28D-03 DXNew= 6.1948D-01 1.2833D-02
 Trust test= 8.98D-01 RLast= 4.28D-03 DXMaxT set to 3.68D-01
 ITU=  1  1  1  1  0
     Eigenvalues ---    0.02221   0.02221   0.02221   0.02221   0.02221
     Eigenvalues ---    0.02221   0.02221   0.02221   0.12578   0.15606
     Eigenvalues ---    0.16004   0.16047   0.17713   0.21699   0.22221
     Eigenvalues ---    0.22779   0.25710   0.35142   0.35968   0.36039
     Eigenvalues ---    0.37669   0.42803   0.44342   0.47079   0.47368
     Eigenvalues ---    0.54634   0.77919
 En-DIIS/RFO-DIIS/Sim-DIIS IScMMF=       -3 using points:     5    4    3
 RFO step:  Lambda=-2.55615366D-07.
 DidBck=F Rises=F RFO-DIIS coefs:    0.97924    0.01739    0.00338
 Iteration  1 RMS(Cart)=  0.00017069 RMS(Int)=  0.00000002
 Iteration  2 RMS(Cart)=  0.00000002 RMS(Int)=  0.00000000
 ClnCor:  largest displacement from symmetrization is 1.49D-13 for atom     8.
 Variable       Old X    -DE/DX   Delta X   Delta X   Delta X     New X
                                 (Linear)    (Quad)   (Total)
    R1        2.61698   0.00004   0.00001  -0.00000   0.00001   2.61699
    R2        2.64106   0.00009  -0.00002   0.00014   0.00012   2.64118
    R3        2.64297   0.00016   0.00000   0.00029   0.00029   2.64326
    R4        3.60132   0.00003  -0.00000   0.00003   0.00002   3.60134
    R5        2.63497   0.00002   0.00000  -0.00001  -0.00001   2.63496
    R6        2.07653   0.00013   0.00002   0.00027   0.00029   2.07682
    R7        2.64627   0.00005  -0.00002   0.00009   0.00007   2.64634
    R8        2.07325   0.00001   0.00002  -0.00004  -0.00002   2.07323
    R9        2.63112  -0.00009   0.00000  -0.00020  -0.00019   2.63093
   R10        2.07737   0.00008   0.00002   0.00016   0.00018   2.07754
   R11        2.07722   0.00002   0.00002  -0.00001   0.00001   2.07723
    A1        2.04338   0.00008   0.00004   0.00025   0.00028   2.04366
    A2        2.14776  -0.00009  -0.00004  -0.00021  -0.00025   2.14751
    A3        2.08424   0.00002   0.00000   0.00003   0.00003   2.08426
    A4        2.05119   0.00007   0.00004   0.00018   0.00022   2.05141
    A5        2.07008  -0.00001   0.00000  -0.00002  -0.00002   2.07006
    A6        2.12844  -0.00002  -0.00000  -0.00016  -0.00016   2.12828
    A7        2.08467   0.00003  -0.00000   0.00019   0.00018   2.08485
    A8        2.09056   0.00003   0.00002   0.00005   0.00007   2.09063
    A9        2.09409   0.00002  -0.00002   0.00018   0.00016   2.09425
   A10        2.09854  -0.00005   0.00000  -0.00023  -0.00023   2.09831
   A11        2.09091   0.00003  -0.00001   0.00009   0.00008   2.09099
   A12        2.07871  -0.00001   0.00002  -0.00004  -0.00001   2.07869
   A13        2.11357  -0.00002  -0.00001  -0.00006  -0.00007   2.11350
   A14        2.12369  -0.00004  -0.00001  -0.00016  -0.00018   2.12351
   A15        2.07652  -0.00003   0.00004  -0.00026  -0.00021   2.07630
   A16        2.08298   0.00006  -0.00003   0.00042   0.00039   2.08337
    D1       -0.00000  -0.00000   0.00000  -0.00000   0.00000   0.00000
    D2        3.14159  -0.00000   0.00000  -0.00000   0.00000   3.14159
    D3       -0.00000   0.00000   0.00000   0.00000   0.00000   0.00000
    D4        3.14159   0.00000   0.00000   0.00000   0.00000   3.14159
    D5        0.00000  -0.00000   0.00000  -0.00000  -0.00000   0.00000
    D6        3.14159  -0.00000   0.00000  -0.00000   0.00000   3.14159
    D7        3.14159  -0.00000   0.00000   0.00000   0.00000   3.14159
    D8       -0.00000  -0.00000   0.00000  -0.00000   0.00000   0.00000
    D9       -0.00000   0.00000   0.00000   0.00000   0.00000   0.00000
   D10        3.14159   0.00000   0.00000  -0.00000   0.00000   3.14159
   D11        3.14159   0.00000   0.00000   0.00000   0.00000   3.14159
   D12        0.00000   0.00000   0.00000   0.00000  -0.00000   0.00000
   D13       -0.00000  -0.00000   0.00000  -0.00000   0.00000   0.00000
   D14        3.14159  -0.00000   0.00000  -0.00000   0.00000   3.14159
   D15        3.14159   0.00000   0.00000   0.00000   0.00000   3.14159
   D16       -0.00000  -0.00000   0.00000  -0.00000   0.00000   0.00000
   D17        0.00000  -0.00000   0.00000  -0.00000   0.00000   0.00000
   D18        3.14159  -0.00000   0.00000  -0.00000   0.00000   3.14159
   D19        3.14159   0.00000   0.00000   0.00000   0.00000   3.14159
   D20       -0.00000  -0.00000   0.00000  -0.00000   0.00000   0.00000
         Item               Value     Threshold  Converged?
 Maximum Force            0.000158     0.000450     YES
 RMS     Force            0.000046     0.000300     YES
 Maximum Displacement     0.000598     0.001800     YES
 RMS     Displacement     0.000171     0.001200     YES
 Predicted change in Energy=-1.278072D-07
 Optimization completed.
    -- Stationary point found.
                           ----------------------------
                           !   Optimized Parameters   !
                           ! (Angstroms and Degrees)  !
 --------------------------                            --------------------------
 ! Name  Definition              Value          Derivative Info.                !
 --------------------------------------------------------------------------------
 ! R1    R(1,2)                  1.3848         -DE/DX =    0.0                 !
 ! R2    R(1,6)                  1.3976         -DE/DX =    0.0001              !
 ! R3    R(2,3)                  1.3986         -DE/DX =    0.0002              !
 ! R4    R(2,7)                  1.9057         -DE/DX =    0.0                 !
 ! R5    R(3,4)                  1.3944         -DE/DX =    0.0                 !
 ! R6    R(3,8)                  1.0989         -DE/DX =    0.0001              !
 ! R7    R(4,5)                  1.4003         -DE/DX =    0.0001              !
 ! R8    R(4,9)                  1.0971         -DE/DX =    0.0                 !
 ! R9    R(5,6)                  1.3923         -DE/DX =   -0.0001              !
 ! R10   R(5,10)                 1.0993         -DE/DX =    0.0001              !
 ! R11   R(6,11)                 1.0992         -DE/DX =    0.0                 !
 ! A1    A(2,1,6)              117.0769         -DE/DX =    0.0001              !
 ! A2    A(1,2,3)              123.0574         -DE/DX =   -0.0001              !
 ! A3    A(1,2,7)              119.4179         -DE/DX =    0.0                 !
 ! A4    A(3,2,7)              117.5247         -DE/DX =    0.0001              !
 ! A5    A(2,3,4)              118.6069         -DE/DX =    0.0                 !
 ! A6    A(2,3,8)              121.9505         -DE/DX =    0.0                 !
 ! A7    A(4,3,8)              119.4426         -DE/DX =    0.0                 !
 ! A8    A(3,4,5)              119.7802         -DE/DX =    0.0                 !
 ! A9    A(3,4,9)              119.9824         -DE/DX =    0.0                 !
 ! A10   A(5,4,9)              120.2375         -DE/DX =    0.0                 !
 ! A11   A(4,5,6)              119.8004         -DE/DX =    0.0                 !
 ! A12   A(4,5,10)             119.1012         -DE/DX =    0.0                 !
 ! A13   A(6,5,10)             121.0984         -DE/DX =    0.0                 !
 ! A14   A(1,6,5)              121.6783         -DE/DX =    0.0                 !
 ! A15   A(1,6,11)             118.9757         -DE/DX =    0.0                 !
 ! A16   A(5,6,11)             119.346          -DE/DX =    0.0001              !
 ! D1    D(6,1,2,3)              0.0            -DE/DX =    0.0                 !
 ! D2    D(6,1,2,7)            180.0            -DE/DX =    0.0                 !
 ! D3    D(2,1,6,5)              0.0            -DE/DX =    0.0                 !
 ! D4    D(2,1,6,11)           180.0            -DE/DX =    0.0                 !
 ! D5    D(1,2,3,4)              0.0            -DE/DX =    0.0                 !
 ! D6    D(1,2,3,8)            180.0            -DE/DX =    0.0                 !
 ! D7    D(7,2,3,4)            180.0            -DE/DX =    0.0                 !
 ! D8    D(7,2,3,8)              0.0            -DE/DX =    0.0                 !
 ! D9    D(2,3,4,5)              0.0            -DE/DX =    0.0                 !
 ! D10   D(2,3,4,9)            180.0            -DE/DX =    0.0                 !
 ! D11   D(8,3,4,5)            180.0            -DE/DX =    0.0                 !
 ! D12   D(8,3,4,9)              0.0            -DE/DX =    0.0                 !
 ! D13   D(3,4,5,6)              0.0            -DE/DX =    0.0                 !
 ! D14   D(3,4,5,10)           180.0            -DE/DX =    0.0                 !
 ! D15   D(9,4,5,6)            180.0            -DE/DX =    0.0                 !
 ! D16   D(9,4,5,10)             0.0            -DE/DX =    0.0                 !
 ! D17   D(4,5,6,1)              0.0            -DE/DX =    0.0                 !
 ! D18   D(4,5,6,11)           180.0            -DE/DX =    0.0                 !
 ! D19   D(10,5,6,1)           180.0            -DE/DX =    0.0                 !
 ! D20   D(10,5,6,11)            0.0            -DE/DX =    0.0                 !
 --------------------------------------------------------------------------------
 GradGradGradGradGradGradGradGradGradGradGradGradGradGradGradGradGradGrad

                          Input orientation:                          
 ---------------------------------------------------------------------
 Center     Atomic      Atomic             Coordinates (Angstroms)
 Number     Number       Type             X           Y           Z
 ---------------------------------------------------------------------
      1          6           0       -0.001614    1.429363    0.000000
      2          6           0        1.177857    0.703657   -0.000000
      3          6           0        1.213350   -0.694491   -0.000000
      4          6           0        0.006537   -1.392961   -0.000000
      5          6           0       -1.204255   -0.689429   -0.000000
      6          6           0       -1.195545    0.702875    0.000000
      7         35           0        2.844991    1.626964    0.000000
      8          1           0        2.160188   -1.252140   -0.000000
      9          1           0        0.008043   -2.490076   -0.000000
     10          1           0       -2.149093   -1.251327   -0.000000
     11          1           0       -2.150318    1.247565    0.000000
 ---------------------------------------------------------------------
                    Distance matrix (angstroms):
                    1          2          3          4          5
     1  C    0.000000
     2  C    1.384846   0.000000
     3  C    2.446813   1.398599   0.000000
     4  C    2.822336   2.401624   1.394366   0.000000
     5  C    2.436314   2.759555   2.417610   1.400347   0.000000
     6  C    1.397590   2.373402   2.784853   2.416097   1.392331
     7  Br   2.853455   1.905737   2.837500   4.144486   4.664983
     8  H    3.444394   2.188634   1.098852   2.158251   3.411176
     9  H    3.919452   3.401235   2.162612   1.097117   2.170714
    10  H    3.434788   3.858829   3.408239   2.160278   1.099295
    11  H    2.156382   3.372326   3.884050   3.409457   2.155686
                    6          7          8          9         10
     6  C    0.000000
     7  Br   4.144861   0.000000
     8  H    3.883688   2.959425   0.000000
     9  H    3.412266   4.999829   2.482784   0.000000
    10  H    2.174433   5.764151   4.309282   2.487517   0.000000
    11  H    1.099218   5.009697   4.982870   4.316073   2.498892
                   11
    11  H    0.000000
 Stoichiometry    C6H4Br(1-)
 Framework group  CS[SG(C6H4Br)]
 Deg. of freedom    19
 Full point group                 CS      NOp   2
 Largest Abelian subgroup         CS      NOp   2
 Largest concise Abelian subgroup C1      NOp   1
                         Standard orientation:                         
 ---------------------------------------------------------------------
 Center     Atomic      Atomic             Coordinates (Angstroms)
 Number     Number       Type             X           Y           Z
 ---------------------------------------------------------------------
      1          6           0        0.823668    1.234810   -0.000000
      2          6           0        0.000000    0.121540   -0.000000
      3          6           0       -1.396081    0.205436    0.000000
      4          6           0       -1.989065    1.467429    0.000000
      5          6           0       -1.184819    2.613797    0.000000
      6          6           0        0.201668    2.486358   -0.000000
      7         35           0        0.777737   -1.618276   -0.000000
      8          1           0       -2.032461   -0.690386    0.000000
      9          1           0       -3.082311    1.559510    0.000000
     10          1           0       -1.664075    3.603122    0.000000
     11          1           0        0.825814    3.391190   -0.000000
 ---------------------------------------------------------------------
 Rotational constants (GHZ):           5.9433509           0.9962713           0.8532438

 **********************************************************************

            Population analysis using the SCF Density.

 **********************************************************************

 Orbital symmetries:
       Occupied  (A') (A') (A') (A') (A') (A') (A') (A') (A') (A')
                 (A") (A') (A") (A') (A') (A") (A") (A')
       Virtual   (A") (A") (A') (A') (A") (A') (A') (A') (A') (A')
                 (A') (A') (A') (A')
 The electronic state is 1-A'.
 Alpha  occ. eigenvalues --   -1.24203  -1.01814  -0.94916  -0.89845  -0.65519
 Alpha  occ. eigenvalues --   -0.63537  -0.46141  -0.39772  -0.38096  -0.34374
 Alpha  occ. eigenvalues --   -0.32119  -0.30757  -0.25613  -0.25558  -0.22936
 Alpha  occ. eigenvalues --   -0.17299  -0.15008  -0.09626
 Alpha virt. eigenvalues --    0.19540   0.21474   0.21914   0.30778   0.30828
 Alpha virt. eigenvalues --    0.31596   0.32115   0.34145   0.36440   0.36552
 Alpha virt. eigenvalues --    0.37706   0.38593   0.41733   0.42921
          Condensed to atoms (all electrons):
               1          2          3          4          5          6
     1  C    4.369979   0.000000   0.000000   0.000000   0.000000   0.000000
     2  C    0.000000   4.156883   0.000000   0.000000   0.000000   0.000000
     3  C    0.000000   0.000000   4.135845   0.000000   0.000000   0.000000
     4  C    0.000000   0.000000   0.000000   4.228158   0.000000   0.000000
     5  C    0.000000   0.000000   0.000000   0.000000   4.161088   0.000000
     6  C    0.000000   0.000000   0.000000   0.000000   0.000000   4.155132
     7  Br   0.000000   0.000000   0.000000   0.000000   0.000000   0.000000
     8  H    0.000000   0.000000   0.000000   0.000000   0.000000   0.000000
     9  H    0.000000   0.000000   0.000000   0.000000   0.000000   0.000000
    10  H    0.000000   0.000000   0.000000   0.000000   0.000000   0.000000
    11  H    0.000000   0.000000   0.000000   0.000000   0.000000   0.000000
               7          8          9         10         11
     1  C    0.000000   0.000000   0.000000   0.000000   0.000000
     2  C    0.000000   0.000000   0.000000   0.000000   0.000000
     3  C    0.000000   0.000000   0.000000   0.000000   0.000000
     4  C    0.000000   0.000000   0.000000   0.000000   0.000000
     5  C    0.000000   0.000000   0.000000   0.000000   0.000000
     6  C    0.000000   0.000000   0.000000   0.000000   0.000000
     7  Br   7.114740   0.000000   0.000000   0.000000   0.000000
     8  H    0.000000   0.911796   0.000000   0.000000   0.000000
     9  H    0.000000   0.000000   0.920118   0.000000   0.000000
    10  H    0.000000   0.000000   0.000000   0.927826   0.000000
    11  H    0.000000   0.000000   0.000000   0.000000   0.918435
 Mulliken charges:
               1
     1  C   -0.369979
     2  C   -0.156883
     3  C   -0.135845
     4  C   -0.228158
     5  C   -0.161088
     6  C   -0.155132
     7  Br  -0.114740
     8  H    0.088204
     9  H    0.079882
    10  H    0.072174
    11  H    0.081565
 Sum of Mulliken charges =  -1.00000
 Mulliken charges with hydrogens summed into heavy atoms:
               1
     1  C   -0.369979
     2  C   -0.156883
     3  C   -0.047642
     4  C   -0.148276
     5  C   -0.088914
     6  C   -0.073567
     7  Br  -0.114740
 Charge=             -1.0000 electrons
 Dipole moment (field-independent basis, Debye):
    X=             -2.5646    Y=             -3.5884    Z=             -0.0000  Tot=              4.4107
 N-N= 1.505065161348D+02 E-N=-2.140737827166D+02  KE=-6.923215934954D+01
 Symmetry A'   KE=-5.450994787511D+01
 Symmetry A"   KE=-1.472221147443D+01
 1\1\GINC-SH02-01N23\FOpt\RAM1\ZDO\C6H4Br1(1-)\JLAPIER\28-Sep-2026\0\\#
  Opt AM1 SCF=XQC\\BrPh_2_anion am1\\-1,1\C,-0.0016137151,1.4293633061,
 0.\C,1.1778565634,0.7036573871,0.\C,1.2133498976,-0.6944912295,0.\C,0.
 0065366913,-1.392960611,0.\C,-1.2042547075,-0.6894290971,0.\C,-1.19554
 49731,0.7028746863,0.\Br,2.8449912099,1.6269637513,0.\H,2.1601884888,-
 1.2521401264,0.\H,0.0080432702,-2.4900764479,0.\H,-2.1490934956,-1.251
 3265916,0.\H,-2.1503183999,1.2475649727,0.\\Version=ES64L-G16RevB.01\S
 tate=1-A'\HF=0.0822208\RMSD=5.545e-09\RMSF=7.514e-05\Dipole=1.4927163,
 -0.8848767,0.\PG=CS [SG(C6H4Br1)]\\@


 TO ERR IS HUMAN - AND TO BLAME IT ON A COMPUTER IS EVEN MORE SO.
 Job cpu time:       0 days  0 hours  0 minutes  3.3 seconds.
 Elapsed time:       0 days  0 hours  0 minutes  3.2 seconds.
 File lengths (MBytes):  RWF=      6 Int=      0 D2E=      0 Chk=      3 Scr=      1
 Normal termination of Gaussian 16 at Mon Sep 28 01:24:01 2026.
