 Entering Gaussian System, Link 0=g16
 Initial command:
 /share/software/user/restricted/gaussian/g16.B01/l1.exe "/lscratch/jlapier/g16_45667816_98/Gau-24236.inp" -scrdir="/lscratch/jlapier/g16_45667816_98/"
 Entering Link 1 = /share/software/user/restricted/gaussian/g16.B01/l1.exe PID=     24240.
  
 Copyright (c) 1988-2017, Gaussian, Inc.  All Rights Reserved.
  
 This is part of the Gaussian(R) 16 program.  It is based on
 the Gaussian(R) 09 system (copyright 2009, Gaussian, Inc.),
 the Gaussian(R) 03 system (copyright 2003, Gaussian, Inc.),
 the Gaussian(R) 98 system (copyright 1998, Gaussian, Inc.),
 the Gaussian(R) 94 system (copyright 1995, Gaussian, Inc.),
 the Gaussian 92(TM) system (copyright 1992, Gaussian, Inc.),
 the Gaussian 90(TM) system (copyright 1990, Gaussian, Inc.),
 the Gaussian 88(TM) system (copyright 1988, Gaussian, Inc.),
 the Gaussian 86(TM) system (copyright 1986, Carnegie Mellon
 University), and the Gaussian 82(TM) system (copyright 1983,
 Carnegie Mellon University). Gaussian is a federally registered
 trademark of Gaussian, Inc.
  
 This software contains proprietary and confidential information,
 including trade secrets, belonging to Gaussian, Inc.
  
 This software is provided under written license and may be
 used, copied, transmitted, or stored only in accord with that
 written license.
  
 The following legend is applicable only to US Government
 contracts under FAR:
  
                    RESTRICTED RIGHTS LEGEND
  
 Use, reproduction and disclosure by the US Government is
 subject to restrictions as set forth in subparagraphs (a)
 and (c) of the Commercial Computer Software - Restricted
 Rights clause in FAR 52.227-19.
  
 Gaussian, Inc.
 340 Quinnipiac St., Bldg. 40, Wallingford CT 06492
  
  
 ---------------------------------------------------------------
 Warning -- This program may not be used in any manner that
 competes with the business of Gaussian, Inc. or will provide
 assistance to any competitor of Gaussian, Inc.  The licensee
 of this program is prohibited from giving any competitor of
 Gaussian, Inc. access to this program.  By using this program,
 the user acknowledges that Gaussian, Inc. is engaged in the
 business of creating and licensing software in the field of
 computational chemistry and represents and warrants to the
 licensee that it is not a competitor of Gaussian, Inc. and that
 it will not use this program in any manner prohibited above.
 ---------------------------------------------------------------
  

 Cite this work as:
 Gaussian 16, Revision B.01,
 M. J. Frisch, G. W. Trucks, H. B. Schlegel, G. E. Scuseria, 
 M. A. Robb, J. R. Cheeseman, G. Scalmani, V. Barone, 
 G. A. Petersson, H. Nakatsuji, X. Li, M. Caricato, A. V. Marenich, 
 J. Bloino, B. G. Janesko, R. Gomperts, B. Mennucci, H. P. Hratchian, 
 J. V. Ortiz, A. F. Izmaylov, J. L. Sonnenberg, D. Williams-Young, 
 F. Ding, F. Lipparini, F. Egidi, J. Goings, B. Peng, A. Petrone, 
 T. Henderson, D. Ranasinghe, V. G. Zakrzewski, J. Gao, N. Rega, 
 G. Zheng, W. Liang, M. Hada, M. Ehara, K. Toyota, R. Fukuda, 
 J. Hasegawa, M. Ishida, T. Nakajima, Y. Honda, O. Kitao, H. Nakai, 
 T. Vreven, K. Throssell, J. A. Montgomery, Jr., J. E. Peralta, 
 F. Ogliaro, M. J. Bearpark, J. J. Heyd, E. N. Brothers, K. N. Kudin, 
 V. N. Staroverov, T. A. Keith, R. Kobayashi, J. Normand, 
 K. Raghavachari, A. P. Rendell, J. C. Burant, S. S. Iyengar, 
 J. Tomasi, M. Cossi, J. M. Millam, M. Klene, C. Adamo, R. Cammi, 
 J. W. Ochterski, R. L. Martin, K. Morokuma, O. Farkas, 
 J. B. Foresman, and D. J. Fox, Gaussian, Inc., Wallingford CT, 2016.
 
 ******************************************
 Gaussian 16:  ES64L-G16RevB.01 20-Dec-2017
                28-Sep-2026 
 ******************************************
 %nprocshared=1
 Will use up to    1 processors via shared memory.
 %mem=1GB
 %chk=calcs/am1/chks/BrPh_234_rad.chk
 -----------------
 # Opt AM1 SCF=XQC
 -----------------
 1/18=20,19=15,26=1,38=1/1,3;
 2/9=110,12=2,17=6,18=5,40=1/2;
 3/5=2,25=1,41=700000,71=1/1,2,3;
 4/35=1/1;
 5/5=2,8=3,13=1,35=1,38=5/2,8;
 6/7=2,8=2,9=2,10=2,28=1/1;
 7//1,2,3,16;
 1/18=20,19=15,26=1/3(2);
 2/9=110/2;
 99//99;
 2/9=110/2;
 3/5=2,25=1,41=700000,71=1,135=20/1,2,3;
 4/5=5,16=3,35=1/1;
 5/5=2,8=3,13=1,35=1,38=5/2,8;
 7//1,2,3,16;
 1/18=20,19=15,26=1/3(-5);
 2/9=110/2;
 6/7=2,8=2,9=2,10=2,19=2,28=1/1;
 99/9=1/99;
 ----------------
 BrPh_234_rad am1
 ----------------
 Symbolic Z-matrix:
 Charge =  0 Multiplicity = 2
 C                     0.        1.39      0. 
 C                     1.20378   0.695     0. 
 C                     1.20378  -0.695     0. 
 C                     0.       -1.39      0. 
 C                    -1.20378  -0.695     0. 
 C                    -1.20378   0.695     0. 
 Br                    2.84922   1.645     0. 
 Br                    2.84922  -1.645     0. 
 Br                    0.       -3.29      0. 
 H                    -2.13908  -1.235     0. 
 H                    -2.13908   1.235     0. 
 

 GradGradGradGradGradGradGradGradGradGradGradGradGradGradGradGradGradGrad
 Berny optimization.
 Initialization pass.
                           ----------------------------
                           !    Initial Parameters    !
                           ! (Angstroms and Degrees)  !
 --------------------------                            --------------------------
 ! Name  Definition              Value          Derivative Info.                !
 --------------------------------------------------------------------------------
 ! R1    R(1,2)                  1.39           estimate D2E/DX2                !
 ! R2    R(1,6)                  1.39           estimate D2E/DX2                !
 ! R3    R(2,3)                  1.39           estimate D2E/DX2                !
 ! R4    R(2,7)                  1.9            estimate D2E/DX2                !
 ! R5    R(3,4)                  1.39           estimate D2E/DX2                !
 ! R6    R(3,8)                  1.9            estimate D2E/DX2                !
 ! R7    R(4,5)                  1.39           estimate D2E/DX2                !
 ! R8    R(4,9)                  1.9            estimate D2E/DX2                !
 ! R9    R(5,6)                  1.39           estimate D2E/DX2                !
 ! R10   R(5,10)                 1.08           estimate D2E/DX2                !
 ! R11   R(6,11)                 1.08           estimate D2E/DX2                !
 ! A1    A(2,1,6)              120.0            estimate D2E/DX2                !
 ! A2    A(1,2,3)              120.0            estimate D2E/DX2                !
 ! A3    A(1,2,7)              120.0            estimate D2E/DX2                !
 ! A4    A(3,2,7)              120.0            estimate D2E/DX2                !
 ! A5    A(2,3,4)              120.0            estimate D2E/DX2                !
 ! A6    A(2,3,8)              120.0            estimate D2E/DX2                !
 ! A7    A(4,3,8)              120.0            estimate D2E/DX2                !
 ! A8    A(3,4,5)              120.0            estimate D2E/DX2                !
 ! A9    A(3,4,9)              120.0            estimate D2E/DX2                !
 ! A10   A(5,4,9)              120.0            estimate D2E/DX2                !
 ! A11   A(4,5,6)              120.0            estimate D2E/DX2                !
 ! A12   A(4,5,10)             120.0            estimate D2E/DX2                !
 ! A13   A(6,5,10)             120.0            estimate D2E/DX2                !
 ! A14   A(1,6,5)              120.0            estimate D2E/DX2                !
 ! A15   A(1,6,11)             120.0            estimate D2E/DX2                !
 ! A16   A(5,6,11)             120.0            estimate D2E/DX2                !
 ! D1    D(6,1,2,3)              0.0            estimate D2E/DX2                !
 ! D2    D(6,1,2,7)            180.0            estimate D2E/DX2                !
 ! D3    D(2,1,6,5)              0.0            estimate D2E/DX2                !
 ! D4    D(2,1,6,11)           180.0            estimate D2E/DX2                !
 ! D5    D(1,2,3,4)              0.0            estimate D2E/DX2                !
 ! D6    D(1,2,3,8)            180.0            estimate D2E/DX2                !
 ! D7    D(7,2,3,4)            180.0            estimate D2E/DX2                !
 ! D8    D(7,2,3,8)              0.0            estimate D2E/DX2                !
 ! D9    D(2,3,4,5)              0.0            estimate D2E/DX2                !
 ! D10   D(2,3,4,9)            180.0            estimate D2E/DX2                !
 ! D11   D(8,3,4,5)            180.0            estimate D2E/DX2                !
 ! D12   D(8,3,4,9)              0.0            estimate D2E/DX2                !
 ! D13   D(3,4,5,6)              0.0            estimate D2E/DX2                !
 ! D14   D(3,4,5,10)           180.0            estimate D2E/DX2                !
 ! D15   D(9,4,5,6)            180.0            estimate D2E/DX2                !
 ! D16   D(9,4,5,10)             0.0            estimate D2E/DX2                !
 ! D17   D(4,5,6,1)              0.0            estimate D2E/DX2                !
 ! D18   D(4,5,6,11)           180.0            estimate D2E/DX2                !
 ! D19   D(10,5,6,1)           180.0            estimate D2E/DX2                !
 ! D20   D(10,5,6,11)            0.0            estimate D2E/DX2                !
 --------------------------------------------------------------------------------
 Trust Radius=3.00D-01 FncErr=1.00D-07 GrdErr=1.00D-07 EigMax=2.50D+02 EigMin=1.00D-04
 Number of steps in this run=     57 maximum allowed number of steps=    100.
 GradGradGradGradGradGradGradGradGradGradGradGradGradGradGradGradGradGrad

                          Input orientation:                          
 ---------------------------------------------------------------------
 Center     Atomic      Atomic             Coordinates (Angstroms)
 Number     Number       Type             X           Y           Z
 ---------------------------------------------------------------------
      1          6           0        0.000000    1.390000    0.000000
      2          6           0        1.203775    0.695000    0.000000
      3          6           0        1.203775   -0.695000    0.000000
      4          6           0        0.000000   -1.390000    0.000000
      5          6           0       -1.203775   -0.695000    0.000000
      6          6           0       -1.203775    0.695000    0.000000
      7         35           0        2.849224    1.645000    0.000000
      8         35           0        2.849224   -1.645000    0.000000
      9         35           0        0.000000   -3.290000    0.000000
     10          1           0       -2.139083   -1.235000    0.000000
     11          1           0       -2.139083    1.235000    0.000000
 ---------------------------------------------------------------------
                    Distance matrix (angstroms):
                    1          2          3          4          5
     1  C    0.000000
     2  C    1.390000   0.000000
     3  C    2.407551   1.390000   0.000000
     4  C    2.780000   2.407551   1.390000   0.000000
     5  C    2.407551   2.780000   2.407551   1.390000   0.000000
     6  C    1.390000   2.407551   2.780000   2.407551   1.390000
     7  Br   2.860612   1.900000   2.860612   4.162848   4.680000
     8  Br   4.162848   2.860612   1.900000   2.860612   4.162848
     9  Br   4.680000   4.162848   2.860612   1.900000   2.860612
    10  H    3.386193   3.860000   3.386193   2.144691   1.080000
    11  H    2.144691   3.386193   3.860000   3.386193   2.144691
                    6          7          8          9         10
     6  C    0.000000
     7  Br   4.162848   0.000000
     8  Br   4.680000   3.290000   0.000000
     9  Br   4.162848   5.698447   3.290000   0.000000
    10  H    2.144691   5.760000   5.005127   2.966260   0.000000
    11  H    1.080000   5.005127   5.760000   5.005127   2.470000
                   11
    11  H    0.000000
 Stoichiometry    C6H2Br3(2)
 Framework group  CS[SG(C6H2Br3)]
 Deg. of freedom    19
 Full point group                 CS      NOp   2
 Largest Abelian subgroup         CS      NOp   2
 Largest concise Abelian subgroup C1      NOp   1
                         Standard orientation:                         
 ---------------------------------------------------------------------
 Center     Atomic      Atomic             Coordinates (Angstroms)
 Number     Number       Type             X           Y           Z
 ---------------------------------------------------------------------
      1          6           0       -1.364808    2.195245    0.000000
      2          6           0       -0.161032    1.500245    0.000000
      3          6           0       -0.161032    0.110245    0.000000
      4          6           0       -1.364808   -0.584755    0.000000
      5          6           0       -2.568583    0.110245    0.000000
      6          6           0       -2.568583    1.500245    0.000000
      7         35           0        1.484416    2.450245    0.000000
      8         35           0        1.484416   -0.839755    0.000000
      9         35           0       -1.364808   -2.484755    0.000000
     10          1           0       -3.503890   -0.429755    0.000000
     11          1           0       -3.503890    2.040245    0.000000
 ---------------------------------------------------------------------
 Rotational constants (GHZ):           1.0042038           0.3728282           0.2718859
 Standard basis: VSTO-6G (5D, 7F)
 There are    29 symmetry adapted cartesian basis functions of A'  symmetry.
 There are     9 symmetry adapted cartesian basis functions of A"  symmetry.
 There are    29 symmetry adapted basis functions of A'  symmetry.
 There are     9 symmetry adapted basis functions of A"  symmetry.
    38 basis functions,   228 primitive gaussians,    38 cartesian basis functions
    24 alpha electrons       23 beta electrons
       nuclear repulsion energy       239.3725281117 Hartrees.
 Integral buffers will be    131072 words long.
 Regular integral format.
 Two-electron integral symmetry is turned off.
 Do NDO integrals.
 One-electron integrals computed using PRISM.
 NBasis=    38 RedAO= T EigKep=  1.00D+00  NBF=    29     9
 NBsUse=    38 1.00D-06 EigRej= -1.00D+00 NBFU=    29     9
 Nonelectrostatic core Hamiltonian diagonalized for initial guess.
 Initial guess orbital symmetries:
 Alpha Orbitals:
       Occupied  (A') (A') (A') (A') (A') (A') (A') (A') (A') (A')
                 (A') (A") (A') (A') (A") (A') (A") (A') (A") (A')
                 (A') (A") (A") (A')
       Virtual   (A') (A") (A") (A') (A') (A') (A') (A") (A') (A')
                 (A') (A') (A') (A')
 Beta  Orbitals:
       Occupied  (A') (A') (A') (A') (A') (A') (A') (A') (A') (A')
                 (A') (A") (A') (A') (A") (A') (A") (A') (A") (A')
                 (A') (A") (A")
       Virtual   (A') (A') (A") (A") (A') (A') (A') (A') (A") (A')
                 (A') (A') (A') (A') (A')
 The electronic state of the initial guess is 2-A'.
 Initial guess <Sx>= 0.0000 <Sy>= 0.0000 <Sz>= 0.5000 <S**2>= 0.7500 S= 0.5000
 Keep J ints in memory in canonical form, NReq=863588.
 Overlap will be assumed to be unity.
 Requested convergence on RMS density matrix=1.00D-08 within  32 cycles.
 Requested convergence on MAX density matrix=1.00D-06.
 Requested convergence on             energy=1.00D-06.
 No special actions if energy rises.
 Fock symm off for IB=2 I1=    1 I=   30 J=   25 Cut=1.00D-07 Err=6.60D-03
 Fock matrix is not symmetric: symmetry in diagonalization turned off.
 Rare condition: small coef for last iteration:  0.000D+00
 Rare condition: small coef for last iteration:  0.000D+00
 SCF Done:  E(UAM1) =  0.151943998672     A.U. after   30 cycles
            NFock= 29  Conv=0.33D-08     -V/T= 1.0014
 <Sx>= 0.0000 <Sy>= 0.0000 <Sz>= 0.5000 <S**2>= 1.2146 S= 0.7102
 <L.S>=  0.00000000000    
 Annihilation of the first spin contaminant:
 S**2 before annihilation     1.2146,   after     0.9328
 QCSCF skips out because SCF is already converged.

 **********************************************************************

            Population analysis using the SCF Density.

 **********************************************************************

 Orbital symmetries:
 Alpha Orbitals:
       Occupied  (A') (A') (A') (A') (A') (A') (A') (A') (A') (A')
                 (A') (A") (A') (A') (A') (A") (A") (A') (A') (A")
                 (A') (A') (A") (A")
       Virtual   (A") (A") (A') (A') (A') (A") (A') (A') (A') (A')
                 (A') (A') (A') (A')
 Beta  Orbitals:
       Occupied  (A') (A') (A') (A') (A') (A') (A') (A') (A') (A')
                 (A') (A") (A') (A') (A') (A") (A') (A") (A") (A')
                 (A') (A") (A")
       Virtual   (A') (A") (A') (A") (A') (A') (A") (A') (A') (A')
                 (A') (A') (A') (A') (A')
 The electronic state is 2-A'.
 Alpha  occ. eigenvalues --   -1.48537  -1.25554  -1.24585  -1.17768  -1.11294
 Alpha  occ. eigenvalues --   -1.10256  -0.87508  -0.85975  -0.66271  -0.63572
 Alpha  occ. eigenvalues --   -0.59928  -0.56592  -0.55580  -0.52426  -0.47906
 Alpha  occ. eigenvalues --   -0.46532  -0.45708  -0.45382  -0.42944  -0.42662
 Alpha  occ. eigenvalues --   -0.42172  -0.39116  -0.38342  -0.37790
 Alpha virt. eigenvalues --   -0.02123  -0.01624  -0.00775   0.01165   0.01708
 Alpha virt. eigenvalues --    0.06341   0.11593   0.12106   0.12984   0.13285
 Alpha virt. eigenvalues --    0.14285   0.15946   0.16314   0.17411
  Beta  occ. eigenvalues --   -1.47930  -1.25505  -1.24055  -1.17697  -1.10873
  Beta  occ. eigenvalues --   -1.08839  -0.87296  -0.83909  -0.65719  -0.62988
  Beta  occ. eigenvalues --   -0.58720  -0.56417  -0.55398  -0.50951  -0.47520
  Beta  occ. eigenvalues --   -0.47428  -0.45090  -0.44828  -0.42831  -0.42499
  Beta  occ. eigenvalues --   -0.39153  -0.38032  -0.37299
  Beta virt. eigenvalues --   -0.02978  -0.01913  -0.00850  -0.00119   0.01091
  Beta virt. eigenvalues --    0.01819   0.07426   0.12000   0.12402   0.13458
  Beta virt. eigenvalues --    0.13672   0.15206   0.15898   0.17521   0.18247
          Condensed to atoms (all electrons):
               1          2          3          4          5          6
     1  C    3.986097   0.000000   0.000000   0.000000   0.000000   0.000000
     2  C    0.000000   4.145047   0.000000   0.000000   0.000000   0.000000
     3  C    0.000000   0.000000   4.117377   0.000000   0.000000   0.000000
     4  C    0.000000   0.000000   0.000000   4.147883   0.000000   0.000000
     5  C    0.000000   0.000000   0.000000   0.000000   4.086158   0.000000
     6  C    0.000000   0.000000   0.000000   0.000000   0.000000   4.122502
     7  Br   0.000000   0.000000   0.000000   0.000000   0.000000   0.000000
     8  Br   0.000000   0.000000   0.000000   0.000000   0.000000   0.000000
     9  Br   0.000000   0.000000   0.000000   0.000000   0.000000   0.000000
    10  H    0.000000   0.000000   0.000000   0.000000   0.000000   0.000000
    11  H    0.000000   0.000000   0.000000   0.000000   0.000000   0.000000
               7          8          9         10         11
     1  C    0.000000   0.000000   0.000000   0.000000   0.000000
     2  C    0.000000   0.000000   0.000000   0.000000   0.000000
     3  C    0.000000   0.000000   0.000000   0.000000   0.000000
     4  C    0.000000   0.000000   0.000000   0.000000   0.000000
     5  C    0.000000   0.000000   0.000000   0.000000   0.000000
     6  C    0.000000   0.000000   0.000000   0.000000   0.000000
     7  Br   6.903608   0.000000   0.000000   0.000000   0.000000
     8  Br   0.000000   6.895094   0.000000   0.000000   0.000000
     9  Br   0.000000   0.000000   6.913487   0.000000   0.000000
    10  H    0.000000   0.000000   0.000000   0.840251   0.000000
    11  H    0.000000   0.000000   0.000000   0.000000   0.842496
          Atomic-Atomic Spin Densities.
               1          2          3          4          5          6
     1  C    1.390828   0.000000   0.000000   0.000000   0.000000   0.000000
     2  C    0.000000  -0.464881   0.000000   0.000000   0.000000   0.000000
     3  C    0.000000   0.000000   0.462208   0.000000   0.000000   0.000000
     4  C    0.000000   0.000000   0.000000  -0.447423   0.000000   0.000000
     5  C    0.000000   0.000000   0.000000   0.000000   0.460400   0.000000
     6  C    0.000000   0.000000   0.000000   0.000000   0.000000  -0.452777
     7  Br   0.000000   0.000000   0.000000   0.000000   0.000000   0.000000
     8  Br   0.000000   0.000000   0.000000   0.000000   0.000000   0.000000
     9  Br   0.000000   0.000000   0.000000   0.000000   0.000000   0.000000
    10  H    0.000000   0.000000   0.000000   0.000000   0.000000   0.000000
    11  H    0.000000   0.000000   0.000000   0.000000   0.000000   0.000000
               7          8          9         10         11
     1  C    0.000000   0.000000   0.000000   0.000000   0.000000
     2  C    0.000000   0.000000   0.000000   0.000000   0.000000
     3  C    0.000000   0.000000   0.000000   0.000000   0.000000
     4  C    0.000000   0.000000   0.000000   0.000000   0.000000
     5  C    0.000000   0.000000   0.000000   0.000000   0.000000
     6  C    0.000000   0.000000   0.000000   0.000000   0.000000
     7  Br   0.025577   0.000000   0.000000   0.000000   0.000000
     8  Br   0.000000  -0.006300   0.000000   0.000000   0.000000
     9  Br   0.000000   0.000000   0.022783   0.000000   0.000000
    10  H    0.000000   0.000000   0.000000  -0.018355   0.000000
    11  H    0.000000   0.000000   0.000000   0.000000   0.027939
 Mulliken charges and spin densities:
               1          2
     1  C    0.013903   1.390828
     2  C   -0.145047  -0.464881
     3  C   -0.117377   0.462208
     4  C   -0.147883  -0.447423
     5  C   -0.086158   0.460400
     6  C   -0.122502  -0.452777
     7  Br   0.096392   0.025577
     8  Br   0.104906  -0.006300
     9  Br   0.086513   0.022783
    10  H    0.159749  -0.018355
    11  H    0.157504   0.027939
 Sum of Mulliken charges =  -0.00000   1.00000
 Mulliken charges and spin densities with hydrogens summed into heavy atoms:
               1          2
     1  C    0.013903   1.390828
     2  C   -0.145047  -0.464881
     3  C   -0.117377   0.462208
     4  C   -0.147883  -0.447423
     5  C    0.073591   0.442045
     6  C    0.035002  -0.424837
     7  Br   0.096392   0.025577
     8  Br   0.104906  -0.006300
     9  Br   0.086513   0.022783
 Charge=             -0.0000 electrons
 Dipole moment (field-independent basis, Debye):
    X=             -1.7316    Y=             -0.0313    Z=              0.0000  Tot=              1.7319
 N-N= 2.393725281117D+02 E-N=-3.358686680043D+02  KE=-1.092187266189D+02
 Symmetry A'   KE=-8.357359997328D+01
 Symmetry A"   KE=-2.564512664564D+01
 Symmetry A'   SP= 1.000000000000D+00
 Symmetry A"   SP= 9.992007221626D-16
 Calling FoFJK, ICntrl=      2127 FMM=F ISym2X=1 I1Cent= 0 IOpClX= 1 NMat=1 NMatS=1 NMatT=0.
 ***** Axes restored to original set *****
 -------------------------------------------------------------------
 Center     Atomic                   Forces (Hartrees/Bohr)
 Number     Number              X              Y              Z
 -------------------------------------------------------------------
      1        6          -0.000000354   -0.050769332    0.000000000
      2        6           0.020832905    0.047125676    0.000000000
      3        6           0.027123180   -0.016260113    0.000000000
      4        6          -0.000555829   -0.029689630    0.000000000
      5        6           0.001732389    0.001665075   -0.000000000
      6        6           0.004849692    0.031321834   -0.000000000
      7       35          -0.013265976   -0.004324074   -0.000000000
      8       35          -0.010994220    0.006832773   -0.000000000
      9       35          -0.001617261    0.012705395   -0.000000000
     10        1          -0.014645432   -0.006591104   -0.000000000
     11        1          -0.013459096    0.007983501   -0.000000000
 -------------------------------------------------------------------
 Cartesian Forces:  Max     0.050769332 RMS     0.016654835

 GradGradGradGradGradGradGradGradGradGradGradGradGradGradGradGradGradGrad
 Berny optimization.
 FormGI is forming the generalized inverse of G from B-inverse, IUseBI=4.
 Internal  Forces:  Max     0.037298204 RMS     0.010551435
 Search for a local minimum.
 Step number   1 out of a maximum of   57
 All quantities printed in internal units (Hartrees-Bohrs-Radians)
 Mixed Optimization -- RFO/linear search
 Second derivative matrix not updated -- first step.
 ITU=  0
     Eigenvalues ---    0.02221   0.02221   0.02221   0.02221   0.02221
     Eigenvalues ---    0.02221   0.02221   0.02221   0.16000   0.16000
     Eigenvalues ---    0.18251   0.18251   0.18251   0.22423   0.24427
     Eigenvalues ---    0.25000   0.25000   0.25000   0.25000   0.35994
     Eigenvalues ---    0.35994   0.43073   0.43719   0.47319   0.47319
     Eigenvalues ---    0.47319   0.47319
 RFO step:  Lambda=-1.64308177D-02 EMin= 2.22103665D-02
 Linear search not attempted -- first point.
 Iteration  1 RMS(Cart)=  0.04182045 RMS(Int)=  0.00137776
 Iteration  2 RMS(Cart)=  0.00201034 RMS(Int)=  0.00038787
 Iteration  3 RMS(Cart)=  0.00000083 RMS(Int)=  0.00038787
 ClnCor:  largest displacement from symmetrization is 1.35D-08 for atom     9.
 Variable       Old X    -DE/DX   Delta X   Delta X   Delta X     New X
                                 (Linear)    (Quad)   (Total)
    R1        2.62672  -0.01197   0.00000  -0.02719  -0.02662   2.60010
    R2        2.62672  -0.01324   0.00000  -0.02963  -0.02910   2.59762
    R3        2.62672   0.01869   0.00000   0.03802   0.03805   2.66477
    R4        3.59048  -0.01365   0.00000  -0.06862  -0.06862   3.52186
    R5        2.62672   0.02507   0.00000   0.05378   0.05326   2.67998
    R6        3.59048  -0.01294   0.00000  -0.06503  -0.06503   3.52545
    R7        2.62672   0.02242   0.00000   0.04852   0.04797   2.67469
    R8        3.59048  -0.01271   0.00000  -0.06387  -0.06387   3.52661
    R9        2.62672   0.01265   0.00000   0.02599   0.02595   2.65267
   R10        2.04090   0.01598   0.00000   0.04245   0.04245   2.08336
   R11        2.04090   0.01565   0.00000   0.04157   0.04157   2.08248
    A1        2.09440   0.03730   0.00000   0.12812   0.12955   2.22395
    A2        2.09440  -0.01525   0.00000  -0.06061  -0.06008   2.03432
    A3        2.09440   0.00244   0.00000   0.01084   0.01058   2.10497
    A4        2.09440   0.01281   0.00000   0.04977   0.04950   2.14390
    A5        2.09440  -0.00612   0.00000  -0.01649  -0.01705   2.07734
    A6        2.09440   0.00231   0.00000   0.00541   0.00570   2.10009
    A7        2.09440   0.00382   0.00000   0.01108   0.01136   2.10575
    A8        2.09440   0.00193   0.00000   0.01909   0.01794   2.11233
    A9        2.09440   0.00194   0.00000   0.00135   0.00193   2.09632
   A10        2.09440  -0.00387   0.00000  -0.02044  -0.01987   2.07453
   A11        2.09440  -0.00209   0.00000  -0.00055  -0.00122   2.09318
   A12        2.09440   0.00269   0.00000   0.00961   0.00995   2.10434
   A13        2.09440  -0.00060   0.00000  -0.00906  -0.00873   2.08566
   A14        2.09440  -0.01577   0.00000  -0.06957  -0.06914   2.02526
   A15        2.09440   0.00770   0.00000   0.03372   0.03350   2.12790
   A16        2.09440   0.00807   0.00000   0.03585   0.03564   2.13003
    D1        0.00000  -0.00000   0.00000  -0.00000   0.00000   0.00000
    D2        3.14159  -0.00000   0.00000  -0.00000   0.00000   3.14159
    D3        0.00000   0.00000   0.00000   0.00000   0.00000   0.00000
    D4        3.14159   0.00000   0.00000   0.00000   0.00000   3.14159
    D5        0.00000   0.00000   0.00000   0.00000   0.00000   0.00000
    D6        3.14159  -0.00000   0.00000  -0.00000   0.00000   3.14159
    D7        3.14159   0.00000   0.00000   0.00000   0.00000   3.14159
    D8        0.00000   0.00000   0.00000   0.00000   0.00000   0.00000
    D9        0.00000   0.00000   0.00000   0.00000   0.00000   0.00000
   D10        3.14159  -0.00000   0.00000  -0.00000   0.00000   3.14159
   D11        3.14159   0.00000   0.00000   0.00000   0.00000   3.14159
   D12        0.00000   0.00000   0.00000   0.00000   0.00000   0.00000
   D13        0.00000  -0.00000   0.00000  -0.00000   0.00000   0.00000
   D14        3.14159  -0.00000   0.00000  -0.00000   0.00000   3.14159
   D15        3.14159   0.00000   0.00000   0.00000   0.00000   3.14159
   D16        0.00000   0.00000   0.00000   0.00000   0.00000   0.00000
   D17        0.00000   0.00000   0.00000   0.00000   0.00000   0.00000
   D18        3.14159  -0.00000   0.00000  -0.00000   0.00000   3.14159
   D19        3.14159   0.00000   0.00000   0.00000   0.00000   3.14159
   D20        0.00000   0.00000   0.00000   0.00000   0.00000   0.00000
         Item               Value     Threshold  Converged?
 Maximum Force            0.037298     0.000450     NO 
 RMS     Force            0.010551     0.000300     NO 
 Maximum Displacement     0.154541     0.001800     NO 
 RMS     Displacement     0.041750     0.001200     NO 
 Predicted change in Energy=-8.698718D-03
 GradGradGradGradGradGradGradGradGradGradGradGradGradGradGradGradGradGrad

                          Input orientation:                          
 ---------------------------------------------------------------------
 Center     Atomic      Atomic             Coordinates (Angstroms)
 Number     Number       Type             X           Y           Z
 ---------------------------------------------------------------------
      1          6           0        0.017092    1.308220    0.000000
      2          6           0        1.248623    0.694652    0.000000
      3          6           0        1.250455   -0.715484    0.000000
      4          6           0        0.011252   -1.405139    0.000000
      5          6           0       -1.216047   -0.700123    0.000000
      6          6           0       -1.217403    0.703609    0.000000
      7         35           0        2.813225    1.707251    0.000000
      8         35           0        2.861984   -1.655371    0.000000
      9         35           0       -0.021748   -3.271051    0.000000
     10          1           0       -2.175062   -1.243925    0.000000
     11          1           0       -2.152090    1.287359    0.000000
 ---------------------------------------------------------------------
                    Distance matrix (angstroms):
                    1          2          3          4          5
     1  C    0.000000
     2  C    1.375912   0.000000
     3  C    2.369929   1.410137   0.000000
     4  C    2.713366   2.437254   1.418185   0.000000
     5  C    2.356708   2.831959   2.466550   1.415384   0.000000
     6  C    1.374603   2.466042   2.846779   2.440576   1.403732
     7  Br   2.824462   1.863689   2.883036   4.187843   4.693664
     8  Br   4.108075   2.850533   1.865586   2.861693   4.188417
     9  Br   4.579436   4.164210   2.854720   1.866204   2.834788
    10  H    3.364370   3.934425   3.466038   2.192250   1.102466
    11  H    2.169283   3.451978   3.948253   3.453925   2.196876
                    6          7          8          9         10
     6  C    0.000000
     7  Br   4.153705   0.000000
     8  Br   4.712344   3.362976   0.000000
     9  Br   4.150604   5.728924   3.305500   0.000000
    10  H    2.170254   5.795900   5.053822   2.957364   0.000000
    11  H    1.102000   4.983038   5.813828   5.031646   2.531389
                   11
    11  H    0.000000
 Stoichiometry    C6H2Br3(2)
 Framework group  CS[SG(C6H2Br3)]
 Deg. of freedom    19
 Full point group                 CS      NOp   2
 Largest Abelian subgroup         CS      NOp   2
 Largest concise Abelian subgroup C1      NOp   1
                         Standard orientation:                         
 ---------------------------------------------------------------------
 Center     Atomic      Atomic             Coordinates (Angstroms)
 Number     Number       Type             X           Y           Z
 ---------------------------------------------------------------------
      1          6           0        0.922760    2.314635    0.000000
      2          6           0        1.143724    0.956581    0.000000
      3          6           0       -0.000000    0.131729    0.000000
      4          6           0       -1.283443    0.735072    0.000000
      5          6           0       -1.427696    2.143085    0.000000
      6          6           0       -0.288893    2.963812    0.000000
      7         35           0        2.879342    0.277633    0.000000
      8         35           0        0.177925   -1.725353    0.000000
      9         35           0       -2.817520   -0.327626    0.000000
     10          1           0       -2.429132    2.604124    0.000000
     11          1           0       -0.360740    4.063467    0.000000
 ---------------------------------------------------------------------
 Rotational constants (GHZ):           0.9998800           0.3692152           0.2696459
 Standard basis: VSTO-6G (5D, 7F)
 There are    29 symmetry adapted cartesian basis functions of A'  symmetry.
 There are     9 symmetry adapted cartesian basis functions of A"  symmetry.
 There are    29 symmetry adapted basis functions of A'  symmetry.
 There are     9 symmetry adapted basis functions of A"  symmetry.
    38 basis functions,   228 primitive gaussians,    38 cartesian basis functions
    24 alpha electrons       23 beta electrons
       nuclear repulsion energy       239.1861766720 Hartrees.
 Integral buffers will be    131072 words long.
 Regular integral format.
 Two-electron integral symmetry is turned off.
 Do NDO integrals.
 One-electron integrals computed using PRISM.
 NBasis=    38 RedAO= T EigKep=  1.00D+00  NBF=    29     9
 NBsUse=    38 1.00D-06 EigRej= -1.00D+00 NBFU=    29     9
 Initial guess from the checkpoint file:  "calcs/am1/chks/BrPh_234_rad.chk"
 B after Tr=    -0.000000    0.000000    0.000000
         Rot=    0.890834    0.000000    0.000000    0.454328 Ang=  54.04 deg.
 Initial guess orbital symmetries:
 Alpha Orbitals:
       Occupied  (A') (A') (A') (A') (A') (A') (A') (A') (A') (A')
                 (A') (A") (A') (A') (A') (A") (A") (A') (A') (A")
                 (A') (A') (A") (A")
       Virtual   (A") (A") (A') (A') (A') (A") (A') (A') (A') (A')
                 (A') (A') (A') (A')
 Beta  Orbitals:
       Occupied  (A') (A') (A') (A') (A') (A') (A') (A') (A') (A')
                 (A') (A") (A') (A') (A') (A") (A') (A") (A") (A')
                 (A') (A") (A")
       Virtual   (A') (A") (A') (A") (A') (A') (A") (A') (A') (A')
                 (A') (A') (A') (A') (A')
 Initial guess <Sx>= 0.0000 <Sy>= 0.0000 <Sz>= 0.5000 <S**2>= 1.2146 S= 0.7102
 Keep J ints in memory in canonical form, NReq=863588.
 Overlap will be assumed to be unity.
 Requested convergence on RMS density matrix=1.00D-08 within  32 cycles.
 Requested convergence on MAX density matrix=1.00D-06.
 Requested convergence on             energy=1.00D-06.
 No special actions if energy rises.
 Fock symm off for IB=2 I1=    1 I=   30 J=   23 Cut=1.00D-07 Err=1.59D-03
 Fock matrix is not symmetric: symmetry in diagonalization turned off.
 SCF Done:  E(UAM1) =  0.143078279926     A.U. after   18 cycles
            NFock= 17  Conv=0.46D-08     -V/T= 1.0013
 <Sx>= 0.0000 <Sy>= 0.0000 <Sz>= 0.5000 <S**2>= 1.2834 S= 0.7383
 <L.S>=  0.00000000000    
 Annihilation of the first spin contaminant:
 S**2 before annihilation     1.2834,   after     1.0016
 QCSCF skips out because SCF is already converged.
 Calling FoFJK, ICntrl=      2127 FMM=F ISym2X=1 I1Cent= 0 IOpClX= 1 NMat=1 NMatS=1 NMatT=0.
 ***** Axes restored to original set *****
 -------------------------------------------------------------------
 Center     Atomic                   Forces (Hartrees/Bohr)
 Number     Number              X              Y              Z
 -------------------------------------------------------------------
      1        6          -0.002069142   -0.012874906    0.000000000
      2        6           0.005264094    0.011193731    0.000000000
      3        6          -0.005239765   -0.007968575    0.000000000
      4        6          -0.002414000    0.007005432   -0.000000000
      5        6           0.007815326   -0.004014776    0.000000000
      6        6          -0.001450812    0.007939579    0.000000000
      7       35          -0.002984302   -0.002171144   -0.000000000
      8       35          -0.002425953    0.001803378    0.000000000
      9       35          -0.000224042    0.000729343   -0.000000000
     10        1           0.001737540    0.000221863   -0.000000000
     11        1           0.001991057   -0.001863925   -0.000000000
 -------------------------------------------------------------------
 Cartesian Forces:  Max     0.012874906 RMS     0.004421358

 GradGradGradGradGradGradGradGradGradGradGradGradGradGradGradGradGradGrad
 Berny optimization.
 Using GEDIIS/GDIIS optimizer.
 FormGI is forming the generalized inverse of G from B-inverse, IUseBI=4.
 Internal  Forces:  Max     0.008344455 RMS     0.002474802
 Search for a local minimum.
 Step number   2 out of a maximum of   57
 All quantities printed in internal units (Hartrees-Bohrs-Radians)
 Mixed Optimization -- RFO/linear search
 Update second derivatives using D2CorX and points    1    2
 DE= -8.87D-03 DEPred=-8.70D-03 R= 1.02D+00
 TightC=F SS=  1.41D+00  RLast= 2.38D-01 DXNew= 5.0454D-01 7.1523D-01
 Trust test= 1.02D+00 RLast= 2.38D-01 DXMaxT set to 5.05D-01
 ITU=  1  0
 Use linear search instead of GDIIS.
     Eigenvalues ---    0.02221   0.02221   0.02221   0.02221   0.02221
     Eigenvalues ---    0.02221   0.02221   0.02221   0.15973   0.16008
     Eigenvalues ---    0.16999   0.18251   0.18346   0.21095   0.23198
     Eigenvalues ---    0.24887   0.25000   0.25000   0.25104   0.35986
     Eigenvalues ---    0.36755   0.42930   0.44223   0.46827   0.47319
     Eigenvalues ---    0.47319   0.53737
 RFO step:  Lambda=-9.13453313D-04 EMin= 2.22103665D-02
 Quartic linear search produced a step of  0.11249.
 Iteration  1 RMS(Cart)=  0.01019811 RMS(Int)=  0.00010950
 Iteration  2 RMS(Cart)=  0.00012649 RMS(Int)=  0.00007226
 Iteration  3 RMS(Cart)=  0.00000000 RMS(Int)=  0.00007226
 ClnCor:  largest displacement from symmetrization is 5.74D-12 for atom     8.
 Variable       Old X    -DE/DX   Delta X   Delta X   Delta X     New X
                                 (Linear)    (Quad)   (Total)
    R1        2.60010  -0.00358  -0.00299  -0.00634  -0.00922   2.59088
    R2        2.59762  -0.00550  -0.00327  -0.01089  -0.01407   2.58356
    R3        2.66477   0.00269   0.00428   0.00426   0.00855   2.67332
    R4        3.52186  -0.00369  -0.00772  -0.01820  -0.02592   3.49595
    R5        2.67998  -0.00565   0.00599  -0.01669  -0.01079   2.66919
    R6        3.52545  -0.00300  -0.00732  -0.01429  -0.02160   3.50384
    R7        2.67469  -0.00834   0.00540  -0.02291  -0.01762   2.65706
    R8        3.52661  -0.00073  -0.00718  -0.00054  -0.00773   3.51889
    R9        2.65267  -0.00047   0.00292  -0.00290   0.00001   2.65268
   R10        2.08336  -0.00162   0.00478  -0.00755  -0.00278   2.08058
   R11        2.08248  -0.00268   0.00468  -0.01075  -0.00607   2.07641
    A1        2.22395   0.00572   0.01457   0.01937   0.03420   2.25815
    A2        2.03432  -0.00512  -0.00676  -0.01757  -0.02422   2.01009
    A3        2.10497   0.00292   0.00119   0.01153   0.01267   2.11764
    A4        2.14390   0.00221   0.00557   0.00604   0.01156   2.15545
    A5        2.07734   0.00028  -0.00192   0.00259   0.00057   2.07791
    A6        2.10009  -0.00073   0.00064  -0.00375  -0.00305   2.09704
    A7        2.10575   0.00045   0.00128   0.00115   0.00248   2.10824
    A8        2.11233   0.00165   0.00202   0.00524   0.00704   2.11937
    A9        2.09632  -0.00041   0.00022  -0.00142  -0.00110   2.09522
   A10        2.07453  -0.00124  -0.00223  -0.00381  -0.00594   2.06859
   A11        2.09318   0.00125  -0.00014   0.00513   0.00487   2.09805
   A12        2.10434  -0.00132   0.00112  -0.00791  -0.00673   2.09761
   A13        2.08566   0.00007  -0.00098   0.00278   0.00186   2.08752
   A14        2.02526  -0.00378  -0.00778  -0.01476  -0.02246   2.00279
   A15        2.12790   0.00244   0.00377   0.01123   0.01496   2.14286
   A16        2.13003   0.00134   0.00401   0.00353   0.00750   2.13753
    D1        0.00000   0.00000   0.00000   0.00000   0.00000   0.00000
    D2        3.14159  -0.00000   0.00000  -0.00000   0.00000   3.14159
    D3        0.00000   0.00000   0.00000   0.00000   0.00000   0.00000
    D4        3.14159   0.00000   0.00000   0.00000   0.00000   3.14159
    D5        0.00000  -0.00000   0.00000  -0.00000   0.00000   0.00000
    D6        3.14159  -0.00000   0.00000  -0.00000   0.00000   3.14159
    D7        3.14159   0.00000   0.00000   0.00000   0.00000   3.14159
    D8        0.00000   0.00000   0.00000   0.00000   0.00000   0.00000
    D9        0.00000   0.00000   0.00000  -0.00000   0.00000   0.00000
   D10        3.14159  -0.00000   0.00000  -0.00000   0.00000   3.14159
   D11        3.14159   0.00000   0.00000   0.00000   0.00000   3.14159
   D12        0.00000   0.00000   0.00000   0.00000   0.00000   0.00000
   D13        0.00000   0.00000   0.00000   0.00000   0.00000   0.00000
   D14        3.14159  -0.00000   0.00000  -0.00000   0.00000   3.14159
   D15        3.14159   0.00000   0.00000   0.00000   0.00000   3.14159
   D16        0.00000  -0.00000   0.00000  -0.00000   0.00000   0.00000
   D17        0.00000  -0.00000   0.00000  -0.00000   0.00000   0.00000
   D18        3.14159  -0.00000   0.00000  -0.00000   0.00000   3.14159
   D19        3.14159   0.00000   0.00000   0.00000   0.00000   3.14159
   D20        0.00000  -0.00000   0.00000  -0.00000   0.00000   0.00000
         Item               Value     Threshold  Converged?
 Maximum Force            0.008344     0.000450     NO 
 RMS     Force            0.002475     0.000300     NO 
 Maximum Displacement     0.041079     0.001800     NO 
 RMS     Displacement     0.010212     0.001200     NO 
 Predicted change in Energy=-5.305703D-04
 GradGradGradGradGradGradGradGradGradGradGradGradGradGradGradGradGradGrad

                          Input orientation:                          
 ---------------------------------------------------------------------
 Center     Atomic      Atomic             Coordinates (Angstroms)
 Number     Number       Type             X           Y           Z
 ---------------------------------------------------------------------
      1          6           0        0.018413    1.286483    0.000000
      2          6           0        1.256475    0.697474    0.000000
      3          6           0        1.249736   -0.717170    0.000000
      4          6           0        0.011770   -1.397259    0.000000
      5          6           0       -1.208526   -0.698776    0.000000
      6          6           0       -1.218888    0.704923    0.000000
      7         35           0        2.804019    1.711138    0.000000
      8         35           0        2.848572   -1.656112    0.000000
      9         35           0       -0.029336   -3.258920    0.000000
     10          1           0       -2.161736   -1.249760    0.000000
     11          1           0       -2.150218    1.287981    0.000000
 ---------------------------------------------------------------------
                    Distance matrix (angstroms):
                    1          2          3          4          5
     1  C    0.000000
     2  C    1.371032   0.000000
     3  C    2.351761   1.414660   0.000000
     4  C    2.683750   2.436636   1.412473   0.000000
     5  C    2.333802   2.832974   2.458330   1.406058   0.000000
     6  C    1.367160   2.475374   2.848938   2.435916   1.403737
     7  Br   2.817788   1.849975   2.883136   4.178371   4.680619
     8  Br   4.082727   2.841503   1.854155   2.848588   4.168517
     9  Br   4.545653   4.160091   2.845438   1.862115   2.818657
    10  H    3.344485   3.933941   3.452795   2.178505   1.100997
    11  H    2.168631   3.457493   3.947190   3.447420   2.198633
                    6          7          8          9         10
     6  C    0.000000
     7  Br   4.146836   0.000000
     8  Br   4.703054   3.367545   0.000000
     9  Br   4.138488   5.720959   3.294138   0.000000
    10  H    2.170196   5.781492   5.026759   2.929822   0.000000
    11  H    1.098787   4.972275   5.801343   5.017215   2.537767
                   11
    11  H    0.000000
 Stoichiometry    C6H2Br3(2)
 Framework group  CS[SG(C6H2Br3)]
 Deg. of freedom    19
 Full point group                 CS      NOp   2
 Largest Abelian subgroup         CS      NOp   2
 Largest concise Abelian subgroup C1      NOp   1
                         Standard orientation:                         
 ---------------------------------------------------------------------
 Center     Atomic      Atomic             Coordinates (Angstroms)
 Number     Number       Type             X           Y           Z
 ---------------------------------------------------------------------
      1          6           0        0.917550    2.289393    0.000000
      2          6           0        1.156116    0.939276    0.000000
      3          6           0        0.000000    0.124010    0.000000
      4          6           0       -1.272171    0.737738    0.000000
      5          6           0       -1.411265    2.136899    0.000000
      6          6           0       -0.273985    2.959743    0.000000
      7         35           0        2.879592    0.266938    0.000000
      8         35           0        0.162867   -1.722977    0.000000
      9         35           0       -2.812314   -0.308891    0.000000
     10          1           0       -2.413072    2.593601    0.000000
     11          1           0       -0.339437    4.056579    0.000000
 ---------------------------------------------------------------------
 Rotational constants (GHZ):           1.0073761           0.3703587           0.2708000
 Standard basis: VSTO-6G (5D, 7F)
 There are    29 symmetry adapted cartesian basis functions of A'  symmetry.
 There are     9 symmetry adapted cartesian basis functions of A"  symmetry.
 There are    29 symmetry adapted basis functions of A'  symmetry.
 There are     9 symmetry adapted basis functions of A"  symmetry.
    38 basis functions,   228 primitive gaussians,    38 cartesian basis functions
    24 alpha electrons       23 beta electrons
       nuclear repulsion energy       239.6508614682 Hartrees.
 Integral buffers will be    131072 words long.
 Regular integral format.
 Two-electron integral symmetry is turned off.
 Do NDO integrals.
 One-electron integrals computed using PRISM.
 NBasis=    38 RedAO= T EigKep=  1.00D+00  NBF=    29     9
 NBsUse=    38 1.00D-06 EigRej= -1.00D+00 NBFU=    29     9
 Initial guess from the checkpoint file:  "calcs/am1/chks/BrPh_234_rad.chk"
 B after Tr=     0.000000   -0.000000    0.000000
         Rot=    0.999996    0.000000    0.000000    0.002666 Ang=   0.31 deg.
 Initial guess orbital symmetries:
 Alpha Orbitals:
       Occupied  (A') (A') (A') (A') (A') (A') (A') (A') (A') (A')
                 (A') (A") (A') (A') (A') (A") (A") (A') (A") (A')
                 (A') (A') (A") (A")
       Virtual   (A") (A") (A') (A') (A') (A") (A') (A') (A') (A')
                 (A') (A') (A') (A')
 Beta  Orbitals:
       Occupied  (A') (A') (A') (A') (A') (A') (A') (A') (A') (A')
                 (A') (A") (A') (A') (A') (A") (A") (A') (A") (A')
                 (A') (A") (A")
       Virtual   (A') (A") (A') (A") (A') (A') (A") (A') (A') (A')
                 (A') (A') (A') (A') (A')
 Initial guess <Sx>= 0.0000 <Sy>= 0.0000 <Sz>= 0.5000 <S**2>= 1.2834 S= 0.7383
 Keep J ints in memory in canonical form, NReq=863588.
 Overlap will be assumed to be unity.
 Requested convergence on RMS density matrix=1.00D-08 within  32 cycles.
 Requested convergence on MAX density matrix=1.00D-06.
 Requested convergence on             energy=1.00D-06.
 No special actions if energy rises.
 Fock symm off for IB=2 I1=    1 I=   30 J=   16 Cut=1.00D-07 Err=4.30D-04
 Fock matrix is not symmetric: symmetry in diagonalization turned off.
 SCF Done:  E(UAM1) =  0.142614676929     A.U. after   16 cycles
            NFock= 15  Conv=0.57D-08     -V/T= 1.0013
 <Sx>= 0.0000 <Sy>= 0.0000 <Sz>= 0.5000 <S**2>= 1.2620 S= 0.7296
 <L.S>=  0.00000000000    
 Annihilation of the first spin contaminant:
 S**2 before annihilation     1.2620,   after     0.9804
 QCSCF skips out because SCF is already converged.
 Calling FoFJK, ICntrl=      2127 FMM=F ISym2X=1 I1Cent= 0 IOpClX= 1 NMat=1 NMatS=1 NMatT=0.
 ***** Axes restored to original set *****
 -------------------------------------------------------------------
 Center     Atomic                   Forces (Hartrees/Bohr)
 Number     Number              X              Y              Z
 -------------------------------------------------------------------
      1        6           0.000130681    0.001733646   -0.000000000
      2        6           0.001821168    0.002551202    0.000000000
      3        6          -0.000776835   -0.002076630    0.000000000
      4        6           0.000391048    0.001255231    0.000000000
      5        6          -0.002125715   -0.002779654    0.000000000
      6        6          -0.003022496    0.003149905    0.000000000
      7       35           0.000881867    0.000047789   -0.000000000
      8       35           0.002204052   -0.000674970   -0.000000000
      9       35          -0.000035971   -0.002579574   -0.000000000
     10        1          -0.000135892    0.000147829   -0.000000000
     11        1           0.000668094   -0.000774775   -0.000000000
 -------------------------------------------------------------------
 Cartesian Forces:  Max     0.003149905 RMS     0.001399466

 GradGradGradGradGradGradGradGradGradGradGradGradGradGradGradGradGradGrad
 Berny optimization.
 Using GEDIIS/GDIIS optimizer.
 FormGI is forming the generalized inverse of G from B-inverse, IUseBI=4.
 Internal  Forces:  Max     0.003436800 RMS     0.001137484
 Search for a local minimum.
 Step number   3 out of a maximum of   57
 All quantities printed in internal units (Hartrees-Bohrs-Radians)
 Mixed Optimization -- RFO/linear search
 Update second derivatives using D2CorX and points    1    2    3
 DE= -4.64D-04 DEPred=-5.31D-04 R= 8.74D-01
 TightC=F SS=  1.41D+00  RLast= 7.10D-02 DXNew= 8.4853D-01 2.1288D-01
 Trust test= 8.74D-01 RLast= 7.10D-02 DXMaxT set to 5.05D-01
 ITU=  1  1  0
 Use linear search instead of GDIIS.
     Eigenvalues ---    0.02221   0.02221   0.02221   0.02221   0.02221
     Eigenvalues ---    0.02221   0.02221   0.02221   0.15082   0.16047
     Eigenvalues ---    0.16372   0.18266   0.19426   0.20311   0.22929
     Eigenvalues ---    0.24878   0.25000   0.25035   0.25656   0.35976
     Eigenvalues ---    0.36865   0.42726   0.44731   0.46808   0.47319
     Eigenvalues ---    0.47321   0.62352
 RFO step:  Lambda=-1.20777314D-04 EMin= 2.22103665D-02
 Quartic linear search produced a step of -0.12667.
 Iteration  1 RMS(Cart)=  0.00371012 RMS(Int)=  0.00000459
 Iteration  2 RMS(Cart)=  0.00000481 RMS(Int)=  0.00000313
 Iteration  3 RMS(Cart)=  0.00000000 RMS(Int)=  0.00000313
 ClnCor:  largest displacement from symmetrization is 5.48D-13 for atom     7.
 Variable       Old X    -DE/DX   Delta X   Delta X   Delta X     New X
                                 (Linear)    (Quad)   (Total)
    R1        2.59088   0.00243   0.00117   0.00248   0.00364   2.59451
    R2        2.58356   0.00272   0.00178   0.00196   0.00374   2.58730
    R3        2.67332   0.00327  -0.00108   0.00795   0.00687   2.68019
    R4        3.49595   0.00076   0.00328  -0.00215   0.00113   3.49708
    R5        2.66919   0.00179   0.00137   0.00090   0.00227   2.67146
    R6        3.50384   0.00224   0.00274   0.00592   0.00866   3.51250
    R7        2.65706   0.00223   0.00223   0.00024   0.00247   2.65954
    R8        3.51889   0.00258   0.00098   0.01064   0.01162   3.53051
    R9        2.65268   0.00344  -0.00000   0.00643   0.00643   2.65910
   R10        2.08058   0.00004   0.00035  -0.00048  -0.00013   2.08045
   R11        2.07641  -0.00098   0.00077  -0.00371  -0.00294   2.07347
    A1        2.25815  -0.00004  -0.00433   0.00782   0.00347   2.26163
    A2        2.01009  -0.00023   0.00307  -0.00622  -0.00316   2.00693
    A3        2.11764   0.00089  -0.00160   0.00594   0.00434   2.12198
    A4        2.15545  -0.00066  -0.00146   0.00028  -0.00118   2.15427
    A5        2.07791   0.00022  -0.00007   0.00071   0.00064   2.07855
    A6        2.09704  -0.00105   0.00039  -0.00426  -0.00387   2.09316
    A7        2.10824   0.00082  -0.00031   0.00355   0.00323   2.11147
    A8        2.11937   0.00027  -0.00089   0.00234   0.00146   2.12083
    A9        2.09522  -0.00017   0.00014  -0.00076  -0.00062   2.09460
   A10        2.06859  -0.00010   0.00075  -0.00159  -0.00084   2.06775
   A11        2.09805  -0.00023  -0.00062   0.00015  -0.00046   2.09759
   A12        2.09761   0.00032   0.00085   0.00008   0.00093   2.09855
   A13        2.08752  -0.00009  -0.00024  -0.00024  -0.00047   2.08705
   A14        2.00279   0.00000   0.00285  -0.00480  -0.00196   2.00084
   A15        2.14286   0.00031  -0.00190   0.00495   0.00306   2.14592
   A16        2.13753  -0.00032  -0.00095  -0.00015  -0.00110   2.13643
    D1        0.00000   0.00000   0.00000   0.00000   0.00000   0.00000
    D2        3.14159  -0.00000   0.00000  -0.00000   0.00000   3.14159
    D3        0.00000  -0.00000   0.00000  -0.00000   0.00000   0.00000
    D4        3.14159   0.00000   0.00000   0.00000   0.00000   3.14159
    D5        0.00000  -0.00000   0.00000  -0.00000   0.00000   0.00000
    D6        3.14159  -0.00000   0.00000  -0.00000   0.00000   3.14159
    D7        3.14159   0.00000   0.00000   0.00000   0.00000   3.14159
    D8        0.00000   0.00000   0.00000   0.00000   0.00000   0.00000
    D9        0.00000   0.00000   0.00000   0.00000   0.00000   0.00000
   D10        3.14159  -0.00000   0.00000  -0.00000   0.00000   3.14159
   D11        3.14159   0.00000   0.00000   0.00000   0.00000   3.14159
   D12        0.00000  -0.00000   0.00000  -0.00000   0.00000   0.00000
   D13        0.00000  -0.00000   0.00000  -0.00000   0.00000   0.00000
   D14        3.14159  -0.00000   0.00000  -0.00000   0.00000   3.14159
   D15        3.14159   0.00000   0.00000   0.00000   0.00000   3.14159
   D16        0.00000   0.00000   0.00000   0.00000   0.00000   0.00000
   D17        0.00000   0.00000   0.00000   0.00000   0.00000   0.00000
   D18        3.14159  -0.00000   0.00000  -0.00000   0.00000   3.14159
   D19        3.14159   0.00000   0.00000   0.00000   0.00000   3.14159
   D20        0.00000   0.00000   0.00000   0.00000   0.00000   0.00000
         Item               Value     Threshold  Converged?
 Maximum Force            0.003437     0.000450     NO 
 RMS     Force            0.001137     0.000300     NO 
 Maximum Displacement     0.012825     0.001800     NO 
 RMS     Displacement     0.003710     0.001200     NO 
 Predicted change in Energy=-7.037955D-05
 GradGradGradGradGradGradGradGradGradGradGradGradGradGradGradGradGradGrad

                          Input orientation:                          
 ---------------------------------------------------------------------
 Center     Atomic      Atomic             Coordinates (Angstroms)
 Number     Number       Type             X           Y           Z
 ---------------------------------------------------------------------
      1          6           0        0.017819    1.288042    0.000000
      2          6           0        1.258723    0.700529    0.000000
      3          6           0        1.250143   -0.717739    0.000000
      4          6           0        0.010686   -1.397607    0.000000
      5          6           0       -1.211315   -0.699470    0.000000
      6          6           0       -1.222204    0.707625    0.000000
      7         35           0        2.809266    1.710699    0.000000
      8         35           0        2.855358   -1.654854    0.000000
      9         35           0       -0.030599   -3.265417    0.000000
     10          1           0       -2.164529   -1.250308    0.000000
     11          1           0       -2.153066    1.288500    0.000000
 ---------------------------------------------------------------------
                    Distance matrix (angstroms):
                    1          2          3          4          5
     1  C    0.000000
     2  C    1.372958   0.000000
     3  C    2.354099   1.418295   0.000000
     4  C    2.685659   2.441265   1.413674   0.000000
     5  C    2.336872   2.839205   2.461526   1.407367   0.000000
     6  C    1.369139   2.480937   2.853799   2.439677   1.407137
     7  Br   2.823263   1.850574   2.885858   4.182537   4.687641
     8  Br   4.088064   2.845536   1.858736   2.856280   4.177390
     9  Br   4.553716   4.170261   2.851484   1.868266   2.824566
    10  H    3.347516   3.940104   3.455954   2.180197   1.100927
    11  H    2.170885   3.462082   3.950548   3.449202   2.199755
                    6          7          8          9         10
     6  C    0.000000
     7  Br   4.154384   0.000000
     8  Br   4.712518   3.365868   0.000000
     9  Br   4.147889   5.729446   3.304945   0.000000
    10  H    2.172896   5.788454   5.036162   2.935016   0.000000
    11  H    1.097233   4.980260   5.809272   5.024244   2.538834
                   11
    11  H    0.000000
 Stoichiometry    C6H2Br3(2)
 Framework group  CS[SG(C6H2Br3)]
 Deg. of freedom    19
 Full point group                 CS      NOp   2
 Largest Abelian subgroup         CS      NOp   2
 Largest concise Abelian subgroup C1      NOp   1
                         Standard orientation:                         
 ---------------------------------------------------------------------
 Center     Atomic      Atomic             Coordinates (Angstroms)
 Number     Number       Type             X           Y           Z
 ---------------------------------------------------------------------
      1          6           0        0.930252    2.288459    0.000000
      2          6           0        1.164472    0.935627    0.000000
      3          6           0       -0.000000    0.125957    0.000000
      4          6           0       -1.269557    0.747808    0.000000
      5          6           0       -1.402449    2.148887    0.000000
      6          6           0       -0.258323    2.968040    0.000000
      7         35           0        2.883206    0.249640    0.000000
      8         35           0        0.158179   -1.726036    0.000000
      9         35           0       -2.820392   -0.293982    0.000000
     10          1           0       -2.401688    2.611015    0.000000
     11          1           0       -0.319438    4.063569    0.000000
 ---------------------------------------------------------------------
 Rotational constants (GHZ):           1.0036828           0.3692611           0.2699462
 Standard basis: VSTO-6G (5D, 7F)
 There are    29 symmetry adapted cartesian basis functions of A'  symmetry.
 There are     9 symmetry adapted cartesian basis functions of A"  symmetry.
 There are    29 symmetry adapted basis functions of A'  symmetry.
 There are     9 symmetry adapted basis functions of A"  symmetry.
    38 basis functions,   228 primitive gaussians,    38 cartesian basis functions
    24 alpha electrons       23 beta electrons
       nuclear repulsion energy       239.4072585487 Hartrees.
 Integral buffers will be    131072 words long.
 Regular integral format.
 Two-electron integral symmetry is turned off.
 Do NDO integrals.
 One-electron integrals computed using PRISM.
 NBasis=    38 RedAO= T EigKep=  1.00D+00  NBF=    29     9
 NBsUse=    38 1.00D-06 EigRej= -1.00D+00 NBFU=    29     9
 Initial guess from the checkpoint file:  "calcs/am1/chks/BrPh_234_rad.chk"
 B after Tr=    -0.000000    0.000000    0.000000
         Rot=    0.999996    0.000000    0.000000    0.002683 Ang=   0.31 deg.
 Initial guess orbital symmetries:
 Alpha Orbitals:
       Occupied  (A') (A') (A') (A') (A') (A') (A') (A') (A') (A')
                 (A') (A") (A') (A') (A') (A") (A") (A') (A") (A')
                 (A') (A') (A") (A")
       Virtual   (A") (A") (A') (A') (A') (A") (A') (A') (A') (A')
                 (A') (A') (A') (A')
 Beta  Orbitals:
       Occupied  (A') (A') (A') (A') (A') (A') (A') (A') (A') (A')
                 (A') (A") (A') (A') (A') (A") (A") (A') (A") (A')
                 (A') (A") (A")
       Virtual   (A") (A') (A') (A") (A') (A') (A") (A') (A') (A')
                 (A') (A') (A') (A') (A')
 Initial guess <Sx>= 0.0000 <Sy>= 0.0000 <Sz>= 0.5000 <S**2>= 1.2620 S= 0.7296
 Keep J ints in memory in canonical form, NReq=863588.
 Overlap will be assumed to be unity.
 Requested convergence on RMS density matrix=1.00D-08 within  32 cycles.
 Requested convergence on MAX density matrix=1.00D-06.
 Requested convergence on             energy=1.00D-06.
 No special actions if energy rises.
 Fock symm off for IB=2 I1=    1 I=   30 J=   12 Cut=1.00D-07 Err=1.65D-04
 Fock matrix is not symmetric: symmetry in diagonalization turned off.
 SCF Done:  E(UAM1) =  0.142552134403     A.U. after   15 cycles
            NFock= 14  Conv=0.70D-08     -V/T= 1.0013
 <Sx>= 0.0000 <Sy>= 0.0000 <Sz>= 0.5000 <S**2>= 1.2755 S= 0.7351
 <L.S>=  0.00000000000    
 Annihilation of the first spin contaminant:
 S**2 before annihilation     1.2755,   after     0.9943
 QCSCF skips out because SCF is already converged.
 Calling FoFJK, ICntrl=      2127 FMM=F ISym2X=1 I1Cent= 0 IOpClX= 1 NMat=1 NMatS=1 NMatT=0.
 ***** Axes restored to original set *****
 -------------------------------------------------------------------
 Center     Atomic                   Forces (Hartrees/Bohr)
 Number     Number              X              Y              Z
 -------------------------------------------------------------------
      1        6           0.000186942   -0.000085856    0.000000000
      2        6          -0.000835000   -0.000270287    0.000000000
      3        6          -0.000893329   -0.000315995    0.000000000
      4        6           0.000775305    0.001100210    0.000000000
      5        6          -0.000305043   -0.000322345    0.000000000
      6        6           0.000678262   -0.000226093   -0.000000000
      7       35           0.000093696   -0.000250273   -0.000000000
      8       35          -0.000024759    0.000143904   -0.000000000
      9       35           0.000160505    0.000247328   -0.000000000
     10        1           0.000043516    0.000203852   -0.000000000
     11        1           0.000119906   -0.000224444   -0.000000000
 -------------------------------------------------------------------
 Cartesian Forces:  Max     0.001100210 RMS     0.000370014

 GradGradGradGradGradGradGradGradGradGradGradGradGradGradGradGradGradGrad
 Berny optimization.
 Using GEDIIS/GDIIS optimizer.
 FormGI is forming the generalized inverse of G from B-inverse, IUseBI=4.
 Internal  Forces:  Max     0.001355974 RMS     0.000314885
 Search for a local minimum.
 Step number   4 out of a maximum of   57
 All quantities printed in internal units (Hartrees-Bohrs-Radians)
 Mixed Optimization -- En-DIIS/RFO-DIIS
 Update second derivatives using D2CorX and points    1    2    3    4
 DE= -6.25D-05 DEPred=-7.04D-05 R= 8.89D-01
 TightC=F SS=  1.41D+00  RLast= 2.08D-02 DXNew= 8.4853D-01 6.2499D-02
 Trust test= 8.89D-01 RLast= 2.08D-02 DXMaxT set to 5.05D-01
 ITU=  1  1  1  0
 Use linear search instead of GDIIS.
     Eigenvalues ---    0.02221   0.02221   0.02221   0.02221   0.02221
     Eigenvalues ---    0.02221   0.02221   0.02221   0.14719   0.16062
     Eigenvalues ---    0.16852   0.18272   0.19713   0.20189   0.22786
     Eigenvalues ---    0.24859   0.25000   0.25024   0.25223   0.35879
     Eigenvalues ---    0.36568   0.43414   0.44359   0.45278   0.47319
     Eigenvalues ---    0.47830   0.72732
 RFO step:  Lambda=-8.85599528D-06 EMin= 2.22103665D-02
 Quartic linear search produced a step of -0.09803.
 Iteration  1 RMS(Cart)=  0.00154877 RMS(Int)=  0.00000133
 Iteration  2 RMS(Cart)=  0.00000139 RMS(Int)=  0.00000006
 Iteration  3 RMS(Cart)=  0.00000000 RMS(Int)=  0.00000006
 ClnCor:  largest displacement from symmetrization is 2.85D-12 for atom     9.
 Variable       Old X    -DE/DX   Delta X   Delta X   Delta X     New X
                                 (Linear)    (Quad)   (Total)
    R1        2.59451  -0.00062  -0.00036  -0.00050  -0.00085   2.59366
    R2        2.58730  -0.00033  -0.00037   0.00018  -0.00019   2.58711
    R3        2.68019  -0.00071  -0.00067  -0.00036  -0.00103   2.67916
    R4        3.49708  -0.00006  -0.00011   0.00013   0.00002   3.49709
    R5        2.67146  -0.00136  -0.00022  -0.00197  -0.00219   2.66927
    R6        3.51250  -0.00009  -0.00085   0.00109   0.00024   3.51274
    R7        2.65954  -0.00034  -0.00024   0.00010  -0.00014   2.65939
    R8        3.53051  -0.00025  -0.00114   0.00060  -0.00054   3.52997
    R9        2.65910  -0.00035  -0.00063   0.00046  -0.00017   2.65894
   R10        2.08045  -0.00014   0.00001  -0.00025  -0.00024   2.08021
   R11        2.07347  -0.00022   0.00029  -0.00085  -0.00056   2.07291
    A1        2.26163  -0.00040  -0.00034  -0.00103  -0.00137   2.26025
    A2        2.00693   0.00018   0.00031   0.00023   0.00054   2.00748
    A3        2.12198   0.00037  -0.00043   0.00188   0.00146   2.12344
    A4        2.15427  -0.00055   0.00012  -0.00212  -0.00200   2.15227
    A5        2.07855   0.00010  -0.00006   0.00023   0.00017   2.07872
    A6        2.09316  -0.00025   0.00038  -0.00133  -0.00096   2.09221
    A7        2.11147   0.00014  -0.00032   0.00110   0.00078   2.11225
    A8        2.12083   0.00026  -0.00014   0.00102   0.00087   2.12171
    A9        2.09460  -0.00040   0.00006  -0.00147  -0.00141   2.09319
   A10        2.06775   0.00014   0.00008   0.00045   0.00053   2.06829
   A11        2.09759  -0.00042   0.00004  -0.00168  -0.00163   2.09596
   A12        2.09855   0.00037  -0.00009   0.00192   0.00183   2.10037
   A13        2.08705   0.00005   0.00005  -0.00024  -0.00020   2.08685
   A14        2.00084   0.00028   0.00019   0.00123   0.00142   2.00225
   A15        2.14592  -0.00001  -0.00030   0.00038   0.00008   2.14600
   A16        2.13643  -0.00027   0.00011  -0.00161  -0.00150   2.13493
    D1        0.00000  -0.00000   0.00000  -0.00000   0.00000   0.00000
    D2        3.14159  -0.00000   0.00000  -0.00000   0.00000   3.14159
    D3        0.00000   0.00000   0.00000   0.00000   0.00000   0.00000
    D4        3.14159   0.00000   0.00000   0.00000   0.00000   3.14159
    D5        0.00000   0.00000   0.00000   0.00000   0.00000   0.00000
    D6        3.14159  -0.00000   0.00000  -0.00000   0.00000   3.14159
    D7        3.14159   0.00000   0.00000   0.00000   0.00000   3.14159
    D8        0.00000   0.00000   0.00000   0.00000   0.00000   0.00000
    D9        0.00000   0.00000   0.00000   0.00000   0.00000   0.00000
   D10        3.14159  -0.00000   0.00000  -0.00000   0.00000   3.14159
   D11        3.14159   0.00000   0.00000   0.00000   0.00000   3.14159
   D12        0.00000   0.00000   0.00000   0.00000   0.00000   0.00000
   D13        0.00000  -0.00000   0.00000  -0.00000   0.00000   0.00000
   D14        3.14159  -0.00000   0.00000  -0.00000   0.00000   3.14159
   D15        3.14159   0.00000   0.00000   0.00000   0.00000   3.14159
   D16        0.00000  -0.00000   0.00000  -0.00000   0.00000   0.00000
   D17        0.00000   0.00000   0.00000   0.00000   0.00000   0.00000
   D18        3.14159  -0.00000   0.00000  -0.00000   0.00000   3.14159
   D19        3.14159   0.00000   0.00000   0.00000   0.00000   3.14159
   D20        0.00000   0.00000   0.00000   0.00000   0.00000   0.00000
         Item               Value     Threshold  Converged?
 Maximum Force            0.001356     0.000450     NO 
 RMS     Force            0.000315     0.000300     NO 
 Maximum Displacement     0.006587     0.001800     NO 
 RMS     Displacement     0.001549     0.001200     NO 
 Predicted change in Energy=-5.174667D-06
 GradGradGradGradGradGradGradGradGradGradGradGradGradGradGradGradGradGrad

                          Input orientation:                          
 ---------------------------------------------------------------------
 Center     Atomic      Atomic             Coordinates (Angstroms)
 Number     Number       Type             X           Y           Z
 ---------------------------------------------------------------------
      1          6           0        0.017696    1.288550    0.000000
      2          6           0        1.257786    0.700372    0.000000
      3          6           0        1.248999   -0.717351    0.000000
      4          6           0        0.010574   -1.396689    0.000000
      5          6           0       -1.211986   -0.699686    0.000000
      6          6           0       -1.221841    0.707329    0.000000
      7         35           0        2.810501    1.707213    0.000000
      8         35           0        2.855079   -1.653232    0.000000
      9         35           0       -0.028032   -3.264269    0.000000
     10          1           0       -2.165602   -1.249572    0.000000
     11          1           0       -2.152894    1.287335    0.000000
 ---------------------------------------------------------------------
                    Distance matrix (angstroms):
                    1          2          3          4          5
     1  C    0.000000
     2  C    1.372507   0.000000
     3  C    2.353666   1.417750   0.000000
     4  C    2.685248   2.439918   1.412514   0.000000
     5  C    2.337776   2.839002   2.461048   1.407290   0.000000
     6  C    1.369040   2.479636   2.852151   2.438388   1.407049
     7  Br   2.824011   1.850583   2.883886   4.180167   4.687597
     8  Br   4.087153   2.844433   1.858861   2.856050   4.177352
     9  Br   4.553048   4.167937   2.849140   1.867979   2.824683
    10  H    3.347963   3.939780   3.455830   2.181143   1.100800
    11  H    2.170591   3.460818   3.948625   3.447402   2.198536
                    6          7          8          9         10
     6  C    0.000000
     7  Br   4.154462   0.000000
     8  Br   4.711000   3.360741   0.000000
     9  Br   4.147140   5.724762   3.302691   0.000000
    10  H    2.172590   5.788280   5.036882   2.937381   0.000000
    11  H    1.096935   4.981123   5.807472   5.023160   2.536939
                   11
    11  H    0.000000
 Stoichiometry    C6H2Br3(2)
 Framework group  CS[SG(C6H2Br3)]
 Deg. of freedom    19
 Full point group                 CS      NOp   2
 Largest Abelian subgroup         CS      NOp   2
 Largest concise Abelian subgroup C1      NOp   1
                         Standard orientation:                         
 ---------------------------------------------------------------------
 Center     Atomic      Atomic             Coordinates (Angstroms)
 Number     Number       Type             X           Y           Z
 ---------------------------------------------------------------------
      1          6           0        0.942159    2.284671    0.000000
      2          6           0        1.168334    0.930928    0.000000
      3          6           0        0.000000    0.127803    0.000000
      4          6           0       -1.265284    0.755699    0.000000
      5          6           0       -1.392143    2.157260    0.000000
      6          6           0       -0.243251    2.969561    0.000000
      7         35           0        2.881991    0.232334    0.000000
      8         35           0        0.150058   -1.724992    0.000000
      9         35           0       -2.819792   -0.280086    0.000000
     10          1           0       -2.388416    2.625448    0.000000
     11          1           0       -0.299494    4.065054    0.000000
 ---------------------------------------------------------------------
 Rotational constants (GHZ):           1.0042145           0.3698361           0.2702919
 Standard basis: VSTO-6G (5D, 7F)
 There are    29 symmetry adapted cartesian basis functions of A'  symmetry.
 There are     9 symmetry adapted cartesian basis functions of A"  symmetry.
 There are    29 symmetry adapted basis functions of A'  symmetry.
 There are     9 symmetry adapted basis functions of A"  symmetry.
    38 basis functions,   228 primitive gaussians,    38 cartesian basis functions
    24 alpha electrons       23 beta electrons
       nuclear repulsion energy       239.4531615817 Hartrees.
 Integral buffers will be    131072 words long.
 Regular integral format.
 Two-electron integral symmetry is turned off.
 Do NDO integrals.
 One-electron integrals computed using PRISM.
 NBasis=    38 RedAO= T EigKep=  1.00D+00  NBF=    29     9
 NBsUse=    38 1.00D-06 EigRej= -1.00D+00 NBFU=    29     9
 Initial guess from the checkpoint file:  "calcs/am1/chks/BrPh_234_rad.chk"
 B after Tr=     0.000000   -0.000000    0.000000
         Rot=    0.999997    0.000000    0.000000    0.002620 Ang=   0.30 deg.
 Initial guess orbital symmetries:
 Alpha Orbitals:
       Occupied  (A') (A') (A') (A') (A') (A') (A') (A') (A') (A')
                 (A') (A") (A') (A') (A') (A") (A") (A') (A") (A')
                 (A') (A') (A") (A")
       Virtual   (A") (A") (A') (A') (A') (A") (A') (A') (A') (A')
                 (A') (A') (A') (A')
 Beta  Orbitals:
       Occupied  (A') (A') (A') (A') (A') (A') (A') (A') (A') (A')
                 (A') (A") (A') (A') (A') (A") (A") (A') (A") (A')
                 (A') (A") (A")
       Virtual   (A") (A') (A') (A") (A') (A') (A") (A') (A') (A')
                 (A') (A') (A') (A') (A')
 Initial guess <Sx>= 0.0000 <Sy>= 0.0000 <Sz>= 0.5000 <S**2>= 1.2755 S= 0.7351
 Keep J ints in memory in canonical form, NReq=863588.
 Overlap will be assumed to be unity.
 Requested convergence on RMS density matrix=1.00D-08 within  32 cycles.
 Requested convergence on MAX density matrix=1.00D-06.
 Requested convergence on             energy=1.00D-06.
 No special actions if energy rises.
 Fock symm off for IB=2 I1=    1 I=   30 J=   12 Cut=1.00D-07 Err=3.92D-05
 Fock matrix is not symmetric: symmetry in diagonalization turned off.
 SCF Done:  E(UAM1) =  0.142546285149     A.U. after   15 cycles
            NFock= 14  Conv=0.37D-08     -V/T= 1.0013
 <Sx>= 0.0000 <Sy>= 0.0000 <Sz>= 0.5000 <S**2>= 1.2728 S= 0.7340
 <L.S>=  0.00000000000    
 Annihilation of the first spin contaminant:
 S**2 before annihilation     1.2728,   after     0.9915
 QCSCF skips out because SCF is already converged.
 Calling FoFJK, ICntrl=      2127 FMM=F ISym2X=1 I1Cent= 0 IOpClX= 1 NMat=1 NMatS=1 NMatT=0.
 ***** Axes restored to original set *****
 -------------------------------------------------------------------
 Center     Atomic                   Forces (Hartrees/Bohr)
 Number     Number              X              Y              Z
 -------------------------------------------------------------------
      1        6          -0.000103114   -0.000019117    0.000000000
      2        6          -0.000161191    0.000251476    0.000000000
      3        6          -0.000082116   -0.000329595    0.000000000
      4        6           0.000035155    0.000230133   -0.000000000
      5        6          -0.000086181   -0.000016545    0.000000000
      6        6           0.000280268   -0.000170656   -0.000000000
      7       35           0.000091274   -0.000028135   -0.000000000
      8       35           0.000010765    0.000032186   -0.000000000
      9       35          -0.000001378   -0.000023303   -0.000000000
     10        1           0.000077653    0.000082424   -0.000000000
     11        1          -0.000061136   -0.000008870   -0.000000000
 -------------------------------------------------------------------
 Cartesian Forces:  Max     0.000329595 RMS     0.000111821

 GradGradGradGradGradGradGradGradGradGradGradGradGradGradGradGradGradGrad
 Berny optimization.
 Using GEDIIS/GDIIS optimizer.
 FormGI is forming the generalized inverse of G from B-inverse, IUseBI=4.
 Internal  Forces:  Max     0.000177106 RMS     0.000064997
 Search for a local minimum.
 Step number   5 out of a maximum of   57
 All quantities printed in internal units (Hartrees-Bohrs-Radians)
 Mixed Optimization -- En-DIIS/RFO-DIIS
 Swapping is turned off.
 Update second derivatives using D2CorX and points    1    2    3    4    5
 DE= -5.85D-06 DEPred=-5.17D-06 R= 1.13D+00
 TightC=F SS=  1.41D+00  RLast= 5.53D-03 DXNew= 8.4853D-01 1.6595D-02
 Trust test= 1.13D+00 RLast= 5.53D-03 DXMaxT set to 5.05D-01
 ITU=  1  1  1  1  0
     Eigenvalues ---    0.02221   0.02221   0.02221   0.02221   0.02221
     Eigenvalues ---    0.02221   0.02221   0.02221   0.14242   0.15937
     Eigenvalues ---    0.16618   0.18339   0.19088   0.19926   0.21221
     Eigenvalues ---    0.23823   0.24947   0.25053   0.25409   0.36147
     Eigenvalues ---    0.36645   0.43829   0.45012   0.46822   0.47339
     Eigenvalues ---    0.49146   0.71098
 En-DIIS/RFO-DIIS/Sim-DIIS IScMMF=       -3 using points:     5    4
 RFO step:  Lambda=-7.49780737D-07.
 DidBck=F Rises=F RFO-DIIS coefs:    1.24569   -0.24569
 Iteration  1 RMS(Cart)=  0.00040285 RMS(Int)=  0.00000014
 Iteration  2 RMS(Cart)=  0.00000015 RMS(Int)=  0.00000001
 ClnCor:  largest displacement from symmetrization is 2.76D-10 for atom     7.
 Variable       Old X    -DE/DX   Delta X   Delta X   Delta X     New X
                                 (Linear)    (Quad)   (Total)
    R1        2.59366  -0.00005  -0.00021   0.00009  -0.00012   2.59354
    R2        2.58711  -0.00011  -0.00005  -0.00021  -0.00025   2.58686
    R3        2.67916   0.00018  -0.00025   0.00077   0.00052   2.67968
    R4        3.49709   0.00006   0.00000   0.00038   0.00038   3.49748
    R5        2.66927  -0.00015  -0.00054   0.00014  -0.00040   2.66886
    R6        3.51274  -0.00001   0.00006   0.00000   0.00006   3.51280
    R7        2.65939  -0.00011  -0.00004  -0.00017  -0.00020   2.65919
    R8        3.52997   0.00002  -0.00013   0.00037   0.00024   3.53021
    R9        2.65894  -0.00015  -0.00004  -0.00027  -0.00031   2.65863
   R10        2.08021  -0.00011  -0.00006  -0.00028  -0.00034   2.07987
   R11        2.07291   0.00005  -0.00014   0.00025   0.00011   2.07302
    A1        2.26025  -0.00008  -0.00034  -0.00001  -0.00035   2.25990
    A2        2.00748  -0.00001   0.00013  -0.00016  -0.00002   2.00746
    A3        2.12344   0.00014   0.00036   0.00037   0.00073   2.12416
    A4        2.15227  -0.00012  -0.00049  -0.00021  -0.00070   2.15157
    A5        2.07872  -0.00003   0.00004  -0.00011  -0.00007   2.07866
    A6        2.09221  -0.00004  -0.00023  -0.00010  -0.00034   2.09187
    A7        2.11225   0.00007   0.00019   0.00021   0.00040   2.11265
    A8        2.12171   0.00003   0.00021  -0.00002   0.00020   2.12190
    A9        2.09319  -0.00001  -0.00035   0.00021  -0.00014   2.09306
   A10        2.06829  -0.00002   0.00013  -0.00019  -0.00006   2.06823
   A11        2.09596  -0.00002  -0.00040   0.00010  -0.00030   2.09566
   A12        2.10037   0.00004   0.00045   0.00003   0.00047   2.10085
   A13        2.08685  -0.00002  -0.00005  -0.00013  -0.00017   2.08668
   A14        2.00225   0.00012   0.00035   0.00020   0.00055   2.00280
   A15        2.14600  -0.00002   0.00002   0.00008   0.00010   2.14610
   A16        2.13493  -0.00010  -0.00037  -0.00027  -0.00064   2.13429
    D1        0.00000  -0.00000   0.00000  -0.00000   0.00000   0.00000
    D2        3.14159  -0.00000   0.00000  -0.00000   0.00000   3.14159
    D3        0.00000   0.00000   0.00000   0.00000   0.00000   0.00000
    D4        3.14159   0.00000   0.00000   0.00000   0.00000   3.14159
    D5        0.00000   0.00000   0.00000   0.00000   0.00000   0.00000
    D6        3.14159  -0.00000   0.00000  -0.00000   0.00000   3.14159
    D7        3.14159   0.00000   0.00000   0.00000   0.00000   3.14159
    D8        0.00000   0.00000   0.00000   0.00000   0.00000   0.00000
    D9        0.00000  -0.00000   0.00000  -0.00000   0.00000   0.00000
   D10        3.14159  -0.00000   0.00000  -0.00000   0.00000   3.14159
   D11        3.14159   0.00000   0.00000   0.00000   0.00000   3.14159
   D12        0.00000   0.00000   0.00000   0.00000   0.00000   0.00000
   D13        0.00000   0.00000   0.00000   0.00000   0.00000   0.00000
   D14        3.14159  -0.00000   0.00000  -0.00000   0.00000   3.14159
   D15        3.14159   0.00000   0.00000   0.00000   0.00000   3.14159
   D16        0.00000   0.00000   0.00000   0.00000   0.00000   0.00000
   D17        0.00000   0.00000   0.00000  -0.00000   0.00000   0.00000
   D18        3.14159  -0.00000   0.00000  -0.00000   0.00000   3.14159
   D19        3.14159   0.00000   0.00000   0.00000   0.00000   3.14159
   D20        0.00000  -0.00000   0.00000  -0.00000   0.00000   0.00000
         Item               Value     Threshold  Converged?
 Maximum Force            0.000177     0.000450     YES
 RMS     Force            0.000065     0.000300     YES
 Maximum Displacement     0.001346     0.001800     YES
 RMS     Displacement     0.000403     0.001200     YES
 Predicted change in Energy=-3.748956D-07
 Optimization completed.
    -- Stationary point found.
                           ----------------------------
                           !   Optimized Parameters   !
                           ! (Angstroms and Degrees)  !
 --------------------------                            --------------------------
 ! Name  Definition              Value          Derivative Info.                !
 --------------------------------------------------------------------------------
 ! R1    R(1,2)                  1.3725         -DE/DX =   -0.0001              !
 ! R2    R(1,6)                  1.369          -DE/DX =   -0.0001              !
 ! R3    R(2,3)                  1.4177         -DE/DX =    0.0002              !
 ! R4    R(2,7)                  1.8506         -DE/DX =    0.0001              !
 ! R5    R(3,4)                  1.4125         -DE/DX =   -0.0002              !
 ! R6    R(3,8)                  1.8589         -DE/DX =    0.0                 !
 ! R7    R(4,5)                  1.4073         -DE/DX =   -0.0001              !
 ! R8    R(4,9)                  1.868          -DE/DX =    0.0                 !
 ! R9    R(5,6)                  1.407          -DE/DX =   -0.0002              !
 ! R10   R(5,10)                 1.1008         -DE/DX =   -0.0001              !
 ! R11   R(6,11)                 1.0969         -DE/DX =    0.0                 !
 ! A1    A(2,1,6)              129.5029         -DE/DX =   -0.0001              !
 ! A2    A(1,2,3)              115.0201         -DE/DX =    0.0                 !
 ! A3    A(1,2,7)              121.6639         -DE/DX =    0.0001              !
 ! A4    A(3,2,7)              123.316          -DE/DX =   -0.0001              !
 ! A5    A(2,3,4)              119.102          -DE/DX =    0.0                 !
 ! A6    A(2,3,8)              119.8748         -DE/DX =    0.0                 !
 ! A7    A(4,3,8)              121.0232         -DE/DX =    0.0001              !
 ! A8    A(3,4,5)              121.5648         -DE/DX =    0.0                 !
 ! A9    A(3,4,9)              119.9312         -DE/DX =    0.0                 !
 ! A10   A(5,4,9)              118.504          -DE/DX =    0.0                 !
 ! A11   A(4,5,6)              120.0895         -DE/DX =    0.0                 !
 ! A12   A(4,5,10)             120.3426         -DE/DX =    0.0                 !
 ! A13   A(6,5,10)             119.5679         -DE/DX =    0.0                 !
 ! A14   A(1,6,5)              114.7206         -DE/DX =    0.0001              !
 ! A15   A(1,6,11)             122.9569         -DE/DX =    0.0                 !
 ! A16   A(5,6,11)             122.3224         -DE/DX =   -0.0001              !
 ! D1    D(6,1,2,3)              0.0            -DE/DX =    0.0                 !
 ! D2    D(6,1,2,7)            180.0            -DE/DX =    0.0                 !
 ! D3    D(2,1,6,5)              0.0            -DE/DX =    0.0                 !
 ! D4    D(2,1,6,11)           180.0            -DE/DX =    0.0                 !
 ! D5    D(1,2,3,4)              0.0            -DE/DX =    0.0                 !
 ! D6    D(1,2,3,8)            180.0            -DE/DX =    0.0                 !
 ! D7    D(7,2,3,4)            180.0            -DE/DX =    0.0                 !
 ! D8    D(7,2,3,8)              0.0            -DE/DX =    0.0                 !
 ! D9    D(2,3,4,5)              0.0            -DE/DX =    0.0                 !
 ! D10   D(2,3,4,9)            180.0            -DE/DX =    0.0                 !
 ! D11   D(8,3,4,5)            180.0            -DE/DX =    0.0                 !
 ! D12   D(8,3,4,9)              0.0            -DE/DX =    0.0                 !
 ! D13   D(3,4,5,6)              0.0            -DE/DX =    0.0                 !
 ! D14   D(3,4,5,10)           180.0            -DE/DX =    0.0                 !
 ! D15   D(9,4,5,6)            180.0            -DE/DX =    0.0                 !
 ! D16   D(9,4,5,10)             0.0            -DE/DX =    0.0                 !
 ! D17   D(4,5,6,1)              0.0            -DE/DX =    0.0                 !
 ! D18   D(4,5,6,11)           180.0            -DE/DX =    0.0                 !
 ! D19   D(10,5,6,1)           180.0            -DE/DX =    0.0                 !
 ! D20   D(10,5,6,11)            0.0            -DE/DX =    0.0                 !
 --------------------------------------------------------------------------------
 GradGradGradGradGradGradGradGradGradGradGradGradGradGradGradGradGradGrad

                          Input orientation:                          
 ---------------------------------------------------------------------
 Center     Atomic      Atomic             Coordinates (Angstroms)
 Number     Number       Type             X           Y           Z
 ---------------------------------------------------------------------
      1          6           0        0.017696    1.288550    0.000000
      2          6           0        1.257786    0.700372    0.000000
      3          6           0        1.248999   -0.717351    0.000000
      4          6           0        0.010574   -1.396689    0.000000
      5          6           0       -1.211986   -0.699686    0.000000
      6          6           0       -1.221841    0.707329    0.000000
      7         35           0        2.810501    1.707213    0.000000
      8         35           0        2.855079   -1.653232    0.000000
      9         35           0       -0.028032   -3.264269    0.000000
     10          1           0       -2.165602   -1.249572    0.000000
     11          1           0       -2.152894    1.287335    0.000000
 ---------------------------------------------------------------------
                    Distance matrix (angstroms):
                    1          2          3          4          5
     1  C    0.000000
     2  C    1.372507   0.000000
     3  C    2.353666   1.417750   0.000000
     4  C    2.685248   2.439918   1.412514   0.000000
     5  C    2.337776   2.839002   2.461048   1.407290   0.000000
     6  C    1.369040   2.479636   2.852151   2.438388   1.407049
     7  Br   2.824011   1.850583   2.883886   4.180167   4.687597
     8  Br   4.087153   2.844433   1.858861   2.856050   4.177352
     9  Br   4.553048   4.167937   2.849140   1.867979   2.824683
    10  H    3.347963   3.939780   3.455830   2.181143   1.100800
    11  H    2.170591   3.460818   3.948625   3.447402   2.198536
                    6          7          8          9         10
     6  C    0.000000
     7  Br   4.154462   0.000000
     8  Br   4.711000   3.360741   0.000000
     9  Br   4.147140   5.724762   3.302691   0.000000
    10  H    2.172590   5.788280   5.036882   2.937381   0.000000
    11  H    1.096935   4.981123   5.807472   5.023160   2.536939
                   11
    11  H    0.000000
 Stoichiometry    C6H2Br3(2)
 Framework group  CS[SG(C6H2Br3)]
 Deg. of freedom    19
 Full point group                 CS      NOp   2
 Largest Abelian subgroup         CS      NOp   2
 Largest concise Abelian subgroup C1      NOp   1
                         Standard orientation:                         
 ---------------------------------------------------------------------
 Center     Atomic      Atomic             Coordinates (Angstroms)
 Number     Number       Type             X           Y           Z
 ---------------------------------------------------------------------
      1          6           0        0.942159    2.284671    0.000000
      2          6           0        1.168334    0.930928    0.000000
      3          6           0        0.000000    0.127803    0.000000
      4          6           0       -1.265284    0.755699    0.000000
      5          6           0       -1.392143    2.157260    0.000000
      6          6           0       -0.243251    2.969561    0.000000
      7         35           0        2.881991    0.232334    0.000000
      8         35           0        0.150058   -1.724992    0.000000
      9         35           0       -2.819792   -0.280086    0.000000
     10          1           0       -2.388416    2.625448    0.000000
     11          1           0       -0.299494    4.065054    0.000000
 ---------------------------------------------------------------------
 Rotational constants (GHZ):           1.0042145           0.3698361           0.2702919

 **********************************************************************

            Population analysis using the SCF Density.

 **********************************************************************

 Orbital symmetries:
 Alpha Orbitals:
       Occupied  (A') (A') (A') (A') (A') (A') (A') (A') (A') (A')
                 (A') (A") (A') (A') (A') (A") (A") (A') (A") (A')
                 (A') (A') (A") (A")
       Virtual   (A") (A") (A') (A') (A') (A") (A') (A') (A') (A')
                 (A') (A') (A') (A')
 Beta  Orbitals:
       Occupied  (A') (A') (A') (A') (A') (A') (A') (A') (A') (A')
                 (A') (A") (A') (A') (A') (A") (A") (A') (A") (A')
                 (A') (A") (A")
       Virtual   (A") (A') (A') (A") (A') (A') (A") (A') (A') (A')
                 (A') (A') (A') (A') (A')
 The electronic state is 2-A'.
 Alpha  occ. eigenvalues --   -1.47631  -1.26284  -1.25159  -1.18792  -1.11168
 Alpha  occ. eigenvalues --   -1.09274  -0.87790  -0.85059  -0.66192  -0.63399
 Alpha  occ. eigenvalues --   -0.60455  -0.56428  -0.56020  -0.52292  -0.48814
 Alpha  occ. eigenvalues --   -0.46893  -0.45888  -0.44890  -0.42873  -0.42841
 Alpha  occ. eigenvalues --   -0.40786  -0.39461  -0.37932  -0.37349
 Alpha virt. eigenvalues --   -0.01843  -0.01548  -0.00023   0.01502   0.02287
 Alpha virt. eigenvalues --    0.06540   0.11315   0.11803   0.12859   0.13539
 Alpha virt. eigenvalues --    0.14201   0.15850   0.16879   0.17492
  Beta  occ. eigenvalues --   -1.46854  -1.26337  -1.24614  -1.18733  -1.10819
  Beta  occ. eigenvalues --   -1.07768  -0.87441  -0.83062  -0.65876  -0.62906
  Beta  occ. eigenvalues --   -0.59033  -0.56217  -0.55801  -0.51101  -0.48436
  Beta  occ. eigenvalues --   -0.47941  -0.44882  -0.44629  -0.43111  -0.42550
  Beta  occ. eigenvalues --   -0.39713  -0.37470  -0.37109
  Beta virt. eigenvalues --   -0.01841  -0.01806  -0.00154   0.00220   0.01559
  Beta virt. eigenvalues --    0.02494   0.07517   0.11713   0.12123   0.13563
  Beta virt. eigenvalues --    0.13825   0.15179   0.15835   0.17637   0.18851
          Condensed to atoms (all electrons):
               1          2          3          4          5          6
     1  C    4.033523   0.000000   0.000000   0.000000   0.000000   0.000000
     2  C    0.000000   4.145607   0.000000   0.000000   0.000000   0.000000
     3  C    0.000000   0.000000   4.131614   0.000000   0.000000   0.000000
     4  C    0.000000   0.000000   0.000000   4.161274   0.000000   0.000000
     5  C    0.000000   0.000000   0.000000   0.000000   4.093671   0.000000
     6  C    0.000000   0.000000   0.000000   0.000000   0.000000   4.105364
     7  Br   0.000000   0.000000   0.000000   0.000000   0.000000   0.000000
     8  Br   0.000000   0.000000   0.000000   0.000000   0.000000   0.000000
     9  Br   0.000000   0.000000   0.000000   0.000000   0.000000   0.000000
    10  H    0.000000   0.000000   0.000000   0.000000   0.000000   0.000000
    11  H    0.000000   0.000000   0.000000   0.000000   0.000000   0.000000
               7          8          9         10         11
     1  C    0.000000   0.000000   0.000000   0.000000   0.000000
     2  C    0.000000   0.000000   0.000000   0.000000   0.000000
     3  C    0.000000   0.000000   0.000000   0.000000   0.000000
     4  C    0.000000   0.000000   0.000000   0.000000   0.000000
     5  C    0.000000   0.000000   0.000000   0.000000   0.000000
     6  C    0.000000   0.000000   0.000000   0.000000   0.000000
     7  Br   6.872697   0.000000   0.000000   0.000000   0.000000
     8  Br   0.000000   6.881523   0.000000   0.000000   0.000000
     9  Br   0.000000   0.000000   6.906013   0.000000   0.000000
    10  H    0.000000   0.000000   0.000000   0.839037   0.000000
    11  H    0.000000   0.000000   0.000000   0.000000   0.829677
          Atomic-Atomic Spin Densities.
               1          2          3          4          5          6
     1  C    1.389308   0.000000   0.000000   0.000000   0.000000   0.000000
     2  C    0.000000  -0.501651   0.000000   0.000000   0.000000   0.000000
     3  C    0.000000   0.000000   0.516788   0.000000   0.000000   0.000000
     4  C    0.000000   0.000000   0.000000  -0.479735   0.000000   0.000000
     5  C    0.000000   0.000000   0.000000   0.000000   0.510206   0.000000
     6  C    0.000000   0.000000   0.000000   0.000000   0.000000  -0.485472
     7  Br   0.000000   0.000000   0.000000   0.000000   0.000000   0.000000
     8  Br   0.000000   0.000000   0.000000   0.000000   0.000000   0.000000
     9  Br   0.000000   0.000000   0.000000   0.000000   0.000000   0.000000
    10  H    0.000000   0.000000   0.000000   0.000000   0.000000   0.000000
    11  H    0.000000   0.000000   0.000000   0.000000   0.000000   0.000000
               7          8          9         10         11
     1  C    0.000000   0.000000   0.000000   0.000000   0.000000
     2  C    0.000000   0.000000   0.000000   0.000000   0.000000
     3  C    0.000000   0.000000   0.000000   0.000000   0.000000
     4  C    0.000000   0.000000   0.000000   0.000000   0.000000
     5  C    0.000000   0.000000   0.000000   0.000000   0.000000
     6  C    0.000000   0.000000   0.000000   0.000000   0.000000
     7  Br   0.021367   0.000000   0.000000   0.000000   0.000000
     8  Br   0.000000   0.000129   0.000000   0.000000   0.000000
     9  Br   0.000000   0.000000   0.017678   0.000000   0.000000
    10  H    0.000000   0.000000   0.000000  -0.020603   0.000000
    11  H    0.000000   0.000000   0.000000   0.000000   0.031986
 Mulliken charges and spin densities:
               1          2
     1  C   -0.033523   1.389308
     2  C   -0.145607  -0.501651
     3  C   -0.131614   0.516788
     4  C   -0.161274  -0.479735
     5  C   -0.093671   0.510206
     6  C   -0.105364  -0.485472
     7  Br   0.127303   0.021367
     8  Br   0.118477   0.000129
     9  Br   0.093987   0.017678
    10  H    0.160963  -0.020603
    11  H    0.170323   0.031986
 Sum of Mulliken charges =  -0.00000   1.00000
 Mulliken charges and spin densities with hydrogens summed into heavy atoms:
               1          2
     1  C   -0.033523   1.389308
     2  C   -0.145607  -0.501651
     3  C   -0.131614   0.516788
     4  C   -0.161274  -0.479735
     5  C    0.067293   0.489603
     6  C    0.064960  -0.453486
     7  Br   0.127303   0.021367
     8  Br   0.118477   0.000129
     9  Br   0.093987   0.017678
 Charge=              0.0000 electrons
 Dipole moment (field-independent basis, Debye):
    X=             -0.9132    Y=              1.3048    Z=              0.0000  Tot=              1.5926
 N-N= 2.394531615817D+02 E-N=-3.360894368949D+02  KE=-1.091710751800D+02
 Symmetry A'   KE=-8.355191018872D+01
 Symmetry A"   KE=-2.561916499131D+01
 Symmetry A'   SP= 1.000000000000D+00
 Symmetry A"   SP=-6.661338147751D-16
 1\1\GINC-SH04-01N25\FOpt\UAM1\ZDO\C6H2Br3(2)\JLAPIER\28-Sep-2026\0\\# 
 Opt AM1 SCF=XQC\\BrPh_234_rad am1\\0,2\C,0.0176964051,1.2885498988,0.\
 C,1.2577855794,0.7003715578,0.\C,1.248999316,-0.7173509413,0.\C,0.0105
 741396,-1.3966888806,0.\C,-1.2119856493,-0.6996855577,0.\C,-1.22184072
 04,0.707329188,0.\Br,2.8105013701,1.7072131233,0.\Br,2.8550789457,-1.6
 532323671,0.\Br,-0.0280317347,-3.2642687386,0.\H,-2.1656020975,-1.2495
 721643,0.\H,-2.152893894,1.2873348817,0.\\Version=ES64L-G16RevB.01\Sta
 te=2-A'\HF=0.1425463\S2=1.272804\S2-1=0.\S2A=0.991503\RMSD=3.659e-09\R
 MSF=1.118e-04\Dipole=-0.626586,-0.0013686,0.\PG=CS [SG(C6H2Br3)]\\@


 SUPPORT THE RIGHT TO ARM BEARS!
 (ADD A CLAWS TO THE BILL OF RIGHTS)
 Job cpu time:       0 days  0 hours  0 minutes  1.8 seconds.
 Elapsed time:       0 days  0 hours  0 minutes  2.2 seconds.
 File lengths (MBytes):  RWF=      6 Int=      0 D2E=      0 Chk=      3 Scr=      1
 Normal termination of Gaussian 16 at Mon Sep 28 01:24:03 2026.
