 Entering Gaussian System, Link 0=g16
 Initial command:
 /share/software/user/restricted/gaussian/g16.B01/l1.exe "/lscratch/jlapier/g16_45667343_1/Gau-15384.inp" -scrdir="/lscratch/jlapier/g16_45667343_1/"
 Entering Link 1 = /share/software/user/restricted/gaussian/g16.B01/l1.exe PID=     15385.
  
 Copyright (c) 1988-2017, Gaussian, Inc.  All Rights Reserved.
  
 This is part of the Gaussian(R) 16 program.  It is based on
 the Gaussian(R) 09 system (copyright 2009, Gaussian, Inc.),
 the Gaussian(R) 03 system (copyright 2003, Gaussian, Inc.),
 the Gaussian(R) 98 system (copyright 1998, Gaussian, Inc.),
 the Gaussian(R) 94 system (copyright 1995, Gaussian, Inc.),
 the Gaussian 92(TM) system (copyright 1992, Gaussian, Inc.),
 the Gaussian 90(TM) system (copyright 1990, Gaussian, Inc.),
 the Gaussian 88(TM) system (copyright 1988, Gaussian, Inc.),
 the Gaussian 86(TM) system (copyright 1986, Carnegie Mellon
 University), and the Gaussian 82(TM) system (copyright 1983,
 Carnegie Mellon University). Gaussian is a federally registered
 trademark of Gaussian, Inc.
  
 This software contains proprietary and confidential information,
 including trade secrets, belonging to Gaussian, Inc.
  
 This software is provided under written license and may be
 used, copied, transmitted, or stored only in accord with that
 written license.
  
 The following legend is applicable only to US Government
 contracts under FAR:
  
                    RESTRICTED RIGHTS LEGEND
  
 Use, reproduction and disclosure by the US Government is
 subject to restrictions as set forth in subparagraphs (a)
 and (c) of the Commercial Computer Software - Restricted
 Rights clause in FAR 52.227-19.
  
 Gaussian, Inc.
 340 Quinnipiac St., Bldg. 40, Wallingford CT 06492
  
  
 ---------------------------------------------------------------
 Warning -- This program may not be used in any manner that
 competes with the business of Gaussian, Inc. or will provide
 assistance to any competitor of Gaussian, Inc.  The licensee
 of this program is prohibited from giving any competitor of
 Gaussian, Inc. access to this program.  By using this program,
 the user acknowledges that Gaussian, Inc. is engaged in the
 business of creating and licensing software in the field of
 computational chemistry and represents and warrants to the
 licensee that it is not a competitor of Gaussian, Inc. and that
 it will not use this program in any manner prohibited above.
 ---------------------------------------------------------------
  

 Cite this work as:
 Gaussian 16, Revision B.01,
 M. J. Frisch, G. W. Trucks, H. B. Schlegel, G. E. Scuseria, 
 M. A. Robb, J. R. Cheeseman, G. Scalmani, V. Barone, 
 G. A. Petersson, H. Nakatsuji, X. Li, M. Caricato, A. V. Marenich, 
 J. Bloino, B. G. Janesko, R. Gomperts, B. Mennucci, H. P. Hratchian, 
 J. V. Ortiz, A. F. Izmaylov, J. L. Sonnenberg, D. Williams-Young, 
 F. Ding, F. Lipparini, F. Egidi, J. Goings, B. Peng, A. Petrone, 
 T. Henderson, D. Ranasinghe, V. G. Zakrzewski, J. Gao, N. Rega, 
 G. Zheng, W. Liang, M. Hada, M. Ehara, K. Toyota, R. Fukuda, 
 J. Hasegawa, M. Ishida, T. Nakajima, Y. Honda, O. Kitao, H. Nakai, 
 T. Vreven, K. Throssell, J. A. Montgomery, Jr., J. E. Peralta, 
 F. Ogliaro, M. J. Bearpark, J. J. Heyd, E. N. Brothers, K. N. Kudin, 
 V. N. Staroverov, T. A. Keith, R. Kobayashi, J. Normand, 
 K. Raghavachari, A. P. Rendell, J. C. Burant, S. S. Iyengar, 
 J. Tomasi, M. Cossi, J. M. Millam, M. Klene, C. Adamo, R. Cammi, 
 J. W. Ochterski, R. L. Martin, K. Morokuma, O. Farkas, 
 J. B. Foresman, and D. J. Fox, Gaussian, Inc., Wallingford CT, 2016.
 
 ******************************************
 Gaussian 16:  ES64L-G16RevB.01 20-Dec-2017
                28-Sep-2026 
 ******************************************
 %nprocshared=1
 Will use up to    1 processors via shared memory.
 %mem=1GB
 %chk=calcs/am1/chks/Bz.chk
 -----------------
 # Opt AM1 SCF=XQC
 -----------------
 1/18=20,19=15,26=1,38=1/1,3;
 2/9=110,12=2,17=6,18=5,40=1/2;
 3/5=2,25=1,41=700000,71=1/1,2,3;
 4/35=1/1;
 5/5=2,8=3,13=1,35=1,38=5/2,8;
 6/7=2,8=2,9=2,10=2,28=1/1;
 7//1,2,3,16;
 1/18=20,19=15,26=1/3(2);
 2/9=110/2;
 99//99;
 2/9=110/2;
 3/5=2,25=1,41=700000,71=1,135=20/1,2,3;
 4/5=5,16=3,35=1/1;
 5/5=2,8=3,13=1,35=1,38=5/2,8;
 7//1,2,3,16;
 1/18=20,19=15,26=1/3(-5);
 2/9=110/2;
 6/7=2,8=2,9=2,10=2,19=2,28=1/1;
 99/9=1/99;
 ------
 Bz am1
 ------
 Symbolic Z-matrix:
 Charge =  0 Multiplicity = 1
 C                     0.        1.39      0. 
 C                     1.20378   0.695     0. 
 C                     1.20378  -0.695     0. 
 C                     0.       -1.39      0. 
 C                    -1.20378  -0.695     0. 
 C                    -1.20378   0.695     0. 
 H                     0.        2.47      0. 
 H                     2.13908   1.235     0. 
 H                     2.13908  -1.235     0. 
 H                     0.       -2.47      0. 
 H                    -2.13908  -1.235     0. 
 H                    -2.13908   1.235     0. 
 

 GradGradGradGradGradGradGradGradGradGradGradGradGradGradGradGradGradGrad
 Berny optimization.
 Initialization pass.
                           ----------------------------
                           !    Initial Parameters    !
                           ! (Angstroms and Degrees)  !
 --------------------------                            --------------------------
 ! Name  Definition              Value          Derivative Info.                !
 --------------------------------------------------------------------------------
 ! R1    R(1,2)                  1.39           estimate D2E/DX2                !
 ! R2    R(1,6)                  1.39           estimate D2E/DX2                !
 ! R3    R(1,7)                  1.08           estimate D2E/DX2                !
 ! R4    R(2,3)                  1.39           estimate D2E/DX2                !
 ! R5    R(2,8)                  1.08           estimate D2E/DX2                !
 ! R6    R(3,4)                  1.39           estimate D2E/DX2                !
 ! R7    R(3,9)                  1.08           estimate D2E/DX2                !
 ! R8    R(4,5)                  1.39           estimate D2E/DX2                !
 ! R9    R(4,10)                 1.08           estimate D2E/DX2                !
 ! R10   R(5,6)                  1.39           estimate D2E/DX2                !
 ! R11   R(5,11)                 1.08           estimate D2E/DX2                !
 ! R12   R(6,12)                 1.08           estimate D2E/DX2                !
 ! A1    A(2,1,6)              120.0            estimate D2E/DX2                !
 ! A2    A(2,1,7)              120.0            estimate D2E/DX2                !
 ! A3    A(6,1,7)              120.0            estimate D2E/DX2                !
 ! A4    A(1,2,3)              120.0            estimate D2E/DX2                !
 ! A5    A(1,2,8)              120.0            estimate D2E/DX2                !
 ! A6    A(3,2,8)              120.0            estimate D2E/DX2                !
 ! A7    A(2,3,4)              120.0            estimate D2E/DX2                !
 ! A8    A(2,3,9)              120.0            estimate D2E/DX2                !
 ! A9    A(4,3,9)              120.0            estimate D2E/DX2                !
 ! A10   A(3,4,5)              120.0            estimate D2E/DX2                !
 ! A11   A(3,4,10)             120.0            estimate D2E/DX2                !
 ! A12   A(5,4,10)             120.0            estimate D2E/DX2                !
 ! A13   A(4,5,6)              120.0            estimate D2E/DX2                !
 ! A14   A(4,5,11)             120.0            estimate D2E/DX2                !
 ! A15   A(6,5,11)             120.0            estimate D2E/DX2                !
 ! A16   A(1,6,5)              120.0            estimate D2E/DX2                !
 ! A17   A(1,6,12)             120.0            estimate D2E/DX2                !
 ! A18   A(5,6,12)             120.0            estimate D2E/DX2                !
 ! D1    D(6,1,2,3)              0.0            estimate D2E/DX2                !
 ! D2    D(6,1,2,8)            180.0            estimate D2E/DX2                !
 ! D3    D(7,1,2,3)            180.0            estimate D2E/DX2                !
 ! D4    D(7,1,2,8)              0.0            estimate D2E/DX2                !
 ! D5    D(2,1,6,5)              0.0            estimate D2E/DX2                !
 ! D6    D(2,1,6,12)           180.0            estimate D2E/DX2                !
 ! D7    D(7,1,6,5)            180.0            estimate D2E/DX2                !
 ! D8    D(7,1,6,12)             0.0            estimate D2E/DX2                !
 ! D9    D(1,2,3,4)              0.0            estimate D2E/DX2                !
 ! D10   D(1,2,3,9)            180.0            estimate D2E/DX2                !
 ! D11   D(8,2,3,4)            180.0            estimate D2E/DX2                !
 ! D12   D(8,2,3,9)              0.0            estimate D2E/DX2                !
 ! D13   D(2,3,4,5)              0.0            estimate D2E/DX2                !
 ! D14   D(2,3,4,10)           180.0            estimate D2E/DX2                !
 ! D15   D(9,3,4,5)            180.0            estimate D2E/DX2                !
 ! D16   D(9,3,4,10)             0.0            estimate D2E/DX2                !
 ! D17   D(3,4,5,6)              0.0            estimate D2E/DX2                !
 ! D18   D(3,4,5,11)           180.0            estimate D2E/DX2                !
 ! D19   D(10,4,5,6)           180.0            estimate D2E/DX2                !
 ! D20   D(10,4,5,11)            0.0            estimate D2E/DX2                !
 ! D21   D(4,5,6,1)              0.0            estimate D2E/DX2                !
 ! D22   D(4,5,6,12)           180.0            estimate D2E/DX2                !
 ! D23   D(11,5,6,1)           180.0            estimate D2E/DX2                !
 ! D24   D(11,5,6,12)            0.0            estimate D2E/DX2                !
 --------------------------------------------------------------------------------
 Trust Radius=3.00D-01 FncErr=1.00D-07 GrdErr=1.00D-07 EigMax=2.50D+02 EigMin=1.00D-04
 Number of steps in this run=     64 maximum allowed number of steps=    100.
 GradGradGradGradGradGradGradGradGradGradGradGradGradGradGradGradGradGrad

                          Input orientation:                          
 ---------------------------------------------------------------------
 Center     Atomic      Atomic             Coordinates (Angstroms)
 Number     Number       Type             X           Y           Z
 ---------------------------------------------------------------------
      1          6           0        0.000000    1.390000    0.000000
      2          6           0        1.203775    0.695000    0.000000
      3          6           0        1.203775   -0.695000    0.000000
      4          6           0        0.000000   -1.390000    0.000000
      5          6           0       -1.203775   -0.695000    0.000000
      6          6           0       -1.203775    0.695000    0.000000
      7          1           0        0.000000    2.470000    0.000000
      8          1           0        2.139083    1.235000    0.000000
      9          1           0        2.139083   -1.235000    0.000000
     10          1           0        0.000000   -2.470000    0.000000
     11          1           0       -2.139083   -1.235000    0.000000
     12          1           0       -2.139083    1.235000    0.000000
 ---------------------------------------------------------------------
                    Distance matrix (angstroms):
                    1          2          3          4          5
     1  C    0.000000
     2  C    1.390000   0.000000
     3  C    2.407551   1.390000   0.000000
     4  C    2.780000   2.407551   1.390000   0.000000
     5  C    2.407551   2.780000   2.407551   1.390000   0.000000
     6  C    1.390000   2.407551   2.780000   2.407551   1.390000
     7  H    1.080000   2.144691   3.386193   3.860000   3.386193
     8  H    2.144691   1.080000   2.144691   3.386193   3.860000
     9  H    3.386193   2.144691   1.080000   2.144691   3.386193
    10  H    3.860000   3.386193   2.144691   1.080000   2.144691
    11  H    3.386193   3.860000   3.386193   2.144691   1.080000
    12  H    2.144691   3.386193   3.860000   3.386193   2.144691
                    6          7          8          9         10
     6  C    0.000000
     7  H    2.144691   0.000000
     8  H    3.386193   2.470000   0.000000
     9  H    3.860000   4.278165   2.470000   0.000000
    10  H    3.386193   4.940000   4.278165   2.470000   0.000000
    11  H    2.144691   4.278165   4.940000   4.278166   2.470000
    12  H    1.080000   2.470000   4.278166   4.940000   4.278165
                   11         12
    11  H    0.000000
    12  H    2.470000   0.000000
 Stoichiometry    C6H6
 Framework group  D6H[3C2'(HC.CH)]
 Deg. of freedom     2
 Full point group                 D6H     NOp  24
 Largest Abelian subgroup         D2H     NOp   8
 Largest concise Abelian subgroup D2      NOp   4
                         Standard orientation:                         
 ---------------------------------------------------------------------
 Center     Atomic      Atomic             Coordinates (Angstroms)
 Number     Number       Type             X           Y           Z
 ---------------------------------------------------------------------
      1          6           0        0.000000    1.390000    0.000000
      2          6           0        1.203775    0.695000    0.000000
      3          6           0        1.203775   -0.695000    0.000000
      4          6           0       -0.000000   -1.390000    0.000000
      5          6           0       -1.203775   -0.695000    0.000000
      6          6           0       -1.203775    0.695000    0.000000
      7          1           0        0.000000    2.470000    0.000000
      8          1           0        2.139083    1.235000    0.000000
      9          1           0        2.139083   -1.235000    0.000000
     10          1           0       -0.000000   -2.470000    0.000000
     11          1           0       -2.139083   -1.235000    0.000000
     12          1           0       -2.139083    1.235000    0.000000
 ---------------------------------------------------------------------
 Rotational constants (GHZ):           5.7428441           5.7428441           2.8714221
 Standard basis: VSTO-6G (5D, 7F)
 There are     7 symmetry adapted cartesian basis functions of AG  symmetry.
 There are     5 symmetry adapted cartesian basis functions of B1G symmetry.
 There are     1 symmetry adapted cartesian basis functions of B2G symmetry.
 There are     2 symmetry adapted cartesian basis functions of B3G symmetry.
 There are     1 symmetry adapted cartesian basis functions of AU  symmetry.
 There are     2 symmetry adapted cartesian basis functions of B1U symmetry.
 There are     7 symmetry adapted cartesian basis functions of B2U symmetry.
 There are     5 symmetry adapted cartesian basis functions of B3U symmetry.
 There are     7 symmetry adapted basis functions of AG  symmetry.
 There are     5 symmetry adapted basis functions of B1G symmetry.
 There are     1 symmetry adapted basis functions of B2G symmetry.
 There are     2 symmetry adapted basis functions of B3G symmetry.
 There are     1 symmetry adapted basis functions of AU  symmetry.
 There are     2 symmetry adapted basis functions of B1U symmetry.
 There are     7 symmetry adapted basis functions of B2U symmetry.
 There are     5 symmetry adapted basis functions of B3U symmetry.
    30 basis functions,   180 primitive gaussians,    30 cartesian basis functions
    15 alpha electrons       15 beta electrons
       nuclear repulsion energy       120.0554059383 Hartrees.
 Integral buffers will be    131072 words long.
 Regular integral format.
 Two-electron integral symmetry is turned off.
 Do NDO integrals.
 One-electron integrals computed using PRISM.
 NBasis=    30 RedAO= T EigKep=  1.00D+00  NBF=     7     5     1     2     1     2     7     5
 NBsUse=    30 1.00D-06 EigRej= -1.00D+00 NBFU=     7     5     1     2     1     2     7     5
 Simple Huckel Guess.
 Initial guess orbital symmetries:
       Occupied  (A1G) (E1U) (E1U) (E2G) (E2G) (A1G) (B1U) (B2U)
                 (E1U) (E1U) (A2U) (E2G) (E2G) (E1G) (E1G)
       Virtual   (E2U) (E2U) (B2G) (E1U) (E1U) (E2G) (E2G) (A1G)
                 (A2G) (B1U) (E1U) (E1U) (E2G) (E2G) (B1U)
 The electronic state of the initial guess is 1-A1G.
 Keep J ints in memory in canonical form, NReq=861540.
 Overlap will be assumed to be unity.
 Requested convergence on RMS density matrix=1.00D-08 within  32 cycles.
 Requested convergence on MAX density matrix=1.00D-06.
 Requested convergence on             energy=1.00D-06.
 No special actions if energy rises.
 Fock symm off for IB=2 I1=    2 I=    9 J=    2 Cut=1.00D-07 Err=5.98D-04
 Fock matrix is not symmetric: symmetry in diagonalization turned off.
 SCF Done:  E(RAM1) =  0.368311499825E-01 A.U. after   10 cycles
            NFock=  9  Conv=0.60D-08     -V/T= 1.0008
 QCSCF skips out because SCF is already converged.

 **********************************************************************

            Population analysis using the SCF Density.

 **********************************************************************

 Orbital symmetries:
       Occupied  (A1G) (E1U) (E1U) (E2G) (E2G) (A1G) (B1U) (B2U)
                 (E1U) (E1U) (A2U) (E2G) (E2G) (E1G) (E1G)
       Virtual   (E2U) (E2U) (B2G) (E1U) (E1U) (B1U) (A1G) (E2G)
                 (E2G) (E2G) (E2G) (E1U) (E1U) (A2G) (B1U)
 The electronic state is 1-A1G.
 Alpha  occ. eigenvalues --   -1.44965  -1.16053  -1.16053  -0.85272  -0.85272
 Alpha  occ. eigenvalues --   -0.66217  -0.59693  -0.56821  -0.52359  -0.52359
 Alpha  occ. eigenvalues --   -0.49508  -0.43906  -0.43906  -0.35678  -0.35678
 Alpha virt. eigenvalues --    0.01997   0.01997   0.10935   0.15019   0.15019
 Alpha virt. eigenvalues --    0.15272   0.15834   0.17148   0.17148   0.18946
 Alpha virt. eigenvalues --    0.18946   0.20747   0.20747   0.20964   0.22577
          Condensed to atoms (all electrons):
               1          2          3          4          5          6
     1  C    4.128457   0.000000   0.000000   0.000000   0.000000   0.000000
     2  C    0.000000   4.128457   0.000000   0.000000   0.000000   0.000000
     3  C    0.000000   0.000000   4.128457   0.000000   0.000000   0.000000
     4  C    0.000000   0.000000   0.000000   4.128457   0.000000   0.000000
     5  C    0.000000   0.000000   0.000000   0.000000   4.128457   0.000000
     6  C    0.000000   0.000000   0.000000   0.000000   0.000000   4.128457
     7  H    0.000000   0.000000   0.000000   0.000000   0.000000   0.000000
     8  H    0.000000   0.000000   0.000000   0.000000   0.000000   0.000000
     9  H    0.000000   0.000000   0.000000   0.000000   0.000000   0.000000
    10  H    0.000000   0.000000   0.000000   0.000000   0.000000   0.000000
    11  H    0.000000   0.000000   0.000000   0.000000   0.000000   0.000000
    12  H    0.000000   0.000000   0.000000   0.000000   0.000000   0.000000
               7          8          9         10         11         12
     1  C    0.000000   0.000000   0.000000   0.000000   0.000000   0.000000
     2  C    0.000000   0.000000   0.000000   0.000000   0.000000   0.000000
     3  C    0.000000   0.000000   0.000000   0.000000   0.000000   0.000000
     4  C    0.000000   0.000000   0.000000   0.000000   0.000000   0.000000
     5  C    0.000000   0.000000   0.000000   0.000000   0.000000   0.000000
     6  C    0.000000   0.000000   0.000000   0.000000   0.000000   0.000000
     7  H    0.871543   0.000000   0.000000   0.000000   0.000000   0.000000
     8  H    0.000000   0.871543   0.000000   0.000000   0.000000   0.000000
     9  H    0.000000   0.000000   0.871543   0.000000   0.000000   0.000000
    10  H    0.000000   0.000000   0.000000   0.871543   0.000000   0.000000
    11  H    0.000000   0.000000   0.000000   0.000000   0.871543   0.000000
    12  H    0.000000   0.000000   0.000000   0.000000   0.000000   0.871543
 Mulliken charges:
               1
     1  C   -0.128457
     2  C   -0.128457
     3  C   -0.128457
     4  C   -0.128457
     5  C   -0.128457
     6  C   -0.128457
     7  H    0.128457
     8  H    0.128457
     9  H    0.128457
    10  H    0.128457
    11  H    0.128457
    12  H    0.128457
 Sum of Mulliken charges =   0.00000
 Mulliken charges with hydrogens summed into heavy atoms:
               1
     1  C    0.000000
     2  C   -0.000000
     3  C    0.000000
     4  C   -0.000000
     5  C   -0.000000
     6  C    0.000000
 Charge=              0.0000 electrons
 Dipole moment (field-independent basis, Debye):
    X=              0.0000    Y=              0.0000    Z=              0.0000  Tot=              0.0000
 N-N= 1.200554059383D+02 E-N=-1.712648693437D+02  KE=-4.789747878133D+01
 Symmetry AG   KE=-1.355033099293D+01
 Symmetry B1G  KE=-5.895306067310D+00
 Symmetry B2G  KE=-3.017184177501D+00
 Symmetry B3G  KE=-3.017184177501D+00
 Symmetry AU   KE= 1.587398720189D-16
 Symmetry B1U  KE=-3.210162639969D+00
 Symmetry B2U  KE=-9.255383586288D+00
 Symmetry B3U  KE=-9.951927139821D+00
 Calling FoFJK, ICntrl=      2127 FMM=F ISym2X=1 I1Cent= 0 IOpClX= 0 NMat=1 NMatS=1 NMatT=0.
 ***** Axes restored to original set *****
 -------------------------------------------------------------------
 Center     Atomic                   Forces (Hartrees/Bohr)
 Number     Number              X              Y              Z
 -------------------------------------------------------------------
      1        6          -0.000000003   -0.005003042    0.000000000
      2        6          -0.004332763   -0.002501518    0.000000000
      3        6          -0.004332760    0.002501524    0.000000000
      4        6           0.000000003    0.005003042    0.000000000
      5        6           0.004332763    0.002501518    0.000000000
      6        6           0.004332760   -0.002501524    0.000000000
      7        1          -0.000000001    0.014598267   -0.000000000
      8        1           0.012642470    0.007299134   -0.000000000
      9        1           0.012642471   -0.007299133   -0.000000000
     10        1           0.000000001   -0.014598267   -0.000000000
     11        1          -0.012642470   -0.007299134   -0.000000000
     12        1          -0.012642471    0.007299133   -0.000000000
 -------------------------------------------------------------------
 Cartesian Forces:  Max     0.014598267 RMS     0.006299998

 GradGradGradGradGradGradGradGradGradGradGradGradGradGradGradGradGradGrad
 Berny optimization.
 FormGI is forming the generalized inverse of G from B-inverse, IUseBI=4.
 Internal  Forces:  Max     0.014598267 RMS     0.005823113
 Search for a local minimum.
 Step number   1 out of a maximum of   64
 All quantities printed in internal units (Hartrees-Bohrs-Radians)
 Mixed Optimization -- RFO/linear search
 Second derivative matrix not updated -- first step.
 ITU=  0
     Eigenvalues ---    0.02221   0.02221   0.02221   0.02221   0.02221
     Eigenvalues ---    0.02221   0.02221   0.02221   0.02221   0.16000
     Eigenvalues ---    0.16000   0.16000   0.16000   0.16000   0.16000
     Eigenvalues ---    0.22000   0.22000   0.22000   0.35994   0.35994
     Eigenvalues ---    0.35994   0.35994   0.35994   0.35994   0.42797
     Eigenvalues ---    0.42797   0.47319   0.47319   0.47319   0.47319
 RFO step:  Lambda=-4.66299146D-03 EMin= 2.22103664D-02
 Linear search not attempted -- first point.
 Iteration  1 RMS(Cart)=  0.02112773 RMS(Int)=  0.00000000
 Iteration  2 RMS(Cart)=  0.00000000 RMS(Int)=  0.00000000
 ClnCor:  largest displacement from symmetrization is 6.67D-09 for atom     5.
 Variable       Old X    -DE/DX   Delta X   Delta X   Delta X     New X
                                 (Linear)    (Quad)   (Total)
    R1        2.62672   0.00960   0.00000   0.02008   0.02008   2.64680
    R2        2.62672   0.00960   0.00000   0.02008   0.02008   2.64680
    R3        2.04090   0.01460   0.00000   0.04004   0.04004   2.08094
    R4        2.62672   0.00960   0.00000   0.02008   0.02008   2.64680
    R5        2.04090   0.01460   0.00000   0.04004   0.04004   2.08094
    R6        2.62672   0.00960   0.00000   0.02008   0.02008   2.64680
    R7        2.04090   0.01460   0.00000   0.04004   0.04004   2.08094
    R8        2.62672   0.00960   0.00000   0.02008   0.02008   2.64680
    R9        2.04090   0.01460   0.00000   0.04004   0.04004   2.08094
   R10        2.62672   0.00960   0.00000   0.02008   0.02008   2.64680
   R11        2.04090   0.01460   0.00000   0.04004   0.04004   2.08094
   R12        2.04090   0.01460   0.00000   0.04004   0.04004   2.08094
    A1        2.09440  -0.00000   0.00000  -0.00000   0.00000   2.09440
    A2        2.09440  -0.00000   0.00000  -0.00000   0.00000   2.09440
    A3        2.09440   0.00000   0.00000   0.00000   0.00000   2.09440
    A4        2.09440   0.00000   0.00000   0.00000   0.00000   2.09440
    A5        2.09440   0.00000   0.00000   0.00000   0.00000   2.09440
    A6        2.09440  -0.00000   0.00000  -0.00000  -0.00000   2.09440
    A7        2.09440  -0.00000   0.00000  -0.00000  -0.00000   2.09440
    A8        2.09440   0.00000   0.00000   0.00000   0.00000   2.09440
    A9        2.09440  -0.00000   0.00000  -0.00000   0.00000   2.09440
   A10        2.09440   0.00000   0.00000   0.00000   0.00000   2.09440
   A11        2.09440   0.00000   0.00000   0.00000  -0.00000   2.09440
   A12        2.09440  -0.00000   0.00000  -0.00000   0.00000   2.09440
   A13        2.09440   0.00000   0.00000   0.00000   0.00000   2.09440
   A14        2.09440   0.00000   0.00000   0.00000   0.00000   2.09440
   A15        2.09440  -0.00000   0.00000  -0.00000   0.00000   2.09440
   A16        2.09440   0.00000   0.00000   0.00000   0.00000   2.09440
   A17        2.09440  -0.00000   0.00000  -0.00000   0.00000   2.09440
   A18        2.09440   0.00000   0.00000   0.00000   0.00000   2.09440
    D1        0.00000   0.00000   0.00000   0.00000   0.00000   0.00000
    D2        3.14159  -0.00000   0.00000  -0.00000   0.00000   3.14159
    D3        3.14159   0.00000   0.00000   0.00000   0.00000   3.14159
    D4        0.00000   0.00000   0.00000   0.00000   0.00000   0.00000
    D5        0.00000   0.00000   0.00000   0.00000   0.00000   0.00000
    D6        3.14159   0.00000   0.00000   0.00000   0.00000   3.14159
    D7        3.14159  -0.00000   0.00000  -0.00000   0.00000   3.14159
    D8        0.00000  -0.00000   0.00000  -0.00000   0.00000   0.00000
    D9        0.00000  -0.00000   0.00000  -0.00000   0.00000   0.00000
   D10        3.14159  -0.00000   0.00000  -0.00000   0.00000   3.14159
   D11        3.14159   0.00000   0.00000   0.00000   0.00000   3.14159
   D12        0.00000   0.00000   0.00000   0.00000  -0.00000   0.00000
   D13        0.00000   0.00000   0.00000   0.00000   0.00000   0.00000
   D14        3.14159  -0.00000   0.00000  -0.00000   0.00000   3.14159
   D15        3.14159   0.00000   0.00000   0.00000   0.00000   3.14159
   D16        0.00000   0.00000   0.00000   0.00000  -0.00000   0.00000
   D17        0.00000   0.00000   0.00000   0.00000   0.00000   0.00000
   D18        3.14159  -0.00000   0.00000  -0.00000   0.00000   3.14159
   D19        3.14159   0.00000   0.00000   0.00000   0.00000   3.14159
   D20        0.00000   0.00000   0.00000   0.00000  -0.00000   0.00000
   D21        0.00000  -0.00000   0.00000  -0.00000   0.00000   0.00000
   D22        3.14159  -0.00000   0.00000  -0.00000   0.00000   3.14159
   D23        3.14159   0.00000   0.00000   0.00000   0.00000   3.14159
   D24        0.00000  -0.00000   0.00000  -0.00000   0.00000   0.00000
         Item               Value     Threshold  Converged?
 Maximum Force            0.014598     0.000450     NO 
 RMS     Force            0.005823     0.000300     NO 
 Maximum Displacement     0.060118     0.001800     NO 
 RMS     Displacement     0.021128     0.001200     NO 
 Predicted change in Energy=-2.359557D-03
 GradGradGradGradGradGradGradGradGradGradGradGradGradGradGradGradGradGrad

                          Input orientation:                          
 ---------------------------------------------------------------------
 Center     Atomic      Atomic             Coordinates (Angstroms)
 Number     Number       Type             X           Y           Z
 ---------------------------------------------------------------------
      1          6           0       -0.000000    1.400626    0.000000
      2          6           0        1.212978    0.700313    0.000000
      3          6           0        1.212978   -0.700313    0.000000
      4          6           0        0.000000   -1.400626    0.000000
      5          6           0       -1.212978   -0.700313    0.000000
      6          6           0       -1.212978    0.700313    0.000000
      7          1           0       -0.000000    2.501813   -0.000000
      8          1           0        2.166634    1.250907   -0.000000
      9          1           0        2.166634   -1.250907   -0.000000
     10          1           0        0.000000   -2.501813   -0.000000
     11          1           0       -2.166634   -1.250907   -0.000000
     12          1           0       -2.166634    1.250907   -0.000000
 ---------------------------------------------------------------------
                    Distance matrix (angstroms):
                    1          2          3          4          5
     1  C    0.000000
     2  C    1.400626   0.000000
     3  C    2.425955   1.400626   0.000000
     4  C    2.801252   2.425955   1.400626   0.000000
     5  C    2.425955   2.801252   2.425955   1.400626   0.000000
     6  C    1.400626   2.425955   2.801252   2.425955   1.400626
     7  H    1.101187   2.171801   3.424168   3.902439   3.424168
     8  H    2.171801   1.101187   2.171801   3.424168   3.902439
     9  H    3.424168   2.171801   1.101187   2.171801   3.424168
    10  H    3.902439   3.424168   2.171801   1.101187   2.171801
    11  H    3.424168   3.902439   3.424168   2.171801   1.101187
    12  H    2.171801   3.424168   3.902439   3.424168   2.171801
                    6          7          8          9         10
     6  C    0.000000
     7  H    2.171801   0.000000
     8  H    3.424168   2.501813   0.000000
     9  H    3.902439   4.333268   2.501813   0.000000
    10  H    3.424168   5.003627   4.333268   2.501813   0.000000
    11  H    2.171801   4.333268   5.003627   4.333268   2.501813
    12  H    1.101187   2.501813   4.333268   5.003627   4.333268
                   11         12
    11  H    0.000000
    12  H    2.501813   0.000000
 Stoichiometry    C6H6
 Framework group  D6H[3C2'(HC.CH)]
 Deg. of freedom     2
 Full point group                 D6H     NOp  24
 Largest Abelian subgroup         D2H     NOp   8
 Largest concise Abelian subgroup D2      NOp   4
                         Standard orientation:                         
 ---------------------------------------------------------------------
 Center     Atomic      Atomic             Coordinates (Angstroms)
 Number     Number       Type             X           Y           Z
 ---------------------------------------------------------------------
      1          6           0        0.000000    1.400626    0.000000
      2          6           0        1.212978    0.700313    0.000000
      3          6           0        1.212978   -0.700313    0.000000
      4          6           0       -0.000000   -1.400626    0.000000
      5          6           0       -1.212978   -0.700313    0.000000
      6          6           0       -1.212978    0.700313    0.000000
      7          1           0        0.000000    2.501813    0.000000
      8          1           0        2.166634    1.250907    0.000000
      9          1           0        2.166634   -1.250907    0.000000
     10          1           0       -0.000000   -2.501813    0.000000
     11          1           0       -2.166634   -1.250907    0.000000
     12          1           0       -2.166634    1.250907    0.000000
 ---------------------------------------------------------------------
 Rotational constants (GHZ):           5.6437138           5.6437138           2.8218569
 Standard basis: VSTO-6G (5D, 7F)
 There are     7 symmetry adapted cartesian basis functions of AG  symmetry.
 There are     5 symmetry adapted cartesian basis functions of B1G symmetry.
 There are     1 symmetry adapted cartesian basis functions of B2G symmetry.
 There are     2 symmetry adapted cartesian basis functions of B3G symmetry.
 There are     1 symmetry adapted cartesian basis functions of AU  symmetry.
 There are     2 symmetry adapted cartesian basis functions of B1U symmetry.
 There are     7 symmetry adapted cartesian basis functions of B2U symmetry.
 There are     5 symmetry adapted cartesian basis functions of B3U symmetry.
 There are     7 symmetry adapted basis functions of AG  symmetry.
 There are     5 symmetry adapted basis functions of B1G symmetry.
 There are     1 symmetry adapted basis functions of B2G symmetry.
 There are     2 symmetry adapted basis functions of B3G symmetry.
 There are     1 symmetry adapted basis functions of AU  symmetry.
 There are     2 symmetry adapted basis functions of B1U symmetry.
 There are     7 symmetry adapted basis functions of B2U symmetry.
 There are     5 symmetry adapted basis functions of B3U symmetry.
    30 basis functions,   180 primitive gaussians,    30 cartesian basis functions
    15 alpha electrons       15 beta electrons
       nuclear repulsion energy       119.3521777214 Hartrees.
 Integral buffers will be    131072 words long.
 Regular integral format.
 Two-electron integral symmetry is turned off.
 Do NDO integrals.
 One-electron integrals computed using PRISM.
 NBasis=    30 RedAO= T EigKep=  1.00D+00  NBF=     7     5     1     2     1     2     7     5
 NBsUse=    30 1.00D-06 EigRej= -1.00D+00 NBFU=     7     5     1     2     1     2     7     5
 Initial guess from the checkpoint file:  "calcs/am1/chks/Bz.chk"
 B after Tr=     0.000000   -0.000000    0.000000
         Rot=    1.000000    0.000000    0.000000   -0.000000 Ang=   0.00 deg.
 Initial guess orbital symmetries:
       Occupied  (A1G) (E1U) (E1U) (E2G) (E2G) (A1G) (B1U) (B2U)
                 (E1U) (E1U) (A2U) (E2G) (E2G) (E1G) (E1G)
       Virtual   (E2U) (E2U) (B2G) (E1U) (E1U) (B1U) (A1G) (E2G)
                 (E2G) (E2G) (E2G) (E1U) (E1U) (A2G) (B1U)
 Keep J ints in memory in canonical form, NReq=861540.
 Overlap will be assumed to be unity.
 Requested convergence on RMS density matrix=1.00D-08 within  32 cycles.
 Requested convergence on MAX density matrix=1.00D-06.
 Requested convergence on             energy=1.00D-06.
 No special actions if energy rises.
 An orbital has undefined symmetry, so N**3 symmetry is turned off.
 SCF Done:  E(RAM1) =  0.352349856820E-01 A.U. after    8 cycles
            NFock=  7  Conv=0.49D-08     -V/T= 1.0007
 QCSCF skips out because SCF is already converged.
 Calling FoFJK, ICntrl=      2127 FMM=F ISym2X=1 I1Cent= 0 IOpClX= 0 NMat=1 NMatS=1 NMatT=0.
 ***** Axes restored to original set *****
 -------------------------------------------------------------------
 Center     Atomic                   Forces (Hartrees/Bohr)
 Number     Number              X              Y              Z
 -------------------------------------------------------------------
      1        6           0.000000001   -0.006922350    0.000000000
      2        6          -0.005994930   -0.003461176    0.000000000
      3        6          -0.005994931    0.003461174    0.000000000
      4        6          -0.000000001    0.006922350    0.000000000
      5        6           0.005994930    0.003461176    0.000000000
      6        6           0.005994931   -0.003461174    0.000000000
      7        1           0.000000000   -0.001543606   -0.000000000
      8        1          -0.001336802   -0.000771803   -0.000000000
      9        1          -0.001336802    0.000771803   -0.000000000
     10        1          -0.000000000    0.001543606   -0.000000000
     11        1           0.001336802    0.000771803   -0.000000000
     12        1           0.001336802   -0.000771803   -0.000000000
 -------------------------------------------------------------------
 Cartesian Forces:  Max     0.006922350 RMS     0.002895446

 GradGradGradGradGradGradGradGradGradGradGradGradGradGradGradGradGradGrad
 Berny optimization.
 Using GEDIIS/GDIIS optimizer.
 FormGI is forming the generalized inverse of G from B-inverse, IUseBI=4.
 Internal  Forces:  Max     0.008465955 RMS     0.002868509
 Search for a local minimum.
 Step number   2 out of a maximum of   64
 All quantities printed in internal units (Hartrees-Bohrs-Radians)
 Mixed Optimization -- RFO/linear search
 Update second derivatives using D2CorX and points    1    2
 DE= -1.60D-03 DEPred=-2.36D-03 R= 6.76D-01
 TightC=F SS=  1.41D+00  RLast= 1.10D-01 DXNew= 5.0454D-01 3.2915D-01
 Trust test= 6.76D-01 RLast= 1.10D-01 DXMaxT set to 3.29D-01
 ITU=  1  0
 Use linear search instead of GDIIS.
     Eigenvalues ---    0.02221   0.02221   0.02221   0.02221   0.02221
     Eigenvalues ---    0.02221   0.02221   0.02221   0.02221   0.16000
     Eigenvalues ---    0.16000   0.16000   0.16000   0.16000   0.16000
     Eigenvalues ---    0.22000   0.22000   0.22000   0.31415   0.35994
     Eigenvalues ---    0.35994   0.35994   0.35994   0.35994   0.42854
     Eigenvalues ---    0.42854   0.47319   0.47319   0.47319   0.71245
 RFO step:  Lambda=-3.05926584D-04 EMin= 2.22103664D-02
 Quartic linear search produced a step of -0.23687.
 Iteration  1 RMS(Cart)=  0.00607465 RMS(Int)=  0.00000000
 Iteration  2 RMS(Cart)=  0.00000000 RMS(Int)=  0.00000000
 ClnCor:  largest displacement from symmetrization is 2.68D-10 for atom     4.
 Variable       Old X    -DE/DX   Delta X   Delta X   Delta X     New X
                                 (Linear)    (Quad)   (Total)
    R1        2.64680  -0.00847  -0.00476  -0.00767  -0.01242   2.63437
    R2        2.64680  -0.00847  -0.00476  -0.00767  -0.01242   2.63437
    R3        2.08094  -0.00154  -0.00948   0.00858  -0.00091   2.08004
    R4        2.64680  -0.00847  -0.00476  -0.00767  -0.01242   2.63437
    R5        2.08094  -0.00154  -0.00948   0.00858  -0.00091   2.08004
    R6        2.64680  -0.00847  -0.00476  -0.00767  -0.01242   2.63437
    R7        2.08094  -0.00154  -0.00948   0.00858  -0.00091   2.08004
    R8        2.64680  -0.00847  -0.00476  -0.00767  -0.01242   2.63437
    R9        2.08094  -0.00154  -0.00948   0.00858  -0.00091   2.08004
   R10        2.64680  -0.00847  -0.00476  -0.00767  -0.01242   2.63437
   R11        2.08094  -0.00154  -0.00948   0.00858  -0.00091   2.08004
   R12        2.08094  -0.00154  -0.00948   0.00858  -0.00091   2.08004
    A1        2.09440  -0.00000   0.00000  -0.00000   0.00000   2.09440
    A2        2.09440   0.00000  -0.00000  -0.00000  -0.00000   2.09440
    A3        2.09440  -0.00000   0.00000   0.00000   0.00000   2.09440
    A4        2.09440   0.00000   0.00000   0.00000   0.00000   2.09440
    A5        2.09440  -0.00000  -0.00000   0.00000  -0.00000   2.09440
    A6        2.09440   0.00000   0.00000  -0.00000   0.00000   2.09440
    A7        2.09440  -0.00000   0.00000  -0.00000   0.00000   2.09440
    A8        2.09440  -0.00000  -0.00000   0.00000  -0.00000   2.09440
    A9        2.09440   0.00000   0.00000  -0.00000   0.00000   2.09440
   A10        2.09440  -0.00000   0.00000  -0.00000   0.00000   2.09440
   A11        2.09440  -0.00000   0.00000   0.00000   0.00000   2.09440
   A12        2.09440   0.00000  -0.00000  -0.00000   0.00000   2.09440
   A13        2.09440   0.00000   0.00000   0.00000   0.00000   2.09440
   A14        2.09440  -0.00000   0.00000   0.00000  -0.00000   2.09440
   A15        2.09440   0.00000   0.00000  -0.00000  -0.00000   2.09440
   A16        2.09440  -0.00000   0.00000  -0.00000  -0.00000   2.09440
   A17        2.09440   0.00000   0.00000  -0.00000   0.00000   2.09440
   A18        2.09440  -0.00000  -0.00000   0.00000   0.00000   2.09440
    D1        0.00000  -0.00000   0.00000   0.00000   0.00000   0.00000
    D2        3.14159  -0.00000   0.00000  -0.00000   0.00000   3.14159
    D3        3.14159   0.00000   0.00000   0.00000   0.00000   3.14159
    D4        0.00000   0.00000   0.00000   0.00000  -0.00000   0.00000
    D5        0.00000   0.00000   0.00000   0.00000   0.00000   0.00000
    D6        3.14159   0.00000   0.00000   0.00000   0.00000   3.14159
    D7        3.14159  -0.00000   0.00000  -0.00000   0.00000   3.14159
    D8        0.00000  -0.00000   0.00000  -0.00000   0.00000   0.00000
    D9        0.00000  -0.00000   0.00000  -0.00000   0.00000   0.00000
   D10        3.14159  -0.00000   0.00000  -0.00000   0.00000   3.14159
   D11        3.14159   0.00000   0.00000   0.00000   0.00000   3.14159
   D12        0.00000   0.00000   0.00000   0.00000   0.00000   0.00000
   D13        0.00000   0.00000   0.00000   0.00000   0.00000   0.00000
   D14        3.14159  -0.00000   0.00000  -0.00000   0.00000   3.14159
   D15        3.14159   0.00000   0.00000   0.00000   0.00000   3.14159
   D16        0.00000   0.00000   0.00000   0.00000  -0.00000   0.00000
   D17        0.00000   0.00000   0.00000   0.00000   0.00000   0.00000
   D18        3.14159  -0.00000   0.00000  -0.00000   0.00000   3.14159
   D19        3.14159   0.00000   0.00000   0.00000   0.00000   3.14159
   D20        0.00000   0.00000   0.00000   0.00000   0.00000   0.00000
   D21        0.00000  -0.00000   0.00000  -0.00000   0.00000   0.00000
   D22        3.14159  -0.00000   0.00000  -0.00000   0.00000   3.14159
   D23        3.14159   0.00000   0.00000   0.00000   0.00000   3.14159
   D24        0.00000  -0.00000   0.00000  -0.00000   0.00000   0.00000
         Item               Value     Threshold  Converged?
 Maximum Force            0.008466     0.000450     NO 
 RMS     Force            0.002869     0.000300     NO 
 Maximum Displacement     0.013332     0.001800     NO 
 RMS     Displacement     0.006075     0.001200     NO 
 Predicted change in Energy=-3.167665D-04
 GradGradGradGradGradGradGradGradGradGradGradGradGradGradGradGradGradGrad

                          Input orientation:                          
 ---------------------------------------------------------------------
 Center     Atomic      Atomic             Coordinates (Angstroms)
 Number     Number       Type             X           Y           Z
 ---------------------------------------------------------------------
      1          6           0       -0.000000    1.394051    0.000000
      2          6           0        1.207284    0.697026    0.000000
      3          6           0        1.207284   -0.697026    0.000000
      4          6           0        0.000000   -1.394051    0.000000
      5          6           0       -1.207284   -0.697026    0.000000
      6          6           0       -1.207284    0.697026    0.000000
      7          1           0       -0.000000    2.494758    0.000000
      8          1           0        2.160524    1.247379    0.000000
      9          1           0        2.160524   -1.247379    0.000000
     10          1           0        0.000000   -2.494758    0.000000
     11          1           0       -2.160524   -1.247379    0.000000
     12          1           0       -2.160524    1.247379    0.000000
 ---------------------------------------------------------------------
                    Distance matrix (angstroms):
                    1          2          3          4          5
     1  C    0.000000
     2  C    1.394051   0.000000
     3  C    2.414567   1.394051   0.000000
     4  C    2.788102   2.414567   1.394051   0.000000
     5  C    2.414567   2.788102   2.414567   1.394051   0.000000
     6  C    1.394051   2.414567   2.788102   2.414567   1.394051
     7  H    1.100707   2.165497   3.412480   3.888809   3.412480
     8  H    2.165497   1.100707   2.165497   3.412480   3.888809
     9  H    3.412480   2.165497   1.100707   2.165497   3.412480
    10  H    3.888809   3.412480   2.165497   1.100707   2.165497
    11  H    3.412480   3.888809   3.412480   2.165497   1.100707
    12  H    2.165497   3.412480   3.888809   3.412480   2.165497
                    6          7          8          9         10
     6  C    0.000000
     7  H    2.165497   0.000000
     8  H    3.412480   2.494758   0.000000
     9  H    3.888809   4.321048   2.494758   0.000000
    10  H    3.412480   4.989517   4.321048   2.494758   0.000000
    11  H    2.165497   4.321048   4.989517   4.321048   2.494758
    12  H    1.100707   2.494758   4.321048   4.989517   4.321048
                   11         12
    11  H    0.000000
    12  H    2.494758   0.000000
 Stoichiometry    C6H6
 Framework group  D6H[3C2'(HC.CH)]
 Deg. of freedom     2
 Full point group                 D6H     NOp  24
 Largest Abelian subgroup         D2H     NOp   8
 Largest concise Abelian subgroup D2      NOp   4
                         Standard orientation:                         
 ---------------------------------------------------------------------
 Center     Atomic      Atomic             Coordinates (Angstroms)
 Number     Number       Type             X           Y           Z
 ---------------------------------------------------------------------
      1          6           0        0.000000    1.394051    0.000000
      2          6           0        1.207284    0.697026    0.000000
      3          6           0        1.207284   -0.697026    0.000000
      4          6           0       -0.000000   -1.394051    0.000000
      5          6           0       -1.207284   -0.697026    0.000000
      6          6           0       -1.207284    0.697026    0.000000
      7          1           0        0.000000    2.494758    0.000000
      8          1           0        2.160524    1.247379    0.000000
      9          1           0        2.160524   -1.247379    0.000000
     10          1           0       -0.000000   -2.494758    0.000000
     11          1           0       -2.160524   -1.247379    0.000000
     12          1           0       -2.160524    1.247379    0.000000
 ---------------------------------------------------------------------
 Rotational constants (GHZ):           5.6925396           5.6925396           2.8462698
 Standard basis: VSTO-6G (5D, 7F)
 There are     7 symmetry adapted cartesian basis functions of AG  symmetry.
 There are     5 symmetry adapted cartesian basis functions of B1G symmetry.
 There are     1 symmetry adapted cartesian basis functions of B2G symmetry.
 There are     2 symmetry adapted cartesian basis functions of B3G symmetry.
 There are     1 symmetry adapted cartesian basis functions of AU  symmetry.
 There are     2 symmetry adapted cartesian basis functions of B1U symmetry.
 There are     7 symmetry adapted cartesian basis functions of B2U symmetry.
 There are     5 symmetry adapted cartesian basis functions of B3U symmetry.
 There are     7 symmetry adapted basis functions of AG  symmetry.
 There are     5 symmetry adapted basis functions of B1G symmetry.
 There are     1 symmetry adapted basis functions of B2G symmetry.
 There are     2 symmetry adapted basis functions of B3G symmetry.
 There are     1 symmetry adapted basis functions of AU  symmetry.
 There are     2 symmetry adapted basis functions of B1U symmetry.
 There are     7 symmetry adapted basis functions of B2U symmetry.
 There are     5 symmetry adapted basis functions of B3U symmetry.
    30 basis functions,   180 primitive gaussians,    30 cartesian basis functions
    15 alpha electrons       15 beta electrons
       nuclear repulsion energy       119.6276883569 Hartrees.
 Integral buffers will be    131072 words long.
 Regular integral format.
 Two-electron integral symmetry is turned off.
 Do NDO integrals.
 One-electron integrals computed using PRISM.
 NBasis=    30 RedAO= T EigKep=  1.00D+00  NBF=     7     5     1     2     1     2     7     5
 NBsUse=    30 1.00D-06 EigRej= -1.00D+00 NBFU=     7     5     1     2     1     2     7     5
 Initial guess from the checkpoint file:  "calcs/am1/chks/Bz.chk"
 B after Tr=    -0.000000    0.000000    0.000000
         Rot=    1.000000    0.000000    0.000000    0.000000 Ang=   0.00 deg.
 Initial guess orbital symmetries:
       Occupied  (A1G) (E1U) (E1U) (E2G) (E2G) (A1G) (B1U) (B2U)
                 (E1U) (E1U) (A2U) (E2G) (E2G) (E1G) (E1G)
       Virtual   (E2U) (E2U) (B2G) (B1U) (E1U) (E1U) (A1G) (E2G)
                 (E2G) (E2G) (E2G) (E1U) (E1U) (A2G) (B1U)
 Keep J ints in memory in canonical form, NReq=861540.
 Overlap will be assumed to be unity.
 Requested convergence on RMS density matrix=1.00D-08 within  32 cycles.
 Requested convergence on MAX density matrix=1.00D-06.
 Requested convergence on             energy=1.00D-06.
 No special actions if energy rises.
 An orbital has undefined symmetry, so N**3 symmetry is turned off.
 SCF Done:  E(RAM1) =  0.349644308044E-01 A.U. after    8 cycles
            NFock=  7  Conv=0.22D-08     -V/T= 1.0007
 QCSCF skips out because SCF is already converged.
 Calling FoFJK, ICntrl=      2127 FMM=F ISym2X=1 I1Cent= 0 IOpClX= 0 NMat=1 NMatS=1 NMatT=0.
 ***** Axes restored to original set *****
 -------------------------------------------------------------------
 Center     Atomic                   Forces (Hartrees/Bohr)
 Number     Number              X              Y              Z
 -------------------------------------------------------------------
      1        6          -0.000000001    0.002044796    0.000000000
      2        6           0.001770845    0.001022399    0.000000000
      3        6           0.001770846   -0.001022397    0.000000000
      4        6           0.000000001   -0.002044796    0.000000000
      5        6          -0.001770845   -0.001022399    0.000000000
      6        6          -0.001770846    0.001022397    0.000000000
      7        1          -0.000000000   -0.000620855   -0.000000000
      8        1          -0.000537676   -0.000310427   -0.000000000
      9        1          -0.000537676    0.000310428   -0.000000000
     10        1           0.000000000    0.000620855   -0.000000000
     11        1           0.000537676    0.000310427   -0.000000000
     12        1           0.000537676   -0.000310428   -0.000000000
 -------------------------------------------------------------------
 Cartesian Forces:  Max     0.002044796 RMS     0.000872415

 GradGradGradGradGradGradGradGradGradGradGradGradGradGradGradGradGradGrad
 Berny optimization.
 Using GEDIIS/GDIIS optimizer.
 FormGI is forming the generalized inverse of G from B-inverse, IUseBI=4.
 Internal  Forces:  Max     0.001423941 RMS     0.000517802
 Search for a local minimum.
 Step number   3 out of a maximum of   64
 All quantities printed in internal units (Hartrees-Bohrs-Radians)
 Mixed Optimization -- En-DIIS/RFO-DIIS
 Update second derivatives using D2CorX and points    1    2    3
 DE= -2.71D-04 DEPred=-3.17D-04 R= 8.54D-01
 TightC=F SS=  1.41D+00  RLast= 3.05D-02 DXNew= 5.5356D-01 9.1545D-02
 Trust test= 8.54D-01 RLast= 3.05D-02 DXMaxT set to 3.29D-01
 ITU=  1  1  0
 Use linear search instead of GDIIS.
     Eigenvalues ---    0.02221   0.02221   0.02221   0.02221   0.02221
     Eigenvalues ---    0.02221   0.02221   0.02221   0.02221   0.16000
     Eigenvalues ---    0.16000   0.16000   0.16000   0.16000   0.16000
     Eigenvalues ---    0.22000   0.22000   0.22000   0.35519   0.35994
     Eigenvalues ---    0.35994   0.35994   0.35994   0.35994   0.42819
     Eigenvalues ---    0.42819   0.47319   0.47319   0.47319   0.79775
 RFO step:  Lambda=-9.49973925D-06 EMin= 2.22103664D-02
 Quartic linear search produced a step of -0.13637.
 Iteration  1 RMS(Cart)=  0.00063083 RMS(Int)=  0.00000000
 Iteration  2 RMS(Cart)=  0.00000000 RMS(Int)=  0.00000000
 ClnCor:  largest displacement from symmetrization is 2.10D-09 for atom     5.
 Variable       Old X    -DE/DX   Delta X   Delta X   Delta X     New X
                                 (Linear)    (Quad)   (Total)
    R1        2.63437   0.00142   0.00169   0.00020   0.00189   2.63627
    R2        2.63437   0.00142   0.00169   0.00020   0.00189   2.63627
    R3        2.08004  -0.00062   0.00012  -0.00210  -0.00198   2.07806
    R4        2.63437   0.00142   0.00169   0.00020   0.00189   2.63627
    R5        2.08004  -0.00062   0.00012  -0.00210  -0.00198   2.07806
    R6        2.63437   0.00142   0.00169   0.00020   0.00189   2.63627
    R7        2.08004  -0.00062   0.00012  -0.00210  -0.00198   2.07806
    R8        2.63437   0.00142   0.00169   0.00020   0.00189   2.63627
    R9        2.08004  -0.00062   0.00012  -0.00210  -0.00198   2.07806
   R10        2.63437   0.00142   0.00169   0.00020   0.00189   2.63627
   R11        2.08004  -0.00062   0.00012  -0.00210  -0.00198   2.07806
   R12        2.08004  -0.00062   0.00012  -0.00210  -0.00198   2.07806
    A1        2.09440  -0.00000   0.00000  -0.00000   0.00000   2.09440
    A2        2.09440  -0.00000   0.00000  -0.00000  -0.00000   2.09440
    A3        2.09440   0.00000   0.00000   0.00000   0.00000   2.09440
    A4        2.09440  -0.00000   0.00000   0.00000  -0.00000   2.09440
    A5        2.09440   0.00000   0.00000   0.00000   0.00000   2.09440
    A6        2.09440  -0.00000  -0.00000  -0.00000   0.00000   2.09440
    A7        2.09440   0.00000  -0.00000   0.00000   0.00000   2.09440
    A8        2.09440   0.00000   0.00000   0.00000   0.00000   2.09440
    A9        2.09440  -0.00000  -0.00000  -0.00000  -0.00000   2.09440
   A10        2.09440  -0.00000   0.00000  -0.00000   0.00000   2.09440
   A11        2.09440   0.00000   0.00000   0.00000   0.00000   2.09440
   A12        2.09440  -0.00000   0.00000  -0.00000   0.00000   2.09440
   A13        2.09440   0.00000   0.00000   0.00000   0.00000   2.09440
   A14        2.09440   0.00000   0.00000   0.00000   0.00000   2.09440
   A15        2.09440  -0.00000   0.00000  -0.00000   0.00000   2.09440
   A16        2.09440   0.00000  -0.00000   0.00000  -0.00000   2.09440
   A17        2.09440  -0.00000   0.00000  -0.00000   0.00000   2.09440
   A18        2.09440   0.00000   0.00000   0.00000   0.00000   2.09440
    D1        0.00000  -0.00000   0.00000  -0.00000   0.00000   0.00000
    D2        3.14159  -0.00000   0.00000  -0.00000   0.00000   3.14159
    D3        3.14159   0.00000   0.00000   0.00000   0.00000   3.14159
    D4        0.00000   0.00000   0.00000   0.00000  -0.00000   0.00000
    D5        0.00000   0.00000   0.00000   0.00000   0.00000   0.00000
    D6        3.14159   0.00000   0.00000   0.00000   0.00000   3.14159
    D7        3.14159  -0.00000   0.00000  -0.00000   0.00000   3.14159
    D8        0.00000  -0.00000   0.00000  -0.00000  -0.00000   0.00000
    D9        0.00000  -0.00000   0.00000  -0.00000   0.00000   0.00000
   D10        3.14159  -0.00000   0.00000  -0.00000   0.00000   3.14159
   D11        3.14159   0.00000   0.00000   0.00000   0.00000   3.14159
   D12        0.00000  -0.00000   0.00000  -0.00000   0.00000   0.00000
   D13        0.00000   0.00000   0.00000   0.00000   0.00000   0.00000
   D14        3.14159  -0.00000   0.00000  -0.00000   0.00000   3.14159
   D15        3.14159   0.00000   0.00000   0.00000   0.00000   3.14159
   D16        0.00000   0.00000   0.00000   0.00000  -0.00000   0.00000
   D17        0.00000   0.00000   0.00000   0.00000   0.00000   0.00000
   D18        3.14159  -0.00000   0.00000  -0.00000   0.00000   3.14159
   D19        3.14159   0.00000   0.00000   0.00000   0.00000   3.14159
   D20        0.00000  -0.00000   0.00000   0.00000   0.00000   0.00000
   D21        0.00000  -0.00000   0.00000  -0.00000   0.00000   0.00000
   D22        3.14159  -0.00000   0.00000  -0.00000   0.00000   3.14159
   D23        3.14159   0.00000   0.00000   0.00000   0.00000   3.14159
   D24        0.00000   0.00000   0.00000  -0.00000   0.00000   0.00000
         Item               Value     Threshold  Converged?
 Maximum Force            0.001424     0.000450     NO 
 RMS     Force            0.000518     0.000300     NO 
 Maximum Displacement     0.001890     0.001800     NO 
 RMS     Displacement     0.000631     0.001200     YES
 Predicted change in Energy=-1.186792D-05
 GradGradGradGradGradGradGradGradGradGradGradGradGradGradGradGradGradGrad

                          Input orientation:                          
 ---------------------------------------------------------------------
 Center     Atomic      Atomic             Coordinates (Angstroms)
 Number     Number       Type             X           Y           Z
 ---------------------------------------------------------------------
      1          6           0       -0.000000    1.395051    0.000000
      2          6           0        1.208150    0.697526    0.000000
      3          6           0        1.208150   -0.697526    0.000000
      4          6           0        0.000000   -1.395051    0.000000
      5          6           0       -1.208150   -0.697526    0.000000
      6          6           0       -1.208150    0.697526    0.000000
      7          1           0       -0.000000    2.494712    0.000000
      8          1           0        2.160484    1.247356    0.000000
      9          1           0        2.160484   -1.247356    0.000000
     10          1           0        0.000000   -2.494712    0.000000
     11          1           0       -2.160484   -1.247356    0.000000
     12          1           0       -2.160484    1.247356    0.000000
 ---------------------------------------------------------------------
                    Distance matrix (angstroms):
                    1          2          3          4          5
     1  C    0.000000
     2  C    1.395051   0.000000
     3  C    2.416300   1.395051   0.000000
     4  C    2.790103   2.416300   1.395051   0.000000
     5  C    2.416300   2.790103   2.416300   1.395051   0.000000
     6  C    1.395051   2.416300   2.790103   2.416300   1.395051
     7  H    1.099661   2.165526   3.413211   3.889763   3.413211
     8  H    2.165526   1.099661   2.165526   3.413211   3.889763
     9  H    3.413211   2.165526   1.099661   2.165526   3.413211
    10  H    3.889763   3.413211   2.165526   1.099661   2.165526
    11  H    3.413211   3.889763   3.413211   2.165526   1.099661
    12  H    2.165526   3.413211   3.889763   3.413211   2.165526
                    6          7          8          9         10
     6  C    0.000000
     7  H    2.165526   0.000000
     8  H    3.413211   2.494712   0.000000
     9  H    3.889763   4.320968   2.494712   0.000000
    10  H    3.413211   4.989424   4.320968   2.494712   0.000000
    11  H    2.165526   4.320968   4.989424   4.320968   2.494712
    12  H    1.099661   2.494712   4.320968   4.989424   4.320968
                   11         12
    11  H    0.000000
    12  H    2.494712   0.000000
 Stoichiometry    C6H6
 Framework group  D6H[3C2'(HC.CH)]
 Deg. of freedom     2
 Full point group                 D6H     NOp  24
 Largest Abelian subgroup         D2H     NOp   8
 Largest concise Abelian subgroup D2      NOp   4
                         Standard orientation:                         
 ---------------------------------------------------------------------
 Center     Atomic      Atomic             Coordinates (Angstroms)
 Number     Number       Type             X           Y           Z
 ---------------------------------------------------------------------
      1          6           0        0.000000    1.395051    0.000000
      2          6           0        1.208150    0.697526    0.000000
      3          6           0        1.208150   -0.697526    0.000000
      4          6           0       -0.000000   -1.395051    0.000000
      5          6           0       -1.208150   -0.697526    0.000000
      6          6           0       -1.208150    0.697526    0.000000
      7          1           0        0.000000    2.494712    0.000000
      8          1           0        2.160484    1.247356    0.000000
      9          1           0        2.160484   -1.247356    0.000000
     10          1           0       -0.000000   -2.494712    0.000000
     11          1           0       -2.160484   -1.247356    0.000000
     12          1           0       -2.160484    1.247356    0.000000
 ---------------------------------------------------------------------
 Rotational constants (GHZ):           5.6861509           5.6861509           2.8430755
 Standard basis: VSTO-6G (5D, 7F)
 There are     7 symmetry adapted cartesian basis functions of AG  symmetry.
 There are     5 symmetry adapted cartesian basis functions of B1G symmetry.
 There are     1 symmetry adapted cartesian basis functions of B2G symmetry.
 There are     2 symmetry adapted cartesian basis functions of B3G symmetry.
 There are     1 symmetry adapted cartesian basis functions of AU  symmetry.
 There are     2 symmetry adapted cartesian basis functions of B1U symmetry.
 There are     7 symmetry adapted cartesian basis functions of B2U symmetry.
 There are     5 symmetry adapted cartesian basis functions of B3U symmetry.
 There are     7 symmetry adapted basis functions of AG  symmetry.
 There are     5 symmetry adapted basis functions of B1G symmetry.
 There are     1 symmetry adapted basis functions of B2G symmetry.
 There are     2 symmetry adapted basis functions of B3G symmetry.
 There are     1 symmetry adapted basis functions of AU  symmetry.
 There are     2 symmetry adapted basis functions of B1U symmetry.
 There are     7 symmetry adapted basis functions of B2U symmetry.
 There are     5 symmetry adapted basis functions of B3U symmetry.
    30 basis functions,   180 primitive gaussians,    30 cartesian basis functions
    15 alpha electrons       15 beta electrons
       nuclear repulsion energy       119.5995678849 Hartrees.
 Integral buffers will be    131072 words long.
 Regular integral format.
 Two-electron integral symmetry is turned off.
 Do NDO integrals.
 One-electron integrals computed using PRISM.
 NBasis=    30 RedAO= T EigKep=  1.00D+00  NBF=     7     5     1     2     1     2     7     5
 NBsUse=    30 1.00D-06 EigRej= -1.00D+00 NBFU=     7     5     1     2     1     2     7     5
 Initial guess from the checkpoint file:  "calcs/am1/chks/Bz.chk"
 B after Tr=     0.000000    0.000000    0.000000
         Rot=    1.000000   -0.000000    0.000000    0.000000 Ang=   0.00 deg.
 Initial guess orbital symmetries:
       Occupied  (A1G) (E1U) (E1U) (E2G) (E2G) (A1G) (B1U) (B2U)
                 (E1U) (E1U) (A2U) (E2G) (E2G) (E1G) (E1G)
       Virtual   (E2U) (E2U) (B2G) (E1U) (E1U) (B1U) (A1G) (E2G)
                 (E2G) (E2G) (E2G) (E1U) (E1U) (A2G) (B1U)
 Keep J ints in memory in canonical form, NReq=861540.
 Overlap will be assumed to be unity.
 Requested convergence on RMS density matrix=1.00D-08 within  32 cycles.
 Requested convergence on MAX density matrix=1.00D-06.
 Requested convergence on             energy=1.00D-06.
 No special actions if energy rises.
 An orbital has undefined symmetry, so N**3 symmetry is turned off.
 SCF Done:  E(RAM1) =  0.349527239627E-01 A.U. after    7 cycles
            NFock=  6  Conv=0.37D-08     -V/T= 1.0007
 QCSCF skips out because SCF is already converged.
 Calling FoFJK, ICntrl=      2127 FMM=F ISym2X=1 I1Cent= 0 IOpClX= 0 NMat=1 NMatS=1 NMatT=0.
 ***** Axes restored to original set *****
 -------------------------------------------------------------------
 Center     Atomic                   Forces (Hartrees/Bohr)
 Number     Number              X              Y              Z
 -------------------------------------------------------------------
      1        6           0.000000000   -0.000008288    0.000000000
      2        6          -0.000007178   -0.000004144    0.000000000
      3        6          -0.000007178    0.000004144    0.000000000
      4        6          -0.000000000    0.000008288   -0.000000000
      5        6           0.000007178    0.000004144    0.000000000
      6        6           0.000007178   -0.000004144   -0.000000000
      7        1           0.000000000    0.000006633   -0.000000000
      8        1           0.000005745    0.000003317   -0.000000000
      9        1           0.000005745   -0.000003317   -0.000000000
     10        1          -0.000000000   -0.000006633   -0.000000000
     11        1          -0.000005745   -0.000003317   -0.000000000
     12        1          -0.000005745    0.000003317   -0.000000000
 -------------------------------------------------------------------
 Cartesian Forces:  Max     0.000008288 RMS     0.000004334

 GradGradGradGradGradGradGradGradGradGradGradGradGradGradGradGradGradGrad
 Berny optimization.
 Using GEDIIS/GDIIS optimizer.
 FormGI is forming the generalized inverse of G from B-inverse, IUseBI=4.
 Internal  Forces:  Max     0.000006633 RMS     0.000002279
 Search for a local minimum.
 Step number   4 out of a maximum of   64
 All quantities printed in internal units (Hartrees-Bohrs-Radians)
 Mixed Optimization -- En-DIIS/RFO-DIIS
 Swapping is turned off.
 Update second derivatives using D2CorX and points    1    2    3    4
 DE= -1.17D-05 DEPred=-1.19D-05 R= 9.86D-01
 TightC=F SS=  1.41D+00  RLast= 6.70D-03 DXNew= 5.5356D-01 2.0106D-02
 Trust test= 9.86D-01 RLast= 6.70D-03 DXMaxT set to 3.29D-01
 ITU=  1  1  1  0
     Eigenvalues ---    0.02221   0.02221   0.02221   0.02221   0.02221
     Eigenvalues ---    0.02221   0.02221   0.02221   0.02221   0.16000
     Eigenvalues ---    0.16000   0.16000   0.16000   0.16000   0.16000
     Eigenvalues ---    0.22000   0.22000   0.22000   0.35994   0.35994
     Eigenvalues ---    0.35994   0.35994   0.35994   0.36007   0.42824
     Eigenvalues ---    0.42824   0.47319   0.47319   0.47319   0.81313
 En-DIIS/RFO-DIIS/Sim-DIIS IScMMF=       -3 using points:     4    3
 RFO step:  Lambda=-7.16391180D-10.
 DidBck=F Rises=F RFO-DIIS coefs:    0.99428    0.00572
 Iteration  1 RMS(Cart)=  0.00000523 RMS(Int)=  0.00000000
 Iteration  2 RMS(Cart)=  0.00000000 RMS(Int)=  0.00000000
 ClnCor:  largest displacement from symmetrization is 4.39D-11 for atom     2.
 Variable       Old X    -DE/DX   Delta X   Delta X   Delta X     New X
                                 (Linear)    (Quad)   (Total)
    R1        2.63627  -0.00000  -0.00001   0.00001  -0.00000   2.63626
    R2        2.63627  -0.00000  -0.00001   0.00001  -0.00000   2.63626
    R3        2.07806   0.00001   0.00001   0.00001   0.00002   2.07808
    R4        2.63627  -0.00000  -0.00001   0.00001  -0.00000   2.63626
    R5        2.07806   0.00001   0.00001   0.00001   0.00002   2.07808
    R6        2.63627  -0.00000  -0.00001   0.00001  -0.00000   2.63626
    R7        2.07806   0.00001   0.00001   0.00001   0.00002   2.07808
    R8        2.63627  -0.00000  -0.00001   0.00001  -0.00000   2.63626
    R9        2.07806   0.00001   0.00001   0.00001   0.00002   2.07808
   R10        2.63627  -0.00000  -0.00001   0.00001  -0.00000   2.63626
   R11        2.07806   0.00001   0.00001   0.00001   0.00002   2.07808
   R12        2.07806   0.00001   0.00001   0.00001   0.00002   2.07808
    A1        2.09440  -0.00000   0.00000  -0.00000   0.00000   2.09440
    A2        2.09440  -0.00000   0.00000  -0.00000   0.00000   2.09440
    A3        2.09440   0.00000   0.00000   0.00000   0.00000   2.09440
    A4        2.09440   0.00000   0.00000   0.00000  -0.00000   2.09440
    A5        2.09440   0.00000   0.00000   0.00000   0.00000   2.09440
    A6        2.09440  -0.00000   0.00000  -0.00000   0.00000   2.09440
    A7        2.09440  -0.00000   0.00000  -0.00000   0.00000   2.09440
    A8        2.09440   0.00000   0.00000   0.00000   0.00000   2.09440
    A9        2.09440  -0.00000   0.00000  -0.00000   0.00000   2.09440
   A10        2.09440  -0.00000   0.00000  -0.00000   0.00000   2.09440
   A11        2.09440   0.00000   0.00000   0.00000   0.00000   2.09440
   A12        2.09440  -0.00000   0.00000  -0.00000  -0.00000   2.09440
   A13        2.09440  -0.00000   0.00000  -0.00000   0.00000   2.09440
   A14        2.09440   0.00000   0.00000   0.00000   0.00000   2.09440
   A15        2.09440  -0.00000   0.00000  -0.00000   0.00000   2.09440
   A16        2.09440   0.00000   0.00000   0.00000   0.00000   2.09440
   A17        2.09440  -0.00000   0.00000  -0.00000  -0.00000   2.09440
   A18        2.09440   0.00000   0.00000   0.00000   0.00000   2.09440
    D1        0.00000   0.00000   0.00000   0.00000   0.00000   0.00000
    D2        3.14159  -0.00000   0.00000  -0.00000   0.00000   3.14159
    D3        3.14159   0.00000   0.00000   0.00000   0.00000   3.14159
    D4        0.00000   0.00000   0.00000   0.00000  -0.00000   0.00000
    D5        0.00000   0.00000   0.00000   0.00000   0.00000   0.00000
    D6        3.14159   0.00000   0.00000   0.00000   0.00000   3.14159
    D7        3.14159  -0.00000   0.00000  -0.00000   0.00000   3.14159
    D8        0.00000  -0.00000   0.00000  -0.00000   0.00000   0.00000
    D9        0.00000  -0.00000   0.00000  -0.00000   0.00000   0.00000
   D10        3.14159  -0.00000   0.00000  -0.00000   0.00000   3.14159
   D11        3.14159   0.00000   0.00000   0.00000   0.00000   3.14159
   D12        0.00000  -0.00000   0.00000  -0.00000   0.00000   0.00000
   D13        0.00000  -0.00000   0.00000  -0.00000   0.00000   0.00000
   D14        3.14159  -0.00000   0.00000  -0.00000   0.00000   3.14159
   D15        3.14159   0.00000   0.00000   0.00000   0.00000   3.14159
   D16        0.00000   0.00000   0.00000   0.00000  -0.00000   0.00000
   D17        0.00000   0.00000   0.00000   0.00000   0.00000   0.00000
   D18        3.14159  -0.00000   0.00000  -0.00000   0.00000   3.14159
   D19        3.14159   0.00000   0.00000   0.00000   0.00000   3.14159
   D20        0.00000   0.00000   0.00000   0.00000   0.00000   0.00000
   D21        0.00000  -0.00000   0.00000  -0.00000   0.00000   0.00000
   D22        3.14159  -0.00000   0.00000  -0.00000   0.00000   3.14159
   D23        3.14159   0.00000   0.00000   0.00000   0.00000   3.14159
   D24        0.00000   0.00000   0.00000   0.00000   0.00000   0.00000
         Item               Value     Threshold  Converged?
 Maximum Force            0.000007     0.000450     YES
 RMS     Force            0.000002     0.000300     YES
 Maximum Displacement     0.000015     0.001800     YES
 RMS     Displacement     0.000005     0.001200     YES
 Predicted change in Energy=-3.857177D-10
 Optimization completed.
    -- Stationary point found.
                           ----------------------------
                           !   Optimized Parameters   !
                           ! (Angstroms and Degrees)  !
 --------------------------                            --------------------------
 ! Name  Definition              Value          Derivative Info.                !
 --------------------------------------------------------------------------------
 ! R1    R(1,2)                  1.3951         -DE/DX =    0.0                 !
 ! R2    R(1,6)                  1.3951         -DE/DX =    0.0                 !
 ! R3    R(1,7)                  1.0997         -DE/DX =    0.0                 !
 ! R4    R(2,3)                  1.3951         -DE/DX =    0.0                 !
 ! R5    R(2,8)                  1.0997         -DE/DX =    0.0                 !
 ! R6    R(3,4)                  1.3951         -DE/DX =    0.0                 !
 ! R7    R(3,9)                  1.0997         -DE/DX =    0.0                 !
 ! R8    R(4,5)                  1.3951         -DE/DX =    0.0                 !
 ! R9    R(4,10)                 1.0997         -DE/DX =    0.0                 !
 ! R10   R(5,6)                  1.3951         -DE/DX =    0.0                 !
 ! R11   R(5,11)                 1.0997         -DE/DX =    0.0                 !
 ! R12   R(6,12)                 1.0997         -DE/DX =    0.0                 !
 ! A1    A(2,1,6)              120.0            -DE/DX =    0.0                 !
 ! A2    A(2,1,7)              120.0            -DE/DX =    0.0                 !
 ! A3    A(6,1,7)              120.0            -DE/DX =    0.0                 !
 ! A4    A(1,2,3)              120.0            -DE/DX =    0.0                 !
 ! A5    A(1,2,8)              120.0            -DE/DX =    0.0                 !
 ! A6    A(3,2,8)              120.0            -DE/DX =    0.0                 !
 ! A7    A(2,3,4)              120.0            -DE/DX =    0.0                 !
 ! A8    A(2,3,9)              120.0            -DE/DX =    0.0                 !
 ! A9    A(4,3,9)              120.0            -DE/DX =    0.0                 !
 ! A10   A(3,4,5)              120.0            -DE/DX =    0.0                 !
 ! A11   A(3,4,10)             120.0            -DE/DX =    0.0                 !
 ! A12   A(5,4,10)             120.0            -DE/DX =    0.0                 !
 ! A13   A(4,5,6)              120.0            -DE/DX =    0.0                 !
 ! A14   A(4,5,11)             120.0            -DE/DX =    0.0                 !
 ! A15   A(6,5,11)             120.0            -DE/DX =    0.0                 !
 ! A16   A(1,6,5)              120.0            -DE/DX =    0.0                 !
 ! A17   A(1,6,12)             120.0            -DE/DX =    0.0                 !
 ! A18   A(5,6,12)             120.0            -DE/DX =    0.0                 !
 ! D1    D(6,1,2,3)              0.0            -DE/DX =    0.0                 !
 ! D2    D(6,1,2,8)            180.0            -DE/DX =    0.0                 !
 ! D3    D(7,1,2,3)            180.0            -DE/DX =    0.0                 !
 ! D4    D(7,1,2,8)              0.0            -DE/DX =    0.0                 !
 ! D5    D(2,1,6,5)              0.0            -DE/DX =    0.0                 !
 ! D6    D(2,1,6,12)           180.0            -DE/DX =    0.0                 !
 ! D7    D(7,1,6,5)            180.0            -DE/DX =    0.0                 !
 ! D8    D(7,1,6,12)             0.0            -DE/DX =    0.0                 !
 ! D9    D(1,2,3,4)              0.0            -DE/DX =    0.0                 !
 ! D10   D(1,2,3,9)            180.0            -DE/DX =    0.0                 !
 ! D11   D(8,2,3,4)            180.0            -DE/DX =    0.0                 !
 ! D12   D(8,2,3,9)              0.0            -DE/DX =    0.0                 !
 ! D13   D(2,3,4,5)              0.0            -DE/DX =    0.0                 !
 ! D14   D(2,3,4,10)           180.0            -DE/DX =    0.0                 !
 ! D15   D(9,3,4,5)            180.0            -DE/DX =    0.0                 !
 ! D16   D(9,3,4,10)             0.0            -DE/DX =    0.0                 !
 ! D17   D(3,4,5,6)              0.0            -DE/DX =    0.0                 !
 ! D18   D(3,4,5,11)           180.0            -DE/DX =    0.0                 !
 ! D19   D(10,4,5,6)           180.0            -DE/DX =    0.0                 !
 ! D20   D(10,4,5,11)            0.0            -DE/DX =    0.0                 !
 ! D21   D(4,5,6,1)              0.0            -DE/DX =    0.0                 !
 ! D22   D(4,5,6,12)           180.0            -DE/DX =    0.0                 !
 ! D23   D(11,5,6,1)           180.0            -DE/DX =    0.0                 !
 ! D24   D(11,5,6,12)            0.0            -DE/DX =    0.0                 !
 --------------------------------------------------------------------------------
 GradGradGradGradGradGradGradGradGradGradGradGradGradGradGradGradGradGrad

                          Input orientation:                          
 ---------------------------------------------------------------------
 Center     Atomic      Atomic             Coordinates (Angstroms)
 Number     Number       Type             X           Y           Z
 ---------------------------------------------------------------------
      1          6           0       -0.000000    1.395051    0.000000
      2          6           0        1.208150    0.697526    0.000000
      3          6           0        1.208150   -0.697526    0.000000
      4          6           0        0.000000   -1.395051    0.000000
      5          6           0       -1.208150   -0.697526    0.000000
      6          6           0       -1.208150    0.697526    0.000000
      7          1           0       -0.000000    2.494712    0.000000
      8          1           0        2.160484    1.247356    0.000000
      9          1           0        2.160484   -1.247356    0.000000
     10          1           0        0.000000   -2.494712    0.000000
     11          1           0       -2.160484   -1.247356    0.000000
     12          1           0       -2.160484    1.247356    0.000000
 ---------------------------------------------------------------------
                    Distance matrix (angstroms):
                    1          2          3          4          5
     1  C    0.000000
     2  C    1.395051   0.000000
     3  C    2.416300   1.395051   0.000000
     4  C    2.790103   2.416300   1.395051   0.000000
     5  C    2.416300   2.790103   2.416300   1.395051   0.000000
     6  C    1.395051   2.416300   2.790103   2.416300   1.395051
     7  H    1.099661   2.165526   3.413211   3.889763   3.413211
     8  H    2.165526   1.099661   2.165526   3.413211   3.889763
     9  H    3.413211   2.165526   1.099661   2.165526   3.413211
    10  H    3.889763   3.413211   2.165526   1.099661   2.165526
    11  H    3.413211   3.889763   3.413211   2.165526   1.099661
    12  H    2.165526   3.413211   3.889763   3.413211   2.165526
                    6          7          8          9         10
     6  C    0.000000
     7  H    2.165526   0.000000
     8  H    3.413211   2.494712   0.000000
     9  H    3.889763   4.320968   2.494712   0.000000
    10  H    3.413211   4.989424   4.320968   2.494712   0.000000
    11  H    2.165526   4.320968   4.989424   4.320968   2.494712
    12  H    1.099661   2.494712   4.320968   4.989424   4.320968
                   11         12
    11  H    0.000000
    12  H    2.494712   0.000000
 Stoichiometry    C6H6
 Framework group  D6H[3C2'(HC.CH)]
 Deg. of freedom     2
 Full point group                 D6H     NOp  24
 Largest Abelian subgroup         D2H     NOp   8
 Largest concise Abelian subgroup D2      NOp   4
                         Standard orientation:                         
 ---------------------------------------------------------------------
 Center     Atomic      Atomic             Coordinates (Angstroms)
 Number     Number       Type             X           Y           Z
 ---------------------------------------------------------------------
      1          6           0        0.000000    1.395051    0.000000
      2          6           0        1.208150    0.697526    0.000000
      3          6           0        1.208150   -0.697526    0.000000
      4          6           0       -0.000000   -1.395051    0.000000
      5          6           0       -1.208150   -0.697526    0.000000
      6          6           0       -1.208150    0.697526    0.000000
      7          1           0        0.000000    2.494712    0.000000
      8          1           0        2.160484    1.247356    0.000000
      9          1           0        2.160484   -1.247356    0.000000
     10          1           0       -0.000000   -2.494712    0.000000
     11          1           0       -2.160484   -1.247356    0.000000
     12          1           0       -2.160484    1.247356    0.000000
 ---------------------------------------------------------------------
 Rotational constants (GHZ):           5.6861509           5.6861509           2.8430755

 **********************************************************************

            Population analysis using the SCF Density.

 **********************************************************************

 Orbital symmetries:
       Occupied  (A1G) (E1U) (E1U) (E2G) (E2G) (A1G) (B1U) (B2U)
                 (E1U) (E1U) (A2U) (E2G) (E2G) (E1G) (E1G)
       Virtual   (E2U) (E2U) (B2G) (E1U) (E1U) (B1U) (A1G) (E2G)
                 (E2G) (E2G) (E2G) (E1U) (E1U) (A2G) (B1U)
 The electronic state is 1-A1G.
 Alpha  occ. eigenvalues --   -1.43860  -1.15283  -1.15283  -0.84746  -0.84746
 Alpha  occ. eigenvalues --   -0.65619  -0.59251  -0.56596  -0.52041  -0.52041
 Alpha  occ. eigenvalues --   -0.49175  -0.43689  -0.43689  -0.35474  -0.35474
 Alpha virt. eigenvalues --    0.02039   0.02039   0.10944   0.14833   0.14833
 Alpha virt. eigenvalues --    0.14876   0.15409   0.16900   0.16900   0.18827
 Alpha virt. eigenvalues --    0.18827   0.20624   0.20624   0.21054   0.22540
          Condensed to atoms (all electrons):
               1          2          3          4          5          6
     1  C    4.130118   0.000000   0.000000   0.000000   0.000000   0.000000
     2  C    0.000000   4.130118   0.000000   0.000000   0.000000   0.000000
     3  C    0.000000   0.000000   4.130118   0.000000   0.000000   0.000000
     4  C    0.000000   0.000000   0.000000   4.130118   0.000000   0.000000
     5  C    0.000000   0.000000   0.000000   0.000000   4.130118   0.000000
     6  C    0.000000   0.000000   0.000000   0.000000   0.000000   4.130118
     7  H    0.000000   0.000000   0.000000   0.000000   0.000000   0.000000
     8  H    0.000000   0.000000   0.000000   0.000000   0.000000   0.000000
     9  H    0.000000   0.000000   0.000000   0.000000   0.000000   0.000000
    10  H    0.000000   0.000000   0.000000   0.000000   0.000000   0.000000
    11  H    0.000000   0.000000   0.000000   0.000000   0.000000   0.000000
    12  H    0.000000   0.000000   0.000000   0.000000   0.000000   0.000000
               7          8          9         10         11         12
     1  C    0.000000   0.000000   0.000000   0.000000   0.000000   0.000000
     2  C    0.000000   0.000000   0.000000   0.000000   0.000000   0.000000
     3  C    0.000000   0.000000   0.000000   0.000000   0.000000   0.000000
     4  C    0.000000   0.000000   0.000000   0.000000   0.000000   0.000000
     5  C    0.000000   0.000000   0.000000   0.000000   0.000000   0.000000
     6  C    0.000000   0.000000   0.000000   0.000000   0.000000   0.000000
     7  H    0.869882   0.000000   0.000000   0.000000   0.000000   0.000000
     8  H    0.000000   0.869882   0.000000   0.000000   0.000000   0.000000
     9  H    0.000000   0.000000   0.869882   0.000000   0.000000   0.000000
    10  H    0.000000   0.000000   0.000000   0.869882   0.000000   0.000000
    11  H    0.000000   0.000000   0.000000   0.000000   0.869882   0.000000
    12  H    0.000000   0.000000   0.000000   0.000000   0.000000   0.869882
 Mulliken charges:
               1
     1  C   -0.130118
     2  C   -0.130118
     3  C   -0.130118
     4  C   -0.130118
     5  C   -0.130118
     6  C   -0.130118
     7  H    0.130118
     8  H    0.130118
     9  H    0.130118
    10  H    0.130118
    11  H    0.130118
    12  H    0.130118
 Sum of Mulliken charges =  -0.00000
 Mulliken charges with hydrogens summed into heavy atoms:
               1
     1  C    0.000000
     2  C   -0.000000
     3  C    0.000000
     4  C    0.000000
     5  C    0.000000
     6  C   -0.000000
 Charge=              0.0000 electrons
 Dipole moment (field-independent basis, Debye):
    X=             -0.0000    Y=             -0.0000    Z=              0.0000  Tot=              0.0000
 N-N= 1.195995678849D+02 E-N=-1.705390546391D+02  KE=-4.785082274745D+01
 Symmetry AG   KE=-1.352784839049D+01
 Symmetry B1G  KE=-5.892539427756D+00
 Symmetry B2G  KE=-3.016515339303D+00
 Symmetry B3G  KE=-3.016515339303D+00
 Symmetry AU   KE=-1.323454492612D-17
 Symmetry B1U  KE=-3.207060403202D+00
 Symmetry B2U  KE=-9.247797678371D+00
 Symmetry B3U  KE=-9.942546169028D+00
 1\1\GINC-SH02-02N46\FOpt\RAM1\ZDO\C6H6\JLAPIER\28-Sep-2026\0\\# Opt AM
 1 SCF=XQC\\Bz am1\\0,1\C,-0.0000000006,1.3950514425,0.\C,1.2081499885,
 0.6975257218,0.\C,1.2081499891,-0.6975257207,0.\C,0.0000000006,-1.3950
 514425,0.\C,-1.2081499885,-0.6975257218,0.\C,-1.2081499891,0.697525720
 7,0.\H,-0.0000000011,2.4947119703,0.\H,2.1604839408,1.2473559861,0.\H,
 2.1604839419,-1.2473559842,0.\H,0.0000000011,-2.4947119703,0.\H,-2.160
 4839408,-1.2473559861,0.\H,-2.1604839419,1.2473559842,0.\\Version=ES64
 L-G16RevB.01\State=1-A1G\HF=0.0349527\RMSD=3.719e-09\RMSF=4.334e-06\Di
 pole=0.,0.,0.\PG=D06H [3C2'(H1C1.C1H1)]\\@


 THE TEST OF A FIRST RATE INTELLIGENCE IS THE ABILITY TO HOLD TWO OPPOSED
 IDEAS IN THE MIND AT THE SAME TIME, AND STILL RETAIN THE ABILITY TO FUNCTION.
 ONE SHOULD, FOR EXAMPLE, BE ABLE TO SEE THAT THINGS ARE HOPELESS AND YET BE
 DETERMINED TO MAKE THEM OTHERWISE.

                                                       -- F. SCOTT FITZGERALD
 Job cpu time:       0 days  0 hours  0 minutes  2.8 seconds.
 Elapsed time:       0 days  0 hours  0 minutes  2.9 seconds.
 File lengths (MBytes):  RWF=      6 Int=      0 D2E=      0 Chk=      3 Scr=      1
 Normal termination of Gaussian 16 at Mon Sep 28 01:22:31 2026.
