 Entering Gaussian System, Link 0=g16
 Initial command:
 /share/software/user/restricted/gaussian/g16.B01/l1.exe "/lscratch/jlapier/g16_45667248_1/Gau-22431.inp" -scrdir="/lscratch/jlapier/g16_45667248_1/"
 Entering Link 1 = /share/software/user/restricted/gaussian/g16.B01/l1.exe PID=     22437.
  
 Copyright (c) 1988-2017, Gaussian, Inc.  All Rights Reserved.
  
 This is part of the Gaussian(R) 16 program.  It is based on
 the Gaussian(R) 09 system (copyright 2009, Gaussian, Inc.),
 the Gaussian(R) 03 system (copyright 2003, Gaussian, Inc.),
 the Gaussian(R) 98 system (copyright 1998, Gaussian, Inc.),
 the Gaussian(R) 94 system (copyright 1995, Gaussian, Inc.),
 the Gaussian 92(TM) system (copyright 1992, Gaussian, Inc.),
 the Gaussian 90(TM) system (copyright 1990, Gaussian, Inc.),
 the Gaussian 88(TM) system (copyright 1988, Gaussian, Inc.),
 the Gaussian 86(TM) system (copyright 1986, Carnegie Mellon
 University), and the Gaussian 82(TM) system (copyright 1983,
 Carnegie Mellon University). Gaussian is a federally registered
 trademark of Gaussian, Inc.
  
 This software contains proprietary and confidential information,
 including trade secrets, belonging to Gaussian, Inc.
  
 This software is provided under written license and may be
 used, copied, transmitted, or stored only in accord with that
 written license.
  
 The following legend is applicable only to US Government
 contracts under FAR:
  
                    RESTRICTED RIGHTS LEGEND
  
 Use, reproduction and disclosure by the US Government is
 subject to restrictions as set forth in subparagraphs (a)
 and (c) of the Commercial Computer Software - Restricted
 Rights clause in FAR 52.227-19.
  
 Gaussian, Inc.
 340 Quinnipiac St., Bldg. 40, Wallingford CT 06492
  
  
 ---------------------------------------------------------------
 Warning -- This program may not be used in any manner that
 competes with the business of Gaussian, Inc. or will provide
 assistance to any competitor of Gaussian, Inc.  The licensee
 of this program is prohibited from giving any competitor of
 Gaussian, Inc. access to this program.  By using this program,
 the user acknowledges that Gaussian, Inc. is engaged in the
 business of creating and licensing software in the field of
 computational chemistry and represents and warrants to the
 licensee that it is not a competitor of Gaussian, Inc. and that
 it will not use this program in any manner prohibited above.
 ---------------------------------------------------------------
  

 Cite this work as:
 Gaussian 16, Revision B.01,
 M. J. Frisch, G. W. Trucks, H. B. Schlegel, G. E. Scuseria, 
 M. A. Robb, J. R. Cheeseman, G. Scalmani, V. Barone, 
 G. A. Petersson, H. Nakatsuji, X. Li, M. Caricato, A. V. Marenich, 
 J. Bloino, B. G. Janesko, R. Gomperts, B. Mennucci, H. P. Hratchian, 
 J. V. Ortiz, A. F. Izmaylov, J. L. Sonnenberg, D. Williams-Young, 
 F. Ding, F. Lipparini, F. Egidi, J. Goings, B. Peng, A. Petrone, 
 T. Henderson, D. Ranasinghe, V. G. Zakrzewski, J. Gao, N. Rega, 
 G. Zheng, W. Liang, M. Hada, M. Ehara, K. Toyota, R. Fukuda, 
 J. Hasegawa, M. Ishida, T. Nakajima, Y. Honda, O. Kitao, H. Nakai, 
 T. Vreven, K. Throssell, J. A. Montgomery, Jr., J. E. Peralta, 
 F. Ogliaro, M. J. Bearpark, J. J. Heyd, E. N. Brothers, K. N. Kudin, 
 V. N. Staroverov, T. A. Keith, R. Kobayashi, J. Normand, 
 K. Raghavachari, A. P. Rendell, J. C. Burant, S. S. Iyengar, 
 J. Tomasi, M. Cossi, J. M. Millam, M. Klene, C. Adamo, R. Cammi, 
 J. W. Ochterski, R. L. Martin, K. Morokuma, O. Farkas, 
 J. B. Foresman, and D. J. Fox, Gaussian, Inc., Wallingford CT, 2016.
 
 ******************************************
 Gaussian 16:  ES64L-G16RevB.01 20-Dec-2017
                28-Sep-2026 
 ******************************************
 %nprocshared=1
 Will use up to    1 processors via shared memory.
 %mem=1GB
 %chk=calcs/am1/chks/ClBz_1.chk
 -----------------
 # Opt AM1 SCF=XQC
 -----------------
 1/18=20,19=15,26=1,38=1/1,3;
 2/9=110,12=2,17=6,18=5,40=1/2;
 3/5=2,25=1,41=700000,71=1/1,2,3;
 4/35=1/1;
 5/5=2,8=3,13=1,35=1,38=5/2,8;
 6/7=2,8=2,9=2,10=2,28=1/1;
 7//1,2,3,16;
 1/18=20,19=15,26=1/3(2);
 2/9=110/2;
 99//99;
 2/9=110/2;
 3/5=2,25=1,41=700000,71=1,135=20/1,2,3;
 4/5=5,16=3,35=1/1;
 5/5=2,8=3,13=1,35=1,38=5/2,8;
 7//1,2,3,16;
 1/18=20,19=15,26=1/3(-5);
 2/9=110/2;
 6/7=2,8=2,9=2,10=2,19=2,28=1/1;
 99/9=1/99;
 ----------
 ClBz_1 am1
 ----------
 Symbolic Z-matrix:
 Charge =  0 Multiplicity = 1
 C                     0.        1.39      0. 
 C                     1.20378   0.695     0. 
 C                     1.20378  -0.695     0. 
 C                     0.       -1.39      0. 
 C                    -1.20378  -0.695     0. 
 C                    -1.20378   0.695     0. 
 Cl                    0.        3.13      0. 
 H                     2.13908   1.235     0. 
 H                     2.13908  -1.235     0. 
 H                     0.       -2.47      0. 
 H                    -2.13908  -1.235     0. 
 H                    -2.13908   1.235     0. 
 

 GradGradGradGradGradGradGradGradGradGradGradGradGradGradGradGradGradGrad
 Berny optimization.
 Initialization pass.
                           ----------------------------
                           !    Initial Parameters    !
                           ! (Angstroms and Degrees)  !
 --------------------------                            --------------------------
 ! Name  Definition              Value          Derivative Info.                !
 --------------------------------------------------------------------------------
 ! R1    R(1,2)                  1.39           estimate D2E/DX2                !
 ! R2    R(1,6)                  1.39           estimate D2E/DX2                !
 ! R3    R(1,7)                  1.74           estimate D2E/DX2                !
 ! R4    R(2,3)                  1.39           estimate D2E/DX2                !
 ! R5    R(2,8)                  1.08           estimate D2E/DX2                !
 ! R6    R(3,4)                  1.39           estimate D2E/DX2                !
 ! R7    R(3,9)                  1.08           estimate D2E/DX2                !
 ! R8    R(4,5)                  1.39           estimate D2E/DX2                !
 ! R9    R(4,10)                 1.08           estimate D2E/DX2                !
 ! R10   R(5,6)                  1.39           estimate D2E/DX2                !
 ! R11   R(5,11)                 1.08           estimate D2E/DX2                !
 ! R12   R(6,12)                 1.08           estimate D2E/DX2                !
 ! A1    A(2,1,6)              120.0            estimate D2E/DX2                !
 ! A2    A(2,1,7)              120.0            estimate D2E/DX2                !
 ! A3    A(6,1,7)              120.0            estimate D2E/DX2                !
 ! A4    A(1,2,3)              120.0            estimate D2E/DX2                !
 ! A5    A(1,2,8)              120.0            estimate D2E/DX2                !
 ! A6    A(3,2,8)              120.0            estimate D2E/DX2                !
 ! A7    A(2,3,4)              120.0            estimate D2E/DX2                !
 ! A8    A(2,3,9)              120.0            estimate D2E/DX2                !
 ! A9    A(4,3,9)              120.0            estimate D2E/DX2                !
 ! A10   A(3,4,5)              120.0            estimate D2E/DX2                !
 ! A11   A(3,4,10)             120.0            estimate D2E/DX2                !
 ! A12   A(5,4,10)             120.0            estimate D2E/DX2                !
 ! A13   A(4,5,6)              120.0            estimate D2E/DX2                !
 ! A14   A(4,5,11)             120.0            estimate D2E/DX2                !
 ! A15   A(6,5,11)             120.0            estimate D2E/DX2                !
 ! A16   A(1,6,5)              120.0            estimate D2E/DX2                !
 ! A17   A(1,6,12)             120.0            estimate D2E/DX2                !
 ! A18   A(5,6,12)             120.0            estimate D2E/DX2                !
 ! D1    D(6,1,2,3)              0.0            estimate D2E/DX2                !
 ! D2    D(6,1,2,8)            180.0            estimate D2E/DX2                !
 ! D3    D(7,1,2,3)            180.0            estimate D2E/DX2                !
 ! D4    D(7,1,2,8)              0.0            estimate D2E/DX2                !
 ! D5    D(2,1,6,5)              0.0            estimate D2E/DX2                !
 ! D6    D(2,1,6,12)           180.0            estimate D2E/DX2                !
 ! D7    D(7,1,6,5)            180.0            estimate D2E/DX2                !
 ! D8    D(7,1,6,12)             0.0            estimate D2E/DX2                !
 ! D9    D(1,2,3,4)              0.0            estimate D2E/DX2                !
 ! D10   D(1,2,3,9)            180.0            estimate D2E/DX2                !
 ! D11   D(8,2,3,4)            180.0            estimate D2E/DX2                !
 ! D12   D(8,2,3,9)              0.0            estimate D2E/DX2                !
 ! D13   D(2,3,4,5)              0.0            estimate D2E/DX2                !
 ! D14   D(2,3,4,10)           180.0            estimate D2E/DX2                !
 ! D15   D(9,3,4,5)            180.0            estimate D2E/DX2                !
 ! D16   D(9,3,4,10)             0.0            estimate D2E/DX2                !
 ! D17   D(3,4,5,6)              0.0            estimate D2E/DX2                !
 ! D18   D(3,4,5,11)           180.0            estimate D2E/DX2                !
 ! D19   D(10,4,5,6)           180.0            estimate D2E/DX2                !
 ! D20   D(10,4,5,11)            0.0            estimate D2E/DX2                !
 ! D21   D(4,5,6,1)              0.0            estimate D2E/DX2                !
 ! D22   D(4,5,6,12)           180.0            estimate D2E/DX2                !
 ! D23   D(11,5,6,1)           180.0            estimate D2E/DX2                !
 ! D24   D(11,5,6,12)            0.0            estimate D2E/DX2                !
 --------------------------------------------------------------------------------
 Trust Radius=3.00D-01 FncErr=1.00D-07 GrdErr=1.00D-07 EigMax=2.50D+02 EigMin=1.00D-04
 Number of steps in this run=     64 maximum allowed number of steps=    100.
 GradGradGradGradGradGradGradGradGradGradGradGradGradGradGradGradGradGrad

                          Input orientation:                          
 ---------------------------------------------------------------------
 Center     Atomic      Atomic             Coordinates (Angstroms)
 Number     Number       Type             X           Y           Z
 ---------------------------------------------------------------------
      1          6           0        0.000000    1.390000    0.000000
      2          6           0        1.203775    0.695000    0.000000
      3          6           0        1.203775   -0.695000    0.000000
      4          6           0        0.000000   -1.390000    0.000000
      5          6           0       -1.203775   -0.695000    0.000000
      6          6           0       -1.203775    0.695000    0.000000
      7         17           0        0.000000    3.130000    0.000000
      8          1           0        2.139083    1.235000    0.000000
      9          1           0        2.139083   -1.235000    0.000000
     10          1           0        0.000000   -2.470000    0.000000
     11          1           0       -2.139083   -1.235000    0.000000
     12          1           0       -2.139083    1.235000    0.000000
 ---------------------------------------------------------------------
                    Distance matrix (angstroms):
                    1          2          3          4          5
     1  C    0.000000
     2  C    1.390000   0.000000
     3  C    2.407551   1.390000   0.000000
     4  C    2.780000   2.407551   1.390000   0.000000
     5  C    2.407551   2.780000   2.407551   1.390000   0.000000
     6  C    1.390000   2.407551   2.780000   2.407551   1.390000
     7  Cl   1.740000   2.716303   4.009950   4.520000   4.009950
     8  H    2.144691   1.080000   2.144691   3.386193   3.860000
     9  H    3.386193   2.144691   1.080000   2.144691   3.386193
    10  H    3.860000   3.386193   2.144691   1.080000   2.144691
    11  H    3.386193   3.860000   3.386193   2.144691   1.080000
    12  H    2.144691   3.386193   3.860000   3.386193   2.144691
                    6          7          8          9         10
     6  C    0.000000
     7  Cl   2.716303   0.000000
     8  H    3.386193   2.857744   0.000000
     9  H    3.860000   4.860957   2.470000   0.000000
    10  H    3.386193   5.600000   4.278165   2.470000   0.000000
    11  H    2.144691   4.860957   4.940000   4.278166   2.470000
    12  H    1.080000   2.857744   4.278166   4.940000   4.278165
                   11         12
    11  H    0.000000
    12  H    2.470000   0.000000
 Stoichiometry    C6H5Cl
 Framework group  C2V[C2(HCCCl),SGV(C4H4)]
 Deg. of freedom    11
 Full point group                 C2V     NOp   4
 Largest Abelian subgroup         C2V     NOp   4
 Largest concise Abelian subgroup C2      NOp   2
                         Standard orientation:                         
 ---------------------------------------------------------------------
 Center     Atomic      Atomic             Coordinates (Angstroms)
 Number     Number       Type             X           Y           Z
 ---------------------------------------------------------------------
      1          6           0       -0.000000   -0.000000    0.515172
      2          6           0       -0.000000    1.203775   -0.179828
      3          6           0       -0.000000    1.203775   -1.569828
      4          6           0        0.000000    0.000000   -2.264828
      5          6           0       -0.000000   -1.203775   -1.569828
      6          6           0       -0.000000   -1.203775   -0.179828
      7         17           0       -0.000000   -0.000000    2.255172
      8          1           0       -0.000000    2.139083    0.360172
      9          1           0       -0.000000    2.139083   -2.109828
     10          1           0        0.000000    0.000000   -3.344828
     11          1           0       -0.000000   -2.139083   -2.109828
     12          1           0       -0.000000   -2.139083    0.360172
 ---------------------------------------------------------------------
 Rotational constants (GHZ):           5.7428441           1.5680701           1.2317450
 Standard basis: VSTO-6G (5D, 7F)
 There are    15 symmetry adapted cartesian basis functions of A1  symmetry.
 There are     2 symmetry adapted cartesian basis functions of A2  symmetry.
 There are     5 symmetry adapted cartesian basis functions of B1  symmetry.
 There are    11 symmetry adapted cartesian basis functions of B2  symmetry.
 There are    15 symmetry adapted basis functions of A1  symmetry.
 There are     2 symmetry adapted basis functions of A2  symmetry.
 There are     5 symmetry adapted basis functions of B1  symmetry.
 There are    11 symmetry adapted basis functions of B2  symmetry.
    33 basis functions,   198 primitive gaussians,    33 cartesian basis functions
    18 alpha electrons       18 beta electrons
       nuclear repulsion energy       160.1024266048 Hartrees.
 Integral buffers will be    131072 words long.
 Regular integral format.
 Two-electron integral symmetry is turned off.
 Do NDO integrals.
 One-electron integrals computed using PRISM.
 NBasis=    33 RedAO= T EigKep=  1.00D+00  NBF=    15     2     5    11
 NBsUse=    33 1.00D-06 EigRej= -1.00D+00 NBFU=    15     2     5    11
 Simple Huckel Guess.
 Initial guess orbital symmetries:
       Occupied  (A1) (B2) (A1) (A1) (B2) (A1) (A1) (A1) (B2) (B1)
                 (B2) (A1) (B2) (B1) (A1) (A2) (B2) (B1)
       Virtual   (A2) (B1) (B1) (A1) (B2) (A1) (B2) (A1) (B2) (A1)
                 (A1) (B2) (A1) (B2) (A1)
 The electronic state of the initial guess is 1-A1.
 Keep J ints in memory in canonical form, NReq=862182.
 Overlap will be assumed to be unity.
 Requested convergence on RMS density matrix=1.00D-08 within  32 cycles.
 Requested convergence on MAX density matrix=1.00D-06.
 Requested convergence on             energy=1.00D-06.
 No special actions if energy rises.
 Fock symm off for IB=2 I1=    1 I=   16 J=   13 Cut=1.00D-07 Err=1.87D-03
 Fock matrix is not symmetric: symmetry in diagonalization turned off.
 SCF Done:  E(RAM1) =  0.261016278353E-01 A.U. after   12 cycles
            NFock= 11  Conv=0.75D-08     -V/T= 1.0004
 QCSCF skips out because SCF is already converged.

 **********************************************************************

            Population analysis using the SCF Density.

 **********************************************************************

 Orbital symmetries:
       Occupied  (A1) (A1) (B2) (A1) (B2) (A1) (A1) (A1) (B2) (A1)
                 (B2) (B1) (B2) (A1) (B1) (B2) (A2) (B1)
       Virtual   (B1) (A2) (A1) (B1) (B2) (A1) (A1) (A1) (B2) (A1)
                 (B2) (B2) (A1) (B2) (A1)
 The electronic state is 1-A1.
 Alpha  occ. eigenvalues --   -1.46450  -1.37002  -1.17443  -1.15828  -0.87066
 Alpha  occ. eigenvalues --   -0.86140  -0.67665  -0.61179  -0.59326  -0.54753
 Alpha  occ. eigenvalues --   -0.53532  -0.52803  -0.46146  -0.45967  -0.45646
 Alpha  occ. eigenvalues --   -0.43156  -0.36881  -0.35600
 Alpha virt. eigenvalues --    0.00490   0.00827   0.04424   0.09570   0.13825
 Alpha virt. eigenvalues --    0.13973   0.14646   0.15576   0.15900   0.16989
 Alpha virt. eigenvalues --    0.17825   0.19102   0.19226   0.19771   0.21056
          Condensed to atoms (all electrons):
               1          2          3          4          5          6
     1  C    4.049618   0.000000   0.000000   0.000000   0.000000   0.000000
     2  C    0.000000   4.121002   0.000000   0.000000   0.000000   0.000000
     3  C    0.000000   0.000000   4.119857   0.000000   0.000000   0.000000
     4  C    0.000000   0.000000   0.000000   4.127597   0.000000   0.000000
     5  C    0.000000   0.000000   0.000000   0.000000   4.119857   0.000000
     6  C    0.000000   0.000000   0.000000   0.000000   0.000000   4.121002
     7  Cl   0.000000   0.000000   0.000000   0.000000   0.000000   0.000000
     8  H    0.000000   0.000000   0.000000   0.000000   0.000000   0.000000
     9  H    0.000000   0.000000   0.000000   0.000000   0.000000   0.000000
    10  H    0.000000   0.000000   0.000000   0.000000   0.000000   0.000000
    11  H    0.000000   0.000000   0.000000   0.000000   0.000000   0.000000
    12  H    0.000000   0.000000   0.000000   0.000000   0.000000   0.000000
               7          8          9         10         11         12
     1  C    0.000000   0.000000   0.000000   0.000000   0.000000   0.000000
     2  C    0.000000   0.000000   0.000000   0.000000   0.000000   0.000000
     3  C    0.000000   0.000000   0.000000   0.000000   0.000000   0.000000
     4  C    0.000000   0.000000   0.000000   0.000000   0.000000   0.000000
     5  C    0.000000   0.000000   0.000000   0.000000   0.000000   0.000000
     6  C    0.000000   0.000000   0.000000   0.000000   0.000000   0.000000
     7  Cl   7.034134   0.000000   0.000000   0.000000   0.000000   0.000000
     8  H    0.000000   0.856622   0.000000   0.000000   0.000000   0.000000
     9  H    0.000000   0.000000   0.863674   0.000000   0.000000   0.000000
    10  H    0.000000   0.000000   0.000000   0.866342   0.000000   0.000000
    11  H    0.000000   0.000000   0.000000   0.000000   0.863674   0.000000
    12  H    0.000000   0.000000   0.000000   0.000000   0.000000   0.856622
 Mulliken charges:
               1
     1  C   -0.049618
     2  C   -0.121002
     3  C   -0.119857
     4  C   -0.127597
     5  C   -0.119857
     6  C   -0.121002
     7  Cl  -0.034134
     8  H    0.143378
     9  H    0.136326
    10  H    0.133658
    11  H    0.136326
    12  H    0.143378
 Sum of Mulliken charges =   0.00000
 Mulliken charges with hydrogens summed into heavy atoms:
               1
     1  C   -0.049618
     2  C    0.022376
     3  C    0.016469
     4  C    0.006061
     5  C    0.016469
     6  C    0.022376
     7  Cl  -0.034134
 Charge=              0.0000 electrons
 Dipole moment (field-independent basis, Debye):
    X=             -0.0000    Y=              0.0000    Z=             -1.4386  Tot=              1.4386
 N-N= 1.601024266048D+02 E-N=-2.245702769382D+02  KE=-6.973070830818D+01
 Symmetry A1   KE=-3.338797614086D+01
 Symmetry A2   KE=-3.017174940766D+00
 Symmetry B1   KE=-1.183032229128D+01
 Symmetry B2   KE=-2.149523493527D+01
 Calling FoFJK, ICntrl=      2127 FMM=F ISym2X=1 I1Cent= 0 IOpClX= 0 NMat=1 NMatS=1 NMatT=0.
 ***** Axes restored to original set *****
 -------------------------------------------------------------------
 Center     Atomic                   Forces (Hartrees/Bohr)
 Number     Number              X              Y              Z
 -------------------------------------------------------------------
      1        6          -0.000000000    0.021742829   -0.000000000
      2        6           0.000379049    0.000909748   -0.000000000
      3        6          -0.006609970    0.003563791    0.000000000
      4        6          -0.000000000    0.004433917   -0.000000000
      5        6           0.006609970    0.003563791    0.000000000
      6        6          -0.000379049    0.000909748    0.000000000
      7       17          -0.000000000   -0.021564043   -0.000000000
      8        1           0.013662751    0.007439625    0.000000000
      9        1           0.012978933   -0.006824783    0.000000000
     10        1          -0.000000000   -0.014789463   -0.000000000
     11        1          -0.012978933   -0.006824783    0.000000000
     12        1          -0.013662751    0.007439625    0.000000000
 -------------------------------------------------------------------
 Cartesian Forces:  Max     0.021742829 RMS     0.007826188

 GradGradGradGradGradGradGradGradGradGradGradGradGradGradGradGradGradGrad
 Berny optimization.
 FormGI is forming the generalized inverse of G from B-inverse, IUseBI=4.
 Internal  Forces:  Max     0.021564043 RMS     0.006453469
 Search for a local minimum.
 Step number   1 out of a maximum of   64
 All quantities printed in internal units (Hartrees-Bohrs-Radians)
 Mixed Optimization -- RFO/linear search
 Second derivative matrix not updated -- first step.
 ITU=  0
     Eigenvalues ---    0.02221   0.02221   0.02221   0.02221   0.02221
     Eigenvalues ---    0.02221   0.02221   0.02221   0.02221   0.16000
     Eigenvalues ---    0.16000   0.16000   0.16000   0.16000   0.22000
     Eigenvalues ---    0.22000   0.23486   0.25000   0.31476   0.35994
     Eigenvalues ---    0.35994   0.35994   0.35994   0.35994   0.42797
     Eigenvalues ---    0.42990   0.47319   0.47319   0.47319   0.47319
 RFO step:  Lambda=-6.10563514D-03 EMin= 2.22103665D-02
 Linear search not attempted -- first point.
 Iteration  1 RMS(Cart)=  0.02350012 RMS(Int)=  0.00005457
 Iteration  2 RMS(Cart)=  0.00006528 RMS(Int)=  0.00000850
 Iteration  3 RMS(Cart)=  0.00000001 RMS(Int)=  0.00000850
 ClnCor:  largest displacement from symmetrization is 4.16D-11 for atom     7.
 Variable       Old X    -DE/DX   Delta X   Delta X   Delta X     New X
                                 (Linear)    (Quad)   (Total)
    R1        2.62672   0.00983   0.00000   0.02066   0.02067   2.64739
    R2        2.62672   0.00983   0.00000   0.02066   0.02067   2.64739
    R3        3.28812  -0.02156   0.00000  -0.06720  -0.06720   3.22092
    R4        2.62672   0.00844   0.00000   0.01761   0.01761   2.64433
    R5        2.04090   0.01555   0.00000   0.04249   0.04249   2.08339
    R6        2.62672   0.01048   0.00000   0.02172   0.02170   2.64842
    R7        2.04090   0.01465   0.00000   0.04003   0.04003   2.08093
    R8        2.62672   0.01048   0.00000   0.02172   0.02170   2.64842
    R9        2.04090   0.01479   0.00000   0.04040   0.04040   2.08131
   R10        2.62672   0.00844   0.00000   0.01761   0.01761   2.64433
   R11        2.04090   0.01465   0.00000   0.04003   0.04003   2.08093
   R12        2.04090   0.01555   0.00000   0.04249   0.04249   2.08339
    A1        2.09440   0.00562   0.00000   0.02295   0.02298   2.11737
    A2        2.09440  -0.00281   0.00000  -0.01148  -0.01149   2.08291
    A3        2.09440  -0.00281   0.00000  -0.01148  -0.01149   2.08291
    A4        2.09440  -0.00387   0.00000  -0.01631  -0.01630   2.07810
    A5        2.09440   0.00233   0.00000   0.01054   0.01053   2.10493
    A6        2.09440   0.00154   0.00000   0.00577   0.00576   2.10016
    A7        2.09440   0.00080   0.00000   0.00372   0.00371   2.09811
    A8        2.09440  -0.00099   0.00000  -0.00542  -0.00541   2.08898
    A9        2.09440   0.00019   0.00000   0.00170   0.00170   2.09610
   A10        2.09440   0.00053   0.00000   0.00222   0.00219   2.09659
   A11        2.09440  -0.00026   0.00000  -0.00111  -0.00110   2.09330
   A12        2.09440  -0.00026   0.00000  -0.00111  -0.00110   2.09330
   A13        2.09440   0.00080   0.00000   0.00372   0.00371   2.09811
   A14        2.09440   0.00019   0.00000   0.00170   0.00170   2.09610
   A15        2.09440  -0.00099   0.00000  -0.00542  -0.00541   2.08898
   A16        2.09440  -0.00387   0.00000  -0.01631  -0.01630   2.07810
   A17        2.09440   0.00233   0.00000   0.01054   0.01053   2.10493
   A18        2.09440   0.00154   0.00000   0.00577   0.00576   2.10016
    D1       -0.00000   0.00000   0.00000   0.00000   0.00000   0.00000
    D2        3.14159   0.00000   0.00000   0.00000   0.00000   3.14159
    D3        3.14159   0.00000   0.00000   0.00000   0.00000   3.14159
    D4        0.00000   0.00000   0.00000   0.00000  -0.00000   0.00000
    D5        0.00000  -0.00000   0.00000  -0.00000   0.00000   0.00000
    D6        3.14159  -0.00000   0.00000  -0.00000   0.00000   3.14159
    D7        3.14159  -0.00000   0.00000  -0.00000   0.00000   3.14159
    D8       -0.00000  -0.00000   0.00000  -0.00000   0.00000   0.00000
    D9        0.00000   0.00000   0.00000   0.00000  -0.00000   0.00000
   D10        3.14159  -0.00000   0.00000  -0.00000   0.00000   3.14159
   D11        3.14159   0.00000   0.00000  -0.00000   0.00000   3.14159
   D12       -0.00000  -0.00000   0.00000  -0.00000   0.00000   0.00000
   D13        0.00000  -0.00000   0.00000  -0.00000   0.00000   0.00000
   D14        3.14159  -0.00000   0.00000  -0.00000   0.00000   3.14159
   D15        3.14159  -0.00000   0.00000  -0.00000   0.00000   3.14159
   D16       -0.00000  -0.00000   0.00000  -0.00000   0.00000   0.00000
   D17       -0.00000   0.00000   0.00000   0.00000   0.00000   0.00000
   D18        3.14159   0.00000   0.00000   0.00000   0.00000   3.14159
   D19        3.14159   0.00000   0.00000   0.00000   0.00000   3.14159
   D20        0.00000  -0.00000   0.00000  -0.00000   0.00000   0.00000
   D21       -0.00000  -0.00000   0.00000  -0.00000   0.00000   0.00000
   D22        3.14159  -0.00000   0.00000  -0.00000   0.00000   3.14159
   D23        3.14159   0.00000   0.00000   0.00000   0.00000   3.14159
   D24        0.00000   0.00000   0.00000   0.00000  -0.00000   0.00000
         Item               Value     Threshold  Converged?
 Maximum Force            0.021564     0.000450     NO 
 RMS     Force            0.006453     0.000300     NO 
 Maximum Displacement     0.068757     0.001800     NO 
 RMS     Displacement     0.023512     0.001200     NO 
 Predicted change in Energy=-3.104972D-03
 GradGradGradGradGradGradGradGradGradGradGradGradGradGradGradGradGradGrad

                          Input orientation:                          
 ---------------------------------------------------------------------
 Center     Atomic      Atomic             Coordinates (Angstroms)
 Number     Number       Type             X           Y           Z
 ---------------------------------------------------------------------
      1          6           0        0.000000    1.392679   -0.000000
      2          6           0        1.221215    0.706194    0.000000
      3          6           0        1.214489   -0.693107    0.000000
      4          6           0       -0.000000   -1.392519    0.000000
      5          6           0       -1.214489   -0.693107   -0.000000
      6          6           0       -1.221215    0.706194   -0.000000
      7         17           0        0.000000    3.097115   -0.000000
      8          1           0        2.175467    1.258346    0.000000
      9          1           0        2.168474   -1.243121    0.000000
     10          1           0       -0.000000   -2.493899    0.000000
     11          1           0       -2.168474   -1.243121   -0.000000
     12          1           0       -2.175467    1.258346   -0.000000
 ---------------------------------------------------------------------
                    Distance matrix (angstroms):
                    1          2          3          4          5
     1  C    0.000000
     2  C    1.400939   0.000000
     3  C    2.413605   1.399317   0.000000
     4  C    2.785197   2.428160   1.401485   0.000000
     5  C    2.413605   2.809039   2.428978   1.401485   0.000000
     6  C    1.400939   2.442431   2.809039   2.428160   1.399317
     7  Cl   1.704437   2.684748   3.980047   4.489634   3.980047
     8  H    2.179611   1.102483   2.175235   3.429248   3.911518
     9  H    3.413169   2.167285   1.101182   2.173615   3.427383
    10  H    3.886578   3.425195   2.172058   1.101380   2.172058
    11  H    3.413169   3.910220   3.427383   2.173615   1.101182
    12  H    2.179611   3.441268   3.911518   3.429248   2.175235
                    6          7          8          9         10
     6  C    0.000000
     7  Cl   2.684748   0.000000
     8  H    3.441268   2.848461   0.000000
     9  H    3.910220   4.851797   2.501476   0.000000
    10  H    3.425195   5.591014   4.337280   2.503343   0.000000
    11  H    2.167285   4.851797   5.012700   4.336949   2.503343
    12  H    1.102483   2.848461   4.350934   5.012700   4.337280
                   11         12
    11  H    0.000000
    12  H    2.501476   0.000000
 Stoichiometry    C6H5Cl
 Framework group  C2V[C2(HCCCl),SGV(C4H4)]
 Deg. of freedom    11
 Full point group                 C2V     NOp   4
 Largest Abelian subgroup         C2V     NOp   4
 Largest concise Abelian subgroup C2      NOp   2
                         Standard orientation:                         
 ---------------------------------------------------------------------
 Center     Atomic      Atomic             Coordinates (Angstroms)
 Number     Number       Type             X           Y           Z
 ---------------------------------------------------------------------
      1          6           0       -0.000000   -0.000000    0.524653
      2          6           0        0.000000    1.221215   -0.161832
      3          6           0        0.000000    1.214489   -1.561133
      4          6           0        0.000000    0.000000   -2.260545
      5          6           0       -0.000000   -1.214489   -1.561133
      6          6           0       -0.000000   -1.221215   -0.161832
      7         17           0       -0.000000   -0.000000    2.229089
      8          1           0        0.000000    2.175467    0.390320
      9          1           0        0.000000    2.168474   -2.111147
     10          1           0        0.000000    0.000000   -3.361925
     11          1           0       -0.000000   -2.168474   -2.111147
     12          1           0       -0.000000   -2.175467    0.390320
 ---------------------------------------------------------------------
 Rotational constants (GHZ):           5.6022525           1.5918891           1.2396426
 Standard basis: VSTO-6G (5D, 7F)
 There are    15 symmetry adapted cartesian basis functions of A1  symmetry.
 There are     2 symmetry adapted cartesian basis functions of A2  symmetry.
 There are     5 symmetry adapted cartesian basis functions of B1  symmetry.
 There are    11 symmetry adapted cartesian basis functions of B2  symmetry.
 There are    15 symmetry adapted basis functions of A1  symmetry.
 There are     2 symmetry adapted basis functions of A2  symmetry.
 There are     5 symmetry adapted basis functions of B1  symmetry.
 There are    11 symmetry adapted basis functions of B2  symmetry.
    33 basis functions,   198 primitive gaussians,    33 cartesian basis functions
    18 alpha electrons       18 beta electrons
       nuclear repulsion energy       159.7621951930 Hartrees.
 Integral buffers will be    131072 words long.
 Regular integral format.
 Two-electron integral symmetry is turned off.
 Do NDO integrals.
 One-electron integrals computed using PRISM.
 NBasis=    33 RedAO= T EigKep=  1.00D+00  NBF=    15     2     5    11
 NBsUse=    33 1.00D-06 EigRej= -1.00D+00 NBFU=    15     2     5    11
 Initial guess from the checkpoint file:  "calcs/am1/chks/ClBz_1.chk"
 B after Tr=    -0.000000    0.000000   -0.000000
         Rot=    1.000000   -0.000000   -0.000000    0.000000 Ang=   0.00 deg.
 Initial guess orbital symmetries:
       Occupied  (A1) (A1) (B2) (A1) (B2) (A1) (A1) (A1) (B2) (A1)
                 (B2) (B1) (B2) (A1) (B1) (B2) (A2) (B1)
       Virtual   (B1) (A2) (A1) (B1) (B2) (A1) (A1) (A1) (B2) (A1)
                 (B2) (B2) (A1) (B2) (A1)
 Keep J ints in memory in canonical form, NReq=862182.
 Overlap will be assumed to be unity.
 Requested convergence on RMS density matrix=1.00D-08 within  32 cycles.
 Requested convergence on MAX density matrix=1.00D-06.
 Requested convergence on             energy=1.00D-06.
 No special actions if energy rises.
 Fock symm off for IB=2 I1=    1 I=   16 J=   13 Cut=1.00D-07 Err=1.23D-03
 Fock matrix is not symmetric: symmetry in diagonalization turned off.
 SCF Done:  E(RAM1) =  0.236868096652E-01 A.U. after   10 cycles
            NFock=  9  Conv=0.81D-08     -V/T= 1.0003
 QCSCF skips out because SCF is already converged.
 Calling FoFJK, ICntrl=      2127 FMM=F ISym2X=1 I1Cent= 0 IOpClX= 0 NMat=1 NMatS=1 NMatT=0.
 ***** Axes restored to original set *****
 -------------------------------------------------------------------
 Center     Atomic                   Forces (Hartrees/Bohr)
 Number     Number              X              Y              Z
 -------------------------------------------------------------------
      1        6           0.000000000   -0.000124906   -0.000000000
      2        6          -0.003641367   -0.005277044    0.000000000
      3        6          -0.006936410    0.002025686    0.000000000
      4        6          -0.000000000    0.007278023   -0.000000000
      5        6           0.006936410    0.002025686   -0.000000000
      6        6           0.003641367   -0.005277044    0.000000000
      7       17           0.000000000   -0.001368655   -0.000000000
      8        1          -0.001854881   -0.000946494    0.000000000
      9        1          -0.001166272    0.000533598    0.000000000
     10        1           0.000000000    0.001544047    0.000000000
     11        1           0.001166272    0.000533598    0.000000000
     12        1           0.001854881   -0.000946494    0.000000000
 -------------------------------------------------------------------
 Cartesian Forces:  Max     0.007278023 RMS     0.002665901

 GradGradGradGradGradGradGradGradGradGradGradGradGradGradGradGradGradGrad
 Berny optimization.
 Using GEDIIS/GDIIS optimizer.
 FormGI is forming the generalized inverse of G from B-inverse, IUseBI=4.
 Internal  Forces:  Max     0.009311755 RMS     0.002553335
 Search for a local minimum.
 Step number   2 out of a maximum of   64
 All quantities printed in internal units (Hartrees-Bohrs-Radians)
 Mixed Optimization -- RFO/linear search
 Update second derivatives using D2CorX and points    1    2
 DE= -2.41D-03 DEPred=-3.10D-03 R= 7.78D-01
 TightC=F SS=  1.41D+00  RLast= 1.31D-01 DXNew= 5.0454D-01 3.9220D-01
 Trust test= 7.78D-01 RLast= 1.31D-01 DXMaxT set to 3.92D-01
 ITU=  1  0
 Use linear search instead of GDIIS.
     Eigenvalues ---    0.02221   0.02221   0.02221   0.02221   0.02221
     Eigenvalues ---    0.02221   0.02221   0.02221   0.02221   0.16000
     Eigenvalues ---    0.16000   0.16000   0.16000   0.16006   0.21957
     Eigenvalues ---    0.22000   0.23851   0.25000   0.28412   0.35040
     Eigenvalues ---    0.35994   0.35994   0.35994   0.36025   0.42910
     Eigenvalues ---    0.43122   0.47311   0.47319   0.47319   0.64725
 RFO step:  Lambda=-3.62285853D-04 EMin= 2.22103665D-02
 Quartic linear search produced a step of -0.17049.
 Iteration  1 RMS(Cart)=  0.00621997 RMS(Int)=  0.00000536
 Iteration  2 RMS(Cart)=  0.00000554 RMS(Int)=  0.00000210
 Iteration  3 RMS(Cart)=  0.00000000 RMS(Int)=  0.00000210
 ClnCor:  largest displacement from symmetrization is 1.33D-12 for atom     7.
 Variable       Old X    -DE/DX   Delta X   Delta X   Delta X     New X
                                 (Linear)    (Quad)   (Total)
    R1        2.64739  -0.00507  -0.00352  -0.00382  -0.00734   2.64005
    R2        2.64739  -0.00507  -0.00352  -0.00382  -0.00734   2.64005
    R3        3.22092  -0.00137   0.01146  -0.01901  -0.00756   3.21336
    R4        2.64433  -0.00697  -0.00300  -0.00817  -0.01117   2.63315
    R5        2.08339  -0.00208  -0.00724   0.00496  -0.00229   2.08110
    R6        2.64842  -0.00931  -0.00370  -0.01165  -0.01534   2.63308
    R7        2.08093  -0.00128  -0.00682   0.00624  -0.00058   2.08035
    R8        2.64842  -0.00931  -0.00370  -0.01165  -0.01534   2.63308
    R9        2.08131  -0.00154  -0.00689   0.00571  -0.00118   2.08013
   R10        2.64433  -0.00697  -0.00300  -0.00817  -0.01117   2.63315
   R11        2.08093  -0.00128  -0.00682   0.00624  -0.00058   2.08035
   R12        2.08339  -0.00208  -0.00724   0.00496  -0.00229   2.08110
    A1        2.11737  -0.00274  -0.00392  -0.00277  -0.00670   2.11068
    A2        2.08291   0.00137   0.00196   0.00139   0.00335   2.08625
    A3        2.08291   0.00137   0.00196   0.00139   0.00335   2.08625
    A4        2.07810   0.00070   0.00278  -0.00060   0.00218   2.08028
    A5        2.10493  -0.00046  -0.00180   0.00025  -0.00154   2.10339
    A6        2.10016  -0.00023  -0.00098   0.00034  -0.00064   2.09952
    A7        2.09811   0.00058  -0.00063   0.00217   0.00154   2.09965
    A8        2.08898  -0.00017   0.00092  -0.00125  -0.00033   2.08865
    A9        2.09610  -0.00042  -0.00029  -0.00092  -0.00121   2.09489
   A10        2.09659   0.00018  -0.00037  -0.00037  -0.00073   2.09585
   A11        2.09330  -0.00009   0.00019   0.00018   0.00037   2.09367
   A12        2.09330  -0.00009   0.00019   0.00018   0.00037   2.09367
   A13        2.09811   0.00058  -0.00063   0.00217   0.00154   2.09965
   A14        2.09610  -0.00042  -0.00029  -0.00092  -0.00121   2.09489
   A15        2.08898  -0.00017   0.00092  -0.00125  -0.00033   2.08865
   A16        2.07810   0.00070   0.00278  -0.00060   0.00218   2.08028
   A17        2.10493  -0.00046  -0.00180   0.00025  -0.00154   2.10339
   A18        2.10016  -0.00023  -0.00098   0.00034  -0.00064   2.09952
    D1       -0.00000   0.00000   0.00000   0.00000   0.00000   0.00000
    D2        3.14159   0.00000   0.00000   0.00000   0.00000   3.14159
    D3        3.14159  -0.00000   0.00000  -0.00000   0.00000   3.14159
    D4        0.00000   0.00000   0.00000   0.00000   0.00000   0.00000
    D5        0.00000  -0.00000   0.00000  -0.00000   0.00000   0.00000
    D6        3.14159  -0.00000   0.00000  -0.00000   0.00000   3.14159
    D7        3.14159  -0.00000   0.00000  -0.00000   0.00000   3.14159
    D8        0.00000  -0.00000   0.00000  -0.00000  -0.00000   0.00000
    D9        0.00000   0.00000   0.00000   0.00000  -0.00000   0.00000
   D10        3.14159   0.00000   0.00000   0.00000   0.00000   3.14159
   D11        3.14159   0.00000   0.00000   0.00000   0.00000   3.14159
   D12       -0.00000  -0.00000   0.00000  -0.00000   0.00000   0.00000
   D13        0.00000  -0.00000   0.00000  -0.00000   0.00000   0.00000
   D14        3.14159  -0.00000   0.00000  -0.00000   0.00000   3.14159
   D15        3.14159  -0.00000   0.00000  -0.00000   0.00000   3.14159
   D16        0.00000   0.00000   0.00000   0.00000  -0.00000   0.00000
   D17       -0.00000   0.00000   0.00000   0.00000   0.00000   0.00000
   D18        3.14159   0.00000   0.00000   0.00000   0.00000   3.14159
   D19        3.14159  -0.00000   0.00000  -0.00000   0.00000   3.14159
   D20        0.00000   0.00000   0.00000   0.00000  -0.00000   0.00000
   D21        0.00000   0.00000   0.00000   0.00000  -0.00000   0.00000
   D22        3.14159   0.00000   0.00000   0.00000   0.00000   3.14159
   D23        3.14159  -0.00000   0.00000  -0.00000   0.00000   3.14159
   D24       -0.00000  -0.00000   0.00000  -0.00000   0.00000   0.00000
         Item               Value     Threshold  Converged?
 Maximum Force            0.009312     0.000450     NO 
 RMS     Force            0.002553     0.000300     NO 
 Maximum Displacement     0.015159     0.001800     NO 
 RMS     Displacement     0.006222     0.001200     NO 
 Predicted change in Energy=-2.864076D-04
 GradGradGradGradGradGradGradGradGradGradGradGradGradGradGradGradGradGrad

                          Input orientation:                          
 ---------------------------------------------------------------------
 Center     Atomic      Atomic             Coordinates (Angstroms)
 Number     Number       Type             X           Y           Z
 ---------------------------------------------------------------------
      1          6           0        0.000000    1.391702   -0.000000
      2          6           0        1.215529    0.703048    0.000000
      3          6           0        1.207198   -0.690332    0.000000
      4          6           0       -0.000000   -1.386135    0.000000
      5          6           0       -1.207198   -0.690332   -0.000000
      6          6           0       -1.215529    0.703048   -0.000000
      7         17           0        0.000000    3.092141   -0.000000
      8          1           0        2.169730    1.252869    0.000000
      9          1           0        2.160453   -1.240993    0.000000
     10          1           0       -0.000000   -2.486892    0.000000
     11          1           0       -2.160453   -1.240993   -0.000000
     12          1           0       -2.169730    1.252869   -0.000000
 ---------------------------------------------------------------------
                    Distance matrix (angstroms):
                    1          2          3          4          5
     1  C    0.000000
     2  C    1.397053   0.000000
     3  C    2.406697   1.393404   0.000000
     4  C    2.777837   2.417063   1.393366   0.000000
     5  C    2.406697   2.794837   2.414396   1.393366   0.000000
     6  C    1.397053   2.431058   2.794837   2.417063   1.393404
     7  Cl   1.700439   2.680536   3.970444   4.478275   3.970444
     8  H    2.174167   1.101273   2.168524   3.416441   3.896109
     9  H    3.405678   2.161522   1.100874   2.165322   3.412374
    10  H    3.878594   3.413683   2.164476   1.100758   2.164476
    11  H    3.405678   3.895709   3.412374   2.165322   1.100874
    12  H    2.174167   3.429618   3.896109   3.416441   2.168524
                    6          7          8          9         10
     6  C    0.000000
     7  Cl   2.680536   0.000000
     8  H    3.429618   2.844406   0.000000
     9  H    3.895709   4.841860   2.493880   0.000000
    10  H    3.413683   5.579033   4.323603   2.493957   0.000000
    11  H    2.161522   4.841860   4.996982   4.320905   2.493957
    12  H    1.101273   2.844406   4.339459   4.996982   4.323603
                   11         12
    11  H    0.000000
    12  H    2.493880   0.000000
 Stoichiometry    C6H5Cl
 Framework group  C2V[C2(HCCCl),SGV(C4H4)]
 Deg. of freedom    11
 Full point group                 C2V     NOp   4
 Largest Abelian subgroup         C2V     NOp   4
 Largest concise Abelian subgroup C2      NOp   2
                         Standard orientation:                         
 ---------------------------------------------------------------------
 Center     Atomic      Atomic             Coordinates (Angstroms)
 Number     Number       Type             X           Y           Z
 ---------------------------------------------------------------------
      1          6           0       -0.000000   -0.000000    0.524646
      2          6           0        0.000000    1.215529   -0.164008
      3          6           0        0.000000    1.207198   -1.557388
      4          6           0        0.000000    0.000000   -2.253191
      5          6           0       -0.000000   -1.207198   -1.557388
      6          6           0       -0.000000   -1.215529   -0.164008
      7         17           0       -0.000000   -0.000000    2.225085
      8          1           0        0.000000    2.169730    0.385813
      9          1           0        0.000000    2.160453   -2.108049
     10          1           0        0.000000    0.000000   -3.353949
     11          1           0       -0.000000   -2.160453   -2.108049
     12          1           0       -0.000000   -2.169730    0.385813
 ---------------------------------------------------------------------
 Rotational constants (GHZ):           5.6572237           1.5987958           1.2465161
 Standard basis: VSTO-6G (5D, 7F)
 There are    15 symmetry adapted cartesian basis functions of A1  symmetry.
 There are     2 symmetry adapted cartesian basis functions of A2  symmetry.
 There are     5 symmetry adapted cartesian basis functions of B1  symmetry.
 There are    11 symmetry adapted cartesian basis functions of B2  symmetry.
 There are    15 symmetry adapted basis functions of A1  symmetry.
 There are     2 symmetry adapted basis functions of A2  symmetry.
 There are     5 symmetry adapted basis functions of B1  symmetry.
 There are    11 symmetry adapted basis functions of B2  symmetry.
    33 basis functions,   198 primitive gaussians,    33 cartesian basis functions
    18 alpha electrons       18 beta electrons
       nuclear repulsion energy       160.0695333504 Hartrees.
 Integral buffers will be    131072 words long.
 Regular integral format.
 Two-electron integral symmetry is turned off.
 Do NDO integrals.
 One-electron integrals computed using PRISM.
 NBasis=    33 RedAO= T EigKep=  1.00D+00  NBF=    15     2     5    11
 NBsUse=    33 1.00D-06 EigRej= -1.00D+00 NBFU=    15     2     5    11
 Initial guess from the checkpoint file:  "calcs/am1/chks/ClBz_1.chk"
 B after Tr=     0.000000    0.000000    0.000000
         Rot=    1.000000    0.000000    0.000000    0.000000 Ang=   0.00 deg.
 Initial guess orbital symmetries:
       Occupied  (A1) (A1) (B2) (A1) (B2) (A1) (A1) (A1) (B2) (A1)
                 (B2) (B1) (B2) (A1) (B1) (B2) (A2) (B1)
       Virtual   (B1) (A2) (A1) (B1) (A1) (B2) (A1) (A1) (B2) (A1)
                 (B2) (B2) (A1) (B2) (A1)
 Keep J ints in memory in canonical form, NReq=862182.
 Overlap will be assumed to be unity.
 Requested convergence on RMS density matrix=1.00D-08 within  32 cycles.
 Requested convergence on MAX density matrix=1.00D-06.
 Requested convergence on             energy=1.00D-06.
 No special actions if energy rises.
 Fock symm off for IB=2 I1=    1 I=   16 J=   13 Cut=1.00D-07 Err=1.08D-04
 Fock matrix is not symmetric: symmetry in diagonalization turned off.
 SCF Done:  E(RAM1) =  0.234572993323E-01 A.U. after   10 cycles
            NFock=  9  Conv=0.22D-08     -V/T= 1.0003
 QCSCF skips out because SCF is already converged.
 Calling FoFJK, ICntrl=      2127 FMM=F ISym2X=1 I1Cent= 0 IOpClX= 0 NMat=1 NMatS=1 NMatT=0.
 ***** Axes restored to original set *****
 -------------------------------------------------------------------
 Center     Atomic                   Forces (Hartrees/Bohr)
 Number     Number              X              Y              Z
 -------------------------------------------------------------------
      1        6           0.000000000    0.002856203   -0.000000000
      2        6           0.001614973    0.000012744    0.000000000
      3        6           0.002368041   -0.000786174    0.000000000
      4        6          -0.000000000   -0.002709456   -0.000000000
      5        6          -0.002368041   -0.000786174    0.000000000
      6        6          -0.001614973    0.000012744   -0.000000000
      7       17           0.000000000    0.001064722   -0.000000000
      8        1          -0.000671718   -0.000285116    0.000000000
      9        1          -0.000303385    0.000241382    0.000000000
     10        1          -0.000000000    0.000422860   -0.000000000
     11        1           0.000303385    0.000241382    0.000000000
     12        1           0.000671718   -0.000285116    0.000000000
 -------------------------------------------------------------------
 Cartesian Forces:  Max     0.002856203 RMS     0.000997846

 GradGradGradGradGradGradGradGradGradGradGradGradGradGradGradGradGradGrad
 Berny optimization.
 Using GEDIIS/GDIIS optimizer.
 FormGI is forming the generalized inverse of G from B-inverse, IUseBI=4.
 Internal  Forces:  Max     0.002098376 RMS     0.000733931
 Search for a local minimum.
 Step number   3 out of a maximum of   64
 All quantities printed in internal units (Hartrees-Bohrs-Radians)
 Mixed Optimization -- En-DIIS/RFO-DIIS
 Update second derivatives using D2CorX and points    1    2    3
 DE= -2.30D-04 DEPred=-2.86D-04 R= 8.01D-01
 TightC=F SS=  1.41D+00  RLast= 3.14D-02 DXNew= 6.5959D-01 9.4342D-02
 Trust test= 8.01D-01 RLast= 3.14D-02 DXMaxT set to 3.92D-01
 ITU=  1  1  0
 Use linear search instead of GDIIS.
     Eigenvalues ---    0.02221   0.02221   0.02221   0.02221   0.02221
     Eigenvalues ---    0.02221   0.02221   0.02221   0.02221   0.15993
     Eigenvalues ---    0.16000   0.16000   0.16000   0.16005   0.21917
     Eigenvalues ---    0.22000   0.22827   0.25000   0.30704   0.35809
     Eigenvalues ---    0.35994   0.35994   0.35995   0.36672   0.42420
     Eigenvalues ---    0.42863   0.47271   0.47319   0.47319   0.79990
 RFO step:  Lambda=-2.95208735D-05 EMin= 2.22103665D-02
 Quartic linear search produced a step of -0.16944.
 Iteration  1 RMS(Cart)=  0.00181109 RMS(Int)=  0.00000162
 Iteration  2 RMS(Cart)=  0.00000221 RMS(Int)=  0.00000050
 Iteration  3 RMS(Cart)=  0.00000000 RMS(Int)=  0.00000050
 ClnCor:  largest displacement from symmetrization is 4.51D-12 for atom     7.
 Variable       Old X    -DE/DX   Delta X   Delta X   Delta X     New X
                                 (Linear)    (Quad)   (Total)
    R1        2.64005   0.00210   0.00124   0.00161   0.00286   2.64290
    R2        2.64005   0.00210   0.00124   0.00161   0.00286   2.64290
    R3        3.21336   0.00106   0.00128   0.00155   0.00283   3.21619
    R4        2.63315   0.00169   0.00189   0.00011   0.00201   2.63516
    R5        2.08110  -0.00072   0.00039  -0.00250  -0.00211   2.07899
    R6        2.63308   0.00205   0.00260  -0.00024   0.00236   2.63544
    R7        2.08035  -0.00038   0.00010  -0.00134  -0.00124   2.07911
    R8        2.63308   0.00205   0.00260  -0.00024   0.00236   2.63544
    R9        2.08013  -0.00042   0.00020  -0.00156  -0.00136   2.07877
   R10        2.63315   0.00169   0.00189   0.00011   0.00201   2.63516
   R11        2.08035  -0.00038   0.00010  -0.00134  -0.00124   2.07911
   R12        2.08110  -0.00072   0.00039  -0.00250  -0.00211   2.07899
    A1        2.11068  -0.00109   0.00113  -0.00537  -0.00423   2.10644
    A2        2.08625   0.00054  -0.00057   0.00269   0.00212   2.08837
    A3        2.08625   0.00054  -0.00057   0.00269   0.00212   2.08837
    A4        2.08028   0.00072  -0.00037   0.00309   0.00272   2.08300
    A5        2.10339  -0.00045   0.00026  -0.00212  -0.00186   2.10153
    A6        2.09952  -0.00027   0.00011  -0.00097  -0.00086   2.09866
    A7        2.09965  -0.00002  -0.00026   0.00022  -0.00004   2.09960
    A8        2.08865  -0.00005   0.00006  -0.00027  -0.00021   2.08844
    A9        2.09489   0.00007   0.00020   0.00005   0.00026   2.09515
   A10        2.09585  -0.00031   0.00012  -0.00125  -0.00112   2.09473
   A11        2.09367   0.00015  -0.00006   0.00062   0.00056   2.09423
   A12        2.09367   0.00015  -0.00006   0.00062   0.00056   2.09423
   A13        2.09965  -0.00002  -0.00026   0.00022  -0.00004   2.09960
   A14        2.09489   0.00007   0.00020   0.00005   0.00026   2.09515
   A15        2.08865  -0.00005   0.00006  -0.00027  -0.00021   2.08844
   A16        2.08028   0.00072  -0.00037   0.00309   0.00272   2.08300
   A17        2.10339  -0.00045   0.00026  -0.00212  -0.00186   2.10153
   A18        2.09952  -0.00027   0.00011  -0.00097  -0.00086   2.09866
    D1       -0.00000   0.00000   0.00000   0.00000   0.00000   0.00000
    D2        3.14159   0.00000   0.00000   0.00000   0.00000   3.14159
    D3        3.14159   0.00000   0.00000   0.00000   0.00000   3.14159
    D4       -0.00000   0.00000   0.00000   0.00000   0.00000   0.00000
    D5        0.00000  -0.00000   0.00000  -0.00000   0.00000   0.00000
    D6        3.14159  -0.00000   0.00000  -0.00000   0.00000   3.14159
    D7        3.14159  -0.00000   0.00000  -0.00000   0.00000   3.14159
    D8       -0.00000  -0.00000   0.00000  -0.00000   0.00000   0.00000
    D9       -0.00000  -0.00000   0.00000   0.00000   0.00000   0.00000
   D10        3.14159  -0.00000   0.00000  -0.00000   0.00000   3.14159
   D11        3.14159   0.00000   0.00000   0.00000   0.00000   3.14159
   D12        0.00000   0.00000   0.00000  -0.00000   0.00000   0.00000
   D13        0.00000  -0.00000   0.00000  -0.00000   0.00000   0.00000
   D14        3.14159  -0.00000   0.00000  -0.00000   0.00000   3.14159
   D15        3.14159  -0.00000   0.00000  -0.00000   0.00000   3.14159
   D16       -0.00000   0.00000   0.00000   0.00000   0.00000   0.00000
   D17       -0.00000   0.00000   0.00000   0.00000   0.00000   0.00000
   D18        3.14159   0.00000   0.00000   0.00000   0.00000   3.14159
   D19        3.14159   0.00000   0.00000   0.00000   0.00000   3.14159
   D20       -0.00000   0.00000   0.00000   0.00000   0.00000   0.00000
   D21       -0.00000  -0.00000   0.00000  -0.00000   0.00000   0.00000
   D22        3.14159  -0.00000   0.00000  -0.00000   0.00000   3.14159
   D23        3.14159   0.00000   0.00000   0.00000   0.00000   3.14159
   D24        0.00000   0.00000   0.00000   0.00000   0.00000   0.00000
         Item               Value     Threshold  Converged?
 Maximum Force            0.002098     0.000450     NO 
 RMS     Force            0.000734     0.000300     NO 
 Maximum Displacement     0.009025     0.001800     NO 
 RMS     Displacement     0.001812     0.001200     NO 
 Predicted change in Energy=-2.490101D-05
 GradGradGradGradGradGradGradGradGradGradGradGradGradGradGradGradGradGrad

                          Input orientation:                          
 ---------------------------------------------------------------------
 Center     Atomic      Atomic             Coordinates (Angstroms)
 Number     Number       Type             X           Y           Z
 ---------------------------------------------------------------------
      1          6           0        0.000000    1.394983   -0.000000
      2          6           0        1.215382    0.703008    0.000000
      3          6           0        1.207889   -0.691437    0.000000
      4          6           0       -0.000000   -1.388542    0.000000
      5          6           0       -1.207889   -0.691437   -0.000000
      6          6           0       -1.215382    0.703008   -0.000000
      7         17           0        0.000000    3.096916   -0.000000
      8          1           0        2.168754    1.252030    0.000000
      9          1           0        2.161026   -1.240990    0.000000
     10          1           0       -0.000000   -2.488578    0.000000
     11          1           0       -2.161026   -1.240990   -0.000000
     12          1           0       -2.168754    1.252030   -0.000000
 ---------------------------------------------------------------------
                    Distance matrix (angstroms):
                    1          2          3          4          5
     1  C    0.000000
     2  C    1.398565   0.000000
     3  C    2.410839   1.394465   0.000000
     4  C    2.783525   2.419036   1.394615   0.000000
     5  C    2.410839   2.795840   2.415779   1.394615   0.000000
     6  C    1.398565   2.430765   2.795840   2.419036   1.394465
     7  Cl   1.701934   2.684763   3.976257   4.485459   3.976257
     8  H    2.173460   1.100156   2.168024   3.417034   3.895996
     9  H    3.408575   2.161798   1.100217   2.166058   3.413444
    10  H    3.883561   3.415168   2.165343   1.100036   2.165343
    11  H    3.408575   3.896058   3.413444   2.166058   1.100217
    12  H    2.173460   3.428383   3.895996   3.417034   2.168024
                    6          7          8          9         10
     6  C    0.000000
     7  Cl   2.684763   0.000000
     8  H    3.428383   2.847297   0.000000
     9  H    3.896058   4.846387   2.493033   0.000000
    10  H    3.415168   5.585494   4.323846   2.495298   0.000000
    11  H    2.161798   4.846387   4.996214   4.322053   2.495298
    12  H    1.100156   2.847297   4.337508   4.996214   4.323846
                   11         12
    11  H    0.000000
    12  H    2.493033   0.000000
 Stoichiometry    C6H5Cl
 Framework group  C2V[C2(HCCCl),SGV(C4H4)]
 Deg. of freedom    11
 Full point group                 C2V     NOp   4
 Largest Abelian subgroup         C2V     NOp   4
 Largest concise Abelian subgroup C2      NOp   2
                         Standard orientation:                         
 ---------------------------------------------------------------------
 Center     Atomic      Atomic             Coordinates (Angstroms)
 Number     Number       Type             X           Y           Z
 ---------------------------------------------------------------------
      1          6           0        0.000000    0.000000    0.526731
      2          6           0        0.000000    1.215382   -0.165243
      3          6           0        0.000000    1.207889   -1.559688
      4          6           0       -0.000000   -0.000000   -2.256794
      5          6           0       -0.000000   -1.207889   -1.559688
      6          6           0       -0.000000   -1.215382   -0.165243
      7         17           0        0.000000    0.000000    2.228665
      8          1           0        0.000000    2.168754    0.383779
      9          1           0        0.000000    2.161026   -2.109241
     10          1           0       -0.000000   -0.000000   -3.356829
     11          1           0       -0.000000   -2.161026   -2.109241
     12          1           0       -0.000000   -2.168754    0.383779
 ---------------------------------------------------------------------
 Rotational constants (GHZ):           5.6554518           1.5938279           1.2434086
 Standard basis: VSTO-6G (5D, 7F)
 There are    15 symmetry adapted cartesian basis functions of A1  symmetry.
 There are     2 symmetry adapted cartesian basis functions of A2  symmetry.
 There are     5 symmetry adapted cartesian basis functions of B1  symmetry.
 There are    11 symmetry adapted cartesian basis functions of B2  symmetry.
 There are    15 symmetry adapted basis functions of A1  symmetry.
 There are     2 symmetry adapted basis functions of A2  symmetry.
 There are     5 symmetry adapted basis functions of B1  symmetry.
 There are    11 symmetry adapted basis functions of B2  symmetry.
    33 basis functions,   198 primitive gaussians,    33 cartesian basis functions
    18 alpha electrons       18 beta electrons
       nuclear repulsion energy       159.9913494334 Hartrees.
 Integral buffers will be    131072 words long.
 Regular integral format.
 Two-electron integral symmetry is turned off.
 Do NDO integrals.
 One-electron integrals computed using PRISM.
 NBasis=    33 RedAO= T EigKep=  1.00D+00  NBF=    15     2     5    11
 NBsUse=    33 1.00D-06 EigRej= -1.00D+00 NBFU=    15     2     5    11
 Initial guess from the checkpoint file:  "calcs/am1/chks/ClBz_1.chk"
 B after Tr=    -0.000000    0.000000   -0.000000
         Rot=    1.000000    0.000000    0.000000   -0.000000 Ang=   0.00 deg.
 Initial guess orbital symmetries:
       Occupied  (A1) (A1) (B2) (A1) (B2) (A1) (A1) (A1) (B2) (A1)
                 (B2) (B1) (B2) (A1) (B1) (B2) (A2) (B1)
       Virtual   (B1) (A2) (A1) (B1) (A1) (B2) (A1) (A1) (B2) (A1)
                 (B2) (B2) (A1) (B2) (A1)
 Keep J ints in memory in canonical form, NReq=862182.
 Overlap will be assumed to be unity.
 Requested convergence on RMS density matrix=1.00D-08 within  32 cycles.
 Requested convergence on MAX density matrix=1.00D-06.
 Requested convergence on             energy=1.00D-06.
 No special actions if energy rises.
 Fock symm off for IB=2 I1=    1 I=   16 J=    5 Cut=1.00D-07 Err=3.68D-05
 Fock matrix is not symmetric: symmetry in diagonalization turned off.
 SCF Done:  E(RAM1) =  0.234325077909E-01 A.U. after    9 cycles
            NFock=  8  Conv=0.70D-08     -V/T= 1.0003
 QCSCF skips out because SCF is already converged.
 Calling FoFJK, ICntrl=      2127 FMM=F ISym2X=1 I1Cent= 0 IOpClX= 0 NMat=1 NMatS=1 NMatT=0.
 ***** Axes restored to original set *****
 -------------------------------------------------------------------
 Center     Atomic                   Forces (Hartrees/Bohr)
 Number     Number              X              Y              Z
 -------------------------------------------------------------------
      1        6           0.000000000    0.000492214   -0.000000000
      2        6          -0.000158920   -0.000202460    0.000000000
      3        6           0.000306202    0.000254975    0.000000000
      4        6           0.000000000   -0.000416577   -0.000000000
      5        6          -0.000306202    0.000254975    0.000000000
      6        6           0.000158920   -0.000202460    0.000000000
      7       17           0.000000000   -0.000481389   -0.000000000
      8        1           0.000003828    0.000042856    0.000000000
      9        1          -0.000015653    0.000068960    0.000000000
     10        1           0.000000000    0.000077089   -0.000000000
     11        1           0.000015653    0.000068960    0.000000000
     12        1          -0.000003828    0.000042856    0.000000000
 -------------------------------------------------------------------
 Cartesian Forces:  Max     0.000492214 RMS     0.000176165

 GradGradGradGradGradGradGradGradGradGradGradGradGradGradGradGradGradGrad
 Berny optimization.
 Using GEDIIS/GDIIS optimizer.
 FormGI is forming the generalized inverse of G from B-inverse, IUseBI=4.
 Internal  Forces:  Max     0.000481389 RMS     0.000101614
 Search for a local minimum.
 Step number   4 out of a maximum of   64
 All quantities printed in internal units (Hartrees-Bohrs-Radians)
 Mixed Optimization -- En-DIIS/RFO-DIIS
 Swapping is turned off.
 Update second derivatives using D2CorX and points    1    2    3    4
 DE= -2.48D-05 DEPred=-2.49D-05 R= 9.96D-01
 TightC=F SS=  1.41D+00  RLast= 1.05D-02 DXNew= 6.5959D-01 3.1411D-02
 Trust test= 9.96D-01 RLast= 1.05D-02 DXMaxT set to 3.92D-01
 ITU=  1  1  1  0
     Eigenvalues ---    0.02221   0.02221   0.02221   0.02221   0.02221
     Eigenvalues ---    0.02221   0.02221   0.02221   0.02221   0.15779
     Eigenvalues ---    0.16000   0.16000   0.16000   0.16011   0.20374
     Eigenvalues ---    0.22000   0.22027   0.25000   0.31875   0.34701
     Eigenvalues ---    0.35988   0.35994   0.35994   0.36433   0.42859
     Eigenvalues ---    0.45206   0.47319   0.47319   0.47665   0.80580
 En-DIIS/RFO-DIIS/Sim-DIIS IScMMF=       -3 using points:     4    3
 RFO step:  Lambda=-1.62311816D-06.
 DidBck=F Rises=F RFO-DIIS coefs:    1.04853   -0.04853
 Iteration  1 RMS(Cart)=  0.00040085 RMS(Int)=  0.00000008
 Iteration  2 RMS(Cart)=  0.00000010 RMS(Int)=  0.00000002
 ClnCor:  largest displacement from symmetrization is 4.26D-12 for atom     7.
 Variable       Old X    -DE/DX   Delta X   Delta X   Delta X     New X
                                 (Linear)    (Quad)   (Total)
    R1        2.64290  -0.00010   0.00014  -0.00029  -0.00015   2.64275
    R2        2.64290  -0.00010   0.00014  -0.00029  -0.00015   2.64275
    R3        3.21619  -0.00048   0.00014  -0.00168  -0.00155   3.21464
    R4        2.63516  -0.00015   0.00010  -0.00042  -0.00032   2.63484
    R5        2.07899   0.00002  -0.00010   0.00009  -0.00002   2.07898
    R6        2.63544   0.00030   0.00011   0.00055   0.00067   2.63611
    R7        2.07911  -0.00005  -0.00006  -0.00010  -0.00016   2.07895
    R8        2.63544   0.00030   0.00011   0.00055   0.00067   2.63611
    R9        2.07877  -0.00008  -0.00007  -0.00019  -0.00025   2.07851
   R10        2.63516  -0.00015   0.00010  -0.00042  -0.00032   2.63484
   R11        2.07911  -0.00005  -0.00006  -0.00010  -0.00016   2.07895
   R12        2.07899   0.00002  -0.00010   0.00009  -0.00002   2.07898
    A1        2.10644   0.00001  -0.00021  -0.00019  -0.00040   2.10604
    A2        2.08837  -0.00001   0.00010   0.00010   0.00020   2.08857
    A3        2.08837  -0.00001   0.00010   0.00010   0.00020   2.08857
    A4        2.08300   0.00009   0.00013   0.00034   0.00047   2.08347
    A5        2.10153  -0.00008  -0.00009  -0.00040  -0.00049   2.10103
    A6        2.09866  -0.00001  -0.00004   0.00007   0.00002   2.09869
    A7        2.09960  -0.00004  -0.00000  -0.00007  -0.00007   2.09953
    A8        2.08844  -0.00003  -0.00001  -0.00031  -0.00032   2.08812
    A9        2.09515   0.00007   0.00001   0.00037   0.00038   2.09553
   A10        2.09473  -0.00012  -0.00005  -0.00034  -0.00040   2.09433
   A11        2.09423   0.00006   0.00003   0.00017   0.00020   2.09443
   A12        2.09423   0.00006   0.00003   0.00017   0.00020   2.09443
   A13        2.09960  -0.00004  -0.00000  -0.00007  -0.00007   2.09953
   A14        2.09515   0.00007   0.00001   0.00037   0.00038   2.09553
   A15        2.08844  -0.00003  -0.00001  -0.00031  -0.00032   2.08812
   A16        2.08300   0.00009   0.00013   0.00034   0.00047   2.08347
   A17        2.10153  -0.00008  -0.00009  -0.00040  -0.00049   2.10103
   A18        2.09866  -0.00001  -0.00004   0.00007   0.00002   2.09869
    D1       -0.00000   0.00000   0.00000   0.00000   0.00000   0.00000
    D2        3.14159   0.00000  -0.00000   0.00000   0.00000   3.14159
    D3        3.14159   0.00000  -0.00000   0.00000   0.00000   3.14159
    D4       -0.00000   0.00000   0.00000   0.00000   0.00000   0.00000
    D5        0.00000  -0.00000   0.00000  -0.00000   0.00000   0.00000
    D6        3.14159  -0.00000  -0.00000  -0.00000   0.00000   3.14159
    D7        3.14159  -0.00000  -0.00000  -0.00000   0.00000   3.14159
    D8       -0.00000  -0.00000   0.00000  -0.00000   0.00000   0.00000
    D9       -0.00000   0.00000   0.00000   0.00000   0.00000   0.00000
   D10        3.14159  -0.00000  -0.00000  -0.00000   0.00000   3.14159
   D11        3.14159   0.00000  -0.00000   0.00000   0.00000   3.14159
   D12        0.00000  -0.00000   0.00000  -0.00000  -0.00000   0.00000
   D13        0.00000  -0.00000   0.00000  -0.00000   0.00000   0.00000
   D14        3.14159  -0.00000  -0.00000  -0.00000   0.00000   3.14159
   D15        3.14159  -0.00000  -0.00000  -0.00000   0.00000   3.14159
   D16       -0.00000   0.00000   0.00000   0.00000   0.00000   0.00000
   D17       -0.00000   0.00000   0.00000   0.00000   0.00000   0.00000
   D18        3.14159   0.00000  -0.00000   0.00000   0.00000   3.14159
   D19        3.14159   0.00000  -0.00000   0.00000   0.00000   3.14159
   D20        0.00000  -0.00000   0.00000  -0.00000   0.00000   0.00000
   D21        0.00000  -0.00000   0.00000  -0.00000   0.00000   0.00000
   D22        3.14159  -0.00000  -0.00000  -0.00000   0.00000   3.14159
   D23        3.14159   0.00000  -0.00000   0.00000   0.00000   3.14159
   D24       -0.00000   0.00000   0.00000   0.00000   0.00000   0.00000
         Item               Value     Threshold  Converged?
 Maximum Force            0.000481     0.000450     NO 
 RMS     Force            0.000102     0.000300     YES
 Maximum Displacement     0.001422     0.001800     YES
 RMS     Displacement     0.000401     0.001200     YES
 Predicted change in Energy=-8.115634D-07
 GradGradGradGradGradGradGradGradGradGradGradGradGradGradGradGradGradGrad

                          Input orientation:                          
 ---------------------------------------------------------------------
 Center     Atomic      Atomic             Coordinates (Angstroms)
 Number     Number       Type             X           Y           Z
 ---------------------------------------------------------------------
      1          6           0        0.000000    1.395048   -0.000000
      2          6           0        1.215174    0.702871    0.000000
      3          6           0        1.208057   -0.691406    0.000000
      4          6           0       -0.000000   -1.388929    0.000000
      5          6           0       -1.208057   -0.691406   -0.000000
      6          6           0       -1.215174    0.702871   -0.000000
      7         17           0        0.000000    3.096164   -0.000000
      8          1           0        2.168377    1.252169    0.000000
      9          1           0        2.161442   -1.240360    0.000000
     10          1           0       -0.000000   -2.488831    0.000000
     11          1           0       -2.161442   -1.240360   -0.000000
     12          1           0       -2.168377    1.252169   -0.000000
 ---------------------------------------------------------------------
                    Distance matrix (angstroms):
                    1          2          3          4          5
     1  C    0.000000
     2  C    1.398483   0.000000
     3  C    2.410952   1.394295   0.000000
     4  C    2.783977   2.419148   1.394969   0.000000
     5  C    2.410952   2.795721   2.416113   1.394969   0.000000
     6  C    1.398483   2.430348   2.795721   2.419148   1.394295
     7  Cl   1.701116   2.684119   3.975561   4.485093   3.975561
     8  H    2.173079   1.100148   2.167879   3.417200   3.895868
     9  H    3.408402   2.161381   1.100133   2.166542   3.413923
    10  H    3.883879   3.415203   2.165673   1.099902   2.165673
    11  H    3.408402   3.895854   3.413923   2.166542   1.100133
    12  H    2.173079   3.427848   3.895868   3.417200   2.167879
                    6          7          8          9         10
     6  C    0.000000
     7  Cl   2.684119   0.000000
     8  H    3.427848   2.846432   0.000000
     9  H    3.895854   4.845334   2.492538   0.000000
    10  H    3.415203   5.584995   4.323996   2.496099   0.000000
    11  H    2.161381   4.845334   4.996001   4.322883   2.496099
    12  H    1.100148   2.846432   4.336754   4.996001   4.323996
                   11         12
    11  H    0.000000
    12  H    2.492538   0.000000
 Stoichiometry    C6H5Cl
 Framework group  C2V[C2(HCCCl),SGV(C4H4)]
 Deg. of freedom    11
 Full point group                 C2V     NOp   4
 Largest Abelian subgroup         C2V     NOp   4
 Largest concise Abelian subgroup C2      NOp   2
                         Standard orientation:                         
 ---------------------------------------------------------------------
 Center     Atomic      Atomic             Coordinates (Angstroms)
 Number     Number       Type             X           Y           Z
 ---------------------------------------------------------------------
      1          6           0       -0.000000   -0.000000    0.527050
      2          6           0        0.000000    1.215174   -0.165126
      3          6           0        0.000000    1.208057   -1.559404
      4          6           0        0.000000    0.000000   -2.256927
      5          6           0       -0.000000   -1.208057   -1.559404
      6          6           0       -0.000000   -1.215174   -0.165126
      7         17           0       -0.000000   -0.000000    2.228166
      8          1           0        0.000000    2.168377    0.384171
      9          1           0        0.000000    2.161442   -2.108357
     10          1           0        0.000000    0.000000   -3.356829
     11          1           0       -0.000000   -2.161442   -2.108357
     12          1           0       -0.000000   -2.168377    0.384171
 ---------------------------------------------------------------------
 Rotational constants (GHZ):           5.6555882           1.5943066           1.2437066
 Standard basis: VSTO-6G (5D, 7F)
 There are    15 symmetry adapted cartesian basis functions of A1  symmetry.
 There are     2 symmetry adapted cartesian basis functions of A2  symmetry.
 There are     5 symmetry adapted cartesian basis functions of B1  symmetry.
 There are    11 symmetry adapted cartesian basis functions of B2  symmetry.
 There are    15 symmetry adapted basis functions of A1  symmetry.
 There are     2 symmetry adapted basis functions of A2  symmetry.
 There are     5 symmetry adapted basis functions of B1  symmetry.
 There are    11 symmetry adapted basis functions of B2  symmetry.
    33 basis functions,   198 primitive gaussians,    33 cartesian basis functions
    18 alpha electrons       18 beta electrons
       nuclear repulsion energy       159.9982134339 Hartrees.
 Integral buffers will be    131072 words long.
 Regular integral format.
 Two-electron integral symmetry is turned off.
 Do NDO integrals.
 One-electron integrals computed using PRISM.
 NBasis=    33 RedAO= T EigKep=  1.00D+00  NBF=    15     2     5    11
 NBsUse=    33 1.00D-06 EigRej= -1.00D+00 NBFU=    15     2     5    11
 Initial guess from the checkpoint file:  "calcs/am1/chks/ClBz_1.chk"
 B after Tr=     0.000000   -0.000000    0.000000
         Rot=    1.000000    0.000000   -0.000000    0.000000 Ang=   0.00 deg.
 Initial guess orbital symmetries:
       Occupied  (A1) (A1) (B2) (A1) (B2) (A1) (A1) (A1) (B2) (A1)
                 (B2) (B1) (B2) (A1) (B1) (B2) (A2) (B1)
       Virtual   (B1) (A2) (A1) (B1) (A1) (B2) (A1) (A1) (B2) (A1)
                 (B2) (B2) (A1) (B2) (A1)
 Keep J ints in memory in canonical form, NReq=862182.
 Overlap will be assumed to be unity.
 Requested convergence on RMS density matrix=1.00D-08 within  32 cycles.
 Requested convergence on MAX density matrix=1.00D-06.
 Requested convergence on             energy=1.00D-06.
 No special actions if energy rises.
 Fock symm off for IB=2 I1=    1 I=   16 J=   13 Cut=1.00D-07 Err=3.43D-05
 Fock matrix is not symmetric: symmetry in diagonalization turned off.
 SCF Done:  E(RAM1) =  0.234317564597E-01 A.U. after    9 cycles
            NFock=  8  Conv=0.26D-08     -V/T= 1.0003
 QCSCF skips out because SCF is already converged.
 Calling FoFJK, ICntrl=      2127 FMM=F ISym2X=1 I1Cent= 0 IOpClX= 0 NMat=1 NMatS=1 NMatT=0.
 ***** Axes restored to original set *****
 -------------------------------------------------------------------
 Center     Atomic                   Forces (Hartrees/Bohr)
 Number     Number              X              Y              Z
 -------------------------------------------------------------------
      1        6          -0.000000000    0.000129588   -0.000000000
      2        6          -0.000003254   -0.000088271    0.000000000
      3        6          -0.000095130   -0.000038976    0.000000000
      4        6          -0.000000000    0.000053035   -0.000000000
      5        6           0.000095130   -0.000038976    0.000000000
      6        6           0.000003254   -0.000088271    0.000000000
      7       17          -0.000000000   -0.000010009   -0.000000000
      8        1           0.000050461    0.000032539    0.000000000
      9        1          -0.000005902   -0.000007017    0.000000000
     10        1          -0.000000000    0.000030836    0.000000000
     11        1           0.000005902   -0.000007017   -0.000000000
     12        1          -0.000050461    0.000032539    0.000000000
 -------------------------------------------------------------------
 Cartesian Forces:  Max     0.000129588 RMS     0.000042419

 GradGradGradGradGradGradGradGradGradGradGradGradGradGradGradGradGradGrad
 Berny optimization.
 Using GEDIIS/GDIIS optimizer.
 FormGI is forming the generalized inverse of G from B-inverse, IUseBI=4.
 Internal  Forces:  Max     0.000097621 RMS     0.000028105
 Search for a local minimum.
 Step number   5 out of a maximum of   64
 All quantities printed in internal units (Hartrees-Bohrs-Radians)
 Mixed Optimization -- En-DIIS/RFO-DIIS
 Swapping is turned off.
 Update second derivatives using D2CorX and points    1    2    3    4    5
 DE= -7.51D-07 DEPred=-8.12D-07 R= 9.26D-01
 Trust test= 9.26D-01 RLast= 2.36D-03 DXMaxT set to 3.92D-01
 ITU=  0  1  1  1  0
     Eigenvalues ---    0.02221   0.02221   0.02221   0.02221   0.02221
     Eigenvalues ---    0.02221   0.02221   0.02221   0.02221   0.15241
     Eigenvalues ---    0.16000   0.16000   0.16000   0.16082   0.18367
     Eigenvalues ---    0.22000   0.22063   0.25000   0.31044   0.34649
     Eigenvalues ---    0.35994   0.35994   0.35994   0.37508   0.42858
     Eigenvalues ---    0.45936   0.47319   0.47319   0.56999   0.79880
 En-DIIS/RFO-DIIS/Sim-DIIS IScMMF=       -3 using points:     5    4    3
 RFO step:  Lambda=-9.04231954D-08.
 DidBck=F Rises=F RFO-DIIS coefs:    1.02901   -0.02003   -0.00897
 Iteration  1 RMS(Cart)=  0.00007858 RMS(Int)=  0.00000001
 Iteration  2 RMS(Cart)=  0.00000001 RMS(Int)=  0.00000000
 ClnCor:  largest displacement from symmetrization is 2.33D-12 for atom     7.
 Variable       Old X    -DE/DX   Delta X   Delta X   Delta X     New X
                                 (Linear)    (Quad)   (Total)
    R1        2.64275   0.00006   0.00002   0.00012   0.00014   2.64289
    R2        2.64275   0.00006   0.00002   0.00012   0.00014   2.64289
    R3        3.21464  -0.00001  -0.00002  -0.00014  -0.00016   3.21449
    R4        2.63484   0.00000   0.00001  -0.00001  -0.00000   2.63483
    R5        2.07898   0.00006  -0.00002   0.00018   0.00016   2.07914
    R6        2.63611  -0.00010   0.00004  -0.00020  -0.00016   2.63595
    R7        2.07895  -0.00000  -0.00002   0.00002   0.00000   2.07895
    R8        2.63611  -0.00010   0.00004  -0.00020  -0.00016   2.63595
    R9        2.07851  -0.00003  -0.00002  -0.00006  -0.00008   2.07843
   R10        2.63484   0.00000   0.00001  -0.00001  -0.00000   2.63483
   R11        2.07895  -0.00000  -0.00002   0.00002   0.00000   2.07895
   R12        2.07898   0.00006  -0.00002   0.00018   0.00016   2.07914
    A1        2.10604  -0.00006  -0.00005  -0.00017  -0.00022   2.10583
    A2        2.08857   0.00003   0.00002   0.00008   0.00011   2.08868
    A3        2.08857   0.00003   0.00002   0.00008   0.00011   2.08868
    A4        2.08347  -0.00000   0.00004   0.00002   0.00006   2.08352
    A5        2.10103  -0.00000  -0.00003  -0.00003  -0.00006   2.10097
    A6        2.09869   0.00000  -0.00001   0.00001   0.00001   2.09869
    A7        2.09953   0.00002  -0.00000   0.00007   0.00007   2.09960
    A8        2.08812  -0.00000  -0.00001   0.00001  -0.00000   2.08812
    A9        2.09553  -0.00002   0.00001  -0.00008  -0.00006   2.09547
   A10        2.09433   0.00002  -0.00002  -0.00001  -0.00003   2.09430
   A11        2.09443  -0.00001   0.00001   0.00000   0.00001   2.09444
   A12        2.09443  -0.00001   0.00001   0.00000   0.00001   2.09444
   A13        2.09953   0.00002  -0.00000   0.00007   0.00007   2.09960
   A14        2.09553  -0.00002   0.00001  -0.00008  -0.00006   2.09547
   A15        2.08812  -0.00000  -0.00001   0.00001  -0.00000   2.08812
   A16        2.08347  -0.00000   0.00004   0.00002   0.00006   2.08352
   A17        2.10103  -0.00000  -0.00003  -0.00003  -0.00006   2.10097
   A18        2.09869   0.00000  -0.00001   0.00001   0.00001   2.09869
    D1       -0.00000   0.00000   0.00000   0.00000   0.00000   0.00000
    D2        3.14159   0.00000   0.00000   0.00000   0.00000   3.14159
    D3        3.14159   0.00000   0.00000   0.00000   0.00000   3.14159
    D4        0.00000   0.00000   0.00000   0.00000   0.00000   0.00000
    D5        0.00000  -0.00000   0.00000  -0.00000   0.00000   0.00000
    D6        3.14159  -0.00000   0.00000  -0.00000   0.00000   3.14159
    D7        3.14159  -0.00000   0.00000  -0.00000   0.00000   3.14159
    D8       -0.00000  -0.00000   0.00000  -0.00000   0.00000   0.00000
    D9       -0.00000   0.00000   0.00000   0.00000   0.00000   0.00000
   D10        3.14159  -0.00000   0.00000  -0.00000   0.00000   3.14159
   D11        3.14159   0.00000   0.00000   0.00000   0.00000   3.14159
   D12        0.00000  -0.00000   0.00000  -0.00000   0.00000   0.00000
   D13        0.00000  -0.00000   0.00000  -0.00000   0.00000   0.00000
   D14        3.14159  -0.00000   0.00000  -0.00000   0.00000   3.14159
   D15        3.14159  -0.00000   0.00000  -0.00000   0.00000   3.14159
   D16       -0.00000  -0.00000   0.00000  -0.00000   0.00000   0.00000
   D17       -0.00000   0.00000   0.00000   0.00000   0.00000   0.00000
   D18        3.14159   0.00000   0.00000   0.00000   0.00000   3.14159
   D19        3.14159   0.00000   0.00000   0.00000   0.00000   3.14159
   D20        0.00000  -0.00000   0.00000  -0.00000   0.00000   0.00000
   D21       -0.00000   0.00000   0.00000   0.00000   0.00000   0.00000
   D22        3.14159  -0.00000   0.00000  -0.00000   0.00000   3.14159
   D23        3.14159   0.00000   0.00000   0.00000   0.00000   3.14159
   D24        0.00000   0.00000   0.00000   0.00000   0.00000   0.00000
         Item               Value     Threshold  Converged?
 Maximum Force            0.000098     0.000450     YES
 RMS     Force            0.000028     0.000300     YES
 Maximum Displacement     0.000277     0.001800     YES
 RMS     Displacement     0.000079     0.001200     YES
 Predicted change in Energy=-4.876994D-08
 Optimization completed.
    -- Stationary point found.
                           ----------------------------
                           !   Optimized Parameters   !
                           ! (Angstroms and Degrees)  !
 --------------------------                            --------------------------
 ! Name  Definition              Value          Derivative Info.                !
 --------------------------------------------------------------------------------
 ! R1    R(1,2)                  1.3985         -DE/DX =    0.0001              !
 ! R2    R(1,6)                  1.3985         -DE/DX =    0.0001              !
 ! R3    R(1,7)                  1.7011         -DE/DX =    0.0                 !
 ! R4    R(2,3)                  1.3943         -DE/DX =    0.0                 !
 ! R5    R(2,8)                  1.1001         -DE/DX =    0.0001              !
 ! R6    R(3,4)                  1.395          -DE/DX =   -0.0001              !
 ! R7    R(3,9)                  1.1001         -DE/DX =    0.0                 !
 ! R8    R(4,5)                  1.395          -DE/DX =   -0.0001              !
 ! R9    R(4,10)                 1.0999         -DE/DX =    0.0                 !
 ! R10   R(5,6)                  1.3943         -DE/DX =    0.0                 !
 ! R11   R(5,11)                 1.1001         -DE/DX =    0.0                 !
 ! R12   R(6,12)                 1.1001         -DE/DX =    0.0001              !
 ! A1    A(2,1,6)              120.6674         -DE/DX =   -0.0001              !
 ! A2    A(2,1,7)              119.6663         -DE/DX =    0.0                 !
 ! A3    A(6,1,7)              119.6663         -DE/DX =    0.0                 !
 ! A4    A(1,2,3)              119.3739         -DE/DX =    0.0                 !
 ! A5    A(1,2,8)              120.3803         -DE/DX =    0.0                 !
 ! A6    A(3,2,8)              120.2458         -DE/DX =    0.0                 !
 ! A7    A(2,3,4)              120.2943         -DE/DX =    0.0                 !
 ! A8    A(2,3,9)              119.6406         -DE/DX =    0.0                 !
 ! A9    A(4,3,9)              120.0651         -DE/DX =    0.0                 !
 ! A10   A(3,4,5)              119.9963         -DE/DX =    0.0                 !
 ! A11   A(3,4,10)             120.0018         -DE/DX =    0.0                 !
 ! A12   A(5,4,10)             120.0018         -DE/DX =    0.0                 !
 ! A13   A(4,5,6)              120.2943         -DE/DX =    0.0                 !
 ! A14   A(4,5,11)             120.0651         -DE/DX =    0.0                 !
 ! A15   A(6,5,11)             119.6406         -DE/DX =    0.0                 !
 ! A16   A(1,6,5)              119.3739         -DE/DX =    0.0                 !
 ! A17   A(1,6,12)             120.3803         -DE/DX =    0.0                 !
 ! A18   A(5,6,12)             120.2458         -DE/DX =    0.0                 !
 ! D1    D(6,1,2,3)              0.0            -DE/DX =    0.0                 !
 ! D2    D(6,1,2,8)            180.0            -DE/DX =    0.0                 !
 ! D3    D(7,1,2,3)            180.0            -DE/DX =    0.0                 !
 ! D4    D(7,1,2,8)              0.0            -DE/DX =    0.0                 !
 ! D5    D(2,1,6,5)              0.0            -DE/DX =    0.0                 !
 ! D6    D(2,1,6,12)           180.0            -DE/DX =    0.0                 !
 ! D7    D(7,1,6,5)            180.0            -DE/DX =    0.0                 !
 ! D8    D(7,1,6,12)             0.0            -DE/DX =    0.0                 !
 ! D9    D(1,2,3,4)              0.0            -DE/DX =    0.0                 !
 ! D10   D(1,2,3,9)            180.0            -DE/DX =    0.0                 !
 ! D11   D(8,2,3,4)            180.0            -DE/DX =    0.0                 !
 ! D12   D(8,2,3,9)              0.0            -DE/DX =    0.0                 !
 ! D13   D(2,3,4,5)              0.0            -DE/DX =    0.0                 !
 ! D14   D(2,3,4,10)           180.0            -DE/DX =    0.0                 !
 ! D15   D(9,3,4,5)            180.0            -DE/DX =    0.0                 !
 ! D16   D(9,3,4,10)             0.0            -DE/DX =    0.0                 !
 ! D17   D(3,4,5,6)              0.0            -DE/DX =    0.0                 !
 ! D18   D(3,4,5,11)           180.0            -DE/DX =    0.0                 !
 ! D19   D(10,4,5,6)           180.0            -DE/DX =    0.0                 !
 ! D20   D(10,4,5,11)            0.0            -DE/DX =    0.0                 !
 ! D21   D(4,5,6,1)              0.0            -DE/DX =    0.0                 !
 ! D22   D(4,5,6,12)           180.0            -DE/DX =    0.0                 !
 ! D23   D(11,5,6,1)           180.0            -DE/DX =    0.0                 !
 ! D24   D(11,5,6,12)            0.0            -DE/DX =    0.0                 !
 --------------------------------------------------------------------------------
 GradGradGradGradGradGradGradGradGradGradGradGradGradGradGradGradGradGrad

                          Input orientation:                          
 ---------------------------------------------------------------------
 Center     Atomic      Atomic             Coordinates (Angstroms)
 Number     Number       Type             X           Y           Z
 ---------------------------------------------------------------------
      1          6           0        0.000000    1.395048   -0.000000
      2          6           0        1.215174    0.702871    0.000000
      3          6           0        1.208057   -0.691406    0.000000
      4          6           0       -0.000000   -1.388929    0.000000
      5          6           0       -1.208057   -0.691406   -0.000000
      6          6           0       -1.215174    0.702871   -0.000000
      7         17           0        0.000000    3.096164   -0.000000
      8          1           0        2.168377    1.252169    0.000000
      9          1           0        2.161442   -1.240360    0.000000
     10          1           0       -0.000000   -2.488831    0.000000
     11          1           0       -2.161442   -1.240360   -0.000000
     12          1           0       -2.168377    1.252169   -0.000000
 ---------------------------------------------------------------------
                    Distance matrix (angstroms):
                    1          2          3          4          5
     1  C    0.000000
     2  C    1.398483   0.000000
     3  C    2.410952   1.394295   0.000000
     4  C    2.783977   2.419148   1.394969   0.000000
     5  C    2.410952   2.795721   2.416113   1.394969   0.000000
     6  C    1.398483   2.430348   2.795721   2.419148   1.394295
     7  Cl   1.701116   2.684119   3.975561   4.485093   3.975561
     8  H    2.173079   1.100148   2.167879   3.417200   3.895868
     9  H    3.408402   2.161381   1.100133   2.166542   3.413923
    10  H    3.883879   3.415203   2.165673   1.099902   2.165673
    11  H    3.408402   3.895854   3.413923   2.166542   1.100133
    12  H    2.173079   3.427848   3.895868   3.417200   2.167879
                    6          7          8          9         10
     6  C    0.000000
     7  Cl   2.684119   0.000000
     8  H    3.427848   2.846432   0.000000
     9  H    3.895854   4.845334   2.492538   0.000000
    10  H    3.415203   5.584995   4.323996   2.496099   0.000000
    11  H    2.161381   4.845334   4.996001   4.322883   2.496099
    12  H    1.100148   2.846432   4.336754   4.996001   4.323996
                   11         12
    11  H    0.000000
    12  H    2.492538   0.000000
 Stoichiometry    C6H5Cl
 Framework group  C2V[C2(HCCCl),SGV(C4H4)]
 Deg. of freedom    11
 Full point group                 C2V     NOp   4
 Largest Abelian subgroup         C2V     NOp   4
 Largest concise Abelian subgroup C2      NOp   2
                         Standard orientation:                         
 ---------------------------------------------------------------------
 Center     Atomic      Atomic             Coordinates (Angstroms)
 Number     Number       Type             X           Y           Z
 ---------------------------------------------------------------------
      1          6           0       -0.000000   -0.000000    0.527050
      2          6           0        0.000000    1.215174   -0.165126
      3          6           0        0.000000    1.208057   -1.559404
      4          6           0        0.000000    0.000000   -2.256927
      5          6           0       -0.000000   -1.208057   -1.559404
      6          6           0       -0.000000   -1.215174   -0.165126
      7         17           0       -0.000000   -0.000000    2.228166
      8          1           0        0.000000    2.168377    0.384171
      9          1           0        0.000000    2.161442   -2.108357
     10          1           0        0.000000    0.000000   -3.356829
     11          1           0       -0.000000   -2.161442   -2.108357
     12          1           0       -0.000000   -2.168377    0.384171
 ---------------------------------------------------------------------
 Rotational constants (GHZ):           5.6555882           1.5943066           1.2437066

 **********************************************************************

            Population analysis using the SCF Density.

 **********************************************************************

 Orbital symmetries:
       Occupied  (A1) (A1) (B2) (A1) (B2) (A1) (A1) (A1) (B2) (A1)
                 (B2) (B1) (B2) (A1) (B1) (B2) (A2) (B1)
       Virtual   (B1) (A2) (A1) (B1) (A1) (B2) (A1) (A1) (B2) (A1)
                 (B2) (B2) (A1) (B2) (A1)
 The electronic state is 1-A1.
 Alpha  occ. eigenvalues --   -1.45548  -1.37555  -1.16677  -1.15043  -0.86500
 Alpha  occ. eigenvalues --   -0.85927  -0.67267  -0.61026  -0.59206  -0.54448
 Alpha  occ. eigenvalues --   -0.53191  -0.52834  -0.46096  -0.45746  -0.45639
 Alpha  occ. eigenvalues --   -0.42939  -0.36606  -0.35136
 Alpha virt. eigenvalues --    0.00569   0.00974   0.05151   0.09643   0.13701
 Alpha virt. eigenvalues --    0.13756   0.14341   0.15339   0.15805   0.17039
 Alpha virt. eigenvalues --    0.17754   0.19002   0.19191   0.19891   0.21121
          Condensed to atoms (all electrons):
               1          2          3          4          5          6
     1  C    4.061241   0.000000   0.000000   0.000000   0.000000   0.000000
     2  C    0.000000   4.124483   0.000000   0.000000   0.000000   0.000000
     3  C    0.000000   0.000000   4.121633   0.000000   0.000000   0.000000
     4  C    0.000000   0.000000   0.000000   4.129444   0.000000   0.000000
     5  C    0.000000   0.000000   0.000000   0.000000   4.121633   0.000000
     6  C    0.000000   0.000000   0.000000   0.000000   0.000000   4.124483
     7  Cl   0.000000   0.000000   0.000000   0.000000   0.000000   0.000000
     8  H    0.000000   0.000000   0.000000   0.000000   0.000000   0.000000
     9  H    0.000000   0.000000   0.000000   0.000000   0.000000   0.000000
    10  H    0.000000   0.000000   0.000000   0.000000   0.000000   0.000000
    11  H    0.000000   0.000000   0.000000   0.000000   0.000000   0.000000
    12  H    0.000000   0.000000   0.000000   0.000000   0.000000   0.000000
               7          8          9         10         11         12
     1  C    0.000000   0.000000   0.000000   0.000000   0.000000   0.000000
     2  C    0.000000   0.000000   0.000000   0.000000   0.000000   0.000000
     3  C    0.000000   0.000000   0.000000   0.000000   0.000000   0.000000
     4  C    0.000000   0.000000   0.000000   0.000000   0.000000   0.000000
     5  C    0.000000   0.000000   0.000000   0.000000   0.000000   0.000000
     6  C    0.000000   0.000000   0.000000   0.000000   0.000000   0.000000
     7  Cl   7.018903   0.000000   0.000000   0.000000   0.000000   0.000000
     8  H    0.000000   0.853455   0.000000   0.000000   0.000000   0.000000
     9  H    0.000000   0.000000   0.863299   0.000000   0.000000   0.000000
    10  H    0.000000   0.000000   0.000000   0.864671   0.000000   0.000000
    11  H    0.000000   0.000000   0.000000   0.000000   0.863299   0.000000
    12  H    0.000000   0.000000   0.000000   0.000000   0.000000   0.853455
 Mulliken charges:
               1
     1  C   -0.061241
     2  C   -0.124483
     3  C   -0.121633
     4  C   -0.129444
     5  C   -0.121633
     6  C   -0.124483
     7  Cl  -0.018903
     8  H    0.146545
     9  H    0.136701
    10  H    0.135329
    11  H    0.136701
    12  H    0.146545
 Sum of Mulliken charges =   0.00000
 Mulliken charges with hydrogens summed into heavy atoms:
               1
     1  C   -0.061241
     2  C    0.022062
     3  C    0.015068
     4  C    0.005884
     5  C    0.015068
     6  C    0.022062
     7  Cl  -0.018903
 Charge=              0.0000 electrons
 Dipole moment (field-independent basis, Debye):
    X=             -0.0000    Y=              0.0000    Z=             -1.3064  Tot=              1.3064
 N-N= 1.599982134339D+02 E-N=-2.245191970812D+02  KE=-6.968271362387D+01
 Symmetry A1   KE=-3.335950925183D+01
 Symmetry A2   KE=-3.017014086122D+00
 Symmetry B1   KE=-1.182051652931D+01
 Symmetry B2   KE=-2.148567375661D+01
 1\1\GINC-SH02-02N47\FOpt\RAM1\ZDO\C6H5Cl1\JLAPIER\28-Sep-2026\0\\# Opt
  AM1 SCF=XQC\\ClBz_1 am1\\0,1\C,0.,1.3950476428,0.\C,1.2151737797,0.70
 28711289,0.\C,1.2080565766,-0.691406032,0.\C,0.,-1.3889291813,0.\C,-1.
 2080565766,-0.691406032,0.\C,-1.2151737797,0.7028711289,0.\Cl,0.,3.096
 1636814,0.\H,2.1683770878,1.2521689451,0.\H,2.1614416796,-1.2403595408
 ,0.\H,0.,-2.4888311453,0.\H,-2.1614416796,-1.2403595408,0.\H,-2.168377
 0878,1.2521689451,0.\\Version=ES64L-G16RevB.01\State=1-A1\HF=0.0234318
 \RMSD=2.616e-09\RMSF=4.242e-05\Dipole=0.,-0.513995,0.\PG=C02V [C2(H1C1
 C1Cl1),SGV(C4H4)]\\@


 THERE'S A SUCKER BORN EVERY MINUTE

              -- PHINEAS TAYLOR (P.T.) BARNUM
 Job cpu time:       0 days  0 hours  0 minutes  3.5 seconds.
 Elapsed time:       0 days  0 hours  0 minutes  3.8 seconds.
 File lengths (MBytes):  RWF=      6 Int=      0 D2E=      0 Chk=      3 Scr=      1
 Normal termination of Gaussian 16 at Mon Sep 28 01:19:11 2026.
