 Entering Gaussian System, Link 0=g16
 Initial command:
 /share/software/user/restricted/gaussian/g16.B01/l1.exe "/lscratch/jlapier/g16_45667572_11/Gau-4281.inp" -scrdir="/lscratch/jlapier/g16_45667572_11/"
 Entering Link 1 = /share/software/user/restricted/gaussian/g16.B01/l1.exe PID=      4286.
  
 Copyright (c) 1988-2017, Gaussian, Inc.  All Rights Reserved.
  
 This is part of the Gaussian(R) 16 program.  It is based on
 the Gaussian(R) 09 system (copyright 2009, Gaussian, Inc.),
 the Gaussian(R) 03 system (copyright 2003, Gaussian, Inc.),
 the Gaussian(R) 98 system (copyright 1998, Gaussian, Inc.),
 the Gaussian(R) 94 system (copyright 1995, Gaussian, Inc.),
 the Gaussian 92(TM) system (copyright 1992, Gaussian, Inc.),
 the Gaussian 90(TM) system (copyright 1990, Gaussian, Inc.),
 the Gaussian 88(TM) system (copyright 1988, Gaussian, Inc.),
 the Gaussian 86(TM) system (copyright 1986, Carnegie Mellon
 University), and the Gaussian 82(TM) system (copyright 1983,
 Carnegie Mellon University). Gaussian is a federally registered
 trademark of Gaussian, Inc.
  
 This software contains proprietary and confidential information,
 including trade secrets, belonging to Gaussian, Inc.
  
 This software is provided under written license and may be
 used, copied, transmitted, or stored only in accord with that
 written license.
  
 The following legend is applicable only to US Government
 contracts under FAR:
  
                    RESTRICTED RIGHTS LEGEND
  
 Use, reproduction and disclosure by the US Government is
 subject to restrictions as set forth in subparagraphs (a)
 and (c) of the Commercial Computer Software - Restricted
 Rights clause in FAR 52.227-19.
  
 Gaussian, Inc.
 340 Quinnipiac St., Bldg. 40, Wallingford CT 06492
  
  
 ---------------------------------------------------------------
 Warning -- This program may not be used in any manner that
 competes with the business of Gaussian, Inc. or will provide
 assistance to any competitor of Gaussian, Inc.  The licensee
 of this program is prohibited from giving any competitor of
 Gaussian, Inc. access to this program.  By using this program,
 the user acknowledges that Gaussian, Inc. is engaged in the
 business of creating and licensing software in the field of
 computational chemistry and represents and warrants to the
 licensee that it is not a competitor of Gaussian, Inc. and that
 it will not use this program in any manner prohibited above.
 ---------------------------------------------------------------
  

 Cite this work as:
 Gaussian 16, Revision B.01,
 M. J. Frisch, G. W. Trucks, H. B. Schlegel, G. E. Scuseria, 
 M. A. Robb, J. R. Cheeseman, G. Scalmani, V. Barone, 
 G. A. Petersson, H. Nakatsuji, X. Li, M. Caricato, A. V. Marenich, 
 J. Bloino, B. G. Janesko, R. Gomperts, B. Mennucci, H. P. Hratchian, 
 J. V. Ortiz, A. F. Izmaylov, J. L. Sonnenberg, D. Williams-Young, 
 F. Ding, F. Lipparini, F. Egidi, J. Goings, B. Peng, A. Petrone, 
 T. Henderson, D. Ranasinghe, V. G. Zakrzewski, J. Gao, N. Rega, 
 G. Zheng, W. Liang, M. Hada, M. Ehara, K. Toyota, R. Fukuda, 
 J. Hasegawa, M. Ishida, T. Nakajima, Y. Honda, O. Kitao, H. Nakai, 
 T. Vreven, K. Throssell, J. A. Montgomery, Jr., J. E. Peralta, 
 F. Ogliaro, M. J. Bearpark, J. J. Heyd, E. N. Brothers, K. N. Kudin, 
 V. N. Staroverov, T. A. Keith, R. Kobayashi, J. Normand, 
 K. Raghavachari, A. P. Rendell, J. C. Burant, S. S. Iyengar, 
 J. Tomasi, M. Cossi, J. M. Millam, M. Klene, C. Adamo, R. Cammi, 
 J. W. Ochterski, R. L. Martin, K. Morokuma, O. Farkas, 
 J. B. Foresman, and D. J. Fox, Gaussian, Inc., Wallingford CT, 2016.
 
 ******************************************
 Gaussian 16:  ES64L-G16RevB.01 20-Dec-2017
                28-Sep-2026 
 ******************************************
 %nprocshared=1
 Will use up to    1 processors via shared memory.
 %mem=1GB
 %chk=calcs/am1/chks/ClPh_3_rad.chk
 -----------------
 # Opt AM1 SCF=XQC
 -----------------
 1/18=20,19=15,26=1,38=1/1,3;
 2/9=110,12=2,17=6,18=5,40=1/2;
 3/5=2,25=1,41=700000,71=1/1,2,3;
 4/35=1/1;
 5/5=2,8=3,13=1,35=1,38=5/2,8;
 6/7=2,8=2,9=2,10=2,28=1/1;
 7//1,2,3,16;
 1/18=20,19=15,26=1/3(2);
 2/9=110/2;
 99//99;
 2/9=110/2;
 3/5=2,25=1,41=700000,71=1,135=20/1,2,3;
 4/5=5,16=3,35=1/1;
 5/5=2,8=3,13=1,35=1,38=5/2,8;
 7//1,2,3,16;
 1/18=20,19=15,26=1/3(-5);
 2/9=110/2;
 6/7=2,8=2,9=2,10=2,19=2,28=1/1;
 99/9=1/99;
 --------------
 ClPh_3_rad am1
 --------------
 Symbolic Z-matrix:
 Charge =  0 Multiplicity = 2
 C                     0.        1.39      0. 
 C                     1.20378   0.695     0. 
 C                     1.20378  -0.695     0. 
 C                     0.       -1.39      0. 
 C                    -1.20378  -0.695     0. 
 C                    -1.20378   0.695     0. 
 H                     2.13908   1.235     0. 
 Cl                    2.71066  -1.565     0. 
 H                     0.       -2.47      0. 
 H                    -2.13908  -1.235     0. 
 H                    -2.13908   1.235     0. 
 

 GradGradGradGradGradGradGradGradGradGradGradGradGradGradGradGradGradGrad
 Berny optimization.
 Initialization pass.
                           ----------------------------
                           !    Initial Parameters    !
                           ! (Angstroms and Degrees)  !
 --------------------------                            --------------------------
 ! Name  Definition              Value          Derivative Info.                !
 --------------------------------------------------------------------------------
 ! R1    R(1,2)                  1.39           estimate D2E/DX2                !
 ! R2    R(1,6)                  1.39           estimate D2E/DX2                !
 ! R3    R(2,3)                  1.39           estimate D2E/DX2                !
 ! R4    R(2,7)                  1.08           estimate D2E/DX2                !
 ! R5    R(3,4)                  1.39           estimate D2E/DX2                !
 ! R6    R(3,8)                  1.74           estimate D2E/DX2                !
 ! R7    R(4,5)                  1.39           estimate D2E/DX2                !
 ! R8    R(4,9)                  1.08           estimate D2E/DX2                !
 ! R9    R(5,6)                  1.39           estimate D2E/DX2                !
 ! R10   R(5,10)                 1.08           estimate D2E/DX2                !
 ! R11   R(6,11)                 1.08           estimate D2E/DX2                !
 ! A1    A(2,1,6)              120.0            estimate D2E/DX2                !
 ! A2    A(1,2,3)              120.0            estimate D2E/DX2                !
 ! A3    A(1,2,7)              120.0            estimate D2E/DX2                !
 ! A4    A(3,2,7)              120.0            estimate D2E/DX2                !
 ! A5    A(2,3,4)              120.0            estimate D2E/DX2                !
 ! A6    A(2,3,8)              120.0            estimate D2E/DX2                !
 ! A7    A(4,3,8)              120.0            estimate D2E/DX2                !
 ! A8    A(3,4,5)              120.0            estimate D2E/DX2                !
 ! A9    A(3,4,9)              120.0            estimate D2E/DX2                !
 ! A10   A(5,4,9)              120.0            estimate D2E/DX2                !
 ! A11   A(4,5,6)              120.0            estimate D2E/DX2                !
 ! A12   A(4,5,10)             120.0            estimate D2E/DX2                !
 ! A13   A(6,5,10)             120.0            estimate D2E/DX2                !
 ! A14   A(1,6,5)              120.0            estimate D2E/DX2                !
 ! A15   A(1,6,11)             120.0            estimate D2E/DX2                !
 ! A16   A(5,6,11)             120.0            estimate D2E/DX2                !
 ! D1    D(6,1,2,3)              0.0            estimate D2E/DX2                !
 ! D2    D(6,1,2,7)            180.0            estimate D2E/DX2                !
 ! D3    D(2,1,6,5)              0.0            estimate D2E/DX2                !
 ! D4    D(2,1,6,11)           180.0            estimate D2E/DX2                !
 ! D5    D(1,2,3,4)              0.0            estimate D2E/DX2                !
 ! D6    D(1,2,3,8)            180.0            estimate D2E/DX2                !
 ! D7    D(7,2,3,4)            180.0            estimate D2E/DX2                !
 ! D8    D(7,2,3,8)              0.0            estimate D2E/DX2                !
 ! D9    D(2,3,4,5)              0.0            estimate D2E/DX2                !
 ! D10   D(2,3,4,9)            180.0            estimate D2E/DX2                !
 ! D11   D(8,3,4,5)            180.0            estimate D2E/DX2                !
 ! D12   D(8,3,4,9)              0.0            estimate D2E/DX2                !
 ! D13   D(3,4,5,6)              0.0            estimate D2E/DX2                !
 ! D14   D(3,4,5,10)           180.0            estimate D2E/DX2                !
 ! D15   D(9,4,5,6)            180.0            estimate D2E/DX2                !
 ! D16   D(9,4,5,10)             0.0            estimate D2E/DX2                !
 ! D17   D(4,5,6,1)              0.0            estimate D2E/DX2                !
 ! D18   D(4,5,6,11)           180.0            estimate D2E/DX2                !
 ! D19   D(10,5,6,1)           180.0            estimate D2E/DX2                !
 ! D20   D(10,5,6,11)            0.0            estimate D2E/DX2                !
 --------------------------------------------------------------------------------
 Trust Radius=3.00D-01 FncErr=1.00D-07 GrdErr=1.00D-07 EigMax=2.50D+02 EigMin=1.00D-04
 Number of steps in this run=     57 maximum allowed number of steps=    100.
 GradGradGradGradGradGradGradGradGradGradGradGradGradGradGradGradGradGrad

                          Input orientation:                          
 ---------------------------------------------------------------------
 Center     Atomic      Atomic             Coordinates (Angstroms)
 Number     Number       Type             X           Y           Z
 ---------------------------------------------------------------------
      1          6           0        0.000000    1.390000    0.000000
      2          6           0        1.203775    0.695000    0.000000
      3          6           0        1.203775   -0.695000    0.000000
      4          6           0        0.000000   -1.390000    0.000000
      5          6           0       -1.203775   -0.695000    0.000000
      6          6           0       -1.203775    0.695000    0.000000
      7          1           0        2.139083    1.235000    0.000000
      8         17           0        2.710660   -1.565000    0.000000
      9          1           0        0.000000   -2.470000    0.000000
     10          1           0       -2.139083   -1.235000    0.000000
     11          1           0       -2.139083    1.235000    0.000000
 ---------------------------------------------------------------------
                    Distance matrix (angstroms):
                    1          2          3          4          5
     1  C    0.000000
     2  C    1.390000   0.000000
     3  C    2.407551   1.390000   0.000000
     4  C    2.780000   2.407551   1.390000   0.000000
     5  C    2.407551   2.780000   2.407551   1.390000   0.000000
     6  C    1.390000   2.407551   2.780000   2.407551   1.390000
     7  H    2.144691   1.080000   2.144691   3.386193   3.860000
     8  Cl   4.009950   2.716303   1.740000   2.716303   4.009950
     9  H    3.860000   3.386193   2.144691   1.080000   2.144691
    10  H    3.386193   3.860000   3.386193   2.144691   1.080000
    11  H    2.144691   3.386193   3.860000   3.386193   2.144691
                    6          7          8          9         10
     6  C    0.000000
     7  H    3.386193   0.000000
     8  Cl   4.520000   2.857744   0.000000
     9  H    3.386193   4.278165   2.857744   0.000000
    10  H    2.144691   4.940000   4.860957   2.470000   0.000000
    11  H    1.080000   4.278166   5.600000   4.278165   2.470000
                   11
    11  H    0.000000
 Stoichiometry    C6H4Cl(2)
 Framework group  CS[SG(C6H4Cl)]
 Deg. of freedom    19
 Full point group                 CS      NOp   2
 Largest Abelian subgroup         CS      NOp   2
 Largest concise Abelian subgroup C1      NOp   1
                         Standard orientation:                         
 ---------------------------------------------------------------------
 Center     Atomic      Atomic             Coordinates (Angstroms)
 Number     Number       Type             X           Y           Z
 ---------------------------------------------------------------------
      1          6           0       -1.241303   -1.606842    0.000000
      2          6           0       -1.241303   -0.216842    0.000000
      3          6           0       -0.037528    0.478158    0.000000
      4          6           0        1.166248   -0.216842    0.000000
      5          6           0        1.166248   -1.606842    0.000000
      6          6           0       -0.037528   -2.301842    0.000000
      7          1           0       -2.176611    0.323158    0.000000
      8         17           0       -0.037528    2.218158    0.000000
      9          1           0        2.101555    0.323158    0.000000
     10          1           0        2.101555   -2.146842    0.000000
     11          1           0       -0.037528   -3.381842    0.000000
 ---------------------------------------------------------------------
 Rotational constants (GHZ):           6.0705278           1.5916787           1.2610375
 Standard basis: VSTO-6G (5D, 7F)
 There are    25 symmetry adapted cartesian basis functions of A'  symmetry.
 There are     7 symmetry adapted cartesian basis functions of A"  symmetry.
 There are    25 symmetry adapted basis functions of A'  symmetry.
 There are     7 symmetry adapted basis functions of A"  symmetry.
    32 basis functions,   192 primitive gaussians,    32 cartesian basis functions
    18 alpha electrons       17 beta electrons
       nuclear repulsion energy       153.2874277614 Hartrees.
 Integral buffers will be    131072 words long.
 Regular integral format.
 Two-electron integral symmetry is turned off.
 Do NDO integrals.
 One-electron integrals computed using PRISM.
 NBasis=    32 RedAO= T EigKep=  1.00D+00  NBF=    25     7
 NBsUse=    32 1.00D-06 EigRej= -1.00D+00 NBFU=    25     7
 Simple Huckel Guess.
 Initial guess orbital symmetries:
 Alpha Orbitals:
       Occupied  (A') (A') (A') (A') (A') (A') (A') (A') (A') (A")
                 (A') (A') (A") (A') (A") (A') (A") (A')
       Virtual   (A") (A") (A") (A') (A') (A') (A') (A') (A') (A')
                 (A') (A') (A') (A')
 Beta  Orbitals:
       Occupied  (A') (A') (A') (A') (A') (A') (A') (A') (A') (A")
                 (A') (A') (A") (A') (A") (A') (A")
       Virtual   (A') (A") (A") (A") (A') (A') (A') (A') (A') (A')
                 (A') (A') (A') (A') (A')
 The electronic state of the initial guess is 2-A'.
 Initial guess <Sx>= 0.0000 <Sy>= 0.0000 <Sz>= 0.5000 <S**2>= 0.7500 S= 0.5000
 Keep J ints in memory in canonical form, NReq=862079.
 Overlap will be assumed to be unity.
 Requested convergence on RMS density matrix=1.00D-08 within  32 cycles.
 Requested convergence on MAX density matrix=1.00D-06.
 Requested convergence on             energy=1.00D-06.
 No special actions if energy rises.
 Fock symm off for IB=2 I1=    1 I=   26 J=   16 Cut=1.00D-07 Err=3.76D-03
 Fock matrix is not symmetric: symmetry in diagonalization turned off.
 Rare condition: small coef for last iteration:  0.000D+00
 SCF Done:  E(UAM1) =  0.114397665513     A.U. after   26 cycles
            NFock= 25  Conv=0.87D-08     -V/T= 1.0017
 <Sx>= 0.0000 <Sy>= 0.0000 <Sz>= 0.5000 <S**2>= 1.1628 S= 0.6886
 <L.S>=  0.00000000000    
 Annihilation of the first spin contaminant:
 S**2 before annihilation     1.1628,   after     0.8899
 QCSCF skips out because SCF is already converged.

 **********************************************************************

            Population analysis using the SCF Density.

 **********************************************************************

 Orbital symmetries:
 Alpha Orbitals:
       Occupied  (A') (A') (A') (A') (A') (A') (A') (A') (A') (A')
                 (A") (A') (A') (A") (A') (A') (A") (A")
       Virtual   (A") (A") (A') (A") (A') (A') (A') (A') (A') (A')
                 (A') (A') (A') (A')
 Beta  Orbitals:
       Occupied  (A') (A') (A') (A') (A') (A') (A') (A') (A') (A')
                 (A") (A') (A') (A") (A') (A") (A")
       Virtual   (A') (A") (A") (A') (A") (A') (A') (A') (A') (A')
                 (A') (A') (A') (A') (A')
 The electronic state is 2-A'.
 Alpha  occ. eigenvalues --   -1.46730  -1.37656  -1.17343  -1.15521  -0.87163
 Alpha  occ. eigenvalues --   -0.85799  -0.66868  -0.60885  -0.60104  -0.55166
 Alpha  occ. eigenvalues --   -0.53759  -0.51049  -0.46759  -0.46653  -0.44809
 Alpha  occ. eigenvalues --   -0.40450  -0.38542  -0.36761
 Alpha virt. eigenvalues --    0.00452   0.00760   0.03230   0.08801   0.13008
 Alpha virt. eigenvalues --    0.14111   0.14438   0.14834   0.15579   0.16433
 Alpha virt. eigenvalues --    0.18217   0.18659   0.18774   0.19766
  Beta  occ. eigenvalues --   -1.46141  -1.37468  -1.17120  -1.14387  -0.86754
  Beta  occ. eigenvalues --   -0.83372  -0.66385  -0.59770  -0.59396  -0.54846
  Beta  occ. eigenvalues --   -0.53183  -0.49663  -0.46373  -0.45951  -0.44358
  Beta  occ. eigenvalues --   -0.38031  -0.37032
  Beta virt. eigenvalues --   -0.00847   0.00279   0.02104   0.04639   0.09641
  Beta virt. eigenvalues --    0.13382   0.13704   0.14522   0.15133   0.15875
  Beta virt. eigenvalues --    0.16774   0.18374   0.18595   0.19939   0.20571
          Condensed to atoms (all electrons):
               1          2          3          4          5          6
     1  C    4.021463   0.000000   0.000000   0.000000   0.000000   0.000000
     2  C    0.000000   4.131304   0.000000   0.000000   0.000000   0.000000
     3  C    0.000000   0.000000   4.041052   0.000000   0.000000   0.000000
     4  C    0.000000   0.000000   0.000000   4.131584   0.000000   0.000000
     5  C    0.000000   0.000000   0.000000   0.000000   4.109870   0.000000
     6  C    0.000000   0.000000   0.000000   0.000000   0.000000   4.136041
     7  H    0.000000   0.000000   0.000000   0.000000   0.000000   0.000000
     8  Cl   0.000000   0.000000   0.000000   0.000000   0.000000   0.000000
     9  H    0.000000   0.000000   0.000000   0.000000   0.000000   0.000000
    10  H    0.000000   0.000000   0.000000   0.000000   0.000000   0.000000
    11  H    0.000000   0.000000   0.000000   0.000000   0.000000   0.000000
               7          8          9         10         11
     1  C    0.000000   0.000000   0.000000   0.000000   0.000000
     2  C    0.000000   0.000000   0.000000   0.000000   0.000000
     3  C    0.000000   0.000000   0.000000   0.000000   0.000000
     4  C    0.000000   0.000000   0.000000   0.000000   0.000000
     5  C    0.000000   0.000000   0.000000   0.000000   0.000000
     6  C    0.000000   0.000000   0.000000   0.000000   0.000000
     7  H    0.844793   0.000000   0.000000   0.000000   0.000000
     8  Cl   0.000000   7.021710   0.000000   0.000000   0.000000
     9  H    0.000000   0.000000   0.851923   0.000000   0.000000
    10  H    0.000000   0.000000   0.000000   0.855803   0.000000
    11  H    0.000000   0.000000   0.000000   0.000000   0.854457
          Atomic-Atomic Spin Densities.
               1          2          3          4          5          6
     1  C    1.367686   0.000000   0.000000   0.000000   0.000000   0.000000
     2  C    0.000000  -0.445283   0.000000   0.000000   0.000000   0.000000
     3  C    0.000000   0.000000   0.431253   0.000000   0.000000   0.000000
     4  C    0.000000   0.000000   0.000000  -0.421446   0.000000   0.000000
     5  C    0.000000   0.000000   0.000000   0.000000   0.436620   0.000000
     6  C    0.000000   0.000000   0.000000   0.000000   0.000000  -0.438876
     7  H    0.000000   0.000000   0.000000   0.000000   0.000000   0.000000
     8  Cl   0.000000   0.000000   0.000000   0.000000   0.000000   0.000000
     9  H    0.000000   0.000000   0.000000   0.000000   0.000000   0.000000
    10  H    0.000000   0.000000   0.000000   0.000000   0.000000   0.000000
    11  H    0.000000   0.000000   0.000000   0.000000   0.000000   0.000000
               7          8          9         10         11
     1  C    0.000000   0.000000   0.000000   0.000000   0.000000
     2  C    0.000000   0.000000   0.000000   0.000000   0.000000
     3  C    0.000000   0.000000   0.000000   0.000000   0.000000
     4  C    0.000000   0.000000   0.000000   0.000000   0.000000
     5  C    0.000000   0.000000   0.000000   0.000000   0.000000
     6  C    0.000000   0.000000   0.000000   0.000000   0.000000
     7  H    0.028503   0.000000   0.000000   0.000000   0.000000
     8  Cl   0.000000   0.005414   0.000000   0.000000   0.000000
     9  H    0.000000   0.000000   0.024971   0.000000   0.000000
    10  H    0.000000   0.000000   0.000000  -0.016275   0.000000
    11  H    0.000000   0.000000   0.000000   0.000000   0.027434
 Mulliken charges and spin densities:
               1          2
     1  C   -0.021463   1.367686
     2  C   -0.131304  -0.445283
     3  C   -0.041052   0.431253
     4  C   -0.131584  -0.421446
     5  C   -0.109870   0.436620
     6  C   -0.136041  -0.438876
     7  H    0.155207   0.028503
     8  Cl  -0.021710   0.005414
     9  H    0.148077   0.024971
    10  H    0.144197  -0.016275
    11  H    0.145543   0.027434
 Sum of Mulliken charges =  -0.00000   1.00000
 Mulliken charges and spin densities with hydrogens summed into heavy atoms:
               1          2
     1  C   -0.021463   1.367686
     2  C    0.023904  -0.416780
     3  C   -0.041052   0.431253
     4  C    0.016493  -0.396476
     5  C    0.034327   0.420345
     6  C    0.009502  -0.411442
     8  Cl  -0.021710   0.005414
 Charge=              0.0000 electrons
 Dipole moment (field-independent basis, Debye):
    X=              0.9102    Y=             -0.8317    Z=              0.0000  Tot=              1.2329
 N-N= 1.532874277614D+02 E-N=-2.122034554589D+02  KE=-6.882013765797D+01
 Symmetry A'   KE=-5.400297568755D+01
 Symmetry A"   KE=-1.481716197042D+01
 Symmetry A'   SP= 1.000000000000D+00
 Symmetry A"   SP=-4.218847493576D-15
 Calling FoFJK, ICntrl=      2127 FMM=F ISym2X=1 I1Cent= 0 IOpClX= 1 NMat=1 NMatS=1 NMatT=0.
 ***** Axes restored to original set *****
 -------------------------------------------------------------------
 Center     Atomic                   Forces (Hartrees/Bohr)
 Number     Number              X              Y              Z
 -------------------------------------------------------------------
      1        6           0.000366319   -0.054936801   -0.000000000
      2        6           0.001603947    0.034223993    0.000000000
      3        6           0.022596864   -0.013799798   -0.000000000
      4        6           0.000179468   -0.006955922    0.000000000
      5        6           0.005699140    0.002208337    0.000000000
      6        6           0.002385230    0.033059035    0.000000000
      7        1           0.013652424    0.008658825   -0.000000000
      8       17          -0.020137853    0.012314677   -0.000000000
      9        1          -0.000380773   -0.015634749   -0.000000000
     10        1          -0.012782694   -0.006903141   -0.000000000
     11        1          -0.013182073    0.007765543    0.000000000
 -------------------------------------------------------------------
 Cartesian Forces:  Max     0.054936801 RMS     0.015161471

 GradGradGradGradGradGradGradGradGradGradGradGradGradGradGradGradGradGrad
 Berny optimization.
 FormGI is forming the generalized inverse of G from B-inverse, IUseBI=4.
 Internal  Forces:  Max     0.037589775 RMS     0.010773120
 Search for a local minimum.
 Step number   1 out of a maximum of   57
 All quantities printed in internal units (Hartrees-Bohrs-Radians)
 Mixed Optimization -- RFO/linear search
 Second derivative matrix not updated -- first step.
 ITU=  0
     Eigenvalues ---    0.02221   0.02221   0.02221   0.02221   0.02221
     Eigenvalues ---    0.02221   0.02221   0.02221   0.16000   0.16000
     Eigenvalues ---    0.16000   0.16000   0.22000   0.23190   0.23486
     Eigenvalues ---    0.25000   0.31476   0.35994   0.35994   0.35994
     Eigenvalues ---    0.35994   0.42930   0.43551   0.47319   0.47319
     Eigenvalues ---    0.47319   0.47319
 RFO step:  Lambda=-1.68363906D-02 EMin= 2.22103665D-02
 Linear search not attempted -- first point.
 Iteration  1 RMS(Cart)=  0.04009208 RMS(Int)=  0.00130472
 Iteration  2 RMS(Cart)=  0.00197405 RMS(Int)=  0.00043300
 Iteration  3 RMS(Cart)=  0.00000118 RMS(Int)=  0.00043299
 Iteration  4 RMS(Cart)=  0.00000000 RMS(Int)=  0.00043299
 ClnCor:  largest displacement from symmetrization is 3.02D-11 for atom     8.
 Variable       Old X    -DE/DX   Delta X   Delta X   Delta X     New X
                                 (Linear)    (Quad)   (Total)
    R1        2.62672  -0.01307   0.00000  -0.02860  -0.02797   2.59875
    R2        2.62672  -0.01152   0.00000  -0.02558  -0.02497   2.60175
    R3        2.62672   0.01419   0.00000   0.02909   0.02908   2.65580
    R4        2.04090   0.01615   0.00000   0.04287   0.04287   2.08377
    R5        2.62672   0.02041   0.00000   0.04372   0.04313   2.66985
    R6        3.28812  -0.02360   0.00000  -0.07116  -0.07116   3.21696
    R7        2.62672   0.01883   0.00000   0.04036   0.03976   2.66648
    R8        2.04090   0.01563   0.00000   0.04150   0.04150   2.08240
    R9        2.62672   0.01458   0.00000   0.02963   0.02961   2.65633
   R10        2.04090   0.01452   0.00000   0.03854   0.03854   2.07945
   R11        2.04090   0.01530   0.00000   0.04060   0.04060   2.08151
    A1        2.09440   0.03759   0.00000   0.13458   0.13617   2.23057
    A2        2.09440  -0.02021   0.00000  -0.08546  -0.08491   2.00949
    A3        2.09440   0.00942   0.00000   0.03885   0.03857   2.13297
    A4        2.09440   0.01079   0.00000   0.04661   0.04634   2.14073
    A5        2.09440   0.00281   0.00000   0.01782   0.01715   2.11155
    A6        2.09440  -0.00239   0.00000  -0.01258  -0.01225   2.08215
    A7        2.09440  -0.00043   0.00000  -0.00524  -0.00491   2.08949
    A8        2.09440  -0.00262   0.00000   0.00087  -0.00043   2.09396
    A9        2.09440   0.00170   0.00000   0.00176   0.00241   2.09681
   A10        2.09440   0.00092   0.00000  -0.00263  -0.00198   2.09241
   A11        2.09440  -0.00113   0.00000   0.00259   0.00188   2.09628
   A12        2.09440   0.00099   0.00000   0.00109   0.00144   2.09584
   A13        2.09440   0.00014   0.00000  -0.00368  -0.00333   2.09107
   A14        2.09440  -0.01644   0.00000  -0.07039  -0.06987   2.02452
   A15        2.09440   0.00808   0.00000   0.03442   0.03416   2.12856
   A16        2.09440   0.00836   0.00000   0.03597   0.03571   2.13010
    D1        0.00000   0.00000   0.00000   0.00000   0.00000   0.00000
    D2        3.14159  -0.00000   0.00000  -0.00000   0.00000   3.14159
    D3        0.00000  -0.00000   0.00000  -0.00000   0.00000   0.00000
    D4        3.14159   0.00000   0.00000   0.00000   0.00000   3.14159
    D5        0.00000  -0.00000   0.00000  -0.00000   0.00000   0.00000
    D6        3.14159  -0.00000   0.00000  -0.00000   0.00000   3.14159
    D7        3.14159   0.00000   0.00000   0.00000   0.00000   3.14159
    D8        0.00000   0.00000   0.00000   0.00000   0.00000   0.00000
    D9        0.00000  -0.00000   0.00000  -0.00000   0.00000   0.00000
   D10        3.14159  -0.00000   0.00000  -0.00000   0.00000   3.14159
   D11        3.14159  -0.00000   0.00000  -0.00000   0.00000   3.14159
   D12        0.00000  -0.00000   0.00000  -0.00000   0.00000   0.00000
   D13        0.00000  -0.00000   0.00000  -0.00000   0.00000   0.00000
   D14        3.14159  -0.00000   0.00000  -0.00000   0.00000   3.14159
   D15        3.14159   0.00000   0.00000   0.00000   0.00000   3.14159
   D16        0.00000  -0.00000   0.00000   0.00000   0.00000   0.00000
   D17        0.00000   0.00000   0.00000   0.00000   0.00000   0.00000
   D18        3.14159  -0.00000   0.00000  -0.00000   0.00000   3.14159
   D19        3.14159   0.00000   0.00000   0.00000   0.00000   3.14159
   D20        0.00000   0.00000   0.00000   0.00000   0.00000   0.00000
         Item               Value     Threshold  Converged?
 Maximum Force            0.037590     0.000450     NO 
 RMS     Force            0.010773     0.000300     NO 
 Maximum Displacement     0.145351     0.001800     NO 
 RMS     Displacement     0.039837     0.001200     NO 
 Predicted change in Energy=-8.898949D-03
 GradGradGradGradGradGradGradGradGradGradGradGradGradGradGradGradGradGrad

                          Input orientation:                          
 ---------------------------------------------------------------------
 Center     Atomic      Atomic             Coordinates (Angstroms)
 Number     Number       Type             X           Y           Z
 ---------------------------------------------------------------------
      1          6           0        0.008202    1.313083    0.000000
      2          6           0        1.244419    0.710643    0.000000
      3          6           0        1.223666   -0.694595    0.000000
      4          6           0        0.001816   -1.403926    0.000000
      5          6           0       -1.221558   -0.700798    0.000000
      6          6           0       -1.226956    0.704863    0.000000
      7          1           0        2.181495    1.291853    0.000000
      8         17           0        2.695790   -1.549476    0.000000
      9          1           0        0.001787   -2.505884    0.000000
     10          1           0       -2.174245   -1.251486    0.000000
     11          1           0       -2.162839    1.285723    0.000000
 ---------------------------------------------------------------------
                    Distance matrix (angstroms):
                    1          2          3          4          5
     1  C    0.000000
     2  C    1.375197   0.000000
     3  C    2.346940   1.405391   0.000000
     4  C    2.717016   2.452644   1.412823   0.000000
     5  C    2.359667   2.841339   2.445232   1.411039   0.000000
     6  C    1.376789   2.471382   2.822062   2.440670   1.405672
     7  H    2.173397   1.102686   2.205314   3.466731   3.943530
     8  Cl   3.926497   2.686004   1.702343   2.697904   4.008226
     9  H    3.818973   3.448214   2.184893   1.101959   2.180576
    10  H    3.367505   3.941727   3.443244   2.181394   1.100395
    11  H    2.171213   3.455448   3.923018   3.452526   2.198243
                    6          7          8          9         10
     6  C    0.000000
     7  H    3.458626   0.000000
     8  Cl   4.524377   2.887499   0.000000
     9  H    3.437835   4.378805   2.858735   0.000000
    10  H    2.173628   5.043911   4.879144   2.511699   0.000000
    11  H    1.101487   4.344338   5.625356   4.365992   2.537234
                   11
    11  H    0.000000
 Stoichiometry    C6H4Cl(2)
 Framework group  CS[SG(C6H4Cl)]
 Deg. of freedom    19
 Full point group                 CS      NOp   2
 Largest Abelian subgroup         CS      NOp   2
 Largest concise Abelian subgroup C1      NOp   1
                         Standard orientation:                         
 ---------------------------------------------------------------------
 Center     Atomic      Atomic             Coordinates (Angstroms)
 Number     Number       Type             X           Y           Z
 ---------------------------------------------------------------------
      1          6           0       -1.332491   -1.433830   -0.000000
      2          6           0       -1.290107   -0.059287   -0.000000
      3          6           0        0.000000    0.498162    0.000000
      4          6           0        1.148075   -0.325241    0.000000
      5          6           0        1.008595   -1.729369    0.000000
      6          6           0       -0.271171   -2.310842   -0.000000
      7          1           0       -2.204530    0.556948   -0.000000
      8         17           0        0.175853    2.191398    0.000000
      9          1           0        2.153087    0.126715    0.000000
     10          1           0        1.901586   -2.372361    0.000000
     11          1           0       -0.417059   -3.402624   -0.000000
 ---------------------------------------------------------------------
 Rotational constants (GHZ):           6.0445420           1.6038913           1.2675522
 Standard basis: VSTO-6G (5D, 7F)
 There are    25 symmetry adapted cartesian basis functions of A'  symmetry.
 There are     7 symmetry adapted cartesian basis functions of A"  symmetry.
 There are    25 symmetry adapted basis functions of A'  symmetry.
 There are     7 symmetry adapted basis functions of A"  symmetry.
    32 basis functions,   192 primitive gaussians,    32 cartesian basis functions
    18 alpha electrons       17 beta electrons
       nuclear repulsion energy       153.0344516256 Hartrees.
 Integral buffers will be    131072 words long.
 Regular integral format.
 Two-electron integral symmetry is turned off.
 Do NDO integrals.
 One-electron integrals computed using PRISM.
 NBasis=    32 RedAO= T EigKep=  1.00D+00  NBF=    25     7
 NBsUse=    32 1.00D-06 EigRej= -1.00D+00 NBFU=    25     7
 Initial guess from the checkpoint file:  "calcs/am1/chks/ClPh_3_rad.chk"
 B after Tr=    -0.000000    0.000000    0.000000
         Rot=    0.998773    0.000000    0.000000    0.049522 Ang=   5.68 deg.
 Initial guess orbital symmetries:
 Alpha Orbitals:
       Occupied  (A') (A') (A') (A') (A') (A') (A') (A') (A') (A')
                 (A") (A') (A') (A") (A') (A') (A") (A")
       Virtual   (A") (A") (A') (A") (A') (A') (A') (A') (A') (A')
                 (A') (A') (A') (A')
 Beta  Orbitals:
       Occupied  (A') (A') (A') (A') (A') (A') (A') (A') (A') (A')
                 (A") (A') (A') (A") (A') (A") (A")
       Virtual   (A') (A") (A") (A') (A") (A') (A') (A') (A') (A')
                 (A') (A') (A') (A') (A')
 Initial guess <Sx>= 0.0000 <Sy>= 0.0000 <Sz>= 0.5000 <S**2>= 1.1628 S= 0.6886
 Keep J ints in memory in canonical form, NReq=862079.
 Overlap will be assumed to be unity.
 Requested convergence on RMS density matrix=1.00D-08 within  32 cycles.
 Requested convergence on MAX density matrix=1.00D-06.
 Requested convergence on             energy=1.00D-06.
 No special actions if energy rises.
 Fock symm off for IB=2 I1=    1 I=   26 J=    7 Cut=1.00D-07 Err=2.80D-03
 Fock matrix is not symmetric: symmetry in diagonalization turned off.
 SCF Done:  E(UAM1) =  0.105683032714     A.U. after   17 cycles
            NFock= 16  Conv=0.49D-08     -V/T= 1.0015
 <Sx>= 0.0000 <Sy>= 0.0000 <Sz>= 0.5000 <S**2>= 1.2118 S= 0.7090
 <L.S>=  0.00000000000    
 Annihilation of the first spin contaminant:
 S**2 before annihilation     1.2118,   after     0.9320
 QCSCF skips out because SCF is already converged.
 Calling FoFJK, ICntrl=      2127 FMM=F ISym2X=1 I1Cent= 0 IOpClX= 1 NMat=1 NMatS=1 NMatT=0.
 ***** Axes restored to original set *****
 -------------------------------------------------------------------
 Center     Atomic                   Forces (Hartrees/Bohr)
 Number     Number              X              Y              Z
 -------------------------------------------------------------------
      1        6          -0.001389104   -0.011642495    0.000000000
      2        6           0.000141227    0.011507286    0.000000000
      3        6          -0.001292028   -0.010783780    0.000000000
      4        6          -0.003476440    0.008992877    0.000000000
      5        6           0.008730014   -0.005010376    0.000000000
      6        6          -0.000447184    0.007511640    0.000000000
      7        1          -0.002602359   -0.002379327   -0.000000000
      8       17          -0.003657187    0.001460878    0.000000000
      9        1           0.000109295    0.002187643   -0.000000000
     10        1           0.001559916    0.000156274   -0.000000000
     11        1           0.002323849   -0.002000620   -0.000000000
 -------------------------------------------------------------------
 Cartesian Forces:  Max     0.011642495 RMS     0.004550638

 GradGradGradGradGradGradGradGradGradGradGradGradGradGradGradGradGradGrad
 Berny optimization.
 Using GEDIIS/GDIIS optimizer.
 FormGI is forming the generalized inverse of G from B-inverse, IUseBI=4.
 Internal  Forces:  Max     0.009867593 RMS     0.002694238
 Search for a local minimum.
 Step number   2 out of a maximum of   57
 All quantities printed in internal units (Hartrees-Bohrs-Radians)
 Mixed Optimization -- RFO/linear search
 Update second derivatives using D2CorX and points    1    2
 DE= -8.71D-03 DEPred=-8.90D-03 R= 9.79D-01
 TightC=F SS=  1.41D+00  RLast= 2.36D-01 DXNew= 5.0454D-01 7.0697D-01
 Trust test= 9.79D-01 RLast= 2.36D-01 DXMaxT set to 5.05D-01
 ITU=  1  0
 Use linear search instead of GDIIS.
     Eigenvalues ---    0.02221   0.02221   0.02221   0.02221   0.02221
     Eigenvalues ---    0.02221   0.02221   0.02221   0.15988   0.16000
     Eigenvalues ---    0.16000   0.16003   0.20118   0.22010   0.23833
     Eigenvalues ---    0.25042   0.30820   0.35971   0.35994   0.35994
     Eigenvalues ---    0.37377   0.42773   0.43892   0.46811   0.47319
     Eigenvalues ---    0.47319   0.53993
 RFO step:  Lambda=-9.72435245D-04 EMin= 2.22103665D-02
 Quartic linear search produced a step of  0.05390.
 Iteration  1 RMS(Cart)=  0.01003799 RMS(Int)=  0.00007978
 Iteration  2 RMS(Cart)=  0.00010678 RMS(Int)=  0.00003954
 Iteration  3 RMS(Cart)=  0.00000000 RMS(Int)=  0.00003954
 ClnCor:  largest displacement from symmetrization is 2.06D-11 for atom    11.
 Variable       Old X    -DE/DX   Delta X   Delta X   Delta X     New X
                                 (Linear)    (Quad)   (Total)
    R1        2.59875  -0.00471  -0.00151  -0.00979  -0.01124   2.58750
    R2        2.60175  -0.00631  -0.00135  -0.01373  -0.01502   2.58674
    R3        2.65580   0.00370   0.00157   0.00867   0.01023   2.66604
    R4        2.08377  -0.00347   0.00231  -0.01006  -0.00775   2.07603
    R5        2.66985  -0.00699   0.00232  -0.01576  -0.01349   2.65636
    R6        3.21696  -0.00390  -0.00384  -0.01308  -0.01692   3.20004
    R7        2.66648  -0.00987   0.00214  -0.02257  -0.02048   2.64600
    R8        2.08240  -0.00219   0.00224  -0.00633  -0.00409   2.07830
    R9        2.65633  -0.00069   0.00160  -0.00192  -0.00032   2.65601
   R10        2.07945  -0.00143   0.00208  -0.00412  -0.00204   2.07740
   R11        2.08151  -0.00303   0.00219  -0.00879  -0.00660   2.07491
    A1        2.23057   0.00437   0.00734   0.02122   0.02870   2.25927
    A2        2.00949  -0.00313  -0.00458  -0.01239  -0.01692   1.99257
    A3        2.13297   0.00224   0.00208   0.01063   0.01268   2.14565
    A4        2.14073   0.00089   0.00250   0.00176   0.00424   2.14497
    A5        2.11155  -0.00194   0.00092  -0.00768  -0.00681   2.10473
    A6        2.08215   0.00189  -0.00066   0.00771   0.00708   2.08922
    A7        2.08949   0.00005  -0.00026  -0.00003  -0.00026   2.08923
    A8        2.09396   0.00295  -0.00002   0.01213   0.01199   2.10595
    A9        2.09681  -0.00159   0.00013  -0.00681  -0.00662   2.09019
   A10        2.09241  -0.00136  -0.00011  -0.00532  -0.00537   2.08704
   A11        2.09628   0.00112   0.00010   0.00307   0.00311   2.09939
   A12        2.09584  -0.00123   0.00008  -0.00593  -0.00582   2.09002
   A13        2.09107   0.00011  -0.00018   0.00285   0.00270   2.09377
   A14        2.02452  -0.00338  -0.00377  -0.01636  -0.02008   2.00445
   A15        2.12856   0.00218   0.00184   0.01141   0.01323   2.14178
   A16        2.13010   0.00120   0.00192   0.00495   0.00685   2.13695
    D1       -0.00000  -0.00000   0.00000  -0.00000   0.00000   0.00000
    D2        3.14159  -0.00000   0.00000  -0.00000   0.00000   3.14159
    D3        0.00000   0.00000   0.00000   0.00000   0.00000   0.00000
    D4        3.14159   0.00000   0.00000   0.00000   0.00000   3.14159
    D5       -0.00000   0.00000   0.00000   0.00000   0.00000   0.00000
    D6        3.14159  -0.00000   0.00000  -0.00000   0.00000   3.14159
    D7        3.14159   0.00000   0.00000   0.00000   0.00000   3.14159
    D8        0.00000   0.00000   0.00000   0.00000   0.00000   0.00000
    D9        0.00000  -0.00000   0.00000  -0.00000   0.00000   0.00000
   D10        3.14159  -0.00000   0.00000  -0.00000   0.00000   3.14159
   D11        3.14159   0.00000   0.00000   0.00000   0.00000   3.14159
   D12       -0.00000  -0.00000   0.00000  -0.00000   0.00000   0.00000
   D13       -0.00000   0.00000   0.00000   0.00000   0.00000   0.00000
   D14        3.14159  -0.00000   0.00000  -0.00000   0.00000   3.14159
   D15        3.14159   0.00000   0.00000   0.00000   0.00000   3.14159
   D16        0.00000   0.00000   0.00000   0.00000  -0.00000   0.00000
   D17       -0.00000   0.00000   0.00000  -0.00000   0.00000   0.00000
   D18        3.14159  -0.00000   0.00000  -0.00000   0.00000   3.14159
   D19        3.14159   0.00000   0.00000   0.00000   0.00000   3.14159
   D20       -0.00000  -0.00000   0.00000  -0.00000   0.00000   0.00000
         Item               Value     Threshold  Converged?
 Maximum Force            0.009868     0.000450     NO 
 RMS     Force            0.002694     0.000300     NO 
 Maximum Displacement     0.034389     0.001800     NO 
 RMS     Displacement     0.010036     0.001200     NO 
 Predicted change in Energy=-5.051773D-04
 GradGradGradGradGradGradGradGradGradGradGradGradGradGradGradGradGradGrad

                          Input orientation:                          
 ---------------------------------------------------------------------
 Center     Atomic      Atomic             Coordinates (Angstroms)
 Number     Number       Type             X           Y           Z
 ---------------------------------------------------------------------
      1          6           0        0.006390    1.294885   -0.000000
      2          6           0        1.246442    0.714275   -0.000000
      3          6           0        1.223695   -0.696348    0.000000
      4          6           0        0.002291   -1.392136    0.000000
      5          6           0       -1.214342   -0.699049    0.000000
      6          6           0       -1.229481    0.706370   -0.000000
      7          1           0        2.178363    1.296009   -0.000000
      8         17           0        2.680853   -1.559052    0.000000
      9          1           0        0.000556   -2.491926    0.000000
     10          1           0       -2.160747   -1.258341    0.000000
     11          1           0       -2.162443    1.285311   -0.000000
 ---------------------------------------------------------------------
                    Distance matrix (angstroms):
                    1          2          3          4          5
     1  C    0.000000
     2  C    1.369247   0.000000
     3  C    2.333846   1.410806   0.000000
     4  C    2.687024   2.446401   1.405684   0.000000
     5  C    2.337939   2.837771   2.438038   1.400202   0.000000
     6  C    1.368842   2.475936   2.825896   2.433309   1.405501
     7  H    2.171973   1.098586   2.209270   3.458527   3.935823
     8  Cl   3.911229   2.688038   1.693390   2.683758   3.989003
     9  H    3.786816   3.439762   2.172596   1.099792   2.165729
    10  H    3.348948   3.937024   3.430785   2.167172   1.099314
    11  H    2.168854   3.456382   3.923379   3.443079   2.199223
                    6          7          8          9         10
     6  C    0.000000
     7  H    3.458479   0.000000
     8  Cl   4.519165   2.898942   0.000000
     9  H    3.426673   4.369359   2.838001   0.000000
    10  H    2.174247   5.035135   4.850930   2.488566   0.000000
    11  H    1.097994   4.340819   5.616753   4.352710   2.543653
                   11
    11  H    0.000000
 Stoichiometry    C6H4Cl(2)
 Framework group  CS[SG(C6H4Cl)]
 Deg. of freedom    19
 Full point group                 CS      NOp   2
 Largest Abelian subgroup         CS      NOp   2
 Largest concise Abelian subgroup C1      NOp   1
                         Standard orientation:                         
 ---------------------------------------------------------------------
 Center     Atomic      Atomic             Coordinates (Angstroms)
 Number     Number       Type             X           Y           Z
 ---------------------------------------------------------------------
      1          6           0       -1.326302   -1.419199    0.000000
      2          6           0       -1.298593   -0.050232    0.000000
      3          6           0        0.000000    0.501156    0.000000
      4          6           0        1.131408   -0.333029    0.000000
      5          6           0        0.991392   -1.726212    0.000000
      6          6           0       -0.287078   -2.310120    0.000000
      7          1           0       -2.208330    0.565617    0.000000
      8         17           0        0.197490    2.182991    0.000000
      9          1           0        2.137365    0.111485    0.000000
     10          1           0        1.886491   -2.364404    0.000000
     11          1           0       -0.437823   -3.397717    0.000000
 ---------------------------------------------------------------------
 Rotational constants (GHZ):           6.1022760           1.6123223           1.2753529
 Standard basis: VSTO-6G (5D, 7F)
 There are    25 symmetry adapted cartesian basis functions of A'  symmetry.
 There are     7 symmetry adapted cartesian basis functions of A"  symmetry.
 There are    25 symmetry adapted basis functions of A'  symmetry.
 There are     7 symmetry adapted basis functions of A"  symmetry.
    32 basis functions,   192 primitive gaussians,    32 cartesian basis functions
    18 alpha electrons       17 beta electrons
       nuclear repulsion energy       153.3248557964 Hartrees.
 Integral buffers will be    131072 words long.
 Regular integral format.
 Two-electron integral symmetry is turned off.
 Do NDO integrals.
 One-electron integrals computed using PRISM.
 NBasis=    32 RedAO= T EigKep=  1.00D+00  NBF=    25     7
 NBsUse=    32 1.00D-06 EigRej= -1.00D+00 NBFU=    25     7
 Initial guess from the checkpoint file:  "calcs/am1/chks/ClPh_3_rad.chk"
 B after Tr=     0.000000   -0.000000   -0.000000
         Rot=    0.999993    0.000000    0.000000    0.003720 Ang=   0.43 deg.
 Initial guess orbital symmetries:
 Alpha Orbitals:
       Occupied  (A') (A') (A') (A') (A') (A') (A') (A') (A') (A')
                 (A") (A') (A') (A") (A') (A') (A") (A")
       Virtual   (A") (A") (A') (A") (A') (A') (A') (A') (A') (A')
                 (A') (A') (A') (A')
 Beta  Orbitals:
       Occupied  (A') (A') (A') (A') (A') (A') (A') (A') (A') (A')
                 (A") (A') (A') (A") (A') (A") (A")
       Virtual   (A') (A") (A") (A') (A") (A') (A') (A') (A') (A')
                 (A') (A') (A') (A') (A')
 Initial guess <Sx>= 0.0000 <Sy>= 0.0000 <Sz>= 0.5000 <S**2>= 1.2118 S= 0.7090
 Keep J ints in memory in canonical form, NReq=862079.
 Overlap will be assumed to be unity.
 Requested convergence on RMS density matrix=1.00D-08 within  32 cycles.
 Requested convergence on MAX density matrix=1.00D-06.
 Requested convergence on             energy=1.00D-06.
 No special actions if energy rises.
 Fock symm off for IB=2 I1=    1 I=   26 J=    6 Cut=1.00D-07 Err=7.88D-04
 Fock matrix is not symmetric: symmetry in diagonalization turned off.
 SCF Done:  E(UAM1) =  0.105235930434     A.U. after   16 cycles
            NFock= 15  Conv=0.25D-08     -V/T= 1.0015
 <Sx>= 0.0000 <Sy>= 0.0000 <Sz>= 0.5000 <S**2>= 1.1857 S= 0.6982
 <L.S>=  0.00000000000    
 Annihilation of the first spin contaminant:
 S**2 before annihilation     1.1857,   after     0.9107
 QCSCF skips out because SCF is already converged.
 Calling FoFJK, ICntrl=      2127 FMM=F ISym2X=1 I1Cent= 0 IOpClX= 1 NMat=1 NMatS=1 NMatT=0.
 ***** Axes restored to original set *****
 -------------------------------------------------------------------
 Center     Atomic                   Forces (Hartrees/Bohr)
 Number     Number              X              Y              Z
 -------------------------------------------------------------------
      1        6           0.001259438    0.002431220    0.000000000
      2        6           0.001299643    0.002587105    0.000000000
      3        6           0.002815663   -0.002047163    0.000000000
      4        6          -0.000731429   -0.000091350    0.000000000
      5        6          -0.002410283   -0.003068213    0.000000000
      6        6          -0.003359939    0.002907376   -0.000000000
      7        1          -0.000789197   -0.001137037   -0.000000000
      8       17           0.001168404   -0.000395575   -0.000000000
      9        1           0.000068542   -0.000505410   -0.000000000
     10        1          -0.000013899    0.000136441   -0.000000000
     11        1           0.000693057   -0.000817395   -0.000000000
 -------------------------------------------------------------------
 Cartesian Forces:  Max     0.003359939 RMS     0.001439397

 GradGradGradGradGradGradGradGradGradGradGradGradGradGradGradGradGradGrad
 Berny optimization.
 Using GEDIIS/GDIIS optimizer.
 FormGI is forming the generalized inverse of G from B-inverse, IUseBI=4.
 Internal  Forces:  Max     0.003329192 RMS     0.001059681
 Search for a local minimum.
 Step number   3 out of a maximum of   57
 All quantities printed in internal units (Hartrees-Bohrs-Radians)
 Mixed Optimization -- RFO/linear search
 Update second derivatives using D2CorX and points    1    2    3
 DE= -4.47D-04 DEPred=-5.05D-04 R= 8.85D-01
 TightC=F SS=  1.41D+00  RLast= 6.12D-02 DXNew= 8.4853D-01 1.8363D-01
 Trust test= 8.85D-01 RLast= 6.12D-02 DXMaxT set to 5.05D-01
 ITU=  1  1  0
 Use linear search instead of GDIIS.
     Eigenvalues ---    0.02221   0.02221   0.02221   0.02221   0.02221
     Eigenvalues ---    0.02221   0.02221   0.02221   0.15237   0.16000
     Eigenvalues ---    0.16000   0.16031   0.18389   0.22037   0.24550
     Eigenvalues ---    0.25097   0.31272   0.35928   0.35994   0.36037
     Eigenvalues ---    0.37640   0.42630   0.44243   0.45923   0.47319
     Eigenvalues ---    0.47334   0.65737
 RFO step:  Lambda=-9.10324140D-05 EMin= 2.22103665D-02
 Quartic linear search produced a step of -0.10891.
 Iteration  1 RMS(Cart)=  0.00265974 RMS(Int)=  0.00000371
 Iteration  2 RMS(Cart)=  0.00000406 RMS(Int)=  0.00000217
 Iteration  3 RMS(Cart)=  0.00000000 RMS(Int)=  0.00000217
 ClnCor:  largest displacement from symmetrization is 3.55D-11 for atom     9.
 Variable       Old X    -DE/DX   Delta X   Delta X   Delta X     New X
                                 (Linear)    (Quad)   (Total)
    R1        2.58750   0.00194   0.00122   0.00151   0.00273   2.59023
    R2        2.58674   0.00310   0.00164   0.00306   0.00469   2.59143
    R3        2.66604   0.00262  -0.00111   0.00679   0.00567   2.67171
    R4        2.07603  -0.00127   0.00084  -0.00464  -0.00380   2.07222
    R5        2.65636   0.00262   0.00147   0.00228   0.00375   2.66011
    R6        3.20004   0.00121   0.00184   0.00020   0.00204   3.20208
    R7        2.64600   0.00215   0.00223   0.00015   0.00238   2.64838
    R8        2.07830   0.00051   0.00045   0.00046   0.00090   2.07921
    R9        2.65601   0.00333   0.00004   0.00630   0.00634   2.66235
   R10        2.07740  -0.00006   0.00022  -0.00054  -0.00032   2.07708
   R11        2.07491  -0.00102   0.00072  -0.00380  -0.00308   2.07182
    A1        2.25927  -0.00029  -0.00313   0.00447   0.00133   2.26061
    A2        1.99257   0.00088   0.00184  -0.00003   0.00182   1.99438
    A3        2.14565   0.00013  -0.00138   0.00399   0.00261   2.14826
    A4        2.14497  -0.00101  -0.00046  -0.00397  -0.00443   2.14054
    A5        2.10473  -0.00100   0.00074  -0.00532  -0.00458   2.10016
    A6        2.08922   0.00009  -0.00077   0.00191   0.00114   2.09036
    A7        2.08923   0.00091   0.00003   0.00341   0.00344   2.09267
    A8        2.10595   0.00093  -0.00131   0.00581   0.00451   2.11047
    A9        2.09019  -0.00054   0.00072  -0.00343  -0.00271   2.08748
   A10        2.08704  -0.00039   0.00058  -0.00238  -0.00180   2.08524
   A11        2.09939  -0.00038  -0.00034  -0.00080  -0.00114   2.09825
   A12        2.09002   0.00032   0.00063   0.00030   0.00093   2.09095
   A13        2.09377   0.00006  -0.00029   0.00051   0.00021   2.09398
   A14        2.00445  -0.00014   0.00219  -0.00413  -0.00194   2.00250
   A15        2.14178   0.00041  -0.00144   0.00458   0.00314   2.14493
   A16        2.13695  -0.00027  -0.00075  -0.00046  -0.00120   2.13575
    D1       -0.00000  -0.00000   0.00000  -0.00000   0.00000   0.00000
    D2        3.14159  -0.00000   0.00000  -0.00000   0.00000   3.14159
    D3        0.00000  -0.00000   0.00000  -0.00000   0.00000   0.00000
    D4        3.14159   0.00000   0.00000   0.00000   0.00000   3.14159
    D5        0.00000   0.00000   0.00000   0.00000   0.00000   0.00000
    D6        3.14159  -0.00000   0.00000  -0.00000   0.00000   3.14159
    D7        3.14159   0.00000   0.00000   0.00000   0.00000   3.14159
    D8       -0.00000   0.00000   0.00000   0.00000   0.00000   0.00000
    D9       -0.00000  -0.00000   0.00000  -0.00000   0.00000   0.00000
   D10        3.14159  -0.00000   0.00000  -0.00000   0.00000   3.14159
   D11        3.14159   0.00000   0.00000   0.00000   0.00000   3.14159
   D12        0.00000  -0.00000   0.00000  -0.00000   0.00000   0.00000
   D13       -0.00000   0.00000   0.00000   0.00000   0.00000   0.00000
   D14        3.14159  -0.00000   0.00000  -0.00000   0.00000   3.14159
   D15        3.14159   0.00000   0.00000   0.00000   0.00000   3.14159
   D16       -0.00000   0.00000   0.00000   0.00000   0.00000   0.00000
   D17        0.00000   0.00000   0.00000   0.00000   0.00000   0.00000
   D18        3.14159  -0.00000   0.00000  -0.00000   0.00000   3.14159
   D19        3.14159   0.00000   0.00000   0.00000   0.00000   3.14159
   D20       -0.00000  -0.00000   0.00000  -0.00000   0.00000   0.00000
         Item               Value     Threshold  Converged?
 Maximum Force            0.003329     0.000450     NO 
 RMS     Force            0.001060     0.000300     NO 
 Maximum Displacement     0.009467     0.001800     NO 
 RMS     Displacement     0.002660     0.001200     NO 
 Predicted change in Energy=-5.224815D-05
 GradGradGradGradGradGradGradGradGradGradGradGradGradGradGradGradGradGrad

                          Input orientation:                          
 ---------------------------------------------------------------------
 Center     Atomic      Atomic             Coordinates (Angstroms)
 Number     Number       Type             X           Y           Z
 ---------------------------------------------------------------------
      1          6           0        0.006276    1.296905   -0.000000
      2          6           0        1.247592    0.715590   -0.000000
      3          6           0        1.227258   -0.698071    0.000000
      4          6           0        0.002157   -1.391368    0.000000
      5          6           0       -1.216732   -0.699701    0.000000
      6          6           0       -1.232666    0.709064   -0.000000
      7          1           0        2.179363    1.293758   -0.000000
      8         17           0        2.685863   -1.560451    0.000000
      9          1           0        0.000283   -2.491636    0.000000
     10          1           0       -2.162573   -1.259615    0.000000
     11          1           0       -2.165245    1.285524   -0.000000
 ---------------------------------------------------------------------
                    Distance matrix (angstroms):
                    1          2          3          4          5
     1  C    0.000000
     2  C    1.370691   0.000000
     3  C    2.338958   1.413808   0.000000
     4  C    2.688276   2.447526   1.407670   0.000000
     5  C    2.341406   2.841821   2.443991   1.401462   0.000000
     6  C    1.371326   2.480267   2.833947   2.436515   1.408854
     7  H    2.173090   1.096574   2.207688   3.456896   3.937936
     8  Cl   3.917227   2.692394   1.694470   2.689027   3.996391
     9  H    3.788545   3.441232   2.173095   1.100269   2.166139
    10  H    3.352565   3.940896   3.436027   2.168736   1.099144
    11  H    2.171551   3.460099   3.929851   3.444327   2.200181
                    6          7          8          9         10
     6  C    0.000000
     7  H    3.461764   0.000000
     8  Cl   4.528308   2.898802   0.000000
     9  H    3.429962   4.367791   2.842436   0.000000
    10  H    2.177250   5.037074   4.857760   2.489141   0.000000
    11  H    1.096363   4.344616   5.624307   4.353901   2.545140
                   11
    11  H    0.000000
 Stoichiometry    C6H4Cl(2)
 Framework group  CS[SG(C6H4Cl)]
 Deg. of freedom    19
 Full point group                 CS      NOp   2
 Largest Abelian subgroup         CS      NOp   2
 Largest concise Abelian subgroup C1      NOp   1
                         Standard orientation:                         
 ---------------------------------------------------------------------
 Center     Atomic      Atomic             Coordinates (Angstroms)
 Number     Number       Type             X           Y           Z
 ---------------------------------------------------------------------
      1          6           0       -1.325723   -1.423048   -0.000000
      2          6           0       -1.299668   -0.052605   -0.000000
      3          6           0       -0.000000    0.503914   -0.000000
      4          6           0        1.131722   -0.333188    0.000000
      5          6           0        0.995735   -1.728036    0.000000
      6          6           0       -0.284706   -2.315695   -0.000000
      7          1           0       -2.206887    0.563372   -0.000000
      8         17           0        0.194415    2.187194    0.000000
      9          1           0        2.137591    0.112703    0.000000
     10          1           0        1.892002   -2.364292    0.000000
     11          1           0       -0.431924   -3.402129   -0.000000
 ---------------------------------------------------------------------
 Rotational constants (GHZ):           6.0927064           1.6063207           1.2711788
 Standard basis: VSTO-6G (5D, 7F)
 There are    25 symmetry adapted cartesian basis functions of A'  symmetry.
 There are     7 symmetry adapted cartesian basis functions of A"  symmetry.
 There are    25 symmetry adapted basis functions of A'  symmetry.
 There are     7 symmetry adapted basis functions of A"  symmetry.
    32 basis functions,   192 primitive gaussians,    32 cartesian basis functions
    18 alpha electrons       17 beta electrons
       nuclear repulsion energy       153.2071867270 Hartrees.
 Integral buffers will be    131072 words long.
 Regular integral format.
 Two-electron integral symmetry is turned off.
 Do NDO integrals.
 One-electron integrals computed using PRISM.
 NBasis=    32 RedAO= T EigKep=  1.00D+00  NBF=    25     7
 NBsUse=    32 1.00D-06 EigRej= -1.00D+00 NBFU=    25     7
 Initial guess from the checkpoint file:  "calcs/am1/chks/ClPh_3_rad.chk"
 B after Tr=     0.000000    0.000000   -0.000000
         Rot=    1.000000   -0.000000   -0.000000   -0.000709 Ang=  -0.08 deg.
 Initial guess orbital symmetries:
 Alpha Orbitals:
       Occupied  (A') (A') (A') (A') (A') (A') (A') (A') (A') (A')
                 (A") (A') (A') (A") (A') (A') (A") (A")
       Virtual   (A") (A") (A') (A") (A') (A') (A') (A') (A') (A')
                 (A') (A') (A') (A')
 Beta  Orbitals:
       Occupied  (A') (A') (A') (A') (A') (A') (A') (A') (A') (A')
                 (A") (A') (A') (A") (A') (A") (A")
       Virtual   (A") (A') (A") (A') (A") (A') (A') (A') (A') (A')
                 (A') (A') (A') (A') (A')
 Initial guess <Sx>= 0.0000 <Sy>= 0.0000 <Sz>= 0.5000 <S**2>= 1.1857 S= 0.6982
 Keep J ints in memory in canonical form, NReq=862079.
 Overlap will be assumed to be unity.
 Requested convergence on RMS density matrix=1.00D-08 within  32 cycles.
 Requested convergence on MAX density matrix=1.00D-06.
 Requested convergence on             energy=1.00D-06.
 No special actions if energy rises.
 Fock symm off for IB=2 I1=    1 I=   26 J=    5 Cut=1.00D-07 Err=2.13D-04
 Fock matrix is not symmetric: symmetry in diagonalization turned off.
 SCF Done:  E(UAM1) =  0.105188647357     A.U. after   15 cycles
            NFock= 14  Conv=0.33D-08     -V/T= 1.0015
 <Sx>= 0.0000 <Sy>= 0.0000 <Sz>= 0.5000 <S**2>= 1.2002 S= 0.7042
 <L.S>=  0.00000000000    
 Annihilation of the first spin contaminant:
 S**2 before annihilation     1.2002,   after     0.9226
 QCSCF skips out because SCF is already converged.
 Calling FoFJK, ICntrl=      2127 FMM=F ISym2X=1 I1Cent= 0 IOpClX= 1 NMat=1 NMatS=1 NMatT=0.
 ***** Axes restored to original set *****
 -------------------------------------------------------------------
 Center     Atomic                   Forces (Hartrees/Bohr)
 Number     Number              X              Y              Z
 -------------------------------------------------------------------
      1        6           0.000315074   -0.000204328    0.000000000
      2        6          -0.001046930   -0.000452049    0.000000000
      3        6           0.000136139    0.000279208   -0.000000000
      4        6           0.000044879    0.000646829    0.000000000
      5        6          -0.000114517   -0.000005019    0.000000000
      6        6           0.000501820   -0.000129322    0.000000000
      7        1           0.000096642   -0.000185926   -0.000000000
      8       17          -0.000191443    0.000264564   -0.000000000
      9        1           0.000041594   -0.000201621   -0.000000000
     10        1           0.000102061    0.000210456   -0.000000000
     11        1           0.000114681   -0.000222793   -0.000000000
 -------------------------------------------------------------------
 Cartesian Forces:  Max     0.001046930 RMS     0.000278004

 GradGradGradGradGradGradGradGradGradGradGradGradGradGradGradGradGradGrad
 Berny optimization.
 Using GEDIIS/GDIIS optimizer.
 FormGI is forming the generalized inverse of G from B-inverse, IUseBI=4.
 Internal  Forces:  Max     0.000791619 RMS     0.000227683
 Search for a local minimum.
 Step number   4 out of a maximum of   57
 All quantities printed in internal units (Hartrees-Bohrs-Radians)
 Mixed Optimization -- En-DIIS/RFO-DIIS
 Update second derivatives using D2CorX and points    1    2    3    4
 DE= -4.73D-05 DEPred=-5.22D-05 R= 9.05D-01
 TightC=F SS=  1.41D+00  RLast= 1.63D-02 DXNew= 8.4853D-01 4.8788D-02
 Trust test= 9.05D-01 RLast= 1.63D-02 DXMaxT set to 5.05D-01
 ITU=  1  1  1  0
 Use linear search instead of GDIIS.
     Eigenvalues ---    0.02221   0.02221   0.02221   0.02221   0.02221
     Eigenvalues ---    0.02221   0.02221   0.02221   0.14224   0.16000
     Eigenvalues ---    0.16001   0.16036   0.19609   0.22010   0.23683
     Eigenvalues ---    0.25068   0.31259   0.35285   0.35993   0.36049
     Eigenvalues ---    0.37165   0.43012   0.44011   0.47068   0.47319
     Eigenvalues ---    0.48337   0.74461
 RFO step:  Lambda=-4.73051285D-06 EMin= 2.22103665D-02
 Quartic linear search produced a step of -0.08534.
 Iteration  1 RMS(Cart)=  0.00096452 RMS(Int)=  0.00000052
 Iteration  2 RMS(Cart)=  0.00000054 RMS(Int)=  0.00000008
 ClnCor:  largest displacement from symmetrization is 6.97D-13 for atom    10.
 Variable       Old X    -DE/DX   Delta X   Delta X   Delta X     New X
                                 (Linear)    (Quad)   (Total)
    R1        2.59023  -0.00074  -0.00023  -0.00101  -0.00125   2.58898
    R2        2.59143  -0.00041  -0.00040  -0.00006  -0.00046   2.59097
    R3        2.67171  -0.00079  -0.00048  -0.00088  -0.00137   2.67034
    R4        2.07222  -0.00002   0.00032  -0.00043  -0.00011   2.07212
    R5        2.66011  -0.00035  -0.00032  -0.00001  -0.00033   2.65978
    R6        3.20208  -0.00030  -0.00017  -0.00048  -0.00066   3.20143
    R7        2.64838  -0.00025  -0.00020   0.00010  -0.00010   2.64828
    R8        2.07921   0.00020  -0.00008   0.00069   0.00061   2.07982
    R9        2.66235  -0.00041  -0.00054   0.00011  -0.00043   2.66192
   R10        2.07708  -0.00020   0.00003  -0.00048  -0.00046   2.07662
   R11        2.07182  -0.00021   0.00026  -0.00085  -0.00059   2.07124
    A1        2.26061  -0.00022  -0.00011  -0.00099  -0.00110   2.25950
    A2        1.99438   0.00030  -0.00015   0.00134   0.00119   1.99557
    A3        2.14826   0.00006  -0.00022   0.00096   0.00074   2.14900
    A4        2.14054  -0.00037   0.00038  -0.00230  -0.00192   2.13862
    A5        2.10016  -0.00004   0.00039  -0.00072  -0.00033   2.09982
    A6        2.09036  -0.00019  -0.00010  -0.00058  -0.00067   2.08969
    A7        2.09267   0.00023  -0.00029   0.00130   0.00101   2.09367
    A8        2.11047  -0.00006  -0.00039   0.00036  -0.00002   2.11045
    A9        2.08748  -0.00001   0.00023  -0.00048  -0.00025   2.08723
   A10        2.08524   0.00007   0.00015   0.00012   0.00027   2.08551
   A11        2.09825  -0.00015   0.00010  -0.00062  -0.00052   2.09773
   A12        2.09095   0.00021  -0.00008   0.00115   0.00107   2.09202
   A13        2.09398  -0.00006  -0.00002  -0.00054  -0.00055   2.09343
   A14        2.00250   0.00017   0.00017   0.00062   0.00079   2.00329
   A15        2.14493   0.00005  -0.00027   0.00069   0.00042   2.14535
   A16        2.13575  -0.00022   0.00010  -0.00132  -0.00121   2.13454
    D1       -0.00000   0.00000   0.00000   0.00000   0.00000   0.00000
    D2        3.14159  -0.00000   0.00000  -0.00000   0.00000   3.14159
    D3        0.00000   0.00000   0.00000   0.00000  -0.00000   0.00000
    D4        3.14159   0.00000   0.00000   0.00000   0.00000   3.14159
    D5        0.00000  -0.00000   0.00000  -0.00000  -0.00000   0.00000
    D6        3.14159  -0.00000   0.00000  -0.00000   0.00000   3.14159
    D7        3.14159   0.00000   0.00000   0.00000   0.00000   3.14159
    D8       -0.00000   0.00000   0.00000   0.00000   0.00000   0.00000
    D9        0.00000   0.00000   0.00000   0.00000   0.00000   0.00000
   D10        3.14159  -0.00000   0.00000  -0.00000   0.00000   3.14159
   D11        3.14159   0.00000   0.00000   0.00000   0.00000   3.14159
   D12       -0.00000  -0.00000   0.00000  -0.00000   0.00000   0.00000
   D13       -0.00000  -0.00000   0.00000  -0.00000   0.00000   0.00000
   D14        3.14159  -0.00000   0.00000  -0.00000   0.00000   3.14159
   D15        3.14159   0.00000   0.00000   0.00000   0.00000   3.14159
   D16        0.00000   0.00000   0.00000   0.00000  -0.00000   0.00000
   D17        0.00000  -0.00000   0.00000  -0.00000  -0.00000   0.00000
   D18        3.14159  -0.00000   0.00000  -0.00000   0.00000   3.14159
   D19        3.14159   0.00000   0.00000   0.00000   0.00000   3.14159
   D20       -0.00000  -0.00000   0.00000  -0.00000   0.00000   0.00000
         Item               Value     Threshold  Converged?
 Maximum Force            0.000792     0.000450     NO 
 RMS     Force            0.000228     0.000300     YES
 Maximum Displacement     0.003714     0.001800     NO 
 RMS     Displacement     0.000965     0.001200     YES
 Predicted change in Energy=-2.781650D-06
 GradGradGradGradGradGradGradGradGradGradGradGradGradGradGradGradGradGrad

                          Input orientation:                          
 ---------------------------------------------------------------------
 Center     Atomic      Atomic             Coordinates (Angstroms)
 Number     Number       Type             X           Y           Z
 ---------------------------------------------------------------------
      1          6           0        0.006451    1.297070   -0.000000
      2          6           0        1.246717    0.715067   -0.000000
      3          6           0        1.226971   -0.697880    0.000000
      4          6           0        0.002075   -1.391187    0.000000
      5          6           0       -1.216805   -0.699612    0.000000
      6          6           0       -1.232079    0.708933   -0.000000
      7          1           0        2.179314    1.291792   -0.000000
      8         17           0        2.686210   -1.558501    0.000000
      9          1           0        0.000555   -2.491779    0.000000
     10          1           0       -2.163008   -1.258437    0.000000
     11          1           0       -2.164824    1.284534   -0.000000
 ---------------------------------------------------------------------
                    Distance matrix (angstroms):
                    1          2          3          4          5
     1  C    0.000000
     2  C    1.370032   0.000000
     3  C    2.338695   1.413085   0.000000
     4  C    2.688260   2.446516   1.407497   0.000000
     5  C    2.341600   2.840820   2.443777   1.401408   0.000000
     6  C    1.371080   2.478804   2.833028   2.435906   1.408627
     7  H    2.172869   1.096516   2.205845   3.455250   3.936916
     8  Cl   3.916043   2.690958   1.694121   2.689345   3.996400
     9  H    3.788853   3.440462   2.173055   1.100593   2.166525
    10  H    3.352188   3.939663   3.436012   2.169148   1.098902
    11  H    2.171311   3.458743   3.928644   3.443099   2.198994
                    6          7          8          9         10
     6  C    0.000000
     7  H    3.460827   0.000000
     8  Cl   4.527057   2.895016   0.000000
     9  H    3.429860   4.366051   2.843193   0.000000
    10  H    2.176505   5.035814   4.858492   2.490409   0.000000
    11  H    1.096052   4.344144   5.622756   4.353092   2.542972
                   11
    11  H    0.000000
 Stoichiometry    C6H4Cl(2)
 Framework group  CS[SG(C6H4Cl)]
 Deg. of freedom    19
 Full point group                 CS      NOp   2
 Largest Abelian subgroup         CS      NOp   2
 Largest concise Abelian subgroup C1      NOp   1
                         Standard orientation:                         
 ---------------------------------------------------------------------
 Center     Atomic      Atomic             Coordinates (Angstroms)
 Number     Number       Type             X           Y           Z
 ---------------------------------------------------------------------
      1          6           0       -1.324128   -1.423987   -0.000000
      2          6           0       -1.298268   -0.054199   -0.000000
      3          6           0        0.000000    0.503752   -0.000000
      4          6           0        1.132411   -0.332127    0.000000
      5          6           0        0.997776   -1.727052    0.000000
      6          6           0       -0.282196   -2.315187    0.000000
      7          1           0       -2.205068    0.562293   -0.000000
      8         17           0        0.191016    2.187070   -0.000000
      9          1           0        2.138024    0.115138    0.000000
     10          1           0        1.893778   -2.363265    0.000000
     11          1           0       -0.427571   -3.401555   -0.000000
 ---------------------------------------------------------------------
 Rotational constants (GHZ):           6.0958096           1.6069560           1.2717118
 Standard basis: VSTO-6G (5D, 7F)
 There are    25 symmetry adapted cartesian basis functions of A'  symmetry.
 There are     7 symmetry adapted cartesian basis functions of A"  symmetry.
 There are    25 symmetry adapted basis functions of A'  symmetry.
 There are     7 symmetry adapted basis functions of A"  symmetry.
    32 basis functions,   192 primitive gaussians,    32 cartesian basis functions
    18 alpha electrons       17 beta electrons
       nuclear repulsion energy       153.2268897229 Hartrees.
 Integral buffers will be    131072 words long.
 Regular integral format.
 Two-electron integral symmetry is turned off.
 Do NDO integrals.
 One-electron integrals computed using PRISM.
 NBasis=    32 RedAO= T EigKep=  1.00D+00  NBF=    25     7
 NBsUse=    32 1.00D-06 EigRej= -1.00D+00 NBFU=    25     7
 Initial guess from the checkpoint file:  "calcs/am1/chks/ClPh_3_rad.chk"
 B after Tr=     0.000000   -0.000000    0.000000
         Rot=    1.000000   -0.000000   -0.000000   -0.000606 Ang=  -0.07 deg.
 Initial guess orbital symmetries:
 Alpha Orbitals:
       Occupied  (A') (A') (A') (A') (A') (A') (A') (A') (A') (A')
                 (A") (A') (A') (A") (A') (A') (A") (A")
       Virtual   (A") (A") (A') (A") (A') (A') (A') (A') (A') (A')
                 (A') (A') (A') (A')
 Beta  Orbitals:
       Occupied  (A') (A') (A') (A') (A') (A') (A') (A') (A') (A')
                 (A") (A') (A') (A") (A') (A") (A")
       Virtual   (A") (A') (A") (A') (A") (A') (A') (A') (A') (A')
                 (A') (A') (A') (A') (A')
 Initial guess <Sx>= 0.0000 <Sy>= 0.0000 <Sz>= 0.5000 <S**2>= 1.2002 S= 0.7042
 Keep J ints in memory in canonical form, NReq=862079.
 Overlap will be assumed to be unity.
 Requested convergence on RMS density matrix=1.00D-08 within  32 cycles.
 Requested convergence on MAX density matrix=1.00D-06.
 Requested convergence on             energy=1.00D-06.
 No special actions if energy rises.
 Fock symm off for IB=2 I1=    1 I=   26 J=   10 Cut=1.00D-07 Err=4.19D-05
 Fock matrix is not symmetric: symmetry in diagonalization turned off.
 SCF Done:  E(UAM1) =  0.105185707860     A.U. after   13 cycles
            NFock= 12  Conv=0.40D-08     -V/T= 1.0015
 <Sx>= 0.0000 <Sy>= 0.0000 <Sz>= 0.5000 <S**2>= 1.1980 S= 0.7033
 <L.S>=  0.00000000000    
 Annihilation of the first spin contaminant:
 S**2 before annihilation     1.1980,   after     0.9208
 QCSCF skips out because SCF is already converged.
 Calling FoFJK, ICntrl=      2127 FMM=F ISym2X=1 I1Cent= 0 IOpClX= 1 NMat=1 NMatS=1 NMatT=0.
 ***** Axes restored to original set *****
 -------------------------------------------------------------------
 Center     Atomic                   Forces (Hartrees/Bohr)
 Number     Number              X              Y              Z
 -------------------------------------------------------------------
      1        6          -0.000104033    0.000085973    0.000000000
      2        6          -0.000138618    0.000056393    0.000000000
      3        6           0.000025001   -0.000231655    0.000000000
      4        6          -0.000056115    0.000103152    0.000000000
      5        6           0.000084048   -0.000072488   -0.000000000
      6        6           0.000128969   -0.000033057    0.000000000
      7        1           0.000142297    0.000019330   -0.000000000
      8       17          -0.000036856    0.000031835   -0.000000000
      9        1           0.000007873    0.000006945   -0.000000000
     10        1           0.000016705    0.000047613   -0.000000000
     11        1          -0.000069270   -0.000014041   -0.000000000
 -------------------------------------------------------------------
 Cartesian Forces:  Max     0.000231655 RMS     0.000071643

 GradGradGradGradGradGradGradGradGradGradGradGradGradGradGradGradGradGrad
 Berny optimization.
 Using GEDIIS/GDIIS optimizer.
 FormGI is forming the generalized inverse of G from B-inverse, IUseBI=4.
 Internal  Forces:  Max     0.000134322 RMS     0.000046869
 Search for a local minimum.
 Step number   5 out of a maximum of   57
 All quantities printed in internal units (Hartrees-Bohrs-Radians)
 Mixed Optimization -- En-DIIS/RFO-DIIS
 Swapping is turned off.
 Update second derivatives using D2CorX and points    1    2    3    4    5
 DE= -2.94D-06 DEPred=-2.78D-06 R= 1.06D+00
 TightC=F SS=  1.41D+00  RLast= 4.23D-03 DXNew= 8.4853D-01 1.2691D-02
 Trust test= 1.06D+00 RLast= 4.23D-03 DXMaxT set to 5.05D-01
 ITU=  1  1  1  1  0
     Eigenvalues ---    0.02221   0.02221   0.02221   0.02221   0.02221
     Eigenvalues ---    0.02221   0.02221   0.02221   0.12755   0.15875
     Eigenvalues ---    0.16001   0.16010   0.18495   0.22077   0.22796
     Eigenvalues ---    0.25055   0.31125   0.35554   0.35982   0.36178
     Eigenvalues ---    0.38050   0.43489   0.44318   0.47089   0.47319
     Eigenvalues ---    0.54152   0.74698
 En-DIIS/RFO-DIIS/Sim-DIIS IScMMF=       -3 using points:     5    4
 RFO step:  Lambda=-3.68958823D-07.
 DidBck=F Rises=F RFO-DIIS coefs:    1.20806   -0.20806
 Iteration  1 RMS(Cart)=  0.00025835 RMS(Int)=  0.00000007
 Iteration  2 RMS(Cart)=  0.00000008 RMS(Int)=  0.00000001
 ClnCor:  largest displacement from symmetrization is 1.21D-12 for atom    11.
 Variable       Old X    -DE/DX   Delta X   Delta X   Delta X     New X
                                 (Linear)    (Quad)   (Total)
    R1        2.58898   0.00007  -0.00026   0.00037   0.00011   2.58909
    R2        2.59097  -0.00004  -0.00010   0.00002  -0.00008   2.59089
    R3        2.67034   0.00013  -0.00028   0.00054   0.00026   2.67060
    R4        2.07212   0.00013  -0.00002   0.00040   0.00037   2.07249
    R5        2.65978  -0.00008  -0.00007  -0.00010  -0.00017   2.65962
    R6        3.20143  -0.00005  -0.00014  -0.00007  -0.00020   3.20122
    R7        2.64828  -0.00011  -0.00002  -0.00022  -0.00024   2.64803
    R8        2.07982  -0.00001   0.00013  -0.00009   0.00004   2.07986
    R9        2.66192  -0.00002  -0.00009   0.00005  -0.00004   2.66188
   R10        2.07662  -0.00004  -0.00010  -0.00004  -0.00014   2.07649
   R11        2.07124   0.00005  -0.00012   0.00023   0.00011   2.07135
    A1        2.25950  -0.00010  -0.00023  -0.00022  -0.00045   2.25905
    A2        1.99557   0.00003   0.00025   0.00003   0.00027   1.99585
    A3        2.14900   0.00005   0.00015   0.00022   0.00037   2.14937
    A4        2.13862  -0.00007  -0.00040  -0.00025  -0.00065   2.13797
    A5        2.09982  -0.00003  -0.00007  -0.00007  -0.00014   2.09968
    A6        2.08969  -0.00000  -0.00014   0.00008  -0.00006   2.08963
    A7        2.09367   0.00003   0.00021  -0.00001   0.00020   2.09387
    A8        2.11045   0.00001  -0.00001   0.00000  -0.00000   2.11044
    A9        2.08723  -0.00001  -0.00005  -0.00002  -0.00007   2.08716
   A10        2.08551   0.00000   0.00006   0.00002   0.00007   2.08558
   A11        2.09773   0.00005  -0.00011   0.00021   0.00010   2.09783
   A12        2.09202   0.00001   0.00022   0.00001   0.00024   2.09226
   A13        2.09343  -0.00006  -0.00012  -0.00022  -0.00034   2.09309
   A14        2.00329   0.00005   0.00016   0.00005   0.00022   2.00351
   A15        2.14535   0.00003   0.00009   0.00020   0.00029   2.14564
   A16        2.13454  -0.00007  -0.00025  -0.00026  -0.00051   2.13403
    D1        0.00000  -0.00000   0.00000  -0.00000   0.00000   0.00000
    D2        3.14159  -0.00000  -0.00000  -0.00000   0.00000   3.14159
    D3       -0.00000  -0.00000   0.00000  -0.00000   0.00000   0.00000
    D4        3.14159   0.00000  -0.00000   0.00000   0.00000   3.14159
    D5       -0.00000   0.00000   0.00000   0.00000   0.00000   0.00000
    D6        3.14159  -0.00000  -0.00000  -0.00000   0.00000   3.14159
    D7        3.14159   0.00000  -0.00000   0.00000   0.00000   3.14159
    D8       -0.00000   0.00000   0.00000   0.00000   0.00000   0.00000
    D9        0.00000  -0.00000   0.00000  -0.00000  -0.00000   0.00000
   D10        3.14159  -0.00000  -0.00000  -0.00000   0.00000   3.14159
   D11        3.14159   0.00000  -0.00000   0.00000   0.00000   3.14159
   D12       -0.00000  -0.00000   0.00000  -0.00000   0.00000   0.00000
   D13       -0.00000  -0.00000   0.00000  -0.00000   0.00000   0.00000
   D14        3.14159  -0.00000  -0.00000  -0.00000   0.00000   3.14159
   D15        3.14159   0.00000  -0.00000   0.00000   0.00000   3.14159
   D16        0.00000   0.00000   0.00000   0.00000  -0.00000   0.00000
   D17        0.00000   0.00000   0.00000   0.00000  -0.00000   0.00000
   D18        3.14159  -0.00000  -0.00000  -0.00000   0.00000   3.14159
   D19        3.14159   0.00000  -0.00000   0.00000   0.00000   3.14159
   D20       -0.00000  -0.00000   0.00000  -0.00000   0.00000   0.00000
         Item               Value     Threshold  Converged?
 Maximum Force            0.000134     0.000450     YES
 RMS     Force            0.000047     0.000300     YES
 Maximum Displacement     0.000893     0.001800     YES
 RMS     Displacement     0.000258     0.001200     YES
 Predicted change in Energy=-1.844799D-07
 Optimization completed.
    -- Stationary point found.
                           ----------------------------
                           !   Optimized Parameters   !
                           ! (Angstroms and Degrees)  !
 --------------------------                            --------------------------
 ! Name  Definition              Value          Derivative Info.                !
 --------------------------------------------------------------------------------
 ! R1    R(1,2)                  1.37           -DE/DX =    0.0001              !
 ! R2    R(1,6)                  1.3711         -DE/DX =    0.0                 !
 ! R3    R(2,3)                  1.4131         -DE/DX =    0.0001              !
 ! R4    R(2,7)                  1.0965         -DE/DX =    0.0001              !
 ! R5    R(3,4)                  1.4075         -DE/DX =   -0.0001              !
 ! R6    R(3,8)                  1.6941         -DE/DX =    0.0                 !
 ! R7    R(4,5)                  1.4014         -DE/DX =   -0.0001              !
 ! R8    R(4,9)                  1.1006         -DE/DX =    0.0                 !
 ! R9    R(5,6)                  1.4086         -DE/DX =    0.0                 !
 ! R10   R(5,10)                 1.0989         -DE/DX =    0.0                 !
 ! R11   R(6,11)                 1.0961         -DE/DX =    0.0001              !
 ! A1    A(2,1,6)              129.4599         -DE/DX =   -0.0001              !
 ! A2    A(1,2,3)              114.3379         -DE/DX =    0.0                 !
 ! A3    A(1,2,7)              123.1284         -DE/DX =    0.0                 !
 ! A4    A(3,2,7)              122.5336         -DE/DX =   -0.0001              !
 ! A5    A(2,3,4)              120.3111         -DE/DX =    0.0                 !
 ! A6    A(2,3,8)              119.7304         -DE/DX =    0.0                 !
 ! A7    A(4,3,8)              119.9586         -DE/DX =    0.0                 !
 ! A8    A(3,4,5)              120.9196         -DE/DX =    0.0                 !
 ! A9    A(3,4,9)              119.5895         -DE/DX =    0.0                 !
 ! A10   A(5,4,9)              119.4909         -DE/DX =    0.0                 !
 ! A11   A(4,5,6)              120.1913         -DE/DX =    0.0                 !
 ! A12   A(4,5,10)             119.864          -DE/DX =    0.0                 !
 ! A13   A(6,5,10)             119.9447         -DE/DX =   -0.0001              !
 ! A14   A(1,6,5)              114.7802         -DE/DX =    0.0                 !
 ! A15   A(1,6,11)             122.9196         -DE/DX =    0.0                 !
 ! A16   A(5,6,11)             122.3002         -DE/DX =   -0.0001              !
 ! D1    D(6,1,2,3)              0.0            -DE/DX =    0.0                 !
 ! D2    D(6,1,2,7)            180.0            -DE/DX =    0.0                 !
 ! D3    D(2,1,6,5)              0.0            -DE/DX =    0.0                 !
 ! D4    D(2,1,6,11)           180.0            -DE/DX =    0.0                 !
 ! D5    D(1,2,3,4)              0.0            -DE/DX =    0.0                 !
 ! D6    D(1,2,3,8)            180.0            -DE/DX =    0.0                 !
 ! D7    D(7,2,3,4)            180.0            -DE/DX =    0.0                 !
 ! D8    D(7,2,3,8)              0.0            -DE/DX =    0.0                 !
 ! D9    D(2,3,4,5)              0.0            -DE/DX =    0.0                 !
 ! D10   D(2,3,4,9)            180.0            -DE/DX =    0.0                 !
 ! D11   D(8,3,4,5)            180.0            -DE/DX =    0.0                 !
 ! D12   D(8,3,4,9)              0.0            -DE/DX =    0.0                 !
 ! D13   D(3,4,5,6)              0.0            -DE/DX =    0.0                 !
 ! D14   D(3,4,5,10)           180.0            -DE/DX =    0.0                 !
 ! D15   D(9,4,5,6)            180.0            -DE/DX =    0.0                 !
 ! D16   D(9,4,5,10)             0.0            -DE/DX =    0.0                 !
 ! D17   D(4,5,6,1)              0.0            -DE/DX =    0.0                 !
 ! D18   D(4,5,6,11)           180.0            -DE/DX =    0.0                 !
 ! D19   D(10,5,6,1)           180.0            -DE/DX =    0.0                 !
 ! D20   D(10,5,6,11)            0.0            -DE/DX =    0.0                 !
 --------------------------------------------------------------------------------
 GradGradGradGradGradGradGradGradGradGradGradGradGradGradGradGradGradGrad

                          Input orientation:                          
 ---------------------------------------------------------------------
 Center     Atomic      Atomic             Coordinates (Angstroms)
 Number     Number       Type             X           Y           Z
 ---------------------------------------------------------------------
      1          6           0        0.006451    1.297070   -0.000000
      2          6           0        1.246717    0.715067   -0.000000
      3          6           0        1.226971   -0.697880    0.000000
      4          6           0        0.002075   -1.391187    0.000000
      5          6           0       -1.216805   -0.699612    0.000000
      6          6           0       -1.232079    0.708933   -0.000000
      7          1           0        2.179314    1.291792   -0.000000
      8         17           0        2.686210   -1.558501    0.000000
      9          1           0        0.000555   -2.491779    0.000000
     10          1           0       -2.163008   -1.258437    0.000000
     11          1           0       -2.164824    1.284534   -0.000000
 ---------------------------------------------------------------------
                    Distance matrix (angstroms):
                    1          2          3          4          5
     1  C    0.000000
     2  C    1.370032   0.000000
     3  C    2.338695   1.413085   0.000000
     4  C    2.688260   2.446516   1.407497   0.000000
     5  C    2.341600   2.840820   2.443777   1.401408   0.000000
     6  C    1.371080   2.478804   2.833028   2.435906   1.408627
     7  H    2.172869   1.096516   2.205845   3.455250   3.936916
     8  Cl   3.916043   2.690958   1.694121   2.689345   3.996400
     9  H    3.788853   3.440462   2.173055   1.100593   2.166525
    10  H    3.352188   3.939663   3.436012   2.169148   1.098902
    11  H    2.171311   3.458743   3.928644   3.443099   2.198994
                    6          7          8          9         10
     6  C    0.000000
     7  H    3.460827   0.000000
     8  Cl   4.527057   2.895016   0.000000
     9  H    3.429860   4.366051   2.843193   0.000000
    10  H    2.176505   5.035814   4.858492   2.490409   0.000000
    11  H    1.096052   4.344144   5.622756   4.353092   2.542972
                   11
    11  H    0.000000
 Stoichiometry    C6H4Cl(2)
 Framework group  CS[SG(C6H4Cl)]
 Deg. of freedom    19
 Full point group                 CS      NOp   2
 Largest Abelian subgroup         CS      NOp   2
 Largest concise Abelian subgroup C1      NOp   1
                         Standard orientation:                         
 ---------------------------------------------------------------------
 Center     Atomic      Atomic             Coordinates (Angstroms)
 Number     Number       Type             X           Y           Z
 ---------------------------------------------------------------------
      1          6           0       -1.324128   -1.423987   -0.000000
      2          6           0       -1.298268   -0.054199   -0.000000
      3          6           0        0.000000    0.503752    0.000000
      4          6           0        1.132411   -0.332127    0.000000
      5          6           0        0.997776   -1.727052    0.000000
      6          6           0       -0.282196   -2.315187   -0.000000
      7          1           0       -2.205068    0.562293   -0.000000
      8         17           0        0.191016    2.187070    0.000000
      9          1           0        2.138024    0.115138    0.000000
     10          1           0        1.893778   -2.363265    0.000000
     11          1           0       -0.427571   -3.401555   -0.000000
 ---------------------------------------------------------------------
 Rotational constants (GHZ):           6.0958096           1.6069560           1.2717118

 **********************************************************************

            Population analysis using the SCF Density.

 **********************************************************************

 Orbital symmetries:
 Alpha Orbitals:
       Occupied  (A') (A') (A') (A') (A') (A') (A') (A') (A') (A')
                 (A") (A') (A') (A") (A') (A') (A") (A")
       Virtual   (A") (A") (A') (A") (A') (A') (A') (A') (A') (A')
                 (A') (A') (A') (A')
 Beta  Orbitals:
       Occupied  (A') (A') (A') (A') (A') (A') (A') (A') (A') (A')
                 (A") (A') (A') (A") (A') (A") (A")
       Virtual   (A") (A') (A") (A') (A") (A') (A') (A') (A') (A')
                 (A') (A') (A') (A') (A')
 The electronic state is 2-A'.
 Alpha  occ. eigenvalues --   -1.46024  -1.38407  -1.16894  -1.14435  -0.87357
 Alpha  occ. eigenvalues --   -0.84846  -0.66413  -0.61294  -0.59949  -0.55156
 Alpha  occ. eigenvalues --   -0.53862  -0.50588  -0.47538  -0.46805  -0.44680
 Alpha  occ. eigenvalues --   -0.38586  -0.38255  -0.36195
 Alpha virt. eigenvalues --    0.00529   0.01153   0.04069   0.09040   0.12991
 Alpha virt. eigenvalues --    0.13606   0.13870   0.14551   0.16020   0.16685
 Alpha virt. eigenvalues --    0.17902   0.18658   0.19209   0.19940
  Beta  occ. eigenvalues --   -1.45276  -1.38095  -1.16769  -1.13300  -0.86947
  Beta  occ. eigenvalues --   -0.82478  -0.65969  -0.60098  -0.59395  -0.54778
  Beta  occ. eigenvalues --   -0.53123  -0.49445  -0.47164  -0.46041  -0.44242
  Beta  occ. eigenvalues --   -0.37878  -0.36608
  Beta virt. eigenvalues --    0.00335   0.00509   0.02492   0.05600   0.09730
  Beta virt. eigenvalues --    0.12870   0.13524   0.14250   0.14871   0.16295
  Beta virt. eigenvalues --    0.16917   0.18137   0.18565   0.20122   0.21138
          Condensed to atoms (all electrons):
               1          2          3          4          5          6
     1  C    4.066356   0.000000   0.000000   0.000000   0.000000   0.000000
     2  C    0.000000   4.114510   0.000000   0.000000   0.000000   0.000000
     3  C    0.000000   0.000000   4.061456   0.000000   0.000000   0.000000
     4  C    0.000000   0.000000   0.000000   4.138249   0.000000   0.000000
     5  C    0.000000   0.000000   0.000000   0.000000   4.116342   0.000000
     6  C    0.000000   0.000000   0.000000   0.000000   0.000000   4.121098
     7  H    0.000000   0.000000   0.000000   0.000000   0.000000   0.000000
     8  Cl   0.000000   0.000000   0.000000   0.000000   0.000000   0.000000
     9  H    0.000000   0.000000   0.000000   0.000000   0.000000   0.000000
    10  H    0.000000   0.000000   0.000000   0.000000   0.000000   0.000000
    11  H    0.000000   0.000000   0.000000   0.000000   0.000000   0.000000
               7          8          9         10         11
     1  C    0.000000   0.000000   0.000000   0.000000   0.000000
     2  C    0.000000   0.000000   0.000000   0.000000   0.000000
     3  C    0.000000   0.000000   0.000000   0.000000   0.000000
     4  C    0.000000   0.000000   0.000000   0.000000   0.000000
     5  C    0.000000   0.000000   0.000000   0.000000   0.000000
     6  C    0.000000   0.000000   0.000000   0.000000   0.000000
     7  H    0.831229   0.000000   0.000000   0.000000   0.000000
     8  Cl   0.000000   7.002898   0.000000   0.000000   0.000000
     9  H    0.000000   0.000000   0.850393   0.000000   0.000000
    10  H    0.000000   0.000000   0.000000   0.856546   0.000000
    11  H    0.000000   0.000000   0.000000   0.000000   0.840923
          Atomic-Atomic Spin Densities.
               1          2          3          4          5          6
     1  C    1.359588   0.000000   0.000000   0.000000   0.000000   0.000000
     2  C    0.000000  -0.476662   0.000000   0.000000   0.000000   0.000000
     3  C    0.000000   0.000000   0.473428   0.000000   0.000000   0.000000
     4  C    0.000000   0.000000   0.000000  -0.445466   0.000000   0.000000
     5  C    0.000000   0.000000   0.000000   0.000000   0.474111   0.000000
     6  C    0.000000   0.000000   0.000000   0.000000   0.000000  -0.469847
     7  H    0.000000   0.000000   0.000000   0.000000   0.000000   0.000000
     8  Cl   0.000000   0.000000   0.000000   0.000000   0.000000   0.000000
     9  H    0.000000   0.000000   0.000000   0.000000   0.000000   0.000000
    10  H    0.000000   0.000000   0.000000   0.000000   0.000000   0.000000
    11  H    0.000000   0.000000   0.000000   0.000000   0.000000   0.000000
               7          8          9         10         11
     1  C    0.000000   0.000000   0.000000   0.000000   0.000000
     2  C    0.000000   0.000000   0.000000   0.000000   0.000000
     3  C    0.000000   0.000000   0.000000   0.000000   0.000000
     4  C    0.000000   0.000000   0.000000   0.000000   0.000000
     5  C    0.000000   0.000000   0.000000   0.000000   0.000000
     6  C    0.000000   0.000000   0.000000   0.000000   0.000000
     7  H    0.032053   0.000000   0.000000   0.000000   0.000000
     8  Cl   0.000000   0.012794   0.000000   0.000000   0.000000
     9  H    0.000000   0.000000   0.026560   0.000000   0.000000
    10  H    0.000000   0.000000   0.000000  -0.017852   0.000000
    11  H    0.000000   0.000000   0.000000   0.000000   0.031293
 Mulliken charges and spin densities:
               1          2
     1  C   -0.066356   1.359588
     2  C   -0.114510  -0.476662
     3  C   -0.061456   0.473428
     4  C   -0.138249  -0.445466
     5  C   -0.116342   0.474111
     6  C   -0.121098  -0.469847
     7  H    0.168771   0.032053
     8  Cl  -0.002898   0.012794
     9  H    0.149607   0.026560
    10  H    0.143454  -0.017852
    11  H    0.159077   0.031293
 Sum of Mulliken charges =   0.00000   1.00000
 Mulliken charges and spin densities with hydrogens summed into heavy atoms:
               1          2
     1  C   -0.066356   1.359588
     2  C    0.054261  -0.444609
     3  C   -0.061456   0.473428
     4  C    0.011359  -0.418906
     5  C    0.027111   0.456259
     6  C    0.037979  -0.438554
     8  Cl  -0.002898   0.012794
 Charge=              0.0000 electrons
 Dipole moment (field-independent basis, Debye):
    X=              0.8114    Y=             -0.7745    Z=              0.0000  Tot=              1.1217
 N-N= 1.532268897229D+02 E-N=-2.121842450332D+02  KE=-6.881026070981D+01
 Symmetry A'   KE=-5.400717718235D+01
 Symmetry A"   KE=-1.480308352746D+01
 Symmetry A'   SP= 1.000000000000D+00
 Symmetry A"   SP=-2.220446049250D-15
 1\1\GINC-SH02-01N25\FOpt\UAM1\ZDO\C6H4Cl1(2)\JLAPIER\28-Sep-2026\0\\# 
 Opt AM1 SCF=XQC\\ClPh_3_rad am1\\0,2\C,0.0064508779,1.2970695777,0.\C,
 1.246716952,0.7150673061,0.\C,1.2269712029,-0.6978797413,0.\C,0.002074
 5063,-1.3911871444,0.\C,-1.2168047728,-0.6996116781,0.\C,-1.2320790024
 ,0.7089325867,0.\H,2.1793136373,1.2917923852,0.\Cl,2.6862098272,-1.558
 5011963,0.\H,0.0005554066,-2.4917787208,0.\H,-2.1630075804,-1.25843722
 73,0.\H,-2.1648242945,1.2845338524,0.\\Version=ES64L-G16RevB.01\State=
 2-A'\HF=0.1051857\S2=1.198019\S2-1=0.\S2A=0.920817\RMSD=4.021e-09\RMSF
 =7.164e-05\Dipole=-0.4083647,-0.1672712,0.\PG=CS [SG(C6H4Cl1)]\\@


 THE TEST OF A FIRST RATE INTELLIGENCE IS THE ABILITY TO HOLD TWO OPPOSED
 IDEAS IN THE MIND AT THE SAME TIME, AND STILL RETAIN THE ABILITY TO FUNCTION.
 ONE SHOULD, FOR EXAMPLE, BE ABLE TO SEE THAT THINGS ARE HOPELESS AND YET BE
 DETERMINED TO MAKE THEM OTHERWISE.

                                                       -- F. SCOTT FITZGERALD
 Job cpu time:       0 days  0 hours  0 minutes  3.4 seconds.
 Elapsed time:       0 days  0 hours  0 minutes  3.5 seconds.
 File lengths (MBytes):  RWF=      6 Int=      0 D2E=      0 Chk=      3 Scr=      1
 Normal termination of Gaussian 16 at Mon Sep 28 01:22:31 2026.
