 Entering Gaussian System, Link 0=g16
 Initial command:
 /share/software/user/restricted/gaussian/g16.B01/l1.exe "/lscratch/jlapier/g16_45667609_48/Gau-58491.inp" -scrdir="/lscratch/jlapier/g16_45667609_48/"
 Entering Link 1 = /share/software/user/restricted/gaussian/g16.B01/l1.exe PID=     58494.
  
 Copyright (c) 1988-2017, Gaussian, Inc.  All Rights Reserved.
  
 This is part of the Gaussian(R) 16 program.  It is based on
 the Gaussian(R) 09 system (copyright 2009, Gaussian, Inc.),
 the Gaussian(R) 03 system (copyright 2003, Gaussian, Inc.),
 the Gaussian(R) 98 system (copyright 1998, Gaussian, Inc.),
 the Gaussian(R) 94 system (copyright 1995, Gaussian, Inc.),
 the Gaussian 92(TM) system (copyright 1992, Gaussian, Inc.),
 the Gaussian 90(TM) system (copyright 1990, Gaussian, Inc.),
 the Gaussian 88(TM) system (copyright 1988, Gaussian, Inc.),
 the Gaussian 86(TM) system (copyright 1986, Carnegie Mellon
 University), and the Gaussian 82(TM) system (copyright 1983,
 Carnegie Mellon University). Gaussian is a federally registered
 trademark of Gaussian, Inc.
  
 This software contains proprietary and confidential information,
 including trade secrets, belonging to Gaussian, Inc.
  
 This software is provided under written license and may be
 used, copied, transmitted, or stored only in accord with that
 written license.
  
 The following legend is applicable only to US Government
 contracts under FAR:
  
                    RESTRICTED RIGHTS LEGEND
  
 Use, reproduction and disclosure by the US Government is
 subject to restrictions as set forth in subparagraphs (a)
 and (c) of the Commercial Computer Software - Restricted
 Rights clause in FAR 52.227-19.
  
 Gaussian, Inc.
 340 Quinnipiac St., Bldg. 40, Wallingford CT 06492
  
  
 ---------------------------------------------------------------
 Warning -- This program may not be used in any manner that
 competes with the business of Gaussian, Inc. or will provide
 assistance to any competitor of Gaussian, Inc.  The licensee
 of this program is prohibited from giving any competitor of
 Gaussian, Inc. access to this program.  By using this program,
 the user acknowledges that Gaussian, Inc. is engaged in the
 business of creating and licensing software in the field of
 computational chemistry and represents and warrants to the
 licensee that it is not a competitor of Gaussian, Inc. and that
 it will not use this program in any manner prohibited above.
 ---------------------------------------------------------------
  

 Cite this work as:
 Gaussian 16, Revision B.01,
 M. J. Frisch, G. W. Trucks, H. B. Schlegel, G. E. Scuseria, 
 M. A. Robb, J. R. Cheeseman, G. Scalmani, V. Barone, 
 G. A. Petersson, H. Nakatsuji, X. Li, M. Caricato, A. V. Marenich, 
 J. Bloino, B. G. Janesko, R. Gomperts, B. Mennucci, H. P. Hratchian, 
 J. V. Ortiz, A. F. Izmaylov, J. L. Sonnenberg, D. Williams-Young, 
 F. Ding, F. Lipparini, F. Egidi, J. Goings, B. Peng, A. Petrone, 
 T. Henderson, D. Ranasinghe, V. G. Zakrzewski, J. Gao, N. Rega, 
 G. Zheng, W. Liang, M. Hada, M. Ehara, K. Toyota, R. Fukuda, 
 J. Hasegawa, M. Ishida, T. Nakajima, Y. Honda, O. Kitao, H. Nakai, 
 T. Vreven, K. Throssell, J. A. Montgomery, Jr., J. E. Peralta, 
 F. Ogliaro, M. J. Bearpark, J. J. Heyd, E. N. Brothers, K. N. Kudin, 
 V. N. Staroverov, T. A. Keith, R. Kobayashi, J. Normand, 
 K. Raghavachari, A. P. Rendell, J. C. Burant, S. S. Iyengar, 
 J. Tomasi, M. Cossi, J. M. Millam, M. Klene, C. Adamo, R. Cammi, 
 J. W. Ochterski, R. L. Martin, K. Morokuma, O. Farkas, 
 J. B. Foresman, and D. J. Fox, Gaussian, Inc., Wallingford CT, 2016.
 
 ******************************************
 Gaussian 16:  ES64L-G16RevB.01 20-Dec-2017
                28-Sep-2026 
 ******************************************
 %nprocshared=1
 Will use up to    1 processors via shared memory.
 %mem=1GB
 %chk=calcs/am1/chks/ClPh_345_anion.chk
 -----------------
 # Opt AM1 SCF=XQC
 -----------------
 1/18=20,19=15,26=1,38=1/1,3;
 2/9=110,12=2,17=6,18=5,40=1/2;
 3/5=2,25=1,41=700000,71=1/1,2,3;
 4/35=1/1;
 5/5=2,8=3,13=1,35=1,38=5/2,8;
 6/7=2,8=2,9=2,10=2,28=1/1;
 7//1,2,3,16;
 1/18=20,19=15,26=1/3(2);
 2/9=110/2;
 99//99;
 2/9=110/2;
 3/5=2,25=1,41=700000,71=1,135=20/1,2,3;
 4/5=5,16=3,35=1/1;
 5/5=2,8=3,13=1,35=1,38=5/2,8;
 7//1,2,3,16;
 1/18=20,19=15,26=1/3(-5);
 2/9=110/2;
 6/7=2,8=2,9=2,10=2,19=2,28=1/1;
 99/9=1/99;
 ------------------
 ClPh_345_anion am1
 ------------------
 Symbolic Z-matrix:
 Charge = -1 Multiplicity = 1
 C                     0.        1.39      0. 
 C                     1.20378   0.695     0. 
 C                     1.20378  -0.695     0. 
 C                     0.       -1.39      0. 
 C                    -1.20378  -0.695     0. 
 C                    -1.20378   0.695     0. 
 H                     2.13908   1.235     0. 
 Cl                    2.71066  -1.565     0. 
 Cl                    0.       -3.13      0. 
 Cl                   -2.71066  -1.565     0. 
 H                    -2.13908   1.235     0. 
 

 GradGradGradGradGradGradGradGradGradGradGradGradGradGradGradGradGradGrad
 Berny optimization.
 Initialization pass.
                           ----------------------------
                           !    Initial Parameters    !
                           ! (Angstroms and Degrees)  !
 --------------------------                            --------------------------
 ! Name  Definition              Value          Derivative Info.                !
 --------------------------------------------------------------------------------
 ! R1    R(1,2)                  1.39           estimate D2E/DX2                !
 ! R2    R(1,6)                  1.39           estimate D2E/DX2                !
 ! R3    R(2,3)                  1.39           estimate D2E/DX2                !
 ! R4    R(2,7)                  1.08           estimate D2E/DX2                !
 ! R5    R(3,4)                  1.39           estimate D2E/DX2                !
 ! R6    R(3,8)                  1.74           estimate D2E/DX2                !
 ! R7    R(4,5)                  1.39           estimate D2E/DX2                !
 ! R8    R(4,9)                  1.74           estimate D2E/DX2                !
 ! R9    R(5,6)                  1.39           estimate D2E/DX2                !
 ! R10   R(5,10)                 1.74           estimate D2E/DX2                !
 ! R11   R(6,11)                 1.08           estimate D2E/DX2                !
 ! A1    A(2,1,6)              120.0            estimate D2E/DX2                !
 ! A2    A(1,2,3)              120.0            estimate D2E/DX2                !
 ! A3    A(1,2,7)              120.0            estimate D2E/DX2                !
 ! A4    A(3,2,7)              120.0            estimate D2E/DX2                !
 ! A5    A(2,3,4)              120.0            estimate D2E/DX2                !
 ! A6    A(2,3,8)              120.0            estimate D2E/DX2                !
 ! A7    A(4,3,8)              120.0            estimate D2E/DX2                !
 ! A8    A(3,4,5)              120.0            estimate D2E/DX2                !
 ! A9    A(3,4,9)              120.0            estimate D2E/DX2                !
 ! A10   A(5,4,9)              120.0            estimate D2E/DX2                !
 ! A11   A(4,5,6)              120.0            estimate D2E/DX2                !
 ! A12   A(4,5,10)             120.0            estimate D2E/DX2                !
 ! A13   A(6,5,10)             120.0            estimate D2E/DX2                !
 ! A14   A(1,6,5)              120.0            estimate D2E/DX2                !
 ! A15   A(1,6,11)             120.0            estimate D2E/DX2                !
 ! A16   A(5,6,11)             120.0            estimate D2E/DX2                !
 ! D1    D(6,1,2,3)              0.0            estimate D2E/DX2                !
 ! D2    D(6,1,2,7)            180.0            estimate D2E/DX2                !
 ! D3    D(2,1,6,5)              0.0            estimate D2E/DX2                !
 ! D4    D(2,1,6,11)           180.0            estimate D2E/DX2                !
 ! D5    D(1,2,3,4)              0.0            estimate D2E/DX2                !
 ! D6    D(1,2,3,8)            180.0            estimate D2E/DX2                !
 ! D7    D(7,2,3,4)            180.0            estimate D2E/DX2                !
 ! D8    D(7,2,3,8)              0.0            estimate D2E/DX2                !
 ! D9    D(2,3,4,5)              0.0            estimate D2E/DX2                !
 ! D10   D(2,3,4,9)            180.0            estimate D2E/DX2                !
 ! D11   D(8,3,4,5)            180.0            estimate D2E/DX2                !
 ! D12   D(8,3,4,9)              0.0            estimate D2E/DX2                !
 ! D13   D(3,4,5,6)              0.0            estimate D2E/DX2                !
 ! D14   D(3,4,5,10)           180.0            estimate D2E/DX2                !
 ! D15   D(9,4,5,6)            180.0            estimate D2E/DX2                !
 ! D16   D(9,4,5,10)             0.0            estimate D2E/DX2                !
 ! D17   D(4,5,6,1)              0.0            estimate D2E/DX2                !
 ! D18   D(4,5,6,11)           180.0            estimate D2E/DX2                !
 ! D19   D(10,5,6,1)           180.0            estimate D2E/DX2                !
 ! D20   D(10,5,6,11)            0.0            estimate D2E/DX2                !
 --------------------------------------------------------------------------------
 Trust Radius=3.00D-01 FncErr=1.00D-07 GrdErr=1.00D-07 EigMax=2.50D+02 EigMin=1.00D-04
 Number of steps in this run=     57 maximum allowed number of steps=    100.
 GradGradGradGradGradGradGradGradGradGradGradGradGradGradGradGradGradGrad

                          Input orientation:                          
 ---------------------------------------------------------------------
 Center     Atomic      Atomic             Coordinates (Angstroms)
 Number     Number       Type             X           Y           Z
 ---------------------------------------------------------------------
      1          6           0        0.000000    1.390000    0.000000
      2          6           0        1.203775    0.695000    0.000000
      3          6           0        1.203775   -0.695000    0.000000
      4          6           0        0.000000   -1.390000    0.000000
      5          6           0       -1.203775   -0.695000    0.000000
      6          6           0       -1.203775    0.695000    0.000000
      7          1           0        2.139083    1.235000    0.000000
      8         17           0        2.710660   -1.565000    0.000000
      9         17           0        0.000000   -3.130000    0.000000
     10         17           0       -2.710660   -1.565000    0.000000
     11          1           0       -2.139083    1.235000    0.000000
 ---------------------------------------------------------------------
                    Distance matrix (angstroms):
                    1          2          3          4          5
     1  C    0.000000
     2  C    1.390000   0.000000
     3  C    2.407551   1.390000   0.000000
     4  C    2.780000   2.407551   1.390000   0.000000
     5  C    2.407551   2.780000   2.407551   1.390000   0.000000
     6  C    1.390000   2.407551   2.780000   2.407551   1.390000
     7  H    2.144691   1.080000   2.144691   3.386193   3.860000
     8  Cl   4.009950   2.716303   1.740000   2.716303   4.009950
     9  Cl   4.520000   4.009950   2.716303   1.740000   2.716303
    10  Cl   4.009950   4.520000   4.009950   2.716303   1.740000
    11  H    2.144691   3.386193   3.860000   3.386193   2.144691
                    6          7          8          9         10
     6  C    0.000000
     7  H    3.386193   0.000000
     8  Cl   4.520000   2.857744   0.000000
     9  Cl   4.009950   4.860957   3.130000   0.000000
    10  Cl   2.716303   5.600000   5.421319   3.130000   0.000000
    11  H    1.080000   4.278166   5.600000   4.860957   2.857744
                   11
    11  H    0.000000
 Stoichiometry    C6H2Cl3(1-)
 Framework group  C2V[C2(CCCl),SGV(C4H2Cl2)]
 Deg. of freedom    10
 Full point group                 C2V     NOp   4
 Largest Abelian subgroup         C2V     NOp   4
 Largest concise Abelian subgroup C2      NOp   2
                         Standard orientation:                         
 ---------------------------------------------------------------------
 Center     Atomic      Atomic             Coordinates (Angstroms)
 Number     Number       Type             X           Y           Z
 ---------------------------------------------------------------------
      1          6           0        0.000000   -0.000000   -2.557978
      2          6           0        0.000000    1.203775   -1.862978
      3          6           0        0.000000    1.203775   -0.472978
      4          6           0       -0.000000    0.000000    0.222022
      5          6           0       -0.000000   -1.203775   -0.472978
      6          6           0       -0.000000   -1.203775   -1.862978
      7          1           0        0.000000    2.139083   -2.402978
      8         17           0        0.000000    2.710660    0.397022
      9         17           0       -0.000000    0.000000    1.962022
     10         17           0       -0.000000   -2.710660    0.397022
     11          1           0       -0.000000   -2.139083   -2.402978
 ---------------------------------------------------------------------
 Rotational constants (GHZ):           1.5562408           0.8527328           0.5508809
 Standard basis: VSTO-6G (5D, 7F)
 There are    16 symmetry adapted cartesian basis functions of A1  symmetry.
 There are     3 symmetry adapted cartesian basis functions of A2  symmetry.
 There are     6 symmetry adapted cartesian basis functions of B1  symmetry.
 There are    13 symmetry adapted cartesian basis functions of B2  symmetry.
 There are    16 symmetry adapted basis functions of A1  symmetry.
 There are     3 symmetry adapted basis functions of A2  symmetry.
 There are     6 symmetry adapted basis functions of B1  symmetry.
 There are    13 symmetry adapted basis functions of B2  symmetry.
    38 basis functions,   228 primitive gaussians,    38 cartesian basis functions
    24 alpha electrons       24 beta electrons
       nuclear repulsion energy       246.9126398839 Hartrees.
 Integral buffers will be    131072 words long.
 Regular integral format.
 Two-electron integral symmetry is turned off.
 Do NDO integrals.
 One-electron integrals computed using PRISM.
 NBasis=    38 RedAO= T EigKep=  1.00D+00  NBF=    16     3     6    13
 NBsUse=    38 1.00D-06 EigRej= -1.00D+00 NBFU=    16     3     6    13
 Simple Huckel Guess.
 Initial guess orbital symmetries:
       Occupied  (A1) (B2) (A1) (B2) (A1) (A1) (A1) (B2) (B2) (A1)
                 (B1) (B2) (A1) (A1) (A2) (B1) (B2) (B1) (A1) (B2)
                 (B2) (A2) (B1) (A1)
       Virtual   (B1) (A2) (B1) (A1) (B2) (A1) (B2) (A1) (B2) (A1)
                 (B2) (A1) (B2) (A1)
 The electronic state of the initial guess is 1-A1.
 Keep J ints in memory in canonical form, NReq=863588.
 Overlap will be assumed to be unity.
 Requested convergence on RMS density matrix=1.00D-08 within  32 cycles.
 Requested convergence on MAX density matrix=1.00D-06.
 Requested convergence on             energy=1.00D-06.
 No special actions if energy rises.
 Fock symm off for IB=2 I1=    1 I=   17 J=   13 Cut=1.00D-07 Err=6.07D-03
 Fock matrix is not symmetric: symmetry in diagonalization turned off.
 SCF Done:  E(RAM1) =  0.317555239562E-01 A.U. after   14 cycles
            NFock= 13  Conv=0.85D-08     -V/T= 1.0003
 QCSCF skips out because SCF is already converged.

 **********************************************************************

            Population analysis using the SCF Density.

 **********************************************************************

 Orbital symmetries:
       Occupied  (A1) (B2) (A1) (A1) (B2) (A1) (B2) (A1) (A1) (B2)
                 (A1) (B1) (B2) (A1) (A2) (B1) (A1) (B2) (B2) (B2)
                 (B1) (A2) (B1) (A1)
       Virtual   (A2) (A1) (B1) (A1) (B2) (B1) (B2) (A1) (A1) (B2)
                 (B2) (A1) (A1) (B2)
 The electronic state is 1-A1.
 Alpha  occ. eigenvalues --   -1.29292  -1.23462  -1.22428  -1.20339  -0.98461
 Alpha  occ. eigenvalues --   -0.94955  -0.69928  -0.66799  -0.51083  -0.44546
 Alpha  occ. eigenvalues --   -0.44436  -0.40058  -0.39918  -0.35938  -0.34337
 Alpha  occ. eigenvalues --   -0.32265  -0.30864  -0.30669  -0.29265  -0.27905
 Alpha  occ. eigenvalues --   -0.27640  -0.19181  -0.17263  -0.11562
 Alpha virt. eigenvalues --    0.17170   0.17656   0.18070   0.19989   0.20072
 Alpha virt. eigenvalues --    0.28595   0.30758   0.31490   0.33340   0.33854
 Alpha virt. eigenvalues --    0.34780   0.35072   0.39182   0.41125
          Condensed to atoms (all electrons):
               1          2          3          4          5          6
     1  C    4.381263   0.000000   0.000000   0.000000   0.000000   0.000000
     2  C    0.000000   4.142341   0.000000   0.000000   0.000000   0.000000
     3  C    0.000000   0.000000   4.048187   0.000000   0.000000   0.000000
     4  C    0.000000   0.000000   0.000000   4.127783   0.000000   0.000000
     5  C    0.000000   0.000000   0.000000   0.000000   4.048187   0.000000
     6  C    0.000000   0.000000   0.000000   0.000000   0.000000   4.142341
     7  H    0.000000   0.000000   0.000000   0.000000   0.000000   0.000000
     8  Cl   0.000000   0.000000   0.000000   0.000000   0.000000   0.000000
     9  Cl   0.000000   0.000000   0.000000   0.000000   0.000000   0.000000
    10  Cl   0.000000   0.000000   0.000000   0.000000   0.000000   0.000000
    11  H    0.000000   0.000000   0.000000   0.000000   0.000000   0.000000
               7          8          9         10         11
     1  C    0.000000   0.000000   0.000000   0.000000   0.000000
     2  C    0.000000   0.000000   0.000000   0.000000   0.000000
     3  C    0.000000   0.000000   0.000000   0.000000   0.000000
     4  C    0.000000   0.000000   0.000000   0.000000   0.000000
     5  C    0.000000   0.000000   0.000000   0.000000   0.000000
     6  C    0.000000   0.000000   0.000000   0.000000   0.000000
     7  H    0.890756   0.000000   0.000000   0.000000   0.000000
     8  Cl   0.000000   7.118249   0.000000   0.000000   0.000000
     9  Cl   0.000000   0.000000   7.091886   0.000000   0.000000
    10  Cl   0.000000   0.000000   0.000000   7.118249   0.000000
    11  H    0.000000   0.000000   0.000000   0.000000   0.890756
 Mulliken charges:
               1
     1  C   -0.381263
     2  C   -0.142341
     3  C   -0.048187
     4  C   -0.127783
     5  C   -0.048187
     6  C   -0.142341
     7  H    0.109244
     8  Cl  -0.118249
     9  Cl  -0.091886
    10  Cl  -0.118249
    11  H    0.109244
 Sum of Mulliken charges =  -1.00000
 Mulliken charges with hydrogens summed into heavy atoms:
               1
     1  C   -0.381263
     2  C   -0.033098
     3  C   -0.048187
     4  C   -0.127783
     5  C   -0.048187
     6  C   -0.033098
     8  Cl  -0.118249
     9  Cl  -0.091886
    10  Cl  -0.118249
 Charge=             -1.0000 electrons
 Dipole moment (field-independent basis, Debye):
    X=             -0.0000    Y=              0.0000    Z=              5.7742  Tot=              5.7742
 N-N= 2.469126398839D+02 E-N=-3.528289516539D+02  KE=-1.140809618260D+02
 Symmetry A1   KE=-5.019666057164D+01
 Symmetry A2   KE=-8.626719379471D+00
 Symmetry B1   KE=-1.743900752226D+01
 Symmetry B2   KE=-3.781857435264D+01
 Calling FoFJK, ICntrl=      2127 FMM=F ISym2X=1 I1Cent= 0 IOpClX= 0 NMat=1 NMatS=1 NMatT=0.
 ***** Axes restored to original set *****
 -------------------------------------------------------------------
 Center     Atomic                   Forces (Hartrees/Bohr)
 Number     Number              X              Y              Z
 -------------------------------------------------------------------
      1        6          -0.000000000    0.007117425    0.000000000
      2        6          -0.011065147    0.002265682   -0.000000000
      3        6           0.017770918   -0.006622862    0.000000000
      4        6          -0.000000000   -0.032862525    0.000000000
      5        6          -0.017770918   -0.006622862   -0.000000000
      6        6           0.011065147    0.002265682   -0.000000000
      7        1           0.011327261    0.006609462   -0.000000000
      8       17          -0.007232063    0.004803088   -0.000000000
      9       17          -0.000000000    0.011634360    0.000000000
     10       17           0.007232063    0.004803088   -0.000000000
     11        1          -0.011327261    0.006609462   -0.000000000
 -------------------------------------------------------------------
 Cartesian Forces:  Max     0.032862525 RMS     0.009104057

 GradGradGradGradGradGradGradGradGradGradGradGradGradGradGradGradGradGrad
 Berny optimization.
 FormGI is forming the generalized inverse of G from B-inverse, IUseBI=4.
 Internal  Forces:  Max     0.013732712 RMS     0.005546366
 Search for a local minimum.
 Step number   1 out of a maximum of   57
 All quantities printed in internal units (Hartrees-Bohrs-Radians)
 Mixed Optimization -- RFO/linear search
 Second derivative matrix not updated -- first step.
 ITU=  0
     Eigenvalues ---    0.02221   0.02221   0.02221   0.02221   0.02221
     Eigenvalues ---    0.02221   0.02221   0.02221   0.16000   0.16000
     Eigenvalues ---    0.23229   0.23479   0.25000   0.25000   0.25000
     Eigenvalues ---    0.25000   0.31476   0.31476   0.31476   0.35994
     Eigenvalues ---    0.35994   0.43086   0.43735   0.47319   0.47319
     Eigenvalues ---    0.47319   0.47319
 RFO step:  Lambda=-3.76057310D-03 EMin= 2.22103665D-02
 Linear search not attempted -- first point.
 Iteration  1 RMS(Cart)=  0.01491751 RMS(Int)=  0.00010330
 Iteration  2 RMS(Cart)=  0.00017685 RMS(Int)=  0.00002811
 Iteration  3 RMS(Cart)=  0.00000001 RMS(Int)=  0.00002811
 ClnCor:  largest displacement from symmetrization is 3.23D-11 for atom     9.
 Variable       Old X    -DE/DX   Delta X   Delta X   Delta X     New X
                                 (Linear)    (Quad)   (Total)
    R1        2.62672   0.00271   0.00000   0.00467   0.00463   2.63135
    R2        2.62672   0.00271   0.00000   0.00467   0.00463   2.63135
    R3        2.62672   0.01243   0.00000   0.02607   0.02607   2.65279
    R4        2.04090   0.01311   0.00000   0.03606   0.03606   2.07696
    R5        2.62672   0.01373   0.00000   0.02980   0.02984   2.65656
    R6        3.28812  -0.00866   0.00000  -0.02720  -0.02720   3.26092
    R7        2.62672   0.01373   0.00000   0.02980   0.02984   2.65656
    R8        3.28812  -0.01163   0.00000  -0.03653  -0.03653   3.25160
    R9        2.62672   0.01243   0.00000   0.02607   0.02607   2.65279
   R10        3.28812  -0.00866   0.00000  -0.02720  -0.02720   3.26092
   R11        2.04090   0.01311   0.00000   0.03606   0.03606   2.07696
    A1        2.09440  -0.00179   0.00000  -0.01302  -0.01313   2.08127
    A2        2.09440   0.00323   0.00000   0.01207   0.01204   2.10644
    A3        2.09440  -0.00167   0.00000  -0.00641  -0.00640   2.08800
    A4        2.09440  -0.00155   0.00000  -0.00566  -0.00564   2.08875
    A5        2.09440   0.00117   0.00000   0.00639   0.00643   2.10083
    A6        2.09440  -0.00148   0.00000  -0.00672  -0.00674   2.08766
    A7        2.09440   0.00031   0.00000   0.00033   0.00031   2.09470
    A8        2.09440  -0.00700   0.00000  -0.02391  -0.02382   2.07057
    A9        2.09440   0.00350   0.00000   0.01195   0.01191   2.10631
   A10        2.09440   0.00350   0.00000   0.01195   0.01191   2.10631
   A11        2.09440   0.00117   0.00000   0.00639   0.00643   2.10083
   A12        2.09440   0.00031   0.00000   0.00033   0.00031   2.09470
   A13        2.09440  -0.00148   0.00000  -0.00672  -0.00674   2.08766
   A14        2.09440   0.00323   0.00000   0.01207   0.01204   2.10644
   A15        2.09440  -0.00167   0.00000  -0.00641  -0.00640   2.08800
   A16        2.09440  -0.00155   0.00000  -0.00566  -0.00564   2.08875
    D1        0.00000  -0.00000   0.00000  -0.00000   0.00000   0.00000
    D2        3.14159  -0.00000   0.00000  -0.00000   0.00000   3.14159
    D3       -0.00000   0.00000   0.00000   0.00000   0.00000   0.00000
    D4        3.14159   0.00000   0.00000   0.00000   0.00000   3.14159
    D5       -0.00000  -0.00000   0.00000  -0.00000   0.00000   0.00000
    D6        3.14159  -0.00000   0.00000  -0.00000   0.00000   3.14159
    D7        3.14159   0.00000   0.00000   0.00000   0.00000   3.14159
    D8       -0.00000  -0.00000   0.00000  -0.00000   0.00000   0.00000
    D9       -0.00000   0.00000   0.00000   0.00000   0.00000   0.00000
   D10        3.14159  -0.00000   0.00000  -0.00000   0.00000   3.14159
   D11        3.14159   0.00000   0.00000   0.00000   0.00000   3.14159
   D12        0.00000   0.00000   0.00000   0.00000  -0.00000   0.00000
   D13        0.00000  -0.00000   0.00000  -0.00000   0.00000   0.00000
   D14        3.14159  -0.00000   0.00000  -0.00000   0.00000   3.14159
   D15        3.14159  -0.00000   0.00000  -0.00000   0.00000   3.14159
   D16        0.00000  -0.00000   0.00000  -0.00000   0.00000   0.00000
   D17        0.00000   0.00000   0.00000   0.00000   0.00000   0.00000
   D18        3.14159   0.00000   0.00000   0.00000   0.00000   3.14159
   D19        3.14159   0.00000   0.00000   0.00000   0.00000   3.14159
   D20        0.00000   0.00000   0.00000   0.00000  -0.00000   0.00000
         Item               Value     Threshold  Converged?
 Maximum Force            0.013733     0.000450     NO 
 RMS     Force            0.005546     0.000300     NO 
 Maximum Displacement     0.063260     0.001800     NO 
 RMS     Displacement     0.014873     0.001200     NO 
 Predicted change in Energy=-1.899049D-03
 GradGradGradGradGradGradGradGradGradGradGradGradGradGradGradGradGradGrad

                          Input orientation:                          
 ---------------------------------------------------------------------
 Center     Atomic      Atomic             Coordinates (Angstroms)
 Number     Number       Type             X           Y           Z
 ---------------------------------------------------------------------
      1          6           0        0.000000    1.401768    0.000000
      2          6           0        1.201302    0.697644   -0.000000
      3          6           0        1.208993   -0.706130   -0.000000
      4          6           0       -0.000000   -1.423476   -0.000000
      5          6           0       -1.208993   -0.706130    0.000000
      6          6           0       -1.201302    0.697644    0.000000
      7          1           0        2.153225    1.247026   -0.000000
      8         17           0        2.713839   -1.550613   -0.000000
      9         17           0       -0.000000   -3.144147   -0.000000
     10         17           0       -2.713839   -1.550613    0.000000
     11          1           0       -2.153225    1.247026    0.000000
 ---------------------------------------------------------------------
                    Distance matrix (angstroms):
                    1          2          3          4          5
     1  C    0.000000
     2  C    1.392450   0.000000
     3  C    2.430000   1.403795   0.000000
     4  C    2.825244   2.437678   1.405791   0.000000
     5  C    2.430000   2.789283   2.417985   1.405791   0.000000
     6  C    1.392450   2.402603   2.789283   2.437678   1.403795
     7  H    2.158778   1.099081   2.169423   3.430446   3.888358
     8  Cl   4.010171   2.709691   1.725605   2.716815   4.012699
     9  Cl   4.545916   4.025231   2.721321   1.720671   2.721321
    10  Cl   4.010171   4.514752   4.012699   2.716815   1.725605
    11  H    2.158778   3.399216   3.888358   3.430446   2.169423
                    6          7          8          9         10
     6  C    0.000000
     7  H    3.399216   0.000000
     8  Cl   4.514752   2.853256   0.000000
     9  Cl   4.025231   4.890683   3.147106   0.000000
    10  Cl   2.709691   5.613831   5.427678   3.147106   0.000000
    11  H    1.099081   4.306450   5.613831   4.890683   2.853256
                   11
    11  H    0.000000
 Stoichiometry    C6H2Cl3(1-)
 Framework group  C2V[C2(CCCl),SGV(C4H2Cl2)]
 Deg. of freedom    10
 Full point group                 C2V     NOp   4
 Largest Abelian subgroup         C2V     NOp   4
 Largest concise Abelian subgroup C2      NOp   2
                         Standard orientation:                         
 ---------------------------------------------------------------------
 Center     Atomic      Atomic             Coordinates (Angstroms)
 Number     Number       Type             X           Y           Z
 ---------------------------------------------------------------------
      1          6           0        0.000000   -0.000000   -2.569289
      2          6           0        0.000000    1.201302   -1.865165
      3          6           0        0.000000    1.208993   -0.461391
      4          6           0       -0.000000    0.000000    0.255955
      5          6           0       -0.000000   -1.208993   -0.461391
      6          6           0       -0.000000   -1.201302   -1.865165
      7          1           0        0.000000    2.153225   -2.414547
      8         17           0       -0.000000    2.713839    0.383092
      9         17           0       -0.000000    0.000000    1.976626
     10         17           0       -0.000000   -2.713839    0.383092
     11          1           0       -0.000000   -2.153225   -2.414547
 ---------------------------------------------------------------------
 Rotational constants (GHZ):           1.5458193           0.8505975           0.5486817
 Standard basis: VSTO-6G (5D, 7F)
 There are    16 symmetry adapted cartesian basis functions of A1  symmetry.
 There are     3 symmetry adapted cartesian basis functions of A2  symmetry.
 There are     6 symmetry adapted cartesian basis functions of B1  symmetry.
 There are    13 symmetry adapted cartesian basis functions of B2  symmetry.
 There are    16 symmetry adapted basis functions of A1  symmetry.
 There are     3 symmetry adapted basis functions of A2  symmetry.
 There are     6 symmetry adapted basis functions of B1  symmetry.
 There are    13 symmetry adapted basis functions of B2  symmetry.
    38 basis functions,   228 primitive gaussians,    38 cartesian basis functions
    24 alpha electrons       24 beta electrons
       nuclear repulsion energy       246.5219918356 Hartrees.
 Integral buffers will be    131072 words long.
 Regular integral format.
 Two-electron integral symmetry is turned off.
 Do NDO integrals.
 One-electron integrals computed using PRISM.
 NBasis=    38 RedAO= T EigKep=  1.00D+00  NBF=    16     3     6    13
 NBsUse=    38 1.00D-06 EigRej= -1.00D+00 NBFU=    16     3     6    13
 Initial guess from the checkpoint file:  "calcs/am1/chks/ClPh_345_anion.chk"
 B after Tr=    -0.000000   -0.000000    0.000000
         Rot=    1.000000    0.000000   -0.000000   -0.000000 Ang=   0.00 deg.
 Initial guess orbital symmetries:
       Occupied  (A1) (B2) (A1) (A1) (B2) (A1) (B2) (A1) (A1) (B2)
                 (A1) (B1) (B2) (A1) (A2) (B1) (A1) (B2) (B2) (B2)
                 (B1) (A2) (B1) (A1)
       Virtual   (A2) (A1) (B1) (A1) (B2) (B1) (B2) (A1) (A1) (B2)
                 (B2) (A1) (A1) (B2)
 Keep J ints in memory in canonical form, NReq=863588.
 Overlap will be assumed to be unity.
 Requested convergence on RMS density matrix=1.00D-08 within  32 cycles.
 Requested convergence on MAX density matrix=1.00D-06.
 Requested convergence on             energy=1.00D-06.
 No special actions if energy rises.
 Fock symm off for IB=2 I1=    1 I=   17 J=   14 Cut=1.00D-07 Err=6.45D-04
 Fock matrix is not symmetric: symmetry in diagonalization turned off.
 SCF Done:  E(RAM1) =  0.300759642849E-01 A.U. after   11 cycles
            NFock= 10  Conv=0.86D-08     -V/T= 1.0003
 QCSCF skips out because SCF is already converged.
 Calling FoFJK, ICntrl=      2127 FMM=F ISym2X=1 I1Cent= 0 IOpClX= 0 NMat=1 NMatS=1 NMatT=0.
 ***** Axes restored to original set *****
 -------------------------------------------------------------------
 Center     Atomic                   Forces (Hartrees/Bohr)
 Number     Number              X              Y              Z
 -------------------------------------------------------------------
      1        6          -0.000000000   -0.001701510    0.000000000
      2        6          -0.004528515   -0.005503637    0.000000000
      3        6          -0.001259122    0.003753085   -0.000000000
      4        6          -0.000000000   -0.000762782    0.000000000
      5        6           0.001259122    0.003753085    0.000000000
      6        6           0.004528515   -0.005503637   -0.000000000
      7        1          -0.000317215   -0.001038740    0.000000000
      8       17          -0.002533519    0.001178370   -0.000000000
      9       17          -0.000000000    0.005686137    0.000000000
     10       17           0.002533519    0.001178370   -0.000000000
     11        1           0.000317215   -0.001038740   -0.000000000
 -------------------------------------------------------------------
 Cartesian Forces:  Max     0.005686137 RMS     0.002378693

 GradGradGradGradGradGradGradGradGradGradGradGradGradGradGradGradGradGrad
 Berny optimization.
 Using GEDIIS/GDIIS optimizer.
 FormGI is forming the generalized inverse of G from B-inverse, IUseBI=4.
 Internal  Forces:  Max     0.007387685 RMS     0.002334396
 Search for a local minimum.
 Step number   2 out of a maximum of   57
 All quantities printed in internal units (Hartrees-Bohrs-Radians)
 Mixed Optimization -- RFO/linear search
 Update second derivatives using D2CorX and points    1    2
 DE= -1.68D-03 DEPred=-1.90D-03 R= 8.84D-01
 TightC=F SS=  1.41D+00  RLast= 1.01D-01 DXNew= 5.0454D-01 3.0343D-01
 Trust test= 8.84D-01 RLast= 1.01D-01 DXMaxT set to 3.03D-01
 ITU=  1  0
 Use linear search instead of GDIIS.
     Eigenvalues ---    0.02221   0.02221   0.02221   0.02221   0.02221
     Eigenvalues ---    0.02221   0.02221   0.02221   0.15948   0.16000
     Eigenvalues ---    0.20808   0.23470   0.24411   0.25000   0.25000
     Eigenvalues ---    0.25031   0.27149   0.31476   0.31501   0.35994
     Eigenvalues ---    0.36081   0.43058   0.43725   0.47316   0.47319
     Eigenvalues ---    0.47319   0.69560
 RFO step:  Lambda=-4.84823383D-04 EMin= 2.22103665D-02
 Quartic linear search produced a step of -0.09022.
 Iteration  1 RMS(Cart)=  0.00739173 RMS(Int)=  0.00001292
 Iteration  2 RMS(Cart)=  0.00001163 RMS(Int)=  0.00000432
 Iteration  3 RMS(Cart)=  0.00000000 RMS(Int)=  0.00000432
 ClnCor:  largest displacement from symmetrization is 5.92D-12 for atom     9.
 Variable       Old X    -DE/DX   Delta X   Delta X   Delta X     New X
                                 (Linear)    (Quad)   (Total)
    R1        2.63135  -0.00377  -0.00042  -0.00615  -0.00656   2.62479
    R2        2.63135  -0.00377  -0.00042  -0.00615  -0.00656   2.62479
    R3        2.65279  -0.00739  -0.00235  -0.00852  -0.01087   2.64192
    R4        2.07696  -0.00079  -0.00325   0.00582   0.00257   2.07953
    R5        2.65656  -0.00536  -0.00269  -0.00388  -0.00657   2.64999
    R6        3.26092  -0.00279   0.00245  -0.01393  -0.01148   3.24944
    R7        2.65656  -0.00536  -0.00269  -0.00388  -0.00657   2.64999
    R8        3.25160  -0.00569   0.00330  -0.02432  -0.02103   3.23057
    R9        2.65279  -0.00739  -0.00235  -0.00852  -0.01087   2.64192
   R10        3.26092  -0.00279   0.00245  -0.01393  -0.01148   3.24944
   R11        2.07696  -0.00079  -0.00325   0.00582   0.00257   2.07953
    A1        2.08127  -0.00227   0.00118  -0.01090  -0.00970   2.07157
    A2        2.10644   0.00115  -0.00109   0.00729   0.00621   2.11265
    A3        2.08800   0.00020   0.00058   0.00064   0.00121   2.08921
    A4        2.08875  -0.00134   0.00051  -0.00793  -0.00742   2.08133
    A5        2.10083   0.00010  -0.00058   0.00140   0.00081   2.10164
    A6        2.08766   0.00030   0.00061  -0.00021   0.00041   2.08806
    A7        2.09470  -0.00040  -0.00003  -0.00120  -0.00122   2.09348
    A8        2.07057  -0.00023   0.00215  -0.00648  -0.00434   2.06623
    A9        2.10631   0.00011  -0.00107   0.00324   0.00217   2.10848
   A10        2.10631   0.00011  -0.00107   0.00324   0.00217   2.10848
   A11        2.10083   0.00010  -0.00058   0.00140   0.00081   2.10164
   A12        2.09470  -0.00040  -0.00003  -0.00120  -0.00122   2.09348
   A13        2.08766   0.00030   0.00061  -0.00021   0.00041   2.08806
   A14        2.10644   0.00115  -0.00109   0.00729   0.00621   2.11265
   A15        2.08800   0.00020   0.00058   0.00064   0.00121   2.08921
   A16        2.08875  -0.00134   0.00051  -0.00793  -0.00742   2.08133
    D1        0.00000  -0.00000   0.00000  -0.00000   0.00000   0.00000
    D2        3.14159  -0.00000   0.00000  -0.00000   0.00000   3.14159
    D3       -0.00000   0.00000   0.00000   0.00000   0.00000   0.00000
    D4        3.14159   0.00000   0.00000   0.00000   0.00000   3.14159
    D5        0.00000  -0.00000   0.00000  -0.00000   0.00000   0.00000
    D6        3.14159  -0.00000   0.00000  -0.00000   0.00000   3.14159
    D7        3.14159  -0.00000   0.00000  -0.00000   0.00000   3.14159
    D8       -0.00000  -0.00000   0.00000  -0.00000   0.00000   0.00000
    D9       -0.00000   0.00000   0.00000   0.00000   0.00000   0.00000
   D10        3.14159   0.00000   0.00000   0.00000   0.00000   3.14159
   D11        3.14159   0.00000   0.00000   0.00000   0.00000   3.14159
   D12        0.00000   0.00000   0.00000   0.00000  -0.00000   0.00000
   D13        0.00000  -0.00000   0.00000  -0.00000   0.00000   0.00000
   D14        3.14159  -0.00000   0.00000  -0.00000   0.00000   3.14159
   D15        3.14159  -0.00000   0.00000  -0.00000   0.00000   3.14159
   D16       -0.00000  -0.00000   0.00000  -0.00000   0.00000   0.00000
   D17       -0.00000  -0.00000   0.00000  -0.00000   0.00000   0.00000
   D18        3.14159  -0.00000   0.00000  -0.00000   0.00000   3.14159
   D19        3.14159   0.00000   0.00000   0.00000   0.00000   3.14159
   D20        0.00000   0.00000   0.00000   0.00000   0.00000   0.00000
         Item               Value     Threshold  Converged?
 Maximum Force            0.007388     0.000450     NO 
 RMS     Force            0.002334     0.000300     NO 
 Maximum Displacement     0.022309     0.001800     NO 
 RMS     Displacement     0.007397     0.001200     NO 
 Predicted change in Energy=-2.606036D-04
 GradGradGradGradGradGradGradGradGradGradGradGradGradGradGradGradGradGrad

                          Input orientation:                          
 ---------------------------------------------------------------------
 Center     Atomic      Atomic             Coordinates (Angstroms)
 Number     Number       Type             X           Y           Z
 ---------------------------------------------------------------------
      1          6           0        0.000000    1.401574    0.000000
      2          6           0        1.194885    0.693403   -0.000000
      3          6           0        1.204444   -0.704609   -0.000000
      4          6           0       -0.000000   -1.422797    0.000000
      5          6           0       -1.204444   -0.704609    0.000000
      6          6           0       -1.194885    0.693403    0.000000
      7          1           0        2.151301    1.237678   -0.000000
      8         17           0        2.704793   -1.544689   -0.000000
      9         17           0       -0.000000   -3.132342   -0.000000
     10         17           0       -2.704793   -1.544689    0.000000
     11          1           0       -2.151301    1.237678    0.000000
 ---------------------------------------------------------------------
                    Distance matrix (angstroms):
                    1          2          3          4          5
     1  C    0.000000
     2  C    1.388977   0.000000
     3  C    2.426251   1.398044   0.000000
     4  C    2.824372   2.430237   1.402312   0.000000
     5  C    2.426251   2.776907   2.408887   1.402312   0.000000
     6  C    1.388977   2.389769   2.776907   2.430237   1.398044
     7  H    2.157536   1.100440   2.160791   3.421436   3.877306
     8  Cl   3.999547   2.699793   1.719530   2.707538   3.998483
     9  Cl   4.533916   4.008001   2.710087   1.709545   2.710087
    10  Cl   3.999547   4.496281   3.998483   2.707538   1.719530
    11  H    2.157536   3.390162   3.877306   3.421436   2.160791
                    6          7          8          9         10
     6  C    0.000000
     7  H    3.390162   0.000000
     8  Cl   4.496281   2.836886   0.000000
     9  Cl   4.008001   4.870849   3.136327   0.000000
    10  Cl   2.699793   5.596715   5.409586   3.136327   0.000000
    11  H    1.100440   4.302603   5.596715   4.870849   2.836886
                   11
    11  H    0.000000
 Stoichiometry    C6H2Cl3(1-)
 Framework group  C2V[C2(CCCl),SGV(C4H2Cl2)]
 Deg. of freedom    10
 Full point group                 C2V     NOp   4
 Largest Abelian subgroup         C2V     NOp   4
 Largest concise Abelian subgroup C2      NOp   2
                         Standard orientation:                         
 ---------------------------------------------------------------------
 Center     Atomic      Atomic             Coordinates (Angstroms)
 Number     Number       Type             X           Y           Z
 ---------------------------------------------------------------------
      1          6           0       -0.000000   -0.000000   -2.565122
      2          6           0        0.000000    1.194885   -1.856950
      3          6           0        0.000000    1.204444   -0.458939
      4          6           0        0.000000    0.000000    0.259250
      5          6           0       -0.000000   -1.204444   -0.458939
      6          6           0       -0.000000   -1.194885   -1.856950
      7          1           0        0.000000    2.151301   -2.401225
      8         17           0        0.000000    2.704793    0.381142
      9         17           0        0.000000    0.000000    1.968795
     10         17           0       -0.000000   -2.704793    0.381142
     11          1           0       -0.000000   -2.151301   -2.401225
 ---------------------------------------------------------------------
 Rotational constants (GHZ):           1.5569406           0.8564750           0.5525284
 Standard basis: VSTO-6G (5D, 7F)
 There are    16 symmetry adapted cartesian basis functions of A1  symmetry.
 There are     3 symmetry adapted cartesian basis functions of A2  symmetry.
 There are     6 symmetry adapted cartesian basis functions of B1  symmetry.
 There are    13 symmetry adapted cartesian basis functions of B2  symmetry.
 There are    16 symmetry adapted basis functions of A1  symmetry.
 There are     3 symmetry adapted basis functions of A2  symmetry.
 There are     6 symmetry adapted basis functions of B1  symmetry.
 There are    13 symmetry adapted basis functions of B2  symmetry.
    38 basis functions,   228 primitive gaussians,    38 cartesian basis functions
    24 alpha electrons       24 beta electrons
       nuclear repulsion energy       247.0439552061 Hartrees.
 Integral buffers will be    131072 words long.
 Regular integral format.
 Two-electron integral symmetry is turned off.
 Do NDO integrals.
 One-electron integrals computed using PRISM.
 NBasis=    38 RedAO= T EigKep=  1.00D+00  NBF=    16     3     6    13
 NBsUse=    38 1.00D-06 EigRej= -1.00D+00 NBFU=    16     3     6    13
 Initial guess from the checkpoint file:  "calcs/am1/chks/ClPh_345_anion.chk"
 B after Tr=     0.000000    0.000000    0.000000
         Rot=    1.000000   -0.000000    0.000000   -0.000000 Ang=   0.00 deg.
 Initial guess orbital symmetries:
       Occupied  (A1) (B2) (A1) (A1) (B2) (A1) (B2) (A1) (A1) (A1)
                 (B2) (B1) (B2) (A1) (A2) (B1) (A1) (B2) (B2) (B2)
                 (B1) (A2) (B1) (A1)
       Virtual   (A2) (B1) (A1) (A1) (B2) (B1) (B2) (A1) (A1) (B2)
                 (B2) (A1) (A1) (B2)
 Keep J ints in memory in canonical form, NReq=863588.
 Overlap will be assumed to be unity.
 Requested convergence on RMS density matrix=1.00D-08 within  32 cycles.
 Requested convergence on MAX density matrix=1.00D-06.
 Requested convergence on             energy=1.00D-06.
 No special actions if energy rises.
 Fock symm off for IB=2 I1=    1 I=   17 J=    8 Cut=1.00D-07 Err=1.53D-04
 Fock matrix is not symmetric: symmetry in diagonalization turned off.
 SCF Done:  E(RAM1) =  0.298690947412E-01 A.U. after   11 cycles
            NFock= 10  Conv=0.37D-08     -V/T= 1.0003
 QCSCF skips out because SCF is already converged.
 Calling FoFJK, ICntrl=      2127 FMM=F ISym2X=1 I1Cent= 0 IOpClX= 0 NMat=1 NMatS=1 NMatT=0.
 ***** Axes restored to original set *****
 -------------------------------------------------------------------
 Center     Atomic                   Forces (Hartrees/Bohr)
 Number     Number              X              Y              Z
 -------------------------------------------------------------------
      1        6           0.000000000    0.001895193    0.000000000
      2        6           0.002087130    0.000132919   -0.000000000
      3        6           0.000810596    0.000970685    0.000000000
      4        6          -0.000000000   -0.000675741    0.000000000
      5        6          -0.000810596    0.000970685   -0.000000000
      6        6          -0.002087130    0.000132919   -0.000000000
      7        1          -0.000791594   -0.000589023   -0.000000000
      8       17           0.001108179   -0.000669371   -0.000000000
      9       17          -0.000000000   -0.000909871    0.000000000
     10       17          -0.001108179   -0.000669371   -0.000000000
     11        1           0.000791594   -0.000589023   -0.000000000
 -------------------------------------------------------------------
 Cartesian Forces:  Max     0.002087130 RMS     0.000818753

 GradGradGradGradGradGradGradGradGradGradGradGradGradGradGradGradGradGrad
 Berny optimization.
 Using GEDIIS/GDIIS optimizer.
 FormGI is forming the generalized inverse of G from B-inverse, IUseBI=4.
 Internal  Forces:  Max     0.001851436 RMS     0.000655347
 Search for a local minimum.
 Step number   3 out of a maximum of   57
 All quantities printed in internal units (Hartrees-Bohrs-Radians)
 Mixed Optimization -- En-DIIS/RFO-DIIS
 Update second derivatives using D2CorX and points    1    2    3
 DE= -2.07D-04 DEPred=-2.61D-04 R= 7.94D-01
 TightC=F SS=  1.41D+00  RLast= 3.80D-02 DXNew= 5.1031D-01 1.1403D-01
 Trust test= 7.94D-01 RLast= 3.80D-02 DXMaxT set to 3.03D-01
 ITU=  1  1  0
 Use linear search instead of GDIIS.
     Eigenvalues ---    0.02221   0.02221   0.02221   0.02221   0.02221
     Eigenvalues ---    0.02221   0.02221   0.02221   0.15644   0.16000
     Eigenvalues ---    0.20731   0.23467   0.24812   0.25000   0.25000
     Eigenvalues ---    0.25062   0.28849   0.31476   0.31865   0.35994
     Eigenvalues ---    0.36996   0.43013   0.43760   0.47319   0.47319
     Eigenvalues ---    0.48226   0.76861
 RFO step:  Lambda=-1.79584160D-05 EMin= 2.22103665D-02
 Quartic linear search produced a step of -0.17143.
 Iteration  1 RMS(Cart)=  0.00147965 RMS(Int)=  0.00000049
 Iteration  2 RMS(Cart)=  0.00000057 RMS(Int)=  0.00000027
 ClnCor:  largest displacement from symmetrization is 7.74D-12 for atom     9.
 Variable       Old X    -DE/DX   Delta X   Delta X   Delta X     New X
                                 (Linear)    (Quad)   (Total)
    R1        2.62479   0.00180   0.00113   0.00166   0.00278   2.62757
    R2        2.62479   0.00180   0.00113   0.00166   0.00278   2.62757
    R3        2.64192   0.00049   0.00186  -0.00182   0.00004   2.64196
    R4        2.07953  -0.00098  -0.00044  -0.00231  -0.00275   2.07678
    R5        2.64999   0.00185   0.00113   0.00131   0.00243   2.65242
    R6        3.24944   0.00129   0.00197   0.00146   0.00343   3.25287
    R7        2.64999   0.00185   0.00113   0.00131   0.00243   2.65242
    R8        3.23057   0.00091   0.00360  -0.00131   0.00230   3.23287
    R9        2.64192   0.00049   0.00186  -0.00182   0.00004   2.64196
   R10        3.24944   0.00129   0.00197   0.00146   0.00343   3.25287
   R11        2.07953  -0.00098  -0.00044  -0.00231  -0.00275   2.07678
    A1        2.07157  -0.00006   0.00166  -0.00199  -0.00033   2.07124
    A2        2.11265   0.00011  -0.00106   0.00143   0.00036   2.11301
    A3        2.08921   0.00007  -0.00021   0.00082   0.00061   2.08982
    A4        2.08133  -0.00018   0.00127  -0.00225  -0.00097   2.08036
    A5        2.10164  -0.00017  -0.00014  -0.00051  -0.00065   2.10099
    A6        2.08806   0.00016  -0.00007   0.00071   0.00064   2.08870
    A7        2.09348   0.00002   0.00021  -0.00020   0.00001   2.09349
    A8        2.06623   0.00019   0.00074   0.00015   0.00090   2.06713
    A9        2.10848  -0.00010  -0.00037  -0.00008  -0.00045   2.10803
   A10        2.10848  -0.00010  -0.00037  -0.00008  -0.00045   2.10803
   A11        2.10164  -0.00017  -0.00014  -0.00051  -0.00065   2.10099
   A12        2.09348   0.00002   0.00021  -0.00020   0.00001   2.09349
   A13        2.08806   0.00016  -0.00007   0.00071   0.00064   2.08870
   A14        2.11265   0.00011  -0.00106   0.00143   0.00036   2.11301
   A15        2.08921   0.00007  -0.00021   0.00082   0.00061   2.08982
   A16        2.08133  -0.00018   0.00127  -0.00225  -0.00097   2.08036
    D1        0.00000  -0.00000   0.00000  -0.00000   0.00000   0.00000
    D2        3.14159  -0.00000   0.00000  -0.00000   0.00000   3.14159
    D3       -0.00000   0.00000   0.00000   0.00000   0.00000   0.00000
    D4        3.14159   0.00000   0.00000   0.00000   0.00000   3.14159
    D5        0.00000  -0.00000   0.00000  -0.00000  -0.00000   0.00000
    D6        3.14159  -0.00000   0.00000  -0.00000   0.00000   3.14159
    D7        3.14159   0.00000   0.00000   0.00000   0.00000   3.14159
    D8        0.00000  -0.00000   0.00000  -0.00000   0.00000   0.00000
    D9       -0.00000   0.00000   0.00000   0.00000   0.00000   0.00000
   D10        3.14159   0.00000   0.00000   0.00000   0.00000   3.14159
   D11        3.14159   0.00000   0.00000   0.00000   0.00000   3.14159
   D12       -0.00000   0.00000   0.00000   0.00000   0.00000   0.00000
   D13        0.00000  -0.00000   0.00000  -0.00000   0.00000   0.00000
   D14        3.14159  -0.00000   0.00000  -0.00000   0.00000   3.14159
   D15        3.14159  -0.00000   0.00000  -0.00000   0.00000   3.14159
   D16        0.00000  -0.00000   0.00000  -0.00000  -0.00000   0.00000
   D17        0.00000   0.00000   0.00000   0.00000   0.00000   0.00000
   D18        3.14159   0.00000   0.00000   0.00000   0.00000   3.14159
   D19        3.14159   0.00000   0.00000   0.00000   0.00000   3.14159
   D20       -0.00000   0.00000   0.00000   0.00000   0.00000   0.00000
         Item               Value     Threshold  Converged?
 Maximum Force            0.001851     0.000450     NO 
 RMS     Force            0.000655     0.000300     NO 
 Maximum Displacement     0.004998     0.001800     NO 
 RMS     Displacement     0.001480     0.001200     NO 
 Predicted change in Energy=-1.842470D-05
 GradGradGradGradGradGradGradGradGradGradGradGradGradGradGradGradGradGrad

                          Input orientation:                          
 ---------------------------------------------------------------------
 Center     Atomic      Atomic             Coordinates (Angstroms)
 Number     Number       Type             X           Y           Z
 ---------------------------------------------------------------------
      1          6           0       -0.000000    1.403125    0.000000
      2          6           0        1.196035    0.694006   -0.000000
      3          6           0        1.205873   -0.704027   -0.000000
      4          6           0        0.000000   -1.422334    0.000000
      5          6           0       -1.205873   -0.704027    0.000000
      6          6           0       -1.196035    0.694006    0.000000
      7          1           0        2.151608    1.236822   -0.000000
      8         17           0        2.707438   -1.545649   -0.000000
      9         17           0        0.000000   -3.133095    0.000000
     10         17           0       -2.707438   -1.545649    0.000000
     11          1           0       -2.151608    1.236822    0.000000
 ---------------------------------------------------------------------
                    Distance matrix (angstroms):
                    1          2          3          4          5
     1  C    0.000000
     2  C    1.390449   0.000000
     3  C    2.427801   1.398068   0.000000
     4  C    2.825459   2.430925   1.403601   0.000000
     5  C    2.427801   2.779147   2.411746   1.403601   0.000000
     6  C    1.390449   2.392070   2.779147   2.430925   1.398068
     7  H    2.158025   1.098985   2.159006   3.420603   3.878088
     8  Cl   4.003185   2.701924   1.721344   2.710245   4.002790
     9  Cl   4.536220   4.009638   2.711918   1.710761   2.711918
    10  Cl   4.003185   4.500350   4.002790   2.710245   1.721344
    11  H    2.158025   3.391365   3.878088   3.420603   2.159006
                    6          7          8          9         10
     6  C    0.000000
     7  H    3.391365   0.000000
     8  Cl   4.500350   2.837444   0.000000
     9  Cl   4.009638   4.870892   3.138503   0.000000
    10  Cl   2.701924   5.599327   5.414875   3.138503   0.000000
    11  H    1.098985   4.303215   5.599327   4.870892   2.837444
                   11
    11  H    0.000000
 Stoichiometry    C6H2Cl3(1-)
 Framework group  C2V[C2(CCCl),SGV(C4H2Cl2)]
 Deg. of freedom    10
 Full point group                 C2V     NOp   4
 Largest Abelian subgroup         C2V     NOp   4
 Largest concise Abelian subgroup C2      NOp   2
                         Standard orientation:                         
 ---------------------------------------------------------------------
 Center     Atomic      Atomic             Coordinates (Angstroms)
 Number     Number       Type             X           Y           Z
 ---------------------------------------------------------------------
      1          6           0        0.000000    0.000000   -2.566906
      2          6           0       -0.000000    1.196035   -1.857788
      3          6           0       -0.000000    1.205873   -0.459755
      4          6           0       -0.000000   -0.000000    0.258552
      5          6           0       -0.000000   -1.205873   -0.459755
      6          6           0       -0.000000   -1.196035   -1.857788
      7          1           0       -0.000000    2.151608   -2.400603
      8         17           0       -0.000000    2.707438    0.381868
      9         17           0       -0.000000   -0.000000    1.969313
     10         17           0       -0.000000   -2.707438    0.381868
     11          1           0       -0.000000   -2.151608   -2.400603
 ---------------------------------------------------------------------
 Rotational constants (GHZ):           1.5554919           0.8548055           0.5516510
 Standard basis: VSTO-6G (5D, 7F)
 There are    16 symmetry adapted cartesian basis functions of A1  symmetry.
 There are     3 symmetry adapted cartesian basis functions of A2  symmetry.
 There are     6 symmetry adapted cartesian basis functions of B1  symmetry.
 There are    13 symmetry adapted cartesian basis functions of B2  symmetry.
 There are    16 symmetry adapted basis functions of A1  symmetry.
 There are     3 symmetry adapted basis functions of A2  symmetry.
 There are     6 symmetry adapted basis functions of B1  symmetry.
 There are    13 symmetry adapted basis functions of B2  symmetry.
    38 basis functions,   228 primitive gaussians,    38 cartesian basis functions
    24 alpha electrons       24 beta electrons
       nuclear repulsion energy       246.9395562266 Hartrees.
 Integral buffers will be    131072 words long.
 Regular integral format.
 Two-electron integral symmetry is turned off.
 Do NDO integrals.
 One-electron integrals computed using PRISM.
 NBasis=    38 RedAO= T EigKep=  1.00D+00  NBF=    16     3     6    13
 NBsUse=    38 1.00D-06 EigRej= -1.00D+00 NBFU=    16     3     6    13
 Initial guess from the checkpoint file:  "calcs/am1/chks/ClPh_345_anion.chk"
 B after Tr=    -0.000000   -0.000000    0.000000
         Rot=    1.000000    0.000000   -0.000000    0.000000 Ang=   0.00 deg.
 Initial guess orbital symmetries:
       Occupied  (A1) (B2) (A1) (A1) (B2) (A1) (B2) (A1) (A1) (A1)
                 (B2) (B1) (B2) (A1) (A2) (B1) (A1) (B2) (B2) (B2)
                 (B1) (A2) (B1) (A1)
       Virtual   (A2) (B1) (A1) (A1) (B2) (B1) (B2) (A1) (A1) (B2)
                 (B2) (A1) (A1) (B2)
 Keep J ints in memory in canonical form, NReq=863588.
 Overlap will be assumed to be unity.
 Requested convergence on RMS density matrix=1.00D-08 within  32 cycles.
 Requested convergence on MAX density matrix=1.00D-06.
 Requested convergence on             energy=1.00D-06.
 No special actions if energy rises.
 Fock symm off for IB=2 I1=    1 I=   17 J=    8 Cut=1.00D-07 Err=4.27D-05
 Fock matrix is not symmetric: symmetry in diagonalization turned off.
 SCF Done:  E(RAM1) =  0.298503308676E-01 A.U. after   10 cycles
            NFock=  9  Conv=0.91D-08     -V/T= 1.0003
 QCSCF skips out because SCF is already converged.
 Calling FoFJK, ICntrl=      2127 FMM=F ISym2X=1 I1Cent= 0 IOpClX= 0 NMat=1 NMatS=1 NMatT=0.
 ***** Axes restored to original set *****
 -------------------------------------------------------------------
 Center     Atomic                   Forces (Hartrees/Bohr)
 Number     Number              X              Y              Z
 -------------------------------------------------------------------
      1        6          -0.000000000    0.000384878    0.000000000
      2        6           0.000122206   -0.000183314   -0.000000000
      3        6          -0.000337002    0.000184371    0.000000000
      4        6           0.000000000   -0.000090361    0.000000000
      5        6           0.000337002    0.000184371   -0.000000000
      6        6          -0.000122206   -0.000183314   -0.000000000
      7        1          -0.000063244    0.000015966   -0.000000000
      8       17           0.000072312   -0.000136753   -0.000000000
      9       17           0.000000000   -0.000055057    0.000000000
     10       17          -0.000072312   -0.000136753   -0.000000000
     11        1           0.000063244    0.000015966   -0.000000000
 -------------------------------------------------------------------
 Cartesian Forces:  Max     0.000384878 RMS     0.000135725

 GradGradGradGradGradGradGradGradGradGradGradGradGradGradGradGradGradGrad
 Berny optimization.
 Using GEDIIS/GDIIS optimizer.
 FormGI is forming the generalized inverse of G from B-inverse, IUseBI=4.
 Internal  Forces:  Max     0.000246745 RMS     0.000088862
 Search for a local minimum.
 Step number   4 out of a maximum of   57
 All quantities printed in internal units (Hartrees-Bohrs-Radians)
 Mixed Optimization -- En-DIIS/RFO-DIIS
 Swapping is turned off.
 Update second derivatives using D2CorX and points    1    2    3    4
 DE= -1.88D-05 DEPred=-1.84D-05 R= 1.02D+00
 TightC=F SS=  1.41D+00  RLast= 8.78D-03 DXNew= 5.1031D-01 2.6347D-02
 Trust test= 1.02D+00 RLast= 8.78D-03 DXMaxT set to 3.03D-01
 ITU=  1  1  1  0
     Eigenvalues ---    0.02221   0.02221   0.02221   0.02221   0.02221
     Eigenvalues ---    0.02221   0.02221   0.02221   0.15825   0.16000
     Eigenvalues ---    0.20572   0.23467   0.24452   0.25000   0.25000
     Eigenvalues ---    0.25274   0.28102   0.31342   0.31476   0.35994
     Eigenvalues ---    0.36672   0.43021   0.43222   0.47319   0.47319
     Eigenvalues ---    0.49408   0.78832
 En-DIIS/RFO-DIIS/Sim-DIIS IScMMF=       -3 using points:     4    3
 RFO step:  Lambda=-1.32947793D-06.
 DidBck=F Rises=F RFO-DIIS coefs:    1.06674   -0.06674
 Iteration  1 RMS(Cart)=  0.00047528 RMS(Int)=  0.00000011
 Iteration  2 RMS(Cart)=  0.00000016 RMS(Int)=  0.00000002
 ClnCor:  largest displacement from symmetrization is 7.12D-12 for atom     9.
 Variable       Old X    -DE/DX   Delta X   Delta X   Delta X     New X
                                 (Linear)    (Quad)   (Total)
    R1        2.62757   0.00014   0.00019   0.00025   0.00044   2.62800
    R2        2.62757   0.00014   0.00019   0.00025   0.00044   2.62800
    R3        2.64196   0.00003   0.00000   0.00005   0.00005   2.64202
    R4        2.07678  -0.00005  -0.00018  -0.00004  -0.00022   2.07656
    R5        2.65242  -0.00018   0.00016  -0.00047  -0.00031   2.65211
    R6        3.25287   0.00013   0.00023   0.00030   0.00053   3.25340
    R7        2.65242  -0.00018   0.00016  -0.00047  -0.00031   2.65211
    R8        3.23287   0.00006   0.00015   0.00006   0.00022   3.23309
    R9        2.64196   0.00003   0.00000   0.00005   0.00005   2.64202
   R10        3.25287   0.00013   0.00023   0.00030   0.00053   3.25340
   R11        2.07678  -0.00005  -0.00018  -0.00004  -0.00022   2.07656
    A1        2.07124  -0.00025  -0.00002  -0.00091  -0.00093   2.07031
    A2        2.11301   0.00005   0.00002   0.00029   0.00031   2.11332
    A3        2.08982  -0.00007   0.00004  -0.00046  -0.00042   2.08940
    A4        2.08036   0.00002  -0.00007   0.00017   0.00011   2.08046
    A5        2.10099   0.00013  -0.00004   0.00049   0.00045   2.10144
    A6        2.08870   0.00007   0.00004   0.00031   0.00035   2.08905
    A7        2.09349  -0.00020   0.00000  -0.00080  -0.00080   2.09269
    A8        2.06713  -0.00012   0.00006  -0.00065  -0.00059   2.06654
    A9        2.10803   0.00006  -0.00003   0.00032   0.00029   2.10832
   A10        2.10803   0.00006  -0.00003   0.00032   0.00029   2.10832
   A11        2.10099   0.00013  -0.00004   0.00049   0.00045   2.10144
   A12        2.09349  -0.00020   0.00000  -0.00080  -0.00080   2.09269
   A13        2.08870   0.00007   0.00004   0.00031   0.00035   2.08905
   A14        2.11301   0.00005   0.00002   0.00029   0.00031   2.11332
   A15        2.08982  -0.00007   0.00004  -0.00046  -0.00042   2.08940
   A16        2.08036   0.00002  -0.00007   0.00017   0.00011   2.08046
    D1        0.00000  -0.00000   0.00000  -0.00000   0.00000   0.00000
    D2        3.14159  -0.00000  -0.00000  -0.00000   0.00000   3.14159
    D3       -0.00000   0.00000   0.00000   0.00000   0.00000   0.00000
    D4        3.14159   0.00000  -0.00000   0.00000   0.00000   3.14159
    D5       -0.00000   0.00000   0.00000   0.00000   0.00000   0.00000
    D6        3.14159  -0.00000  -0.00000  -0.00000   0.00000   3.14159
    D7        3.14159   0.00000  -0.00000   0.00000   0.00000   3.14159
    D8        0.00000  -0.00000   0.00000  -0.00000  -0.00000   0.00000
    D9       -0.00000   0.00000   0.00000   0.00000   0.00000   0.00000
   D10        3.14159  -0.00000  -0.00000  -0.00000   0.00000   3.14159
   D11        3.14159   0.00000  -0.00000   0.00000   0.00000   3.14159
   D12       -0.00000   0.00000   0.00000   0.00000   0.00000   0.00000
   D13        0.00000  -0.00000   0.00000  -0.00000   0.00000   0.00000
   D14        3.14159  -0.00000  -0.00000  -0.00000   0.00000   3.14159
   D15        3.14159  -0.00000  -0.00000  -0.00000   0.00000   3.14159
   D16       -0.00000  -0.00000   0.00000  -0.00000   0.00000   0.00000
   D17        0.00000   0.00000   0.00000   0.00000   0.00000   0.00000
   D18        3.14159   0.00000  -0.00000   0.00000   0.00000   3.14159
   D19        3.14159   0.00000  -0.00000   0.00000   0.00000   3.14159
   D20       -0.00000   0.00000   0.00000   0.00000   0.00000   0.00000
         Item               Value     Threshold  Converged?
 Maximum Force            0.000247     0.000450     YES
 RMS     Force            0.000089     0.000300     YES
 Maximum Displacement     0.001649     0.001800     YES
 RMS     Displacement     0.000475     0.001200     YES
 Predicted change in Energy=-6.647344D-07
 Optimization completed.
    -- Stationary point found.
                           ----------------------------
                           !   Optimized Parameters   !
                           ! (Angstroms and Degrees)  !
 --------------------------                            --------------------------
 ! Name  Definition              Value          Derivative Info.                !
 --------------------------------------------------------------------------------
 ! R1    R(1,2)                  1.3904         -DE/DX =    0.0001              !
 ! R2    R(1,6)                  1.3904         -DE/DX =    0.0001              !
 ! R3    R(2,3)                  1.3981         -DE/DX =    0.0                 !
 ! R4    R(2,7)                  1.099          -DE/DX =    0.0                 !
 ! R5    R(3,4)                  1.4036         -DE/DX =   -0.0002              !
 ! R6    R(3,8)                  1.7213         -DE/DX =    0.0001              !
 ! R7    R(4,5)                  1.4036         -DE/DX =   -0.0002              !
 ! R8    R(4,9)                  1.7108         -DE/DX =    0.0001              !
 ! R9    R(5,6)                  1.3981         -DE/DX =    0.0                 !
 ! R10   R(5,10)                 1.7213         -DE/DX =    0.0001              !
 ! R11   R(6,11)                 1.099          -DE/DX =    0.0                 !
 ! A1    A(2,1,6)              118.6733         -DE/DX =   -0.0002              !
 ! A2    A(1,2,3)              121.0665         -DE/DX =    0.0001              !
 ! A3    A(1,2,7)              119.7378         -DE/DX =   -0.0001              !
 ! A4    A(3,2,7)              119.1957         -DE/DX =    0.0                 !
 ! A5    A(2,3,4)              120.378          -DE/DX =    0.0001              !
 ! A6    A(2,3,8)              119.6737         -DE/DX =    0.0001              !
 ! A7    A(4,3,8)              119.9484         -DE/DX =   -0.0002              !
 ! A8    A(3,4,5)              118.4377         -DE/DX =   -0.0001              !
 ! A9    A(3,4,9)              120.7812         -DE/DX =    0.0001              !
 ! A10   A(5,4,9)              120.7812         -DE/DX =    0.0001              !
 ! A11   A(4,5,6)              120.378          -DE/DX =    0.0001              !
 ! A12   A(4,5,10)             119.9484         -DE/DX =   -0.0002              !
 ! A13   A(6,5,10)             119.6737         -DE/DX =    0.0001              !
 ! A14   A(1,6,5)              121.0665         -DE/DX =    0.0001              !
 ! A15   A(1,6,11)             119.7378         -DE/DX =   -0.0001              !
 ! A16   A(5,6,11)             119.1957         -DE/DX =    0.0                 !
 ! D1    D(6,1,2,3)              0.0            -DE/DX =    0.0                 !
 ! D2    D(6,1,2,7)            180.0            -DE/DX =    0.0                 !
 ! D3    D(2,1,6,5)              0.0            -DE/DX =    0.0                 !
 ! D4    D(2,1,6,11)           180.0            -DE/DX =    0.0                 !
 ! D5    D(1,2,3,4)              0.0            -DE/DX =    0.0                 !
 ! D6    D(1,2,3,8)            180.0            -DE/DX =    0.0                 !
 ! D7    D(7,2,3,4)            180.0            -DE/DX =    0.0                 !
 ! D8    D(7,2,3,8)              0.0            -DE/DX =    0.0                 !
 ! D9    D(2,3,4,5)              0.0            -DE/DX =    0.0                 !
 ! D10   D(2,3,4,9)            180.0            -DE/DX =    0.0                 !
 ! D11   D(8,3,4,5)            180.0            -DE/DX =    0.0                 !
 ! D12   D(8,3,4,9)              0.0            -DE/DX =    0.0                 !
 ! D13   D(3,4,5,6)              0.0            -DE/DX =    0.0                 !
 ! D14   D(3,4,5,10)           180.0            -DE/DX =    0.0                 !
 ! D15   D(9,4,5,6)            180.0            -DE/DX =    0.0                 !
 ! D16   D(9,4,5,10)             0.0            -DE/DX =    0.0                 !
 ! D17   D(4,5,6,1)              0.0            -DE/DX =    0.0                 !
 ! D18   D(4,5,6,11)           180.0            -DE/DX =    0.0                 !
 ! D19   D(10,5,6,1)           180.0            -DE/DX =    0.0                 !
 ! D20   D(10,5,6,11)            0.0            -DE/DX =    0.0                 !
 --------------------------------------------------------------------------------
 GradGradGradGradGradGradGradGradGradGradGradGradGradGradGradGradGradGrad

                          Input orientation:                          
 ---------------------------------------------------------------------
 Center     Atomic      Atomic             Coordinates (Angstroms)
 Number     Number       Type             X           Y           Z
 ---------------------------------------------------------------------
      1          6           0       -0.000000    1.403125    0.000000
      2          6           0        1.196035    0.694006    0.000000
      3          6           0        1.205873   -0.704027   -0.000000
      4          6           0        0.000000   -1.422334    0.000000
      5          6           0       -1.205873   -0.704027    0.000000
      6          6           0       -1.196035    0.694006    0.000000
      7          1           0        2.151608    1.236822   -0.000000
      8         17           0        2.707438   -1.545649   -0.000000
      9         17           0        0.000000   -3.133095    0.000000
     10         17           0       -2.707438   -1.545649    0.000000
     11          1           0       -2.151608    1.236822    0.000000
 ---------------------------------------------------------------------
                    Distance matrix (angstroms):
                    1          2          3          4          5
     1  C    0.000000
     2  C    1.390449   0.000000
     3  C    2.427801   1.398068   0.000000
     4  C    2.825459   2.430925   1.403601   0.000000
     5  C    2.427801   2.779147   2.411746   1.403601   0.000000
     6  C    1.390449   2.392070   2.779147   2.430925   1.398068
     7  H    2.158025   1.098985   2.159006   3.420603   3.878088
     8  Cl   4.003185   2.701924   1.721344   2.710245   4.002790
     9  Cl   4.536220   4.009638   2.711918   1.710761   2.711918
    10  Cl   4.003185   4.500350   4.002790   2.710245   1.721344
    11  H    2.158025   3.391365   3.878088   3.420603   2.159006
                    6          7          8          9         10
     6  C    0.000000
     7  H    3.391365   0.000000
     8  Cl   4.500350   2.837444   0.000000
     9  Cl   4.009638   4.870892   3.138503   0.000000
    10  Cl   2.701924   5.599327   5.414875   3.138503   0.000000
    11  H    1.098985   4.303215   5.599327   4.870892   2.837444
                   11
    11  H    0.000000
 Stoichiometry    C6H2Cl3(1-)
 Framework group  C2V[C2(CCCl),SGV(C4H2Cl2)]
 Deg. of freedom    10
 Full point group                 C2V     NOp   4
 Largest Abelian subgroup         C2V     NOp   4
 Largest concise Abelian subgroup C2      NOp   2
                         Standard orientation:                         
 ---------------------------------------------------------------------
 Center     Atomic      Atomic             Coordinates (Angstroms)
 Number     Number       Type             X           Y           Z
 ---------------------------------------------------------------------
      1          6           0        0.000000    0.000000   -2.566906
      2          6           0        0.000000    1.196035   -1.857788
      3          6           0        0.000000    1.205873   -0.459755
      4          6           0       -0.000000   -0.000000    0.258552
      5          6           0       -0.000000   -1.205873   -0.459755
      6          6           0       -0.000000   -1.196035   -1.857788
      7          1           0        0.000000    2.151608   -2.400603
      8         17           0       -0.000000    2.707438    0.381868
      9         17           0       -0.000000    0.000000    1.969313
     10         17           0       -0.000000   -2.707438    0.381868
     11          1           0       -0.000000   -2.151608   -2.400603
 ---------------------------------------------------------------------
 Rotational constants (GHZ):           1.5554919           0.8548055           0.5516510

 **********************************************************************

            Population analysis using the SCF Density.

 **********************************************************************

 Orbital symmetries:
       Occupied  (A1) (B2) (A1) (A1) (B2) (A1) (B2) (A1) (A1) (A1)
                 (B2) (B1) (B2) (A1) (A2) (B1) (A1) (B2) (B2) (B2)
                 (B1) (A2) (B1) (A1)
       Virtual   (A2) (B1) (A1) (A1) (B2) (B1) (B2) (A1) (A1) (B2)
                 (B2) (A1) (A1) (B2)
 The electronic state is 1-A1.
 Alpha  occ. eigenvalues --   -1.28899  -1.23835  -1.22998  -1.20016  -0.97569
 Alpha  occ. eigenvalues --   -0.94795  -0.69583  -0.67008  -0.51106  -0.44614
 Alpha  occ. eigenvalues --   -0.44566  -0.40087  -0.39666  -0.35986  -0.34525
 Alpha  occ. eigenvalues --   -0.32560  -0.30863  -0.30616  -0.29204  -0.27539
 Alpha  occ. eigenvalues --   -0.27286  -0.18746  -0.16950  -0.11588
 Alpha virt. eigenvalues --    0.17305   0.18040   0.18222   0.20277   0.20488
 Alpha virt. eigenvalues --    0.28746   0.30588   0.31459   0.33270   0.33931
 Alpha virt. eigenvalues --    0.34609   0.35208   0.39433   0.41229
          Condensed to atoms (all electrons):
               1          2          3          4          5          6
     1  C    4.371674   0.000000   0.000000   0.000000   0.000000   0.000000
     2  C    0.000000   4.145970   0.000000   0.000000   0.000000   0.000000
     3  C    0.000000   0.000000   4.057818   0.000000   0.000000   0.000000
     4  C    0.000000   0.000000   0.000000   4.139324   0.000000   0.000000
     5  C    0.000000   0.000000   0.000000   0.000000   4.057818   0.000000
     6  C    0.000000   0.000000   0.000000   0.000000   0.000000   4.145970
     7  H    0.000000   0.000000   0.000000   0.000000   0.000000   0.000000
     8  Cl   0.000000   0.000000   0.000000   0.000000   0.000000   0.000000
     9  Cl   0.000000   0.000000   0.000000   0.000000   0.000000   0.000000
    10  Cl   0.000000   0.000000   0.000000   0.000000   0.000000   0.000000
    11  H    0.000000   0.000000   0.000000   0.000000   0.000000   0.000000
               7          8          9         10         11
     1  C    0.000000   0.000000   0.000000   0.000000   0.000000
     2  C    0.000000   0.000000   0.000000   0.000000   0.000000
     3  C    0.000000   0.000000   0.000000   0.000000   0.000000
     4  C    0.000000   0.000000   0.000000   0.000000   0.000000
     5  C    0.000000   0.000000   0.000000   0.000000   0.000000
     6  C    0.000000   0.000000   0.000000   0.000000   0.000000
     7  H    0.893560   0.000000   0.000000   0.000000   0.000000
     8  Cl   0.000000   7.109885   0.000000   0.000000   0.000000
     9  Cl   0.000000   0.000000   7.074537   0.000000   0.000000
    10  Cl   0.000000   0.000000   0.000000   7.109885   0.000000
    11  H    0.000000   0.000000   0.000000   0.000000   0.893560
 Mulliken charges:
               1
     1  C   -0.371674
     2  C   -0.145970
     3  C   -0.057818
     4  C   -0.139324
     5  C   -0.057818
     6  C   -0.145970
     7  H    0.106440
     8  Cl  -0.109885
     9  Cl  -0.074537
    10  Cl  -0.109885
    11  H    0.106440
 Sum of Mulliken charges =  -1.00000
 Mulliken charges with hydrogens summed into heavy atoms:
               1
     1  C   -0.371674
     2  C   -0.039530
     3  C   -0.057818
     4  C   -0.139324
     5  C   -0.057818
     6  C   -0.039530
     8  Cl  -0.109885
     9  Cl  -0.074537
    10  Cl  -0.109885
 Charge=             -1.0000 electrons
 Dipole moment (field-independent basis, Debye):
    X=              0.0000    Y=              0.0000    Z=              5.9964  Tot=              5.9964
 N-N= 2.469395562266D+02 E-N=-3.529855664565D+02  KE=-1.140217338258D+02
 Symmetry A1   KE=-5.017805333485D+01
 Symmetry A2   KE=-8.623325738654D+00
 Symmetry B1   KE=-1.743029865309D+01
 Symmetry B2   KE=-3.779005609923D+01
 1\1\GINC-SH02-10N59\FOpt\RAM1\ZDO\C6H2Cl3(1-)\JLAPIER\28-Sep-2026\0\\#
  Opt AM1 SCF=XQC\\ClPh_345_anion am1\\-1,1\C,0.,1.4031249819,0.\C,1.19
 60348421,0.6940061502,0.\C,1.2058730165,-0.7040267707,0.\C,0.,-1.42233
 3782,0.\C,-1.2058730165,-0.7040267707,0.\C,-1.1960348421,0.6940061502,
 0.\H,2.1516076847,1.2368216281,0.\Cl,2.7074376872,-1.5456492229,0.\Cl,
 0.,-3.1330947692,0.\Cl,-2.7074376872,-1.5456492229,0.\H,-2.1516076847,
 1.2368216281,0.\\Version=ES64L-G16RevB.01\State=1-A1\HF=0.0298503\RMSD
 =9.106e-09\RMSF=1.357e-04\Dipole=0.,-2.3591849,0.\PG=C02V [C2(C1C1Cl1)
 ,SGV(C4H2Cl2)]\\@


 THE MOLECULE ALSO HAS A BODY.  WHEN THIS BODY IS HIT, THE MOLECULE
 FEELS HURT ALL OVER -- A. KITAIGORODSKI
 Job cpu time:       0 days  0 hours  0 minutes  3.0 seconds.
 Elapsed time:       0 days  0 hours  0 minutes  3.3 seconds.
 File lengths (MBytes):  RWF=      6 Int=      0 D2E=      0 Chk=      3 Scr=      1
 Normal termination of Gaussian 16 at Mon Sep 28 01:22:28 2026.
