 Entering Gaussian System, Link 0=g16
 Initial command:
 /share/software/user/restricted/gaussian/g16.B01/l1.exe "/lscratch/jlapier/g16_45667581_20/Gau-27931.inp" -scrdir="/lscratch/jlapier/g16_45667581_20/"
 Entering Link 1 = /share/software/user/restricted/gaussian/g16.B01/l1.exe PID=     27938.
  
 Copyright (c) 1988-2017, Gaussian, Inc.  All Rights Reserved.
  
 This is part of the Gaussian(R) 16 program.  It is based on
 the Gaussian(R) 09 system (copyright 2009, Gaussian, Inc.),
 the Gaussian(R) 03 system (copyright 2003, Gaussian, Inc.),
 the Gaussian(R) 98 system (copyright 1998, Gaussian, Inc.),
 the Gaussian(R) 94 system (copyright 1995, Gaussian, Inc.),
 the Gaussian 92(TM) system (copyright 1992, Gaussian, Inc.),
 the Gaussian 90(TM) system (copyright 1990, Gaussian, Inc.),
 the Gaussian 88(TM) system (copyright 1988, Gaussian, Inc.),
 the Gaussian 86(TM) system (copyright 1986, Carnegie Mellon
 University), and the Gaussian 82(TM) system (copyright 1983,
 Carnegie Mellon University). Gaussian is a federally registered
 trademark of Gaussian, Inc.
  
 This software contains proprietary and confidential information,
 including trade secrets, belonging to Gaussian, Inc.
  
 This software is provided under written license and may be
 used, copied, transmitted, or stored only in accord with that
 written license.
  
 The following legend is applicable only to US Government
 contracts under FAR:
  
                    RESTRICTED RIGHTS LEGEND
  
 Use, reproduction and disclosure by the US Government is
 subject to restrictions as set forth in subparagraphs (a)
 and (c) of the Commercial Computer Software - Restricted
 Rights clause in FAR 52.227-19.
  
 Gaussian, Inc.
 340 Quinnipiac St., Bldg. 40, Wallingford CT 06492
  
  
 ---------------------------------------------------------------
 Warning -- This program may not be used in any manner that
 competes with the business of Gaussian, Inc. or will provide
 assistance to any competitor of Gaussian, Inc.  The licensee
 of this program is prohibited from giving any competitor of
 Gaussian, Inc. access to this program.  By using this program,
 the user acknowledges that Gaussian, Inc. is engaged in the
 business of creating and licensing software in the field of
 computational chemistry and represents and warrants to the
 licensee that it is not a competitor of Gaussian, Inc. and that
 it will not use this program in any manner prohibited above.
 ---------------------------------------------------------------
  

 Cite this work as:
 Gaussian 16, Revision B.01,
 M. J. Frisch, G. W. Trucks, H. B. Schlegel, G. E. Scuseria, 
 M. A. Robb, J. R. Cheeseman, G. Scalmani, V. Barone, 
 G. A. Petersson, H. Nakatsuji, X. Li, M. Caricato, A. V. Marenich, 
 J. Bloino, B. G. Janesko, R. Gomperts, B. Mennucci, H. P. Hratchian, 
 J. V. Ortiz, A. F. Izmaylov, J. L. Sonnenberg, D. Williams-Young, 
 F. Ding, F. Lipparini, F. Egidi, J. Goings, B. Peng, A. Petrone, 
 T. Henderson, D. Ranasinghe, V. G. Zakrzewski, J. Gao, N. Rega, 
 G. Zheng, W. Liang, M. Hada, M. Ehara, K. Toyota, R. Fukuda, 
 J. Hasegawa, M. Ishida, T. Nakajima, Y. Honda, O. Kitao, H. Nakai, 
 T. Vreven, K. Throssell, J. A. Montgomery, Jr., J. E. Peralta, 
 F. Ogliaro, M. J. Bearpark, J. J. Heyd, E. N. Brothers, K. N. Kudin, 
 V. N. Staroverov, T. A. Keith, R. Kobayashi, J. Normand, 
 K. Raghavachari, A. P. Rendell, J. C. Burant, S. S. Iyengar, 
 J. Tomasi, M. Cossi, J. M. Millam, M. Klene, C. Adamo, R. Cammi, 
 J. W. Ochterski, R. L. Martin, K. Morokuma, O. Farkas, 
 J. B. Foresman, and D. J. Fox, Gaussian, Inc., Wallingford CT, 2016.
 
 ******************************************
 Gaussian 16:  ES64L-G16RevB.01 20-Dec-2017
                28-Sep-2026 
 ******************************************
 %nprocshared=1
 Will use up to    1 processors via shared memory.
 %mem=1GB
 %chk=calcs/am1/chks/ClPh_23_anion.chk
 -----------------
 # Opt AM1 SCF=XQC
 -----------------
 1/18=20,19=15,26=1,38=1/1,3;
 2/9=110,12=2,17=6,18=5,40=1/2;
 3/5=2,25=1,41=700000,71=1/1,2,3;
 4/35=1/1;
 5/5=2,8=3,13=1,35=1,38=5/2,8;
 6/7=2,8=2,9=2,10=2,28=1/1;
 7//1,2,3,16;
 1/18=20,19=15,26=1/3(2);
 2/9=110/2;
 99//99;
 2/9=110/2;
 3/5=2,25=1,41=700000,71=1,135=20/1,2,3;
 4/5=5,16=3,35=1/1;
 5/5=2,8=3,13=1,35=1,38=5/2,8;
 7//1,2,3,16;
 1/18=20,19=15,26=1/3(-5);
 2/9=110/2;
 6/7=2,8=2,9=2,10=2,19=2,28=1/1;
 99/9=1/99;
 -----------------
 ClPh_23_anion am1
 -----------------
 Symbolic Z-matrix:
 Charge = -1 Multiplicity = 1
 C                     0.        1.39      0. 
 C                     1.20378   0.695     0. 
 C                     1.20378  -0.695     0. 
 C                     0.       -1.39      0. 
 C                    -1.20378  -0.695     0. 
 C                    -1.20378   0.695     0. 
 Cl                    2.71066   1.565     0. 
 Cl                    2.71066  -1.565     0. 
 H                     0.       -2.47      0. 
 H                    -2.13908  -1.235     0. 
 H                    -2.13908   1.235     0. 
 

 GradGradGradGradGradGradGradGradGradGradGradGradGradGradGradGradGradGrad
 Berny optimization.
 Initialization pass.
                           ----------------------------
                           !    Initial Parameters    !
                           ! (Angstroms and Degrees)  !
 --------------------------                            --------------------------
 ! Name  Definition              Value          Derivative Info.                !
 --------------------------------------------------------------------------------
 ! R1    R(1,2)                  1.39           estimate D2E/DX2                !
 ! R2    R(1,6)                  1.39           estimate D2E/DX2                !
 ! R3    R(2,3)                  1.39           estimate D2E/DX2                !
 ! R4    R(2,7)                  1.74           estimate D2E/DX2                !
 ! R5    R(3,4)                  1.39           estimate D2E/DX2                !
 ! R6    R(3,8)                  1.74           estimate D2E/DX2                !
 ! R7    R(4,5)                  1.39           estimate D2E/DX2                !
 ! R8    R(4,9)                  1.08           estimate D2E/DX2                !
 ! R9    R(5,6)                  1.39           estimate D2E/DX2                !
 ! R10   R(5,10)                 1.08           estimate D2E/DX2                !
 ! R11   R(6,11)                 1.08           estimate D2E/DX2                !
 ! A1    A(2,1,6)              120.0            estimate D2E/DX2                !
 ! A2    A(1,2,3)              120.0            estimate D2E/DX2                !
 ! A3    A(1,2,7)              120.0            estimate D2E/DX2                !
 ! A4    A(3,2,7)              120.0            estimate D2E/DX2                !
 ! A5    A(2,3,4)              120.0            estimate D2E/DX2                !
 ! A6    A(2,3,8)              120.0            estimate D2E/DX2                !
 ! A7    A(4,3,8)              120.0            estimate D2E/DX2                !
 ! A8    A(3,4,5)              120.0            estimate D2E/DX2                !
 ! A9    A(3,4,9)              120.0            estimate D2E/DX2                !
 ! A10   A(5,4,9)              120.0            estimate D2E/DX2                !
 ! A11   A(4,5,6)              120.0            estimate D2E/DX2                !
 ! A12   A(4,5,10)             120.0            estimate D2E/DX2                !
 ! A13   A(6,5,10)             120.0            estimate D2E/DX2                !
 ! A14   A(1,6,5)              120.0            estimate D2E/DX2                !
 ! A15   A(1,6,11)             120.0            estimate D2E/DX2                !
 ! A16   A(5,6,11)             120.0            estimate D2E/DX2                !
 ! D1    D(6,1,2,3)              0.0            estimate D2E/DX2                !
 ! D2    D(6,1,2,7)            180.0            estimate D2E/DX2                !
 ! D3    D(2,1,6,5)              0.0            estimate D2E/DX2                !
 ! D4    D(2,1,6,11)           180.0            estimate D2E/DX2                !
 ! D5    D(1,2,3,4)              0.0            estimate D2E/DX2                !
 ! D6    D(1,2,3,8)            180.0            estimate D2E/DX2                !
 ! D7    D(7,2,3,4)            180.0            estimate D2E/DX2                !
 ! D8    D(7,2,3,8)              0.0            estimate D2E/DX2                !
 ! D9    D(2,3,4,5)              0.0            estimate D2E/DX2                !
 ! D10   D(2,3,4,9)            180.0            estimate D2E/DX2                !
 ! D11   D(8,3,4,5)            180.0            estimate D2E/DX2                !
 ! D12   D(8,3,4,9)              0.0            estimate D2E/DX2                !
 ! D13   D(3,4,5,6)              0.0            estimate D2E/DX2                !
 ! D14   D(3,4,5,10)           180.0            estimate D2E/DX2                !
 ! D15   D(9,4,5,6)            180.0            estimate D2E/DX2                !
 ! D16   D(9,4,5,10)             0.0            estimate D2E/DX2                !
 ! D17   D(4,5,6,1)              0.0            estimate D2E/DX2                !
 ! D18   D(4,5,6,11)           180.0            estimate D2E/DX2                !
 ! D19   D(10,5,6,1)           180.0            estimate D2E/DX2                !
 ! D20   D(10,5,6,11)            0.0            estimate D2E/DX2                !
 --------------------------------------------------------------------------------
 Trust Radius=3.00D-01 FncErr=1.00D-07 GrdErr=1.00D-07 EigMax=2.50D+02 EigMin=1.00D-04
 Number of steps in this run=     57 maximum allowed number of steps=    100.
 GradGradGradGradGradGradGradGradGradGradGradGradGradGradGradGradGradGrad

                          Input orientation:                          
 ---------------------------------------------------------------------
 Center     Atomic      Atomic             Coordinates (Angstroms)
 Number     Number       Type             X           Y           Z
 ---------------------------------------------------------------------
      1          6           0        0.000000    1.390000    0.000000
      2          6           0        1.203775    0.695000    0.000000
      3          6           0        1.203775   -0.695000    0.000000
      4          6           0        0.000000   -1.390000    0.000000
      5          6           0       -1.203775   -0.695000    0.000000
      6          6           0       -1.203775    0.695000    0.000000
      7         17           0        2.710660    1.565000    0.000000
      8         17           0        2.710660   -1.565000    0.000000
      9          1           0        0.000000   -2.470000    0.000000
     10          1           0       -2.139083   -1.235000    0.000000
     11          1           0       -2.139083    1.235000    0.000000
 ---------------------------------------------------------------------
                    Distance matrix (angstroms):
                    1          2          3          4          5
     1  C    0.000000
     2  C    1.390000   0.000000
     3  C    2.407551   1.390000   0.000000
     4  C    2.780000   2.407551   1.390000   0.000000
     5  C    2.407551   2.780000   2.407551   1.390000   0.000000
     6  C    1.390000   2.407551   2.780000   2.407551   1.390000
     7  Cl   2.716303   1.740000   2.716303   4.009950   4.520000
     8  Cl   4.009950   2.716303   1.740000   2.716303   4.009950
     9  H    3.860000   3.386193   2.144691   1.080000   2.144691
    10  H    3.386193   3.860000   3.386193   2.144691   1.080000
    11  H    2.144691   3.386193   3.860000   3.386193   2.144691
                    6          7          8          9         10
     6  C    0.000000
     7  Cl   4.009950   0.000000
     8  Cl   4.520000   3.130000   0.000000
     9  H    3.386193   4.860957   2.857744   0.000000
    10  H    2.144691   5.600000   4.860957   2.470000   0.000000
    11  H    1.080000   4.860957   5.600000   4.278165   2.470000
                   11
    11  H    0.000000
 Stoichiometry    C6H3Cl2(1-)
 Framework group  CS[SG(C6H3Cl2)]
 Deg. of freedom    19
 Full point group                 CS      NOp   2
 Largest Abelian subgroup         CS      NOp   2
 Largest concise Abelian subgroup C1      NOp   1
                         Standard orientation:                         
 ---------------------------------------------------------------------
 Center     Atomic      Atomic             Coordinates (Angstroms)
 Number     Number       Type             X           Y           Z
 ---------------------------------------------------------------------
      1          6           0        1.835025    0.330685    0.000000
      2          6           0        0.631249   -0.364315    0.000000
      3          6           0       -0.572526    0.330685    0.000000
      4          6           0       -0.572526    1.720685    0.000000
      5          6           0        0.631249    2.415685    0.000000
      6          6           0        1.835025    1.720685    0.000000
      7         17           0        0.631249   -2.104315    0.000000
      8         17           0       -2.079410   -0.539315    0.000000
      9          1           0       -1.507833    2.260685    0.000000
     10          1           0        0.631249    3.495685    0.000000
     11          1           0        2.770332    2.260685    0.000000
 ---------------------------------------------------------------------
 Rotational constants (GHZ):           2.0220543           1.4196942           0.8340815
 Standard basis: VSTO-6G (5D, 7F)
 There are    27 symmetry adapted cartesian basis functions of A'  symmetry.
 There are     8 symmetry adapted cartesian basis functions of A"  symmetry.
 There are    27 symmetry adapted basis functions of A'  symmetry.
 There are     8 symmetry adapted basis functions of A"  symmetry.
    35 basis functions,   210 primitive gaussians,    35 cartesian basis functions
    21 alpha electrons       21 beta electrons
       nuclear repulsion energy       197.9926854814 Hartrees.
 Integral buffers will be    131072 words long.
 Regular integral format.
 Two-electron integral symmetry is turned off.
 Do NDO integrals.
 One-electron integrals computed using PRISM.
 NBasis=    35 RedAO= T EigKep=  1.00D+00  NBF=    27     8
 NBsUse=    35 1.00D-06 EigRej= -1.00D+00 NBFU=    27     8
 Simple Huckel Guess.
 Initial guess orbital symmetries:
       Occupied  (A') (A') (A') (A') (A') (A') (A') (A') (A') (A")
                 (A') (A') (A') (A") (A") (A') (A') (A") (A') (A")
                 (A')
       Virtual   (A") (A") (A") (A') (A') (A') (A') (A') (A') (A')
                 (A') (A') (A') (A')
 The electronic state of the initial guess is 1-A'.
 Keep J ints in memory in canonical form, NReq=862793.
 Overlap will be assumed to be unity.
 Requested convergence on RMS density matrix=1.00D-08 within  32 cycles.
 Requested convergence on MAX density matrix=1.00D-06.
 Requested convergence on             energy=1.00D-06.
 No special actions if energy rises.
 Fock symm off for IB=2 I1=    1 I=   28 J=    7 Cut=1.00D-07 Err=1.35D-03
 Fock matrix is not symmetric: symmetry in diagonalization turned off.
 SCF Done:  E(RAM1) =  0.483640159524E-01 A.U. after   16 cycles
            NFock= 15  Conv=0.66D-08     -V/T= 1.0005
 QCSCF skips out because SCF is already converged.

 **********************************************************************

            Population analysis using the SCF Density.

 **********************************************************************

 Orbital symmetries:
       Occupied  (A') (A') (A') (A') (A') (A') (A') (A') (A') (A')
                 (A') (A") (A') (A") (A') (A') (A") (A') (A") (A")
                 (A')
       Virtual   (A") (A") (A') (A') (A") (A') (A') (A') (A') (A')
                 (A') (A') (A') (A')
 The electronic state is 1-A'.
 Alpha  occ. eigenvalues --   -1.27159  -1.20862  -1.18995  -0.97052  -0.94462
 Alpha  occ. eigenvalues --   -0.67641  -0.65940  -0.49017  -0.43118  -0.41538
 Alpha  occ. eigenvalues --   -0.37916  -0.36993  -0.32682  -0.30533  -0.29289
 Alpha  occ. eigenvalues --   -0.28879  -0.28100  -0.25496  -0.17887  -0.16031
 Alpha  occ. eigenvalues --   -0.10350
 Alpha virt. eigenvalues --    0.18320   0.20176   0.20222   0.23034   0.29728
 Alpha virt. eigenvalues --    0.30468   0.31534   0.33047   0.34747   0.35018
 Alpha virt. eigenvalues --    0.36328   0.37245   0.40270   0.41996
          Condensed to atoms (all electrons):
               1          2          3          4          5          6
     1  C    4.390036   0.000000   0.000000   0.000000   0.000000   0.000000
     2  C    0.000000   4.047622   0.000000   0.000000   0.000000   0.000000
     3  C    0.000000   0.000000   4.052438   0.000000   0.000000   0.000000
     4  C    0.000000   0.000000   0.000000   4.214699   0.000000   0.000000
     5  C    0.000000   0.000000   0.000000   0.000000   4.157416   0.000000
     6  C    0.000000   0.000000   0.000000   0.000000   0.000000   4.148197
     7  Cl   0.000000   0.000000   0.000000   0.000000   0.000000   0.000000
     8  Cl   0.000000   0.000000   0.000000   0.000000   0.000000   0.000000
     9  H    0.000000   0.000000   0.000000   0.000000   0.000000   0.000000
    10  H    0.000000   0.000000   0.000000   0.000000   0.000000   0.000000
    11  H    0.000000   0.000000   0.000000   0.000000   0.000000   0.000000
               7          8          9         10         11
     1  C    0.000000   0.000000   0.000000   0.000000   0.000000
     2  C    0.000000   0.000000   0.000000   0.000000   0.000000
     3  C    0.000000   0.000000   0.000000   0.000000   0.000000
     4  C    0.000000   0.000000   0.000000   0.000000   0.000000
     5  C    0.000000   0.000000   0.000000   0.000000   0.000000
     6  C    0.000000   0.000000   0.000000   0.000000   0.000000
     7  Cl   7.125825   0.000000   0.000000   0.000000   0.000000
     8  Cl   0.000000   7.132864   0.000000   0.000000   0.000000
     9  H    0.000000   0.000000   0.901582   0.000000   0.000000
    10  H    0.000000   0.000000   0.000000   0.920275   0.000000
    11  H    0.000000   0.000000   0.000000   0.000000   0.909046
 Mulliken charges:
               1
     1  C   -0.390036
     2  C   -0.047622
     3  C   -0.052438
     4  C   -0.214699
     5  C   -0.157416
     6  C   -0.148197
     7  Cl  -0.125825
     8  Cl  -0.132864
     9  H    0.098418
    10  H    0.079725
    11  H    0.090954
 Sum of Mulliken charges =  -1.00000
 Mulliken charges with hydrogens summed into heavy atoms:
               1
     1  C   -0.390036
     2  C   -0.047622
     3  C   -0.052438
     4  C   -0.116281
     5  C   -0.077690
     6  C   -0.057243
     7  Cl  -0.125825
     8  Cl  -0.132864
 Charge=             -1.0000 electrons
 Dipole moment (field-independent basis, Debye):
    X=             -4.7650    Y=              0.4489    Z=              0.0000  Tot=              4.7861
 N-N= 1.979926854814D+02 E-N=-2.813225066228D+02  KE=-9.216734503248D+01
 Symmetry A'   KE=-7.171339333770D+01
 Symmetry A"   KE=-2.045395169478D+01
 Calling FoFJK, ICntrl=      2127 FMM=F ISym2X=1 I1Cent= 0 IOpClX= 0 NMat=1 NMatS=1 NMatT=0.
 ***** Axes restored to original set *****
 -------------------------------------------------------------------
 Center     Atomic                   Forces (Hartrees/Bohr)
 Number     Number              X              Y              Z
 -------------------------------------------------------------------
      1        6           0.007180313    0.009752822    0.000000000
      2        6          -0.006973767    0.014873696    0.000000000
      3        6           0.020459894   -0.003736222    0.000000000
      4        6           0.001938087   -0.004295147   -0.000000000
      5        6           0.000339659    0.004776474    0.000000000
      6        6           0.016935108   -0.000307203   -0.000000000
      7       17          -0.009579624   -0.003624086   -0.000000000
      8       17          -0.008576248   -0.001792950   -0.000000000
      9        1           0.000222335   -0.013337012   -0.000000000
     10        1          -0.011236304   -0.009318714   -0.000000000
     11        1          -0.010709455    0.007008343   -0.000000000
 -------------------------------------------------------------------
 Cartesian Forces:  Max     0.020459894 RMS     0.007622983

 GradGradGradGradGradGradGradGradGradGradGradGradGradGradGradGradGradGrad
 Berny optimization.
 FormGI is forming the generalized inverse of G from B-inverse, IUseBI=4.
 Internal  Forces:  Max     0.014983456 RMS     0.006050603
 Search for a local minimum.
 Step number   1 out of a maximum of   57
 All quantities printed in internal units (Hartrees-Bohrs-Radians)
 Mixed Optimization -- RFO/linear search
 Second derivative matrix not updated -- first step.
 ITU=  0
     Eigenvalues ---    0.02221   0.02221   0.02221   0.02221   0.02221
     Eigenvalues ---    0.02221   0.02221   0.02221   0.16000   0.16000
     Eigenvalues ---    0.16000   0.22076   0.23332   0.24905   0.25000
     Eigenvalues ---    0.25000   0.31476   0.31476   0.35994   0.35994
     Eigenvalues ---    0.35994   0.43071   0.43565   0.47319   0.47319
     Eigenvalues ---    0.47319   0.47319
 RFO step:  Lambda=-4.96645115D-03 EMin= 2.22103665D-02
 Linear search not attempted -- first point.
 Iteration  1 RMS(Cart)=  0.02455113 RMS(Int)=  0.00019296
 Iteration  2 RMS(Cart)=  0.00024250 RMS(Int)=  0.00002402
 Iteration  3 RMS(Cart)=  0.00000002 RMS(Int)=  0.00002402
 ClnCor:  largest displacement from symmetrization is 1.03D-11 for atom     6.
 Variable       Old X    -DE/DX   Delta X   Delta X   Delta X     New X
                                 (Linear)    (Quad)   (Total)
    R1        2.62672  -0.00583   0.00000  -0.01333  -0.01335   2.61337
    R2        2.62672   0.00153   0.00000   0.00197   0.00193   2.62865
    R3        2.62672   0.01498   0.00000   0.03143   0.03145   2.65817
    R4        3.28812  -0.01011   0.00000  -0.03161  -0.03161   3.25651
    R5        2.62672   0.00838   0.00000   0.01876   0.01880   2.64552
    R6        3.28812  -0.00653   0.00000  -0.02043  -0.02043   3.26770
    R7        2.62672   0.00961   0.00000   0.02125   0.02126   2.64798
    R8        2.04090   0.01334   0.00000   0.03655   0.03655   2.07745
    R9        2.62672   0.01272   0.00000   0.02651   0.02649   2.65321
   R10        2.04090   0.01439   0.00000   0.03944   0.03944   2.08034
   R11        2.04090   0.01278   0.00000   0.03502   0.03502   2.07592
    A1        2.09440  -0.00609   0.00000  -0.03024  -0.03032   2.06407
    A2        2.09440   0.00758   0.00000   0.02799   0.02799   2.12239
    A3        2.09440  -0.00650   0.00000  -0.02464  -0.02464   2.06975
    A4        2.09440  -0.00107   0.00000  -0.00335  -0.00335   2.09105
    A5        2.09440  -0.00126   0.00000  -0.00214  -0.00208   2.09232
    A6        2.09440   0.01023   0.00000   0.03873   0.03870   2.13310
    A7        2.09440  -0.00897   0.00000  -0.03659  -0.03662   2.05777
    A8        2.09440  -0.00565   0.00000  -0.01971  -0.01965   2.07475
    A9        2.09440   0.00260   0.00000   0.00848   0.00845   2.10284
   A10        2.09440   0.00305   0.00000   0.01123   0.01120   2.10559
   A11        2.09440  -0.00065   0.00000  -0.00035  -0.00035   2.09405
   A12        2.09440  -0.00218   0.00000  -0.01499  -0.01499   2.07940
   A13        2.09440   0.00283   0.00000   0.01534   0.01534   2.10974
   A14        2.09440   0.00608   0.00000   0.02446   0.02440   2.11880
   A15        2.09440  -0.00377   0.00000  -0.01665  -0.01662   2.07777
   A16        2.09440  -0.00231   0.00000  -0.00781  -0.00778   2.08661
    D1        0.00000  -0.00000   0.00000  -0.00000   0.00000   0.00000
    D2        3.14159  -0.00000   0.00000  -0.00000   0.00000   3.14159
    D3        0.00000   0.00000   0.00000   0.00000   0.00000   0.00000
    D4        3.14159   0.00000   0.00000   0.00000   0.00000   3.14159
    D5        0.00000   0.00000   0.00000   0.00000   0.00000   0.00000
    D6        3.14159  -0.00000   0.00000  -0.00000   0.00000   3.14159
    D7        3.14159   0.00000   0.00000   0.00000   0.00000   3.14159
    D8        0.00000   0.00000   0.00000   0.00000   0.00000   0.00000
    D9        0.00000  -0.00000   0.00000  -0.00000   0.00000   0.00000
   D10        3.14159  -0.00000   0.00000  -0.00000   0.00000   3.14159
   D11        3.14159   0.00000   0.00000   0.00000   0.00000   3.14159
   D12        0.00000   0.00000   0.00000   0.00000   0.00000   0.00000
   D13        0.00000   0.00000   0.00000   0.00000   0.00000   0.00000
   D14        3.14159  -0.00000   0.00000  -0.00000   0.00000   3.14159
   D15        3.14159   0.00000   0.00000   0.00000   0.00000   3.14159
   D16        0.00000  -0.00000   0.00000  -0.00000   0.00000   0.00000
   D17        0.00000  -0.00000   0.00000  -0.00000   0.00000   0.00000
   D18        3.14159  -0.00000   0.00000  -0.00000   0.00000   3.14159
   D19        3.14159   0.00000   0.00000   0.00000   0.00000   3.14159
   D20        0.00000  -0.00000   0.00000  -0.00000   0.00000   0.00000
         Item               Value     Threshold  Converged?
 Maximum Force            0.014983     0.000450     NO 
 RMS     Force            0.006051     0.000300     NO 
 Maximum Displacement     0.070091     0.001800     NO 
 RMS     Displacement     0.024508     0.001200     NO 
 Predicted change in Energy=-2.520918D-03
 GradGradGradGradGradGradGradGradGradGradGradGradGradGradGradGradGradGrad

                          Input orientation:                          
 ---------------------------------------------------------------------
 Center     Atomic      Atomic             Coordinates (Angstroms)
 Number     Number       Type             X           Y           Z
 ---------------------------------------------------------------------
      1          6           0        0.008970    1.421291    0.000000
      2          6           0        1.196033    0.711791    0.000000
      3          6           0        1.214139   -0.694734    0.000000
      4          6           0        0.009373   -1.407753    0.000000
      5          6           0       -1.197896   -0.696409    0.000000
      6          6           0       -1.184977    0.707548    0.000000
      7         17           0        2.680157    1.587598    0.000000
      8         17           0        2.688832   -1.597719    0.000000
      9          1           0        0.011951   -2.507091    0.000000
     10          1           0       -2.147878   -1.252687    0.000000
     11          1           0       -2.135551    1.258165    0.000000
 ---------------------------------------------------------------------
                    Distance matrix (angstroms):
                    1          2          3          4          5
     1  C    0.000000
     2  C    1.382934   0.000000
     3  C    2.435158   1.406642   0.000000
     4  C    2.829043   2.429121   1.399948   0.000000
     5  C    2.437453   2.777395   2.412035   1.401252   0.000000
     6  C    1.391020   2.381013   2.778876   2.429191   1.404017
     7  Cl   2.676358   1.723270   2.712609   4.013130   4.500664
     8  Cl   4.036840   2.749961   1.729191   2.686185   3.989864
     9  H    3.928382   3.429759   2.174831   1.099341   2.177681
    10  H    3.435426   3.878262   3.408001   2.162817   1.100868
    11  H    2.150717   3.376089   3.877401   3.421669   2.167847
                    6          7          8          9         10
     6  C    0.000000
     7  Cl   3.964056   0.000000
     8  Cl   4.507843   3.185328   0.000000
     9  H    3.430239   4.887310   2.827128   0.000000
    10  H    2.183965   5.601530   4.849001   2.497677   0.000000
    11  H    1.098531   4.826963   5.606313   4.334618   2.510882
                   11
    11  H    0.000000
 Stoichiometry    C6H3Cl2(1-)
 Framework group  CS[SG(C6H3Cl2)]
 Deg. of freedom    19
 Full point group                 CS      NOp   2
 Largest Abelian subgroup         CS      NOp   2
 Largest concise Abelian subgroup C1      NOp   1
                         Standard orientation:                         
 ---------------------------------------------------------------------
 Center     Atomic      Atomic             Coordinates (Angstroms)
 Number     Number       Type             X           Y           Z
 ---------------------------------------------------------------------
      1          6           0        1.145259   -1.487240    0.000000
      2          6           0       -0.021407   -0.744679    0.000000
      3          6           0        0.000000    0.661800    0.000000
      4          6           0        1.224317    1.340698    0.000000
      5          6           0        2.411130    0.595727    0.000000
      6          6           0        2.358782   -0.807314    0.000000
      7         17           0       -1.529544   -1.578455    0.000000
      8         17           0       -1.448749    1.605848    0.000000
      9          1           0        1.252618    2.439675    0.000000
     10          1           0        3.376362    1.125103    0.000000
     11          1           0        3.293517   -1.384413    0.000000
 ---------------------------------------------------------------------
 Rotational constants (GHZ):           1.9545264           1.4493985           0.8322415
 Standard basis: VSTO-6G (5D, 7F)
 There are    27 symmetry adapted cartesian basis functions of A'  symmetry.
 There are     8 symmetry adapted cartesian basis functions of A"  symmetry.
 There are    27 symmetry adapted basis functions of A'  symmetry.
 There are     8 symmetry adapted basis functions of A"  symmetry.
    35 basis functions,   210 primitive gaussians,    35 cartesian basis functions
    21 alpha electrons       21 beta electrons
       nuclear repulsion energy       197.6984266101 Hartrees.
 Integral buffers will be    131072 words long.
 Regular integral format.
 Two-electron integral symmetry is turned off.
 Do NDO integrals.
 One-electron integrals computed using PRISM.
 NBasis=    35 RedAO= T EigKep=  1.00D+00  NBF=    27     8
 NBsUse=    35 1.00D-06 EigRej= -1.00D+00 NBFU=    27     8
 Initial guess from the checkpoint file:  "calcs/am1/chks/ClPh_23_anion.chk"
 B after Tr=     0.000000    0.000000    0.000000
         Rot=    0.858754    0.000000    0.000000    0.512388 Ang=  61.65 deg.
 Initial guess orbital symmetries:
       Occupied  (A') (A') (A') (A') (A') (A') (A') (A') (A') (A')
                 (A') (A") (A') (A") (A') (A') (A") (A') (A") (A")
                 (A')
       Virtual   (A") (A") (A') (A') (A") (A') (A') (A') (A') (A')
                 (A') (A') (A') (A')
 Keep J ints in memory in canonical form, NReq=862793.
 Overlap will be assumed to be unity.
 Requested convergence on RMS density matrix=1.00D-08 within  32 cycles.
 Requested convergence on MAX density matrix=1.00D-06.
 Requested convergence on             energy=1.00D-06.
 No special actions if energy rises.
 Fock symm off for IB=2 I1=    1 I=   28 J=    7 Cut=1.00D-07 Err=9.96D-04
 Fock matrix is not symmetric: symmetry in diagonalization turned off.
 SCF Done:  E(RAM1) =  0.463164754685E-01 A.U. after   13 cycles
            NFock= 12  Conv=0.98D-08     -V/T= 1.0005
 QCSCF skips out because SCF is already converged.
 Calling FoFJK, ICntrl=      2127 FMM=F ISym2X=1 I1Cent= 0 IOpClX= 0 NMat=1 NMatS=1 NMatT=0.
 ***** Axes restored to original set *****
 -------------------------------------------------------------------
 Center     Atomic                   Forces (Hartrees/Bohr)
 Number     Number              X              Y              Z
 -------------------------------------------------------------------
      1        6          -0.002784880    0.001338540   -0.000000000
      2        6           0.000666453   -0.007075451    0.000000000
      3        6           0.002261015    0.003339688    0.000000000
      4        6          -0.001909181    0.004078127    0.000000000
      5        6           0.002137222    0.006875842    0.000000000
      6        6           0.000784312   -0.010472575    0.000000000
      7       17           0.000608958   -0.001408207   -0.000000000
      8       17          -0.002901480    0.001390544   -0.000000000
      9        1          -0.000098966    0.002119250   -0.000000000
     10        1           0.001557346    0.000547526   -0.000000000
     11        1          -0.000320799   -0.000733283   -0.000000000
 -------------------------------------------------------------------
 Cartesian Forces:  Max     0.010472575 RMS     0.002909248

 GradGradGradGradGradGradGradGradGradGradGradGradGradGradGradGradGradGrad
 Berny optimization.
 Using GEDIIS/GDIIS optimizer.
 FormGI is forming the generalized inverse of G from B-inverse, IUseBI=4.
 Internal  Forces:  Max     0.010705679 RMS     0.002348552
 Search for a local minimum.
 Step number   2 out of a maximum of   57
 All quantities printed in internal units (Hartrees-Bohrs-Radians)
 Mixed Optimization -- RFO/linear search
 Update second derivatives using D2CorX and points    1    2
 DE= -2.05D-03 DEPred=-2.52D-03 R= 8.12D-01
 TightC=F SS=  1.41D+00  RLast= 1.24D-01 DXNew= 5.0454D-01 3.7172D-01
 Trust test= 8.12D-01 RLast= 1.24D-01 DXMaxT set to 3.72D-01
 ITU=  1  0
 Use linear search instead of GDIIS.
     Eigenvalues ---    0.02221   0.02221   0.02221   0.02221   0.02221
     Eigenvalues ---    0.02221   0.02221   0.02221   0.15845   0.16000
     Eigenvalues ---    0.16044   0.21594   0.22551   0.23783   0.24946
     Eigenvalues ---    0.25484   0.30310   0.31593   0.35436   0.35994
     Eigenvalues ---    0.36180   0.43015   0.44293   0.47219   0.47319
     Eigenvalues ---    0.47319   0.63481
 RFO step:  Lambda=-3.44653231D-04 EMin= 2.22103665D-02
 Quartic linear search produced a step of -0.14547.
 Iteration  1 RMS(Cart)=  0.00748133 RMS(Int)=  0.00001896
 Iteration  2 RMS(Cart)=  0.00002200 RMS(Int)=  0.00000319
 Iteration  3 RMS(Cart)=  0.00000000 RMS(Int)=  0.00000319
 ClnCor:  largest displacement from symmetrization is 9.26D-12 for atom     9.
 Variable       Old X    -DE/DX   Delta X   Delta X   Delta X     New X
                                 (Linear)    (Quad)   (Total)
    R1        2.61337   0.00266   0.00194   0.00254   0.00449   2.61785
    R2        2.62865   0.00010  -0.00028   0.00086   0.00058   2.62923
    R3        2.65817  -0.00762  -0.00457  -0.00673  -0.01131   2.64686
    R4        3.25651  -0.00019   0.00460  -0.00725  -0.00265   3.25385
    R5        2.64552  -0.00317  -0.00273  -0.00199  -0.00473   2.64079
    R6        3.26770  -0.00320   0.00297  -0.01303  -0.01006   3.25764
    R7        2.64798  -0.00509  -0.00309  -0.00523  -0.00833   2.63966
    R8        2.07745  -0.00212  -0.00532   0.00277  -0.00255   2.07490
    R9        2.65321  -0.01071  -0.00385  -0.01397  -0.01782   2.63539
   R10        2.08034  -0.00162  -0.00574   0.00456  -0.00117   2.07917
   R11        2.07592  -0.00009  -0.00509   0.00725   0.00216   2.07808
    A1        2.06407  -0.00158   0.00441  -0.00974  -0.00532   2.05875
    A2        2.12239  -0.00047  -0.00407   0.00581   0.00173   2.12412
    A3        2.06975   0.00271   0.00359   0.00329   0.00688   2.07663
    A4        2.09105  -0.00225   0.00049  -0.00910  -0.00861   2.08243
    A5        2.09232  -0.00098   0.00030  -0.00397  -0.00367   2.08864
    A6        2.13310   0.00103  -0.00563   0.01183   0.00620   2.13930
    A7        2.05777  -0.00005   0.00533  -0.00786  -0.00253   2.05524
    A8        2.07475   0.00210   0.00286   0.00180   0.00466   2.07940
    A9        2.10284  -0.00095  -0.00123  -0.00067  -0.00190   2.10095
   A10        2.10559  -0.00115  -0.00163  -0.00113  -0.00276   2.10284
   A11        2.09405   0.00051   0.00005  -0.00033  -0.00028   2.09377
   A12        2.07940  -0.00058   0.00218  -0.00479  -0.00261   2.07679
   A13        2.10974   0.00007  -0.00223   0.00512   0.00288   2.11262
   A14        2.11880   0.00041  -0.00355   0.00642   0.00288   2.12168
   A15        2.07777   0.00062   0.00242   0.00025   0.00267   2.08044
   A16        2.08661  -0.00103   0.00113  -0.00667  -0.00555   2.08107
    D1        0.00000   0.00000   0.00000   0.00000   0.00000   0.00000
    D2        3.14159  -0.00000   0.00000  -0.00000   0.00000   3.14159
    D3        0.00000  -0.00000   0.00000  -0.00000   0.00000   0.00000
    D4        3.14159   0.00000   0.00000   0.00000   0.00000   3.14159
    D5        0.00000  -0.00000   0.00000  -0.00000   0.00000   0.00000
    D6        3.14159  -0.00000   0.00000  -0.00000   0.00000   3.14159
    D7        3.14159   0.00000   0.00000   0.00000   0.00000   3.14159
    D8        0.00000   0.00000   0.00000   0.00000   0.00000   0.00000
    D9        0.00000  -0.00000   0.00000  -0.00000   0.00000   0.00000
   D10        3.14159  -0.00000   0.00000  -0.00000   0.00000   3.14159
   D11        3.14159   0.00000   0.00000   0.00000   0.00000   3.14159
   D12        0.00000  -0.00000   0.00000  -0.00000   0.00000   0.00000
   D13        0.00000   0.00000   0.00000   0.00000   0.00000   0.00000
   D14        3.14159  -0.00000   0.00000  -0.00000   0.00000   3.14159
   D15        3.14159   0.00000   0.00000   0.00000   0.00000   3.14159
   D16        0.00000   0.00000   0.00000  -0.00000   0.00000   0.00000
   D17        0.00000  -0.00000   0.00000  -0.00000   0.00000   0.00000
   D18        3.14159  -0.00000   0.00000  -0.00000   0.00000   3.14159
   D19        3.14159   0.00000   0.00000   0.00000   0.00000   3.14159
   D20        0.00000  -0.00000   0.00000  -0.00000   0.00000   0.00000
         Item               Value     Threshold  Converged?
 Maximum Force            0.010706     0.000450     NO 
 RMS     Force            0.002349     0.000300     NO 
 Maximum Displacement     0.024116     0.001800     NO 
 RMS     Displacement     0.007485     0.001200     NO 
 Predicted change in Energy=-2.332463D-04
 GradGradGradGradGradGradGradGradGradGradGradGradGradGradGradGradGradGrad

                          Input orientation:                          
 ---------------------------------------------------------------------
 Center     Atomic      Atomic             Coordinates (Angstroms)
 Number     Number       Type             X           Y           Z
 ---------------------------------------------------------------------
      1          6           0        0.006332    1.422102    0.000000
      2          6           0        1.195055    0.710754    0.000000
      3          6           0        1.214767   -0.689765    0.000000
      4          6           0        0.010398   -1.398535    0.000000
      5          6           0       -1.194620   -0.692058    0.000000
      6          6           0       -1.184448    0.702494    0.000000
      7         17           0        2.684411    1.574836    0.000000
      8         17           0        2.680401   -1.597311    0.000000
      9          1           0        0.012343   -2.496525    0.000000
     10          1           0       -2.141392   -1.252565    0.000000
     11          1           0       -2.140093    1.246575    0.000000
 ---------------------------------------------------------------------
                    Distance matrix (angstroms):
                    1          2          3          4          5
     1  C    0.000000
     2  C    1.385308   0.000000
     3  C    2.433166   1.400658   0.000000
     4  C    2.820640   2.419196   1.397448   0.000000
     5  C    2.431452   2.770997   2.409388   1.396846   0.000000
     6  C    1.391327   2.379517   2.773917   2.417019   1.394589
     7  Cl   2.682431   1.721866   2.699680   3.998910   4.492849
     8  Cl   4.033299   2.744707   1.723868   2.677392   3.979356
     9  H    3.918631   3.418398   2.170300   1.097991   2.170912
    10  H    3.430242   3.871240   3.403021   2.156736   1.100248
    11  H    2.153590   3.377916   3.873564   3.408991   2.156900
                    6          7          8          9         10
     6  C    0.000000
     7  Cl   3.965987   0.000000
     8  Cl   4.497350   3.172150   0.000000
     9  H    3.415556   4.869900   2.815514   0.000000
    10  H    2.176694   5.593083   4.834102   2.487169   0.000000
    11  H    1.099674   4.835659   5.596861   4.317844   2.499141
                   11
    11  H    0.000000
 Stoichiometry    C6H3Cl2(1-)
 Framework group  CS[SG(C6H3Cl2)]
 Deg. of freedom    19
 Full point group                 CS      NOp   2
 Largest Abelian subgroup         CS      NOp   2
 Largest concise Abelian subgroup C1      NOp   1
                         Standard orientation:                         
 ---------------------------------------------------------------------
 Center     Atomic      Atomic             Coordinates (Angstroms)
 Number     Number       Type             X           Y           Z
 ---------------------------------------------------------------------
      1          6           0        1.143376   -1.492712    0.000000
      2          6           0       -0.023068   -0.745392    0.000000
      3          6           0        0.000000    0.655076    0.000000
      4          6           0        1.225453    1.326734    0.000000
      5          6           0        2.408333    0.583785    0.000000
      6          6           0        2.355576   -0.809805    0.000000
      7         17           0       -1.538119   -1.563587    0.000000
      8         17           0       -1.437234    1.606958    0.000000
      9          1           0        1.257042    2.424270    0.000000
     10          1           0        3.371782    1.115117    0.000000
     11          1           0        3.294160   -1.382818    0.000000
 ---------------------------------------------------------------------
 Rotational constants (GHZ):           1.9704188           1.4519325           0.8359501
 Standard basis: VSTO-6G (5D, 7F)
 There are    27 symmetry adapted cartesian basis functions of A'  symmetry.
 There are     8 symmetry adapted cartesian basis functions of A"  symmetry.
 There are    27 symmetry adapted basis functions of A'  symmetry.
 There are     8 symmetry adapted basis functions of A"  symmetry.
    35 basis functions,   210 primitive gaussians,    35 cartesian basis functions
    21 alpha electrons       21 beta electrons
       nuclear repulsion energy       197.9587883340 Hartrees.
 Integral buffers will be    131072 words long.
 Regular integral format.
 Two-electron integral symmetry is turned off.
 Do NDO integrals.
 One-electron integrals computed using PRISM.
 NBasis=    35 RedAO= T EigKep=  1.00D+00  NBF=    27     8
 NBsUse=    35 1.00D-06 EigRej= -1.00D+00 NBFU=    27     8
 Initial guess from the checkpoint file:  "calcs/am1/chks/ClPh_23_anion.chk"
 B after Tr=    -0.000000   -0.000000    0.000000
         Rot=    0.999998   -0.000000   -0.000000    0.002218 Ang=   0.25 deg.
 Initial guess orbital symmetries:
       Occupied  (A') (A') (A') (A') (A') (A') (A') (A') (A') (A')
                 (A') (A") (A') (A") (A') (A') (A") (A') (A") (A")
                 (A')
       Virtual   (A") (A") (A') (A') (A") (A') (A') (A') (A') (A')
                 (A') (A') (A') (A')
 Keep J ints in memory in canonical form, NReq=862793.
 Overlap will be assumed to be unity.
 Requested convergence on RMS density matrix=1.00D-08 within  32 cycles.
 Requested convergence on MAX density matrix=1.00D-06.
 Requested convergence on             energy=1.00D-06.
 No special actions if energy rises.
 Fock symm off for IB=2 I1=    1 I=   28 J=   13 Cut=1.00D-07 Err=2.71D-04
 Fock matrix is not symmetric: symmetry in diagonalization turned off.
 SCF Done:  E(RAM1) =  0.460917370961E-01 A.U. after   13 cycles
            NFock= 12  Conv=0.28D-08     -V/T= 1.0005
 QCSCF skips out because SCF is already converged.
 Calling FoFJK, ICntrl=      2127 FMM=F ISym2X=1 I1Cent= 0 IOpClX= 0 NMat=1 NMatS=1 NMatT=0.
 ***** Axes restored to original set *****
 -------------------------------------------------------------------
 Center     Atomic                   Forces (Hartrees/Bohr)
 Number     Number              X              Y              Z
 -------------------------------------------------------------------
      1        6          -0.000474879    0.001864482    0.000000000
      2        6           0.000175217   -0.000585566    0.000000000
      3        6           0.002041096   -0.000317390    0.000000000
      4        6          -0.000585919   -0.001752398    0.000000000
      5        6          -0.001599581   -0.000251351   -0.000000000
      6        6          -0.001479554   -0.000222767    0.000000000
      7       17           0.001041161    0.000440413    0.000000000
      8       17          -0.000059787    0.000012471   -0.000000000
      9        1          -0.000031079    0.000682720   -0.000000000
     10        1           0.000614249    0.000164282   -0.000000000
     11        1           0.000359076   -0.000034897   -0.000000000
 -------------------------------------------------------------------
 Cartesian Forces:  Max     0.002041096 RMS     0.000756791

 GradGradGradGradGradGradGradGradGradGradGradGradGradGradGradGradGradGrad
 Berny optimization.
 Using GEDIIS/GDIIS optimizer.
 FormGI is forming the generalized inverse of G from B-inverse, IUseBI=4.
 Internal  Forces:  Max     0.001894538 RMS     0.000534523
 Search for a local minimum.
 Step number   3 out of a maximum of   57
 All quantities printed in internal units (Hartrees-Bohrs-Radians)
 Mixed Optimization -- En-DIIS/RFO-DIIS
 Update second derivatives using D2CorX and points    1    2    3
 DE= -2.25D-04 DEPred=-2.33D-04 R= 9.64D-01
 TightC=F SS=  1.41D+00  RLast= 3.14D-02 DXNew= 6.2516D-01 9.4085D-02
 Trust test= 9.64D-01 RLast= 3.14D-02 DXMaxT set to 3.72D-01
 ITU=  1  1  0
 Use linear search instead of GDIIS.
     Eigenvalues ---    0.02221   0.02221   0.02221   0.02221   0.02221
     Eigenvalues ---    0.02221   0.02221   0.02221   0.15640   0.16001
     Eigenvalues ---    0.16095   0.20882   0.22503   0.23527   0.24973
     Eigenvalues ---    0.25350   0.30638   0.31827   0.35721   0.35994
     Eigenvalues ---    0.36466   0.42487   0.43953   0.46208   0.47319
     Eigenvalues ---    0.47418   0.71916
 RFO step:  Lambda=-2.78906618D-05 EMin= 2.22103665D-02
 Quartic linear search produced a step of -0.04054.
 Iteration  1 RMS(Cart)=  0.00148352 RMS(Int)=  0.00000081
 Iteration  2 RMS(Cart)=  0.00000103 RMS(Int)=  0.00000017
 Iteration  3 RMS(Cart)=  0.00000000 RMS(Int)=  0.00000017
 ClnCor:  largest displacement from symmetrization is 1.64D-12 for atom     9.
 Variable       Old X    -DE/DX   Delta X   Delta X   Delta X     New X
                                 (Linear)    (Quad)   (Total)
    R1        2.61785   0.00189  -0.00018   0.00432   0.00414   2.62199
    R2        2.62923   0.00141  -0.00002   0.00290   0.00287   2.63210
    R3        2.64686   0.00087   0.00046   0.00063   0.00109   2.64795
    R4        3.25385   0.00112   0.00011   0.00301   0.00312   3.25697
    R5        2.64079   0.00166   0.00019   0.00285   0.00304   2.64384
    R6        3.25764  -0.00006   0.00041  -0.00134  -0.00093   3.25671
    R7        2.63966   0.00110   0.00034   0.00129   0.00163   2.64128
    R8        2.07490  -0.00068   0.00010  -0.00199  -0.00189   2.07302
    R9        2.63539   0.00060   0.00072  -0.00075  -0.00003   2.63536
   R10        2.07917  -0.00061   0.00005  -0.00164  -0.00160   2.07757
   R11        2.07808  -0.00033  -0.00009  -0.00054  -0.00063   2.07745
    A1        2.05875  -0.00015   0.00022  -0.00112  -0.00090   2.05785
    A2        2.12412   0.00013  -0.00007   0.00093   0.00086   2.12498
    A3        2.07663   0.00017  -0.00028   0.00124   0.00096   2.07759
    A4        2.08243  -0.00029   0.00035  -0.00217  -0.00182   2.08061
    A5        2.08864  -0.00036   0.00015  -0.00171  -0.00156   2.08708
    A6        2.13930   0.00021  -0.00025   0.00157   0.00132   2.14062
    A7        2.05524   0.00014   0.00010   0.00014   0.00024   2.05549
    A8        2.07940   0.00026  -0.00019   0.00142   0.00123   2.08064
    A9        2.10095  -0.00010   0.00008  -0.00048  -0.00041   2.10054
   A10        2.10284  -0.00016   0.00011  -0.00094  -0.00083   2.10201
   A11        2.09377   0.00007   0.00001  -0.00001  -0.00000   2.09377
   A12        2.07679  -0.00021   0.00011  -0.00140  -0.00130   2.07550
   A13        2.11262   0.00015  -0.00012   0.00141   0.00130   2.11392
   A14        2.12168   0.00006  -0.00012   0.00049   0.00037   2.12205
   A15        2.08044  -0.00018  -0.00011  -0.00071  -0.00082   2.07962
   A16        2.08107   0.00013   0.00022   0.00022   0.00044   2.08151
    D1        0.00000  -0.00000   0.00000  -0.00000   0.00000   0.00000
    D2        3.14159  -0.00000   0.00000  -0.00000   0.00000   3.14159
    D3        0.00000  -0.00000   0.00000  -0.00000   0.00000   0.00000
    D4        3.14159   0.00000   0.00000   0.00000   0.00000   3.14159
    D5        0.00000   0.00000   0.00000   0.00000   0.00000   0.00000
    D6        3.14159  -0.00000   0.00000  -0.00000   0.00000   3.14159
    D7        3.14159   0.00000   0.00000   0.00000   0.00000   3.14159
    D8        0.00000   0.00000   0.00000   0.00000   0.00000   0.00000
    D9        0.00000   0.00000   0.00000  -0.00000   0.00000   0.00000
   D10        3.14159  -0.00000   0.00000  -0.00000   0.00000   3.14159
   D11        3.14159   0.00000   0.00000   0.00000   0.00000   3.14159
   D12        0.00000  -0.00000   0.00000  -0.00000   0.00000   0.00000
   D13        0.00000  -0.00000   0.00000  -0.00000   0.00000   0.00000
   D14        3.14159  -0.00000   0.00000  -0.00000   0.00000   3.14159
   D15        3.14159   0.00000   0.00000   0.00000   0.00000   3.14159
   D16        0.00000   0.00000   0.00000   0.00000   0.00000   0.00000
   D17        0.00000   0.00000   0.00000   0.00000   0.00000   0.00000
   D18        3.14159  -0.00000   0.00000  -0.00000   0.00000   3.14159
   D19        3.14159   0.00000   0.00000   0.00000   0.00000   3.14159
   D20        0.00000  -0.00000   0.00000  -0.00000   0.00000   0.00000
         Item               Value     Threshold  Converged?
 Maximum Force            0.001895     0.000450     NO 
 RMS     Force            0.000535     0.000300     NO 
 Maximum Displacement     0.005763     0.001800     NO 
 RMS     Displacement     0.001483     0.001200     NO 
 Predicted change in Energy=-1.433148D-05
 GradGradGradGradGradGradGradGradGradGradGradGradGradGradGradGradGradGrad

                          Input orientation:                          
 ---------------------------------------------------------------------
 Center     Atomic      Atomic             Coordinates (Angstroms)
 Number     Number       Type             X           Y           Z
 ---------------------------------------------------------------------
      1          6           0        0.005224    1.423741    0.000000
      2          6           0        1.195745    0.711131    0.000000
      3          6           0        1.216502   -0.689950    0.000000
      4          6           0        0.010163   -1.398546    0.000000
      5          6           0       -1.195890   -0.692131    0.000000
      6          6           0       -1.186291    0.702409    0.000000
      7         17           0        2.687461    1.574432    0.000000
      8         17           0        2.681194   -1.598080    0.000000
      9          1           0        0.011651   -2.495538    0.000000
     10          1           0       -2.140976   -1.253824    0.000000
     11          1           0       -2.141631    1.246356    0.000000
 ---------------------------------------------------------------------
                    Distance matrix (angstroms):
                    1          2          3          4          5
     1  C    0.000000
     2  C    1.387498   0.000000
     3  C    2.436161   1.401234   0.000000
     4  C    2.822291   2.419988   1.399058   0.000000
     5  C    2.433021   2.772915   2.412393   1.397707   0.000000
     6  C    1.392849   2.382051   2.777063   2.417750   1.394574
     7  Cl   2.686466   1.723515   2.700211   4.000815   4.496412
     8  Cl   4.036362   2.745727   1.723376   2.678474   3.981523
     9  H    3.919284   3.418304   2.170671   1.096993   2.170352
    10  H    3.431549   3.872306   3.404499   2.156002   1.099403
    11  H    2.154171   3.380020   3.876382   3.409651   2.156886
                    6          7          8          9         10
     6  C    0.000000
     7  Cl   3.970689   0.000000
     8  Cl   4.499966   3.172518   0.000000
     9  H    3.414957   4.870791   2.816361   0.000000
    10  H    2.176757   5.595787   4.834443   2.485087   0.000000
    11  H    1.099341   4.840223   5.599148   4.317220   2.500179
                   11
    11  H    0.000000
 Stoichiometry    C6H3Cl2(1-)
 Framework group  CS[SG(C6H3Cl2)]
 Deg. of freedom    19
 Full point group                 CS      NOp   2
 Largest Abelian subgroup         CS      NOp   2
 Largest concise Abelian subgroup C1      NOp   1
                         Standard orientation:                         
 ---------------------------------------------------------------------
 Center     Atomic      Atomic             Coordinates (Angstroms)
 Number     Number       Type             X           Y           Z
 ---------------------------------------------------------------------
      1          6           0        1.142779   -1.496347    0.000000
      2          6           0       -0.024244   -0.745876    0.000000
      3          6           0        0.000000    0.655149    0.000000
      4          6           0        1.228471    1.324643    0.000000
      5          6           0        2.411218    0.579864    0.000000
      6          6           0        2.356843   -0.813650    0.000000
      7         17           0       -1.542913   -1.560830    0.000000
      8         17           0       -1.434775    1.609845    0.000000
      9          1           0        1.262210    2.421116    0.000000
     10          1           0        3.373854    1.110918    0.000000
     11          1           0        3.294223   -1.387993    0.000000
 ---------------------------------------------------------------------
 Rotational constants (GHZ):           1.9696253           1.4493863           0.8349629
 Standard basis: VSTO-6G (5D, 7F)
 There are    27 symmetry adapted cartesian basis functions of A'  symmetry.
 There are     8 symmetry adapted cartesian basis functions of A"  symmetry.
 There are    27 symmetry adapted basis functions of A'  symmetry.
 There are     8 symmetry adapted basis functions of A"  symmetry.
    35 basis functions,   210 primitive gaussians,    35 cartesian basis functions
    21 alpha electrons       21 beta electrons
       nuclear repulsion energy       197.8917788097 Hartrees.
 Integral buffers will be    131072 words long.
 Regular integral format.
 Two-electron integral symmetry is turned off.
 Do NDO integrals.
 One-electron integrals computed using PRISM.
 NBasis=    35 RedAO= T EigKep=  1.00D+00  NBF=    27     8
 NBsUse=    35 1.00D-06 EigRej= -1.00D+00 NBFU=    27     8
 Initial guess from the checkpoint file:  "calcs/am1/chks/ClPh_23_anion.chk"
 B after Tr=     0.000000   -0.000000   -0.000000
         Rot=    1.000000   -0.000000   -0.000000    0.000917 Ang=   0.11 deg.
 Initial guess orbital symmetries:
       Occupied  (A') (A') (A') (A') (A') (A') (A') (A') (A') (A')
                 (A') (A") (A') (A") (A') (A') (A") (A') (A") (A")
                 (A')
       Virtual   (A") (A") (A') (A') (A") (A') (A') (A') (A') (A')
                 (A') (A') (A') (A')
 Keep J ints in memory in canonical form, NReq=862793.
 Overlap will be assumed to be unity.
 Requested convergence on RMS density matrix=1.00D-08 within  32 cycles.
 Requested convergence on MAX density matrix=1.00D-06.
 Requested convergence on             energy=1.00D-06.
 No special actions if energy rises.
 Fock symm off for IB=2 I1=    1 I=   28 J=   21 Cut=1.00D-07 Err=4.29D-05
 Fock matrix is not symmetric: symmetry in diagonalization turned off.
 SCF Done:  E(RAM1) =  0.460798502309E-01 A.U. after   11 cycles
            NFock= 10  Conv=0.25D-08     -V/T= 1.0005
 QCSCF skips out because SCF is already converged.
 Calling FoFJK, ICntrl=      2127 FMM=F ISym2X=1 I1Cent= 0 IOpClX= 0 NMat=1 NMatS=1 NMatT=0.
 ***** Axes restored to original set *****
 -------------------------------------------------------------------
 Center     Atomic                   Forces (Hartrees/Bohr)
 Number     Number              X              Y              Z
 -------------------------------------------------------------------
      1        6           0.000395855    0.000018546   -0.000000000
      2        6          -0.001022217   -0.000360091    0.000000000
      3        6          -0.000154925    0.000105236    0.000000000
      4        6           0.000077283    0.000050046    0.000000000
      5        6           0.000181709   -0.000168283    0.000000000
      6        6           0.000235852    0.000088410    0.000000000
      7       17           0.000024216    0.000107583   -0.000000000
      8       17          -0.000095757    0.000059006   -0.000000000
      9        1           0.000027033    0.000062592   -0.000000000
     10        1           0.000099281   -0.000018782   -0.000000000
     11        1           0.000231670    0.000055736   -0.000000000
 -------------------------------------------------------------------
 Cartesian Forces:  Max     0.001022217 RMS     0.000219946

 GradGradGradGradGradGradGradGradGradGradGradGradGradGradGradGradGradGrad
 Berny optimization.
 Using GEDIIS/GDIIS optimizer.
 FormGI is forming the generalized inverse of G from B-inverse, IUseBI=4.
 Internal  Forces:  Max     0.000723158 RMS     0.000184940
 Search for a local minimum.
 Step number   4 out of a maximum of   57
 All quantities printed in internal units (Hartrees-Bohrs-Radians)
 Mixed Optimization -- En-DIIS/RFO-DIIS
 Swapping is turned off.
 Update second derivatives using D2CorX and points    1    2    3    4
 DE= -1.19D-05 DEPred=-1.43D-05 R= 8.29D-01
 TightC=F SS=  1.41D+00  RLast= 8.50D-03 DXNew= 6.2516D-01 2.5515D-02
 Trust test= 8.29D-01 RLast= 8.50D-03 DXMaxT set to 3.72D-01
 ITU=  1  1  1  0
     Eigenvalues ---    0.02221   0.02221   0.02221   0.02221   0.02221
     Eigenvalues ---    0.02221   0.02221   0.02221   0.14631   0.15999
     Eigenvalues ---    0.16057   0.19360   0.22286   0.23858   0.24756
     Eigenvalues ---    0.25957   0.30781   0.31008   0.35148   0.35989
     Eigenvalues ---    0.36088   0.43271   0.44719   0.47153   0.47281
     Eigenvalues ---    0.57189   0.77546
 En-DIIS/RFO-DIIS/Sim-DIIS IScMMF=       -3 using points:     4    3
 RFO step:  Lambda=-3.44711281D-06.
 DidBck=F Rises=F RFO-DIIS coefs:    1.01297   -0.01297
 Iteration  1 RMS(Cart)=  0.00064834 RMS(Int)=  0.00000023
 Iteration  2 RMS(Cart)=  0.00000025 RMS(Int)=  0.00000005
 ClnCor:  largest displacement from symmetrization is 2.53D-13 for atom    10.
 Variable       Old X    -DE/DX   Delta X   Delta X   Delta X     New X
                                 (Linear)    (Quad)   (Total)
    R1        2.62199  -0.00072   0.00005  -0.00095  -0.00090   2.62109
    R2        2.63210  -0.00035   0.00004  -0.00037  -0.00034   2.63177
    R3        2.64795  -0.00027   0.00001  -0.00043  -0.00041   2.64754
    R4        3.25697   0.00007   0.00004   0.00049   0.00053   3.25750
    R5        2.64384  -0.00041   0.00004  -0.00046  -0.00042   2.64341
    R6        3.25671  -0.00011  -0.00001  -0.00040  -0.00041   3.25630
    R7        2.64128  -0.00027   0.00002  -0.00031  -0.00029   2.64099
    R8        2.07302  -0.00006  -0.00002  -0.00033  -0.00035   2.07266
    R9        2.63536   0.00018  -0.00000   0.00034   0.00034   2.63570
   R10        2.07757  -0.00008  -0.00002  -0.00033  -0.00035   2.07722
   R11        2.07745  -0.00017  -0.00001  -0.00047  -0.00048   2.07698
    A1        2.05785  -0.00033  -0.00001  -0.00134  -0.00135   2.05650
    A2        2.12498   0.00041   0.00001   0.00135   0.00136   2.12633
    A3        2.07759  -0.00034   0.00001  -0.00099  -0.00097   2.07662
    A4        2.08061  -0.00007  -0.00002  -0.00036  -0.00038   2.08023
    A5        2.08708   0.00002  -0.00002  -0.00013  -0.00015   2.08693
    A6        2.14062  -0.00001   0.00002   0.00012   0.00013   2.14075
    A7        2.05549  -0.00001   0.00000   0.00001   0.00001   2.05550
    A8        2.08064  -0.00021   0.00002  -0.00059  -0.00057   2.08007
    A9        2.10054   0.00008  -0.00001   0.00016   0.00016   2.10070
   A10        2.10201   0.00013  -0.00001   0.00042   0.00041   2.10242
   A11        2.09377  -0.00000  -0.00000   0.00015   0.00015   2.09392
   A12        2.07550  -0.00007  -0.00002  -0.00057  -0.00058   2.07491
   A13        2.11392   0.00007   0.00002   0.00042   0.00043   2.11435
   A14        2.12205   0.00012   0.00000   0.00056   0.00056   2.12261
   A15        2.07962  -0.00023  -0.00001  -0.00124  -0.00125   2.07838
   A16        2.08151   0.00011   0.00001   0.00068   0.00068   2.08219
    D1        0.00000   0.00000   0.00000   0.00000   0.00000   0.00000
    D2        3.14159  -0.00000  -0.00000  -0.00000   0.00000   3.14159
    D3        0.00000  -0.00000   0.00000  -0.00000   0.00000   0.00000
    D4        3.14159   0.00000  -0.00000   0.00000   0.00000   3.14159
    D5        0.00000   0.00000   0.00000   0.00000   0.00000   0.00000
    D6        3.14159  -0.00000  -0.00000  -0.00000   0.00000   3.14159
    D7        3.14159   0.00000  -0.00000   0.00000   0.00000   3.14159
    D8        0.00000   0.00000   0.00000   0.00000   0.00000   0.00000
    D9        0.00000  -0.00000   0.00000  -0.00000   0.00000   0.00000
   D10        3.14159  -0.00000  -0.00000  -0.00000   0.00000   3.14159
   D11        3.14159   0.00000  -0.00000   0.00000   0.00000   3.14159
   D12        0.00000  -0.00000   0.00000  -0.00000   0.00000   0.00000
   D13        0.00000   0.00000   0.00000   0.00000   0.00000   0.00000
   D14        3.14159  -0.00000  -0.00000  -0.00000   0.00000   3.14159
   D15        3.14159   0.00000  -0.00000   0.00000   0.00000   3.14159
   D16        0.00000   0.00000   0.00000   0.00000   0.00000   0.00000
   D17        0.00000   0.00000   0.00000   0.00000   0.00000   0.00000
   D18        3.14159  -0.00000  -0.00000  -0.00000   0.00000   3.14159
   D19        3.14159   0.00000  -0.00000   0.00000   0.00000   3.14159
   D20        0.00000  -0.00000   0.00000  -0.00000   0.00000   0.00000
         Item               Value     Threshold  Converged?
 Maximum Force            0.000723     0.000450     NO 
 RMS     Force            0.000185     0.000300     YES
 Maximum Displacement     0.002166     0.001800     NO 
 RMS     Displacement     0.000648     0.001200     YES
 Predicted change in Energy=-1.723592D-06
 GradGradGradGradGradGradGradGradGradGradGradGradGradGradGradGradGradGrad

                          Input orientation:                          
 ---------------------------------------------------------------------
 Center     Atomic      Atomic             Coordinates (Angstroms)
 Number     Number       Type             X           Y           Z
 ---------------------------------------------------------------------
      1          6           0        0.005245    1.424219    0.000000
      2          6           0        1.194703    0.710761    0.000000
      3          6           0        1.216072   -0.690092    0.000000
      4          6           0        0.010132   -1.398926    0.000000
      5          6           0       -1.195591   -0.692252    0.000000
      6          6           0       -1.185808    0.702467    0.000000
      7         17           0        2.686614    1.574284    0.000000
      8         17           0        2.680854   -1.597662    0.000000
      9          1           0        0.011766   -2.495731    0.000000
     10          1           0       -2.140348   -1.254136    0.000000
     11          1           0       -2.140485    1.247067    0.000000
 ---------------------------------------------------------------------
                    Distance matrix (angstroms):
                    1          2          3          4          5
     1  C    0.000000
     2  C    1.387023   0.000000
     3  C    2.436475   1.401016   0.000000
     4  C    2.823149   2.419501   1.398834   0.000000
     5  C    2.433404   2.771633   2.411664   1.397554   0.000000
     6  C    1.392671   2.380525   2.776373   2.417876   1.394753
     7  Cl   2.685565   1.723796   2.699980   4.000441   4.495409
     8  Cl   4.036168   2.745444   1.723157   2.678106   3.980778
     9  H    3.919955   3.417738   2.170412   1.096807   2.170311
    10  H    3.431786   3.870838   3.403484   2.155349   1.099218
    11  H    2.153030   3.378032   3.875442   3.409755   2.157263
                    6          7          8          9         10
     6  C    0.000000
     7  Cl   3.969347   0.000000
     8  Cl   4.499074   3.171952   0.000000
     9  H    3.415063   4.870302   2.816125   0.000000
    10  H    2.177026   5.594598   4.833425   2.484583   0.000000
    11  H    1.099089   4.838177   5.598016   4.317490   2.501203
                   11
    11  H    0.000000
 Stoichiometry    C6H3Cl2(1-)
 Framework group  CS[SG(C6H3Cl2)]
 Deg. of freedom    19
 Full point group                 CS      NOp   2
 Largest Abelian subgroup         CS      NOp   2
 Largest concise Abelian subgroup C1      NOp   1
                         Standard orientation:                         
 ---------------------------------------------------------------------
 Center     Atomic      Atomic             Coordinates (Angstroms)
 Number     Number       Type             X           Y           Z
 ---------------------------------------------------------------------
      1          6           0        1.142728   -1.496565    0.000000
      2          6           0       -0.023352   -0.745507    0.000000
      3          6           0        0.000000    0.655314    0.000000
      4          6           0        1.227949    1.325297    0.000000
      5          6           0        2.410503    0.580501    0.000000
      6          6           0        2.356210   -0.813195    0.000000
      7         17           0       -1.542065   -1.560974    0.000000
      8         17           0       -1.435069    1.609173    0.000000
      9          1           0        1.261322    2.421596    0.000000
     10          1           0        3.372712    1.111945    0.000000
     11          1           0        3.293018   -1.387988    0.000000
 ---------------------------------------------------------------------
 Rotational constants (GHZ):           1.9698604           1.4501100           0.8352453
 Standard basis: VSTO-6G (5D, 7F)
 There are    27 symmetry adapted cartesian basis functions of A'  symmetry.
 There are     8 symmetry adapted cartesian basis functions of A"  symmetry.
 There are    27 symmetry adapted basis functions of A'  symmetry.
 There are     8 symmetry adapted basis functions of A"  symmetry.
    35 basis functions,   210 primitive gaussians,    35 cartesian basis functions
    21 alpha electrons       21 beta electrons
       nuclear repulsion energy       197.9079020971 Hartrees.
 Integral buffers will be    131072 words long.
 Regular integral format.
 Two-electron integral symmetry is turned off.
 Do NDO integrals.
 One-electron integrals computed using PRISM.
 NBasis=    35 RedAO= T EigKep=  1.00D+00  NBF=    27     8
 NBsUse=    35 1.00D-06 EigRej= -1.00D+00 NBFU=    27     8
 Initial guess from the checkpoint file:  "calcs/am1/chks/ClPh_23_anion.chk"
 B after Tr=    -0.000000    0.000000    0.000000
         Rot=    1.000000   -0.000000   -0.000000   -0.000131 Ang=  -0.02 deg.
 Initial guess orbital symmetries:
       Occupied  (A') (A') (A') (A') (A') (A') (A') (A') (A') (A')
                 (A') (A") (A') (A") (A') (A') (A") (A') (A") (A")
                 (A')
       Virtual   (A") (A") (A') (A') (A") (A') (A') (A') (A') (A')
                 (A') (A') (A') (A')
 Keep J ints in memory in canonical form, NReq=862793.
 Overlap will be assumed to be unity.
 Requested convergence on RMS density matrix=1.00D-08 within  32 cycles.
 Requested convergence on MAX density matrix=1.00D-06.
 Requested convergence on             energy=1.00D-06.
 No special actions if energy rises.
 Fock symm off for IB=2 I1=    1 I=   28 J=    8 Cut=1.00D-07 Err=1.43D-05
 Fock matrix is not symmetric: symmetry in diagonalization turned off.
 SCF Done:  E(RAM1) =  0.460780051385E-01 A.U. after   10 cycles
            NFock=  9  Conv=0.96D-08     -V/T= 1.0005
 QCSCF skips out because SCF is already converged.
 Calling FoFJK, ICntrl=      2127 FMM=F ISym2X=1 I1Cent= 0 IOpClX= 0 NMat=1 NMatS=1 NMatT=0.
 ***** Axes restored to original set *****
 -------------------------------------------------------------------
 Center     Atomic                   Forces (Hartrees/Bohr)
 Number     Number              X              Y              Z
 -------------------------------------------------------------------
      1        6           0.000135568    0.000050982   -0.000000000
      2        6          -0.000189453   -0.000139041    0.000000000
      3        6           0.000025127    0.000028191    0.000000000
      4        6           0.000003636    0.000040041    0.000000000
      5        6           0.000052731    0.000083559    0.000000000
      6        6          -0.000063043   -0.000108486    0.000000000
      7       17           0.000078097    0.000086899   -0.000000000
      8       17           0.000015260    0.000002358   -0.000000000
      9        1           0.000005581   -0.000063350   -0.000000000
     10        1          -0.000054227   -0.000014454   -0.000000000
     11        1          -0.000009276    0.000033301   -0.000000000
 -------------------------------------------------------------------
 Cartesian Forces:  Max     0.000189453 RMS     0.000062043

 GradGradGradGradGradGradGradGradGradGradGradGradGradGradGradGradGradGrad
 Berny optimization.
 Using GEDIIS/GDIIS optimizer.
 FormGI is forming the generalized inverse of G from B-inverse, IUseBI=4.
 Internal  Forces:  Max     0.000111123 RMS     0.000032364
 Search for a local minimum.
 Step number   5 out of a maximum of   57
 All quantities printed in internal units (Hartrees-Bohrs-Radians)
 Mixed Optimization -- En-DIIS/RFO-DIIS
 Swapping is turned off.
 Update second derivatives using D2CorX and points    1    2    3    4    5
 DE= -1.85D-06 DEPred=-1.72D-06 R= 1.07D+00
 TightC=F SS=  1.41D+00  RLast= 3.25D-03 DXNew= 6.2516D-01 9.7641D-03
 Trust test= 1.07D+00 RLast= 3.25D-03 DXMaxT set to 3.72D-01
 ITU=  1  1  1  1  0
     Eigenvalues ---    0.02221   0.02221   0.02221   0.02221   0.02221
     Eigenvalues ---    0.02221   0.02221   0.02221   0.14186   0.15809
     Eigenvalues ---    0.16003   0.18844   0.21980   0.23855   0.24174
     Eigenvalues ---    0.25392   0.30572   0.30786   0.35954   0.36003
     Eigenvalues ---    0.37356   0.43073   0.44447   0.47137   0.47618
     Eigenvalues ---    0.58072   0.77945
 En-DIIS/RFO-DIIS/Sim-DIIS IScMMF=       -3 using points:     5    4    3
 RFO step:  Lambda=-1.79066604D-07.
 DidBck=F Rises=F RFO-DIIS coefs:    1.15313   -0.14397   -0.00916
 Iteration  1 RMS(Cart)=  0.00013981 RMS(Int)=  0.00000002
 Iteration  2 RMS(Cart)=  0.00000002 RMS(Int)=  0.00000001
 ClnCor:  largest displacement from symmetrization is 1.73D-13 for atom     2.
 Variable       Old X    -DE/DX   Delta X   Delta X   Delta X     New X
                                 (Linear)    (Quad)   (Total)
    R1        2.62109  -0.00007  -0.00010  -0.00005  -0.00015   2.62094
    R2        2.63177   0.00005  -0.00003   0.00017   0.00015   2.63191
    R3        2.64754  -0.00004  -0.00005  -0.00007  -0.00012   2.64741
    R4        3.25750   0.00011   0.00011   0.00034   0.00045   3.25795
    R5        2.64341   0.00002  -0.00004   0.00008   0.00004   2.64346
    R6        3.25630   0.00001  -0.00007   0.00006  -0.00001   3.25629
    R7        2.64099   0.00004  -0.00003   0.00012   0.00009   2.64108
    R8        2.07266   0.00006  -0.00007   0.00021   0.00014   2.07281
    R9        2.63570  -0.00004   0.00005  -0.00016  -0.00011   2.63559
   R10        2.07722   0.00005  -0.00007   0.00019   0.00012   2.07734
   R11        2.07698   0.00002  -0.00008   0.00012   0.00004   2.07702
    A1        2.05650  -0.00002  -0.00021   0.00004  -0.00018   2.05633
    A2        2.12633   0.00006   0.00022   0.00009   0.00031   2.12664
    A3        2.07662  -0.00009  -0.00014  -0.00025  -0.00039   2.07623
    A4        2.08023   0.00003  -0.00008   0.00016   0.00008   2.08031
    A5        2.08693  -0.00003  -0.00004  -0.00012  -0.00016   2.08678
    A6        2.14075  -0.00000   0.00003  -0.00001   0.00002   2.14077
    A7        2.05550   0.00003   0.00000   0.00013   0.00013   2.05563
    A8        2.08007  -0.00001  -0.00008   0.00003  -0.00005   2.08002
    A9        2.10070   0.00000   0.00002  -0.00004  -0.00002   2.10068
   A10        2.10242   0.00001   0.00006   0.00001   0.00006   2.10249
   A11        2.09392   0.00001   0.00002   0.00006   0.00009   2.09400
   A12        2.07491   0.00001  -0.00010   0.00012   0.00002   2.07493
   A13        2.11435  -0.00002   0.00008  -0.00018  -0.00011   2.11425
   A14        2.12261  -0.00001   0.00009  -0.00011  -0.00002   2.12259
   A15        2.07838  -0.00002  -0.00020  -0.00001  -0.00021   2.07817
   A16        2.08219   0.00003   0.00011   0.00012   0.00023   2.08242
    D1        0.00000   0.00000   0.00000   0.00000   0.00000   0.00000
    D2        3.14159  -0.00000   0.00000  -0.00000   0.00000   3.14159
    D3        0.00000  -0.00000   0.00000  -0.00000   0.00000   0.00000
    D4        3.14159   0.00000   0.00000   0.00000   0.00000   3.14159
    D5        0.00000   0.00000   0.00000   0.00000   0.00000   0.00000
    D6        3.14159  -0.00000   0.00000  -0.00000   0.00000   3.14159
    D7        3.14159   0.00000   0.00000   0.00000   0.00000   3.14159
    D8        0.00000   0.00000   0.00000   0.00000   0.00000   0.00000
    D9        0.00000  -0.00000   0.00000  -0.00000   0.00000   0.00000
   D10        3.14159  -0.00000   0.00000  -0.00000   0.00000   3.14159
   D11        3.14159   0.00000   0.00000   0.00000   0.00000   3.14159
   D12        0.00000  -0.00000   0.00000  -0.00000   0.00000   0.00000
   D13        0.00000  -0.00000   0.00000  -0.00000   0.00000   0.00000
   D14        3.14159  -0.00000   0.00000  -0.00000   0.00000   3.14159
   D15        3.14159   0.00000   0.00000   0.00000   0.00000   3.14159
   D16        0.00000   0.00000   0.00000   0.00000   0.00000   0.00000
   D17        0.00000   0.00000   0.00000   0.00000   0.00000   0.00000
   D18        3.14159  -0.00000   0.00000  -0.00000   0.00000   3.14159
   D19        3.14159   0.00000   0.00000   0.00000   0.00000   3.14159
   D20        0.00000  -0.00000   0.00000  -0.00000   0.00000   0.00000
         Item               Value     Threshold  Converged?
 Maximum Force            0.000111     0.000450     YES
 RMS     Force            0.000032     0.000300     YES
 Maximum Displacement     0.000467     0.001800     YES
 RMS     Displacement     0.000140     0.001200     YES
 Predicted change in Energy=-8.953179D-08
 Optimization completed.
    -- Stationary point found.
                           ----------------------------
                           !   Optimized Parameters   !
                           ! (Angstroms and Degrees)  !
 --------------------------                            --------------------------
 ! Name  Definition              Value          Derivative Info.                !
 --------------------------------------------------------------------------------
 ! R1    R(1,2)                  1.387          -DE/DX =   -0.0001              !
 ! R2    R(1,6)                  1.3927         -DE/DX =    0.0001              !
 ! R3    R(2,3)                  1.401          -DE/DX =    0.0                 !
 ! R4    R(2,7)                  1.7238         -DE/DX =    0.0001              !
 ! R5    R(3,4)                  1.3988         -DE/DX =    0.0                 !
 ! R6    R(3,8)                  1.7232         -DE/DX =    0.0                 !
 ! R7    R(4,5)                  1.3976         -DE/DX =    0.0                 !
 ! R8    R(4,9)                  1.0968         -DE/DX =    0.0001              !
 ! R9    R(5,6)                  1.3948         -DE/DX =    0.0                 !
 ! R10   R(5,10)                 1.0992         -DE/DX =    0.0001              !
 ! R11   R(6,11)                 1.0991         -DE/DX =    0.0                 !
 ! A1    A(2,1,6)              117.829          -DE/DX =    0.0                 !
 ! A2    A(1,2,3)              121.83           -DE/DX =    0.0001              !
 ! A3    A(1,2,7)              118.9815         -DE/DX =   -0.0001              !
 ! A4    A(3,2,7)              119.1885         -DE/DX =    0.0                 !
 ! A5    A(2,3,4)              119.5725         -DE/DX =    0.0                 !
 ! A6    A(2,3,8)              122.6561         -DE/DX =    0.0                 !
 ! A7    A(4,3,8)              117.7715         -DE/DX =    0.0                 !
 ! A8    A(3,4,5)              119.1791         -DE/DX =    0.0                 !
 ! A9    A(3,4,9)              120.3611         -DE/DX =    0.0                 !
 ! A10   A(5,4,9)              120.4599         -DE/DX =    0.0                 !
 ! A11   A(4,5,6)              119.9726         -DE/DX =    0.0                 !
 ! A12   A(4,5,10)             118.8839         -DE/DX =    0.0                 !
 ! A13   A(6,5,10)             121.1435         -DE/DX =    0.0                 !
 ! A14   A(1,6,5)              121.6168         -DE/DX =    0.0                 !
 ! A15   A(1,6,11)             119.0822         -DE/DX =    0.0                 !
 ! A16   A(5,6,11)             119.3009         -DE/DX =    0.0                 !
 ! D1    D(6,1,2,3)              0.0            -DE/DX =    0.0                 !
 ! D2    D(6,1,2,7)            180.0            -DE/DX =    0.0                 !
 ! D3    D(2,1,6,5)              0.0            -DE/DX =    0.0                 !
 ! D4    D(2,1,6,11)           180.0            -DE/DX =    0.0                 !
 ! D5    D(1,2,3,4)              0.0            -DE/DX =    0.0                 !
 ! D6    D(1,2,3,8)            180.0            -DE/DX =    0.0                 !
 ! D7    D(7,2,3,4)            180.0            -DE/DX =    0.0                 !
 ! D8    D(7,2,3,8)              0.0            -DE/DX =    0.0                 !
 ! D9    D(2,3,4,5)              0.0            -DE/DX =    0.0                 !
 ! D10   D(2,3,4,9)            180.0            -DE/DX =    0.0                 !
 ! D11   D(8,3,4,5)            180.0            -DE/DX =    0.0                 !
 ! D12   D(8,3,4,9)              0.0            -DE/DX =    0.0                 !
 ! D13   D(3,4,5,6)              0.0            -DE/DX =    0.0                 !
 ! D14   D(3,4,5,10)           180.0            -DE/DX =    0.0                 !
 ! D15   D(9,4,5,6)            180.0            -DE/DX =    0.0                 !
 ! D16   D(9,4,5,10)             0.0            -DE/DX =    0.0                 !
 ! D17   D(4,5,6,1)              0.0            -DE/DX =    0.0                 !
 ! D18   D(4,5,6,11)           180.0            -DE/DX =    0.0                 !
 ! D19   D(10,5,6,1)           180.0            -DE/DX =    0.0                 !
 ! D20   D(10,5,6,11)            0.0            -DE/DX =    0.0                 !
 --------------------------------------------------------------------------------
 GradGradGradGradGradGradGradGradGradGradGradGradGradGradGradGradGradGrad

                          Input orientation:                          
 ---------------------------------------------------------------------
 Center     Atomic      Atomic             Coordinates (Angstroms)
 Number     Number       Type             X           Y           Z
 ---------------------------------------------------------------------
      1          6           0        0.005245    1.424219    0.000000
      2          6           0        1.194703    0.710761    0.000000
      3          6           0        1.216072   -0.690092    0.000000
      4          6           0        0.010132   -1.398926    0.000000
      5          6           0       -1.195591   -0.692252    0.000000
      6          6           0       -1.185808    0.702467    0.000000
      7         17           0        2.686614    1.574284    0.000000
      8         17           0        2.680854   -1.597662    0.000000
      9          1           0        0.011766   -2.495731    0.000000
     10          1           0       -2.140348   -1.254136    0.000000
     11          1           0       -2.140485    1.247067    0.000000
 ---------------------------------------------------------------------
                    Distance matrix (angstroms):
                    1          2          3          4          5
     1  C    0.000000
     2  C    1.387023   0.000000
     3  C    2.436475   1.401016   0.000000
     4  C    2.823149   2.419501   1.398834   0.000000
     5  C    2.433404   2.771633   2.411664   1.397554   0.000000
     6  C    1.392671   2.380525   2.776373   2.417876   1.394753
     7  Cl   2.685565   1.723796   2.699980   4.000441   4.495409
     8  Cl   4.036168   2.745444   1.723157   2.678106   3.980778
     9  H    3.919955   3.417738   2.170412   1.096807   2.170311
    10  H    3.431786   3.870838   3.403484   2.155349   1.099218
    11  H    2.153030   3.378032   3.875442   3.409755   2.157263
                    6          7          8          9         10
     6  C    0.000000
     7  Cl   3.969347   0.000000
     8  Cl   4.499074   3.171952   0.000000
     9  H    3.415063   4.870302   2.816125   0.000000
    10  H    2.177026   5.594598   4.833425   2.484583   0.000000
    11  H    1.099089   4.838177   5.598016   4.317490   2.501203
                   11
    11  H    0.000000
 Stoichiometry    C6H3Cl2(1-)
 Framework group  CS[SG(C6H3Cl2)]
 Deg. of freedom    19
 Full point group                 CS      NOp   2
 Largest Abelian subgroup         CS      NOp   2
 Largest concise Abelian subgroup C1      NOp   1
                         Standard orientation:                         
 ---------------------------------------------------------------------
 Center     Atomic      Atomic             Coordinates (Angstroms)
 Number     Number       Type             X           Y           Z
 ---------------------------------------------------------------------
      1          6           0        1.142728   -1.496565    0.000000
      2          6           0       -0.023352   -0.745507    0.000000
      3          6           0        0.000000    0.655314    0.000000
      4          6           0        1.227949    1.325297    0.000000
      5          6           0        2.410503    0.580501    0.000000
      6          6           0        2.356210   -0.813195    0.000000
      7         17           0       -1.542065   -1.560974    0.000000
      8         17           0       -1.435069    1.609173    0.000000
      9          1           0        1.261322    2.421596    0.000000
     10          1           0        3.372712    1.111945    0.000000
     11          1           0        3.293018   -1.387988    0.000000
 ---------------------------------------------------------------------
 Rotational constants (GHZ):           1.9698604           1.4501100           0.8352453

 **********************************************************************

            Population analysis using the SCF Density.

 **********************************************************************

 Orbital symmetries:
       Occupied  (A') (A') (A') (A') (A') (A') (A') (A') (A') (A')
                 (A') (A") (A') (A") (A') (A') (A") (A') (A") (A")
                 (A')
       Virtual   (A") (A") (A') (A') (A") (A') (A') (A') (A') (A')
                 (A') (A') (A') (A')
 The electronic state is 1-A'.
 Alpha  occ. eigenvalues --   -1.26732  -1.21086  -1.19037  -0.96209  -0.94440
 Alpha  occ. eigenvalues --   -0.67566  -0.65764  -0.48845  -0.43263  -0.41489
 Alpha  occ. eigenvalues --   -0.37570  -0.37049  -0.32620  -0.30775  -0.29499
 Alpha  occ. eigenvalues --   -0.28450  -0.27874  -0.25307  -0.17584  -0.15921
 Alpha  occ. eigenvalues --   -0.10701
 Alpha virt. eigenvalues --    0.18304   0.20159   0.20496   0.23376   0.29734
 Alpha virt. eigenvalues --    0.30181   0.31183   0.32839   0.34634   0.34845
 Alpha virt. eigenvalues --    0.36294   0.37332   0.40334   0.41871
          Condensed to atoms (all electrons):
               1          2          3          4          5          6
     1  C    4.371305   0.000000   0.000000   0.000000   0.000000   0.000000
     2  C    0.000000   4.057259   0.000000   0.000000   0.000000   0.000000
     3  C    0.000000   0.000000   4.064253   0.000000   0.000000   0.000000
     4  C    0.000000   0.000000   0.000000   4.216454   0.000000   0.000000
     5  C    0.000000   0.000000   0.000000   0.000000   4.160035   0.000000
     6  C    0.000000   0.000000   0.000000   0.000000   0.000000   4.153926
     7  Cl   0.000000   0.000000   0.000000   0.000000   0.000000   0.000000
     8  Cl   0.000000   0.000000   0.000000   0.000000   0.000000   0.000000
     9  H    0.000000   0.000000   0.000000   0.000000   0.000000   0.000000
    10  H    0.000000   0.000000   0.000000   0.000000   0.000000   0.000000
    11  H    0.000000   0.000000   0.000000   0.000000   0.000000   0.000000
               7          8          9         10         11
     1  C    0.000000   0.000000   0.000000   0.000000   0.000000
     2  C    0.000000   0.000000   0.000000   0.000000   0.000000
     3  C    0.000000   0.000000   0.000000   0.000000   0.000000
     4  C    0.000000   0.000000   0.000000   0.000000   0.000000
     5  C    0.000000   0.000000   0.000000   0.000000   0.000000
     6  C    0.000000   0.000000   0.000000   0.000000   0.000000
     7  Cl   7.121857   0.000000   0.000000   0.000000   0.000000
     8  Cl   0.000000   7.121575   0.000000   0.000000   0.000000
     9  H    0.000000   0.000000   0.900179   0.000000   0.000000
    10  H    0.000000   0.000000   0.000000   0.920696   0.000000
    11  H    0.000000   0.000000   0.000000   0.000000   0.912460
 Mulliken charges:
               1
     1  C   -0.371305
     2  C   -0.057259
     3  C   -0.064253
     4  C   -0.216454
     5  C   -0.160035
     6  C   -0.153926
     7  Cl  -0.121857
     8  Cl  -0.121575
     9  H    0.099821
    10  H    0.079304
    11  H    0.087540
 Sum of Mulliken charges =  -1.00000
 Mulliken charges with hydrogens summed into heavy atoms:
               1
     1  C   -0.371305
     2  C   -0.057259
     3  C   -0.064253
     4  C   -0.116633
     5  C   -0.080731
     6  C   -0.066385
     7  Cl  -0.121857
     8  Cl  -0.121575
 Charge=             -1.0000 electrons
 Dipole moment (field-independent basis, Debye):
    X=             -1.9524    Y=              4.4989    Z=              0.0000  Tot=              4.9043
 N-N= 1.979079020971D+02 E-N=-2.812415048713D+02  KE=-9.212653790031D+01
 Symmetry A'   KE=-7.167968193518D+01
 Symmetry A"   KE=-2.044685596513D+01
 1\1\GINC-SH02-01N23\FOpt\RAM1\ZDO\C6H3Cl2(1-)\JLAPIER\28-Sep-2026\0\\#
  Opt AM1 SCF=XQC\\ClPh_23_anion am1\\-1,1\C,0.0052446109,1.4242187978,
 0.\C,1.194702582,0.710761027,0.\C,1.216071688,-0.6900915474,0.\C,0.010
 1323074,-1.3989255264,0.\C,-1.1955910262,-0.692251941,0.\C,-1.18580788
 66,0.702466815,0.\Cl,2.6866140724,1.5742844427,0.\Cl,2.6808539028,-1.5
 976619621,0.\H,0.011765957,-2.4957312304,0.\H,-2.1403481367,-1.2541360
 256,0.\H,-2.140484551,1.2470671503,0.\\Version=ES64L-G16RevB.01\State=
 1-A'\HF=0.046078\RMSD=9.631e-09\RMSF=6.204e-05\Dipole=0.8242454,-1.744
 5818,0.\PG=CS [SG(C6H3Cl2)]\\@


      LET US REMEMBER, PLEASE, THAT THE SEARCH FOR THE CONSTITUTION
      OF THE WORLD IS ONE OF THE GREATEST AND NOBLEST PROBLEMS PRESENTED 
      BY NATURE.

                                                  -- GALILEO
 Job cpu time:       0 days  0 hours  0 minutes  3.6 seconds.
 Elapsed time:       0 days  0 hours  0 minutes  3.5 seconds.
 File lengths (MBytes):  RWF=      6 Int=      0 D2E=      0 Chk=      3 Scr=      1
 Normal termination of Gaussian 16 at Mon Sep 28 01:22:33 2026.
