 Entering Gaussian System, Link 0=g16
 Initial command:
 /share/software/user/restricted/gaussian/g16.B01/l1.exe "/lscratch/jlapier/g16_45667607_46/Gau-58486.inp" -scrdir="/lscratch/jlapier/g16_45667607_46/"
 Entering Link 1 = /share/software/user/restricted/gaussian/g16.B01/l1.exe PID=     58488.
  
 Copyright (c) 1988-2017, Gaussian, Inc.  All Rights Reserved.
  
 This is part of the Gaussian(R) 16 program.  It is based on
 the Gaussian(R) 09 system (copyright 2009, Gaussian, Inc.),
 the Gaussian(R) 03 system (copyright 2003, Gaussian, Inc.),
 the Gaussian(R) 98 system (copyright 1998, Gaussian, Inc.),
 the Gaussian(R) 94 system (copyright 1995, Gaussian, Inc.),
 the Gaussian 92(TM) system (copyright 1992, Gaussian, Inc.),
 the Gaussian 90(TM) system (copyright 1990, Gaussian, Inc.),
 the Gaussian 88(TM) system (copyright 1988, Gaussian, Inc.),
 the Gaussian 86(TM) system (copyright 1986, Carnegie Mellon
 University), and the Gaussian 82(TM) system (copyright 1983,
 Carnegie Mellon University). Gaussian is a federally registered
 trademark of Gaussian, Inc.
  
 This software contains proprietary and confidential information,
 including trade secrets, belonging to Gaussian, Inc.
  
 This software is provided under written license and may be
 used, copied, transmitted, or stored only in accord with that
 written license.
  
 The following legend is applicable only to US Government
 contracts under FAR:
  
                    RESTRICTED RIGHTS LEGEND
  
 Use, reproduction and disclosure by the US Government is
 subject to restrictions as set forth in subparagraphs (a)
 and (c) of the Commercial Computer Software - Restricted
 Rights clause in FAR 52.227-19.
  
 Gaussian, Inc.
 340 Quinnipiac St., Bldg. 40, Wallingford CT 06492
  
  
 ---------------------------------------------------------------
 Warning -- This program may not be used in any manner that
 competes with the business of Gaussian, Inc. or will provide
 assistance to any competitor of Gaussian, Inc.  The licensee
 of this program is prohibited from giving any competitor of
 Gaussian, Inc. access to this program.  By using this program,
 the user acknowledges that Gaussian, Inc. is engaged in the
 business of creating and licensing software in the field of
 computational chemistry and represents and warrants to the
 licensee that it is not a competitor of Gaussian, Inc. and that
 it will not use this program in any manner prohibited above.
 ---------------------------------------------------------------
  

 Cite this work as:
 Gaussian 16, Revision B.01,
 M. J. Frisch, G. W. Trucks, H. B. Schlegel, G. E. Scuseria, 
 M. A. Robb, J. R. Cheeseman, G. Scalmani, V. Barone, 
 G. A. Petersson, H. Nakatsuji, X. Li, M. Caricato, A. V. Marenich, 
 J. Bloino, B. G. Janesko, R. Gomperts, B. Mennucci, H. P. Hratchian, 
 J. V. Ortiz, A. F. Izmaylov, J. L. Sonnenberg, D. Williams-Young, 
 F. Ding, F. Lipparini, F. Egidi, J. Goings, B. Peng, A. Petrone, 
 T. Henderson, D. Ranasinghe, V. G. Zakrzewski, J. Gao, N. Rega, 
 G. Zheng, W. Liang, M. Hada, M. Ehara, K. Toyota, R. Fukuda, 
 J. Hasegawa, M. Ishida, T. Nakajima, Y. Honda, O. Kitao, H. Nakai, 
 T. Vreven, K. Throssell, J. A. Montgomery, Jr., J. E. Peralta, 
 F. Ogliaro, M. J. Bearpark, J. J. Heyd, E. N. Brothers, K. N. Kudin, 
 V. N. Staroverov, T. A. Keith, R. Kobayashi, J. Normand, 
 K. Raghavachari, A. P. Rendell, J. C. Burant, S. S. Iyengar, 
 J. Tomasi, M. Cossi, J. M. Millam, M. Klene, C. Adamo, R. Cammi, 
 J. W. Ochterski, R. L. Martin, K. Morokuma, O. Farkas, 
 J. B. Foresman, and D. J. Fox, Gaussian, Inc., Wallingford CT, 2016.
 
 ******************************************
 Gaussian 16:  ES64L-G16RevB.01 20-Dec-2017
                28-Sep-2026 
 ******************************************
 %nprocshared=1
 Will use up to    1 processors via shared memory.
 %mem=1GB
 %chk=calcs/am1/chks/ClPh_246_anion.chk
 -----------------
 # Opt AM1 SCF=XQC
 -----------------
 1/18=20,19=15,26=1,38=1/1,3;
 2/9=110,12=2,17=6,18=5,40=1/2;
 3/5=2,25=1,41=700000,71=1/1,2,3;
 4/35=1/1;
 5/5=2,8=3,13=1,35=1,38=5/2,8;
 6/7=2,8=2,9=2,10=2,28=1/1;
 7//1,2,3,16;
 1/18=20,19=15,26=1/3(2);
 2/9=110/2;
 99//99;
 2/9=110/2;
 3/5=2,25=1,41=700000,71=1,135=20/1,2,3;
 4/5=5,16=3,35=1/1;
 5/5=2,8=3,13=1,35=1,38=5/2,8;
 7//1,2,3,16;
 1/18=20,19=15,26=1/3(-5);
 2/9=110/2;
 6/7=2,8=2,9=2,10=2,19=2,28=1/1;
 99/9=1/99;
 ------------------
 ClPh_246_anion am1
 ------------------
 Symbolic Z-matrix:
 Charge = -1 Multiplicity = 1
 C                     0.        1.39      0. 
 C                     1.20378   0.695     0. 
 C                     1.20378  -0.695     0. 
 C                     0.       -1.39      0. 
 C                    -1.20378  -0.695     0. 
 C                    -1.20378   0.695     0. 
 Cl                    2.71066   1.565     0. 
 H                     2.13908  -1.235     0. 
 Cl                    0.       -3.13      0. 
 H                    -2.13908  -1.235     0. 
 Cl                   -2.71066   1.565     0. 
 

 GradGradGradGradGradGradGradGradGradGradGradGradGradGradGradGradGradGrad
 Berny optimization.
 Initialization pass.
                           ----------------------------
                           !    Initial Parameters    !
                           ! (Angstroms and Degrees)  !
 --------------------------                            --------------------------
 ! Name  Definition              Value          Derivative Info.                !
 --------------------------------------------------------------------------------
 ! R1    R(1,2)                  1.39           estimate D2E/DX2                !
 ! R2    R(1,6)                  1.39           estimate D2E/DX2                !
 ! R3    R(2,3)                  1.39           estimate D2E/DX2                !
 ! R4    R(2,7)                  1.74           estimate D2E/DX2                !
 ! R5    R(3,4)                  1.39           estimate D2E/DX2                !
 ! R6    R(3,8)                  1.08           estimate D2E/DX2                !
 ! R7    R(4,5)                  1.39           estimate D2E/DX2                !
 ! R8    R(4,9)                  1.74           estimate D2E/DX2                !
 ! R9    R(5,6)                  1.39           estimate D2E/DX2                !
 ! R10   R(5,10)                 1.08           estimate D2E/DX2                !
 ! R11   R(6,11)                 1.74           estimate D2E/DX2                !
 ! A1    A(2,1,6)              120.0            estimate D2E/DX2                !
 ! A2    A(1,2,3)              120.0            estimate D2E/DX2                !
 ! A3    A(1,2,7)              120.0            estimate D2E/DX2                !
 ! A4    A(3,2,7)              120.0            estimate D2E/DX2                !
 ! A5    A(2,3,4)              120.0            estimate D2E/DX2                !
 ! A6    A(2,3,8)              120.0            estimate D2E/DX2                !
 ! A7    A(4,3,8)              120.0            estimate D2E/DX2                !
 ! A8    A(3,4,5)              120.0            estimate D2E/DX2                !
 ! A9    A(3,4,9)              120.0            estimate D2E/DX2                !
 ! A10   A(5,4,9)              120.0            estimate D2E/DX2                !
 ! A11   A(4,5,6)              120.0            estimate D2E/DX2                !
 ! A12   A(4,5,10)             120.0            estimate D2E/DX2                !
 ! A13   A(6,5,10)             120.0            estimate D2E/DX2                !
 ! A14   A(1,6,5)              120.0            estimate D2E/DX2                !
 ! A15   A(1,6,11)             120.0            estimate D2E/DX2                !
 ! A16   A(5,6,11)             120.0            estimate D2E/DX2                !
 ! D1    D(6,1,2,3)              0.0            estimate D2E/DX2                !
 ! D2    D(6,1,2,7)            180.0            estimate D2E/DX2                !
 ! D3    D(2,1,6,5)              0.0            estimate D2E/DX2                !
 ! D4    D(2,1,6,11)           180.0            estimate D2E/DX2                !
 ! D5    D(1,2,3,4)              0.0            estimate D2E/DX2                !
 ! D6    D(1,2,3,8)            180.0            estimate D2E/DX2                !
 ! D7    D(7,2,3,4)            180.0            estimate D2E/DX2                !
 ! D8    D(7,2,3,8)              0.0            estimate D2E/DX2                !
 ! D9    D(2,3,4,5)              0.0            estimate D2E/DX2                !
 ! D10   D(2,3,4,9)            180.0            estimate D2E/DX2                !
 ! D11   D(8,3,4,5)            180.0            estimate D2E/DX2                !
 ! D12   D(8,3,4,9)              0.0            estimate D2E/DX2                !
 ! D13   D(3,4,5,6)              0.0            estimate D2E/DX2                !
 ! D14   D(3,4,5,10)           180.0            estimate D2E/DX2                !
 ! D15   D(9,4,5,6)            180.0            estimate D2E/DX2                !
 ! D16   D(9,4,5,10)             0.0            estimate D2E/DX2                !
 ! D17   D(4,5,6,1)              0.0            estimate D2E/DX2                !
 ! D18   D(4,5,6,11)           180.0            estimate D2E/DX2                !
 ! D19   D(10,5,6,1)           180.0            estimate D2E/DX2                !
 ! D20   D(10,5,6,11)            0.0            estimate D2E/DX2                !
 --------------------------------------------------------------------------------
 Trust Radius=3.00D-01 FncErr=1.00D-07 GrdErr=1.00D-07 EigMax=2.50D+02 EigMin=1.00D-04
 Number of steps in this run=     57 maximum allowed number of steps=    100.
 GradGradGradGradGradGradGradGradGradGradGradGradGradGradGradGradGradGrad

                          Input orientation:                          
 ---------------------------------------------------------------------
 Center     Atomic      Atomic             Coordinates (Angstroms)
 Number     Number       Type             X           Y           Z
 ---------------------------------------------------------------------
      1          6           0        0.000000    1.390000    0.000000
      2          6           0        1.203775    0.695000    0.000000
      3          6           0        1.203775   -0.695000    0.000000
      4          6           0        0.000000   -1.390000    0.000000
      5          6           0       -1.203775   -0.695000    0.000000
      6          6           0       -1.203775    0.695000    0.000000
      7         17           0        2.710660    1.565000    0.000000
      8          1           0        2.139083   -1.235000    0.000000
      9         17           0        0.000000   -3.130000    0.000000
     10          1           0       -2.139083   -1.235000    0.000000
     11         17           0       -2.710660    1.565000    0.000000
 ---------------------------------------------------------------------
                    Distance matrix (angstroms):
                    1          2          3          4          5
     1  C    0.000000
     2  C    1.390000   0.000000
     3  C    2.407551   1.390000   0.000000
     4  C    2.780000   2.407551   1.390000   0.000000
     5  C    2.407551   2.780000   2.407551   1.390000   0.000000
     6  C    1.390000   2.407551   2.780000   2.407551   1.390000
     7  Cl   2.716303   1.740000   2.716303   4.009950   4.520000
     8  H    3.386193   2.144691   1.080000   2.144691   3.386193
     9  Cl   4.520000   4.009950   2.716303   1.740000   2.716303
    10  H    3.386193   3.860000   3.386193   2.144691   1.080000
    11  Cl   2.716303   4.009950   4.520000   4.009950   2.716303
                    6          7          8          9         10
     6  C    0.000000
     7  Cl   4.009950   0.000000
     8  H    3.860000   2.857744   0.000000
     9  Cl   4.009950   5.421319   2.857744   0.000000
    10  H    2.144691   5.600000   4.278166   2.857744   0.000000
    11  Cl   1.740000   5.421319   5.600000   5.421319   2.857744
                   11
    11  Cl   0.000000
 Stoichiometry    C6H2Cl3(1-)
 Framework group  C2V[C2(CCCl),SGV(C4H2Cl2)]
 Deg. of freedom    10
 Full point group                 C2V     NOp   4
 Largest Abelian subgroup         C2V     NOp   4
 Largest concise Abelian subgroup C2      NOp   2
                         Standard orientation:                         
 ---------------------------------------------------------------------
 Center     Atomic      Atomic             Coordinates (Angstroms)
 Number     Number       Type             X           Y           Z
 ---------------------------------------------------------------------
      1          6           0        0.000000   -0.000000   -1.417753
      2          6           0        0.000000    1.203775   -0.722753
      3          6           0        0.000000    1.203775    0.667247
      4          6           0       -0.000000    0.000000    1.362247
      5          6           0       -0.000000   -1.203775    0.667247
      6          6           0       -0.000000   -1.203775   -0.722753
      7         17           0        0.000000    2.710660   -1.592753
      8          1           0        0.000000    2.139083    1.207247
      9         17           0       -0.000000    0.000000    3.102247
     10          1           0       -0.000000   -2.139083    1.207247
     11         17           0       -0.000000   -2.710660   -1.592753
 ---------------------------------------------------------------------
 Rotational constants (GHZ):           0.8617233           0.8527328           0.4286022
 Standard basis: VSTO-6G (5D, 7F)
 There are    16 symmetry adapted cartesian basis functions of A1  symmetry.
 There are     3 symmetry adapted cartesian basis functions of A2  symmetry.
 There are     6 symmetry adapted cartesian basis functions of B1  symmetry.
 There are    13 symmetry adapted cartesian basis functions of B2  symmetry.
 There are    16 symmetry adapted basis functions of A1  symmetry.
 There are     3 symmetry adapted basis functions of A2  symmetry.
 There are     6 symmetry adapted basis functions of B1  symmetry.
 There are    13 symmetry adapted basis functions of B2  symmetry.
    38 basis functions,   228 primitive gaussians,    38 cartesian basis functions
    24 alpha electrons       24 beta electrons
       nuclear repulsion energy       241.4317822964 Hartrees.
 Integral buffers will be    131072 words long.
 Regular integral format.
 Two-electron integral symmetry is turned off.
 Do NDO integrals.
 One-electron integrals computed using PRISM.
 NBasis=    38 RedAO= T EigKep=  1.00D+00  NBF=    16     3     6    13
 NBsUse=    38 1.00D-06 EigRej= -1.00D+00 NBFU=    16     3     6    13
 Simple Huckel Guess.
 Initial guess orbital symmetries:
       Occupied  (A1) (B2) (A1) (B2) (A1) (A1) (A1) (B2) (A1) (B2)
                 (B1) (B2) (A1) (A1) (B1) (A2) (B2) (B1) (A1) (B2)
                 (B2) (B1) (A2) (A1)
       Virtual   (A2) (B1) (B1) (B2) (A1) (A1) (B2) (A1) (B2) (A1)
                 (B2) (A1) (B2) (A1)
 The electronic state of the initial guess is 1-A1.
 Keep J ints in memory in canonical form, NReq=863588.
 Overlap will be assumed to be unity.
 Requested convergence on RMS density matrix=1.00D-08 within  32 cycles.
 Requested convergence on MAX density matrix=1.00D-06.
 Requested convergence on             energy=1.00D-06.
 No special actions if energy rises.
 Fock symm off for IB=2 I1=    2 I=   18 J=   16 Cut=1.00D-07 Err=9.74D-04
 Fock matrix is not symmetric: symmetry in diagonalization turned off.
 SCF Done:  E(RAM1) =  0.272338882096E-01 A.U. after   15 cycles
            NFock= 14  Conv=0.32D-08     -V/T= 1.0002
 QCSCF skips out because SCF is already converged.

 **********************************************************************

            Population analysis using the SCF Density.

 **********************************************************************

 Orbital symmetries:
       Occupied  (A1) (A1) (B2) (A1) (B2) (A1) (B2) (A1) (A1) (B2)
                 (A1) (B2) (B1) (A1) (B1) (B2) (A2) (B2) (A1) (B1)
                 (B2) (A2) (B1) (A1)
       Virtual   (A2) (A1) (B1) (A1) (B2) (B1) (A1) (B2) (B2) (A1)
                 (B2) (A1) (A1) (B2)
 The electronic state is 1-A1.
 Alpha  occ. eigenvalues --   -1.29003  -1.23252  -1.21451  -1.19208  -0.99045
 Alpha  occ. eigenvalues --   -0.94593  -0.69591  -0.67546  -0.51635  -0.44178
 Alpha  occ. eigenvalues --   -0.43552  -0.39441  -0.38741  -0.37595  -0.33846
 Alpha  occ. eigenvalues --   -0.32770  -0.32554  -0.29764  -0.28711  -0.27378
 Alpha  occ. eigenvalues --   -0.26687  -0.19383  -0.16913  -0.11867
 Alpha virt. eigenvalues --    0.16807   0.17920   0.18359   0.21705   0.21905
 Alpha virt. eigenvalues --    0.27967   0.29409   0.30685   0.32660   0.33279
 Alpha virt. eigenvalues --    0.34367   0.34721   0.38106   0.39944
          Condensed to atoms (all electrons):
               1          2          3          4          5          6
     1  C    4.378152   0.000000   0.000000   0.000000   0.000000   0.000000
     2  C    0.000000   4.040349   0.000000   0.000000   0.000000   0.000000
     3  C    0.000000   0.000000   4.138822   0.000000   0.000000   0.000000
     4  C    0.000000   0.000000   0.000000   4.116450   0.000000   0.000000
     5  C    0.000000   0.000000   0.000000   0.000000   4.138822   0.000000
     6  C    0.000000   0.000000   0.000000   0.000000   0.000000   4.040349
     7  Cl   0.000000   0.000000   0.000000   0.000000   0.000000   0.000000
     8  H    0.000000   0.000000   0.000000   0.000000   0.000000   0.000000
     9  Cl   0.000000   0.000000   0.000000   0.000000   0.000000   0.000000
    10  H    0.000000   0.000000   0.000000   0.000000   0.000000   0.000000
    11  Cl   0.000000   0.000000   0.000000   0.000000   0.000000   0.000000
               7          8          9         10         11
     1  C    0.000000   0.000000   0.000000   0.000000   0.000000
     2  C    0.000000   0.000000   0.000000   0.000000   0.000000
     3  C    0.000000   0.000000   0.000000   0.000000   0.000000
     4  C    0.000000   0.000000   0.000000   0.000000   0.000000
     5  C    0.000000   0.000000   0.000000   0.000000   0.000000
     6  C    0.000000   0.000000   0.000000   0.000000   0.000000
     7  Cl   7.122264   0.000000   0.000000   0.000000   0.000000
     8  H    0.000000   0.892438   0.000000   0.000000   0.000000
     9  Cl   0.000000   0.000000   7.117652   0.000000   0.000000
    10  H    0.000000   0.000000   0.000000   0.892438   0.000000
    11  Cl   0.000000   0.000000   0.000000   0.000000   7.122264
 Mulliken charges:
               1
     1  C   -0.378152
     2  C   -0.040349
     3  C   -0.138822
     4  C   -0.116450
     5  C   -0.138822
     6  C   -0.040349
     7  Cl  -0.122264
     8  H    0.107562
     9  Cl  -0.117652
    10  H    0.107562
    11  Cl  -0.122264
 Sum of Mulliken charges =  -1.00000
 Mulliken charges with hydrogens summed into heavy atoms:
               1
     1  C   -0.378152
     2  C   -0.040349
     3  C   -0.031260
     4  C   -0.116450
     5  C   -0.031260
     6  C   -0.040349
     7  Cl  -0.122264
     9  Cl  -0.117652
    11  Cl  -0.122264
 Charge=             -1.0000 electrons
 Dipole moment (field-independent basis, Debye):
    X=             -0.0000    Y=              0.0000    Z=              4.4580  Tot=              4.4580
 N-N= 2.414317822964D+02 E-N=-3.419344544605D+02  KE=-1.141005831602D+02
 Symmetry A1   KE=-5.021714980020D+01
 Symmetry A2   KE=-8.615581247267D+00
 Symmetry B1   KE=-1.745472733357D+01
 Symmetry B2   KE=-3.781312477921D+01
 Calling FoFJK, ICntrl=      2127 FMM=F ISym2X=1 I1Cent= 0 IOpClX= 0 NMat=1 NMatS=1 NMatT=0.
 ***** Axes restored to original set *****
 -------------------------------------------------------------------
 Center     Atomic                   Forces (Hartrees/Bohr)
 Number     Number              X              Y              Z
 -------------------------------------------------------------------
      1        6          -0.000000000    0.011719253   -0.000000000
      2        6          -0.017688856    0.011977352   -0.000000000
      3        6           0.015129804   -0.004042113    0.000000000
      4        6           0.000000000   -0.006094708    0.000000000
      5        6          -0.015129804   -0.004042113    0.000000000
      6        6           0.017688856    0.011977352    0.000000000
      7       17          -0.009855668   -0.007807979   -0.000000000
      8        1           0.012629302   -0.009166694   -0.000000000
      9       17           0.000000000    0.012454324    0.000000000
     10        1          -0.012629302   -0.009166694   -0.000000000
     11       17           0.009855668   -0.007807979   -0.000000000
 -------------------------------------------------------------------
 Cartesian Forces:  Max     0.017688856 RMS     0.008766419

 GradGradGradGradGradGradGradGradGradGradGradGradGradGradGradGradGradGrad
 Berny optimization.
 FormGI is forming the generalized inverse of G from B-inverse, IUseBI=4.
 Internal  Forces:  Max     0.015520644 RMS     0.007350081
 Search for a local minimum.
 Step number   1 out of a maximum of   57
 All quantities printed in internal units (Hartrees-Bohrs-Radians)
 Mixed Optimization -- RFO/linear search
 Second derivative matrix not updated -- first step.
 ITU=  0
     Eigenvalues ---    0.02221   0.02221   0.02221   0.02221   0.02221
     Eigenvalues ---    0.02221   0.02221   0.02221   0.16000   0.16000
     Eigenvalues ---    0.23479   0.23493   0.25000   0.25000   0.25000
     Eigenvalues ---    0.25000   0.31476   0.31476   0.31476   0.35994
     Eigenvalues ---    0.35994   0.43086   0.43696   0.47319   0.47319
     Eigenvalues ---    0.47319   0.47319
 RFO step:  Lambda=-8.27428256D-03 EMin= 2.22103665D-02
 Linear search not attempted -- first point.
 Iteration  1 RMS(Cart)=  0.02707388 RMS(Int)=  0.00030775
 Iteration  2 RMS(Cart)=  0.00038655 RMS(Int)=  0.00001828
 Iteration  3 RMS(Cart)=  0.00000004 RMS(Int)=  0.00001828
 ClnCor:  largest displacement from symmetrization is 3.71D-12 for atom     9.
 Variable       Old X    -DE/DX   Delta X   Delta X   Delta X     New X
                                 (Linear)    (Quad)   (Total)
    R1        2.62672  -0.00691   0.00000  -0.01602  -0.01604   2.61068
    R2        2.62672  -0.00691   0.00000  -0.01602  -0.01604   2.61068
    R3        2.62672   0.01003   0.00000   0.02083   0.02083   2.64755
    R4        3.28812  -0.01244   0.00000  -0.03851  -0.03851   3.24962
    R5        2.62672   0.00843   0.00000   0.01919   0.01921   2.64593
    R6        2.04090   0.01552   0.00000   0.04215   0.04215   2.08305
    R7        2.62672   0.00843   0.00000   0.01919   0.01921   2.64593
    R8        3.28812  -0.01245   0.00000  -0.03855  -0.03855   3.24957
    R9        2.62672   0.01003   0.00000   0.02083   0.02083   2.64755
   R10        2.04090   0.01552   0.00000   0.04215   0.04215   2.08305
   R11        3.28812  -0.01244   0.00000  -0.03851  -0.03851   3.24962
    A1        2.09440  -0.01029   0.00000  -0.04623  -0.04630   2.04809
    A2        2.09440   0.01398   0.00000   0.05303   0.05300   2.14740
    A3        2.09440  -0.00398   0.00000  -0.01484  -0.01483   2.07957
    A4        2.09440  -0.01001   0.00000  -0.03819  -0.03818   2.05622
    A5        2.09440  -0.01124   0.00000  -0.04340  -0.04337   2.05103
    A6        2.09440   0.00728   0.00000   0.03155   0.03153   2.12593
    A7        2.09440   0.00397   0.00000   0.01185   0.01184   2.10623
    A8        2.09440   0.00482   0.00000   0.02698   0.02703   2.12143
    A9        2.09440  -0.00241   0.00000  -0.01349  -0.01352   2.08088
   A10        2.09440  -0.00241   0.00000  -0.01349  -0.01352   2.08088
   A11        2.09440  -0.01124   0.00000  -0.04340  -0.04337   2.05103
   A12        2.09440   0.00397   0.00000   0.01185   0.01184   2.10623
   A13        2.09440   0.00728   0.00000   0.03155   0.03153   2.12593
   A14        2.09440   0.01398   0.00000   0.05303   0.05300   2.14740
   A15        2.09440  -0.00398   0.00000  -0.01484  -0.01483   2.07957
   A16        2.09440  -0.01001   0.00000  -0.03819  -0.03818   2.05622
    D1        0.00000  -0.00000   0.00000  -0.00000   0.00000   0.00000
    D2        3.14159  -0.00000   0.00000  -0.00000   0.00000   3.14159
    D3       -0.00000  -0.00000   0.00000  -0.00000   0.00000   0.00000
    D4        3.14159   0.00000   0.00000   0.00000   0.00000   3.14159
    D5        0.00000   0.00000   0.00000   0.00000   0.00000   0.00000
    D6        3.14159  -0.00000   0.00000  -0.00000   0.00000   3.14159
    D7        3.14159   0.00000   0.00000   0.00000   0.00000   3.14159
    D8        0.00000   0.00000   0.00000   0.00000   0.00000   0.00000
    D9       -0.00000  -0.00000   0.00000   0.00000   0.00000   0.00000
   D10        3.14159  -0.00000   0.00000  -0.00000   0.00000   3.14159
   D11        3.14159   0.00000   0.00000   0.00000   0.00000   3.14159
   D12       -0.00000   0.00000   0.00000   0.00000   0.00000   0.00000
   D13        0.00000  -0.00000   0.00000  -0.00000   0.00000   0.00000
   D14        3.14159  -0.00000   0.00000  -0.00000   0.00000   3.14159
   D15        3.14159   0.00000   0.00000   0.00000   0.00000   3.14159
   D16       -0.00000  -0.00000   0.00000  -0.00000   0.00000   0.00000
   D17       -0.00000   0.00000   0.00000   0.00000   0.00000   0.00000
   D18        3.14159  -0.00000   0.00000  -0.00000   0.00000   3.14159
   D19        3.14159   0.00000   0.00000   0.00000   0.00000   3.14159
   D20        0.00000  -0.00000   0.00000  -0.00000   0.00000   0.00000
         Item               Value     Threshold  Converged?
 Maximum Force            0.015521     0.000450     NO 
 RMS     Force            0.007350     0.000300     NO 
 Maximum Displacement     0.069060     0.001800     NO 
 RMS     Displacement     0.027142     0.001200     NO 
 Predicted change in Energy=-4.254006D-03
 GradGradGradGradGradGradGradGradGradGradGradGradGradGradGradGradGradGrad

                          Input orientation:                          
 ---------------------------------------------------------------------
 Center     Atomic      Atomic             Coordinates (Angstroms)
 Number     Number       Type             X           Y           Z
 ---------------------------------------------------------------------
      1          6           0        0.000000    1.419333    0.000000
      2          6           0        1.180112    0.701066   -0.000000
      3          6           0        1.221930   -0.699332   -0.000000
      4          6           0       -0.000000   -1.382964   -0.000000
      5          6           0       -1.221930   -0.699332    0.000000
      6          6           0       -1.180112    0.701066    0.000000
      7         17           0        2.676455    1.548451   -0.000000
      8          1           0        2.175628   -1.252087   -0.000000
      9         17           0       -0.000000   -3.102562   -0.000000
     10          1           0       -2.175628   -1.252087    0.000000
     11         17           0       -2.676455    1.548451    0.000000
 ---------------------------------------------------------------------
                    Distance matrix (angstroms):
                    1          2          3          4          5
     1  C    0.000000
     2  C    1.381511   0.000000
     3  C    2.445783   1.401022   0.000000
     4  C    2.802296   2.394962   1.400166   0.000000
     5  C    2.445783   2.780454   2.443861   1.400166   0.000000
     6  C    1.381511   2.360225   2.780454   2.394962   1.401022
     7  Cl   2.679568   1.719623   2.677344   3.969459   4.499993
     8  H    3.445264   2.192227   1.102305   2.179561   3.442229
     9  Cl   4.521895   3.982493   2.696039   1.719598   2.696039
    10  H    3.445264   3.882757   3.442229   2.179561   1.102305
    11  Cl   2.679568   3.948566   4.499993   3.969459   2.677344
                    6          7          8          9         10
     6  C    0.000000
     7  Cl   3.948566   0.000000
     8  H    3.882757   2.844968   0.000000
     9  Cl   3.982493   5.366128   2.856154   0.000000
    10  H    2.192227   5.602296   4.351256   2.856154   0.000000
    11  Cl   1.719623   5.352910   5.602296   5.366128   2.844968
                   11
    11  Cl   0.000000
 Stoichiometry    C6H2Cl3(1-)
 Framework group  C2V[C2(CCCl),SGV(C4H2Cl2)]
 Deg. of freedom    10
 Full point group                 C2V     NOp   4
 Largest Abelian subgroup         C2V     NOp   4
 Largest concise Abelian subgroup C2      NOp   2
                         Standard orientation:                         
 ---------------------------------------------------------------------
 Center     Atomic      Atomic             Coordinates (Angstroms)
 Number     Number       Type             X           Y           Z
 ---------------------------------------------------------------------
      1          6           0        0.000000    0.000000   -1.445865
      2          6           0       -0.000000    1.180112   -0.727598
      3          6           0       -0.000000    1.221930    0.672800
      4          6           0        0.000000   -0.000000    1.356431
      5          6           0       -0.000000   -1.221930    0.672800
      6          6           0       -0.000000   -1.180112   -0.727598
      7         17           0       -0.000000    2.676455   -1.574983
      8          1           0       -0.000000    2.175628    1.225555
      9         17           0        0.000000   -0.000000    3.076030
     10          1           0       -0.000000   -2.175628    1.225555
     11         17           0       -0.000000   -2.676455   -1.574983
 ---------------------------------------------------------------------
 Rotational constants (GHZ):           0.8742275           0.8716555           0.4364698
 Standard basis: VSTO-6G (5D, 7F)
 There are    16 symmetry adapted cartesian basis functions of A1  symmetry.
 There are     3 symmetry adapted cartesian basis functions of A2  symmetry.
 There are     6 symmetry adapted cartesian basis functions of B1  symmetry.
 There are    13 symmetry adapted cartesian basis functions of B2  symmetry.
 There are    16 symmetry adapted basis functions of A1  symmetry.
 There are     3 symmetry adapted basis functions of A2  symmetry.
 There are     6 symmetry adapted basis functions of B1  symmetry.
 There are    13 symmetry adapted basis functions of B2  symmetry.
    38 basis functions,   228 primitive gaussians,    38 cartesian basis functions
    24 alpha electrons       24 beta electrons
       nuclear repulsion energy       242.1040720960 Hartrees.
 Integral buffers will be    131072 words long.
 Regular integral format.
 Two-electron integral symmetry is turned off.
 Do NDO integrals.
 One-electron integrals computed using PRISM.
 NBasis=    38 RedAO= T EigKep=  1.00D+00  NBF=    16     3     6    13
 NBsUse=    38 1.00D-06 EigRej= -1.00D+00 NBFU=    16     3     6    13
 Initial guess from the checkpoint file:  "calcs/am1/chks/ClPh_246_anion.chk"
 B after Tr=     0.000000   -0.000000    0.000000
         Rot=    1.000000   -0.000000   -0.000000   -0.000000 Ang=   0.00 deg.
 Initial guess orbital symmetries:
       Occupied  (A1) (A1) (B2) (A1) (B2) (A1) (B2) (A1) (A1) (B2)
                 (A1) (B2) (B1) (A1) (B1) (B2) (A2) (B2) (A1) (B1)
                 (B2) (A2) (B1) (A1)
       Virtual   (A2) (A1) (B1) (A1) (B2) (B1) (A1) (B2) (B2) (A1)
                 (B2) (A1) (A1) (B2)
 Keep J ints in memory in canonical form, NReq=863588.
 Overlap will be assumed to be unity.
 Requested convergence on RMS density matrix=1.00D-08 within  32 cycles.
 Requested convergence on MAX density matrix=1.00D-06.
 Requested convergence on             energy=1.00D-06.
 No special actions if energy rises.
 Fock symm off for IB=2 I1=    2 I=   18 J=   10 Cut=1.00D-07 Err=6.29D-04
 Fock matrix is not symmetric: symmetry in diagonalization turned off.
 SCF Done:  E(RAM1) =  0.234569342699E-01 A.U. after   13 cycles
            NFock= 12  Conv=0.21D-08     -V/T= 1.0002
 QCSCF skips out because SCF is already converged.
 Calling FoFJK, ICntrl=      2127 FMM=F ISym2X=1 I1Cent= 0 IOpClX= 0 NMat=1 NMatS=1 NMatT=0.
 ***** Axes restored to original set *****
 -------------------------------------------------------------------
 Center     Atomic                   Forces (Hartrees/Bohr)
 Number     Number              X              Y              Z
 -------------------------------------------------------------------
      1        6           0.000000000    0.005185011    0.000000000
      2        6           0.000691109   -0.005049667   -0.000000000
      3        6           0.001218441   -0.000457372    0.000000000
      4        6          -0.000000000    0.002789452    0.000000000
      5        6          -0.001218441   -0.000457372    0.000000000
      6        6          -0.000691109   -0.005049667   -0.000000000
      7       17           0.003289734    0.000484948   -0.000000000
      8        1          -0.003023723    0.001164065   -0.000000000
      9       17          -0.000000000   -0.000258412    0.000000000
     10        1           0.003023723    0.001164065   -0.000000000
     11       17          -0.003289734    0.000484948   -0.000000000
 -------------------------------------------------------------------
 Cartesian Forces:  Max     0.005185011 RMS     0.002008951

 GradGradGradGradGradGradGradGradGradGradGradGradGradGradGradGradGradGrad
 Berny optimization.
 Using GEDIIS/GDIIS optimizer.
 FormGI is forming the generalized inverse of G from B-inverse, IUseBI=4.
 Internal  Forces:  Max     0.004978770 RMS     0.001698089
 Search for a local minimum.
 Step number   2 out of a maximum of   57
 All quantities printed in internal units (Hartrees-Bohrs-Radians)
 Mixed Optimization -- RFO/linear search
 Update second derivatives using D2CorX and points    1    2
 DE= -3.78D-03 DEPred=-4.25D-03 R= 8.88D-01
 TightC=F SS=  1.41D+00  RLast= 1.68D-01 DXNew= 5.0454D-01 5.0530D-01
 Trust test= 8.88D-01 RLast= 1.68D-01 DXMaxT set to 5.05D-01
 ITU=  1  0
 Use linear search instead of GDIIS.
     Eigenvalues ---    0.02221   0.02221   0.02221   0.02221   0.02221
     Eigenvalues ---    0.02221   0.02221   0.02221   0.15895   0.16000
     Eigenvalues ---    0.22083   0.23531   0.24283   0.25000   0.25000
     Eigenvalues ---    0.25384   0.31337   0.31476   0.32458   0.35994
     Eigenvalues ---    0.37446   0.43043   0.46061   0.47134   0.47319
     Eigenvalues ---    0.47319   0.51375
 RFO step:  Lambda=-2.54854376D-04 EMin= 2.22103665D-02
 Quartic linear search produced a step of -0.08052.
 Iteration  1 RMS(Cart)=  0.00855960 RMS(Int)=  0.00003615
 Iteration  2 RMS(Cart)=  0.00004832 RMS(Int)=  0.00000276
 Iteration  3 RMS(Cart)=  0.00000000 RMS(Int)=  0.00000276
 ClnCor:  largest displacement from symmetrization is 7.28D-12 for atom     9.
 Variable       Old X    -DE/DX   Delta X   Delta X   Delta X     New X
                                 (Linear)    (Quad)   (Total)
    R1        2.61068   0.00498   0.00129   0.00845   0.00974   2.62042
    R2        2.61068   0.00498   0.00129   0.00845   0.00974   2.62042
    R3        2.64755  -0.00196  -0.00168  -0.00147  -0.00314   2.64440
    R4        3.24962   0.00310   0.00310   0.00472   0.00782   3.25743
    R5        2.64593  -0.00243  -0.00155  -0.00315  -0.00470   2.64123
    R6        2.08305  -0.00320  -0.00339  -0.00343  -0.00683   2.07623
    R7        2.64593  -0.00243  -0.00155  -0.00315  -0.00470   2.64123
    R8        3.24957   0.00026   0.00310  -0.00359  -0.00048   3.24909
    R9        2.64755  -0.00196  -0.00168  -0.00147  -0.00314   2.64440
   R10        2.08305  -0.00320  -0.00339  -0.00343  -0.00683   2.07623
   R11        3.24962   0.00310   0.00310   0.00472   0.00782   3.25743
    A1        2.04809  -0.00237   0.00373  -0.01095  -0.00721   2.04088
    A2        2.14740  -0.00027  -0.00427   0.00586   0.00160   2.14900
    A3        2.07957   0.00208   0.00119   0.00555   0.00674   2.08631
    A4        2.05622  -0.00181   0.00307  -0.01141  -0.00834   2.04788
    A5        2.05103   0.00080   0.00349  -0.00312   0.00037   2.05140
    A6        2.12593   0.00013  -0.00254   0.00573   0.00319   2.12912
    A7        2.10623  -0.00093  -0.00095  -0.00261  -0.00356   2.10267
    A8        2.12143   0.00131  -0.00218   0.00545   0.00327   2.12469
    A9        2.08088  -0.00066   0.00109  -0.00273  -0.00163   2.07925
   A10        2.08088  -0.00066   0.00109  -0.00273  -0.00163   2.07925
   A11        2.05103   0.00080   0.00349  -0.00312   0.00037   2.05140
   A12        2.10623  -0.00093  -0.00095  -0.00261  -0.00356   2.10267
   A13        2.12593   0.00013  -0.00254   0.00573   0.00319   2.12912
   A14        2.14740  -0.00027  -0.00427   0.00586   0.00160   2.14900
   A15        2.07957   0.00208   0.00119   0.00555   0.00674   2.08631
   A16        2.05622  -0.00181   0.00307  -0.01141  -0.00834   2.04788
    D1        0.00000  -0.00000   0.00000  -0.00000   0.00000   0.00000
    D2        3.14159  -0.00000   0.00000  -0.00000   0.00000   3.14159
    D3       -0.00000   0.00000   0.00000   0.00000   0.00000   0.00000
    D4        3.14159   0.00000   0.00000   0.00000   0.00000   3.14159
    D5        0.00000   0.00000   0.00000   0.00000   0.00000   0.00000
    D6        3.14159  -0.00000   0.00000  -0.00000   0.00000   3.14159
    D7        3.14159   0.00000   0.00000   0.00000   0.00000   3.14159
    D8       -0.00000   0.00000   0.00000   0.00000   0.00000   0.00000
    D9       -0.00000   0.00000   0.00000   0.00000   0.00000   0.00000
   D10        3.14159  -0.00000   0.00000  -0.00000   0.00000   3.14159
   D11        3.14159   0.00000   0.00000   0.00000   0.00000   3.14159
   D12        0.00000   0.00000   0.00000   0.00000   0.00000   0.00000
   D13        0.00000  -0.00000   0.00000  -0.00000   0.00000   0.00000
   D14        3.14159  -0.00000   0.00000  -0.00000   0.00000   3.14159
   D15        3.14159   0.00000   0.00000   0.00000   0.00000   3.14159
   D16        0.00000  -0.00000   0.00000  -0.00000   0.00000   0.00000
   D17        0.00000   0.00000   0.00000   0.00000  -0.00000   0.00000
   D18        3.14159  -0.00000   0.00000  -0.00000   0.00000   3.14159
   D19        3.14159   0.00000   0.00000   0.00000   0.00000   3.14159
   D20       -0.00000  -0.00000   0.00000  -0.00000   0.00000   0.00000
         Item               Value     Threshold  Converged?
 Maximum Force            0.004979     0.000450     NO 
 RMS     Force            0.001698     0.000300     NO 
 Maximum Displacement     0.026651     0.001800     NO 
 RMS     Displacement     0.008579     0.001200     NO 
 Predicted change in Energy=-1.567283D-04
 GradGradGradGradGradGradGradGradGradGradGradGradGradGradGradGradGradGrad

                          Input orientation:                          
 ---------------------------------------------------------------------
 Center     Atomic      Atomic             Coordinates (Angstroms)
 Number     Number       Type             X           Y           Z
 ---------------------------------------------------------------------
      1          6           0       -0.000000    1.427202    0.000000
      2          6           0        1.181910    0.701991   -0.000000
      3          6           0        1.220873   -0.696825   -0.000000
      4          6           0        0.000000   -1.377249    0.000000
      5          6           0       -1.220873   -0.696825    0.000000
      6          6           0       -1.181910    0.701991    0.000000
      7         17           0        2.690558    1.535855   -0.000000
      8          1           0        2.168568   -1.252701   -0.000000
      9         17           0        0.000000   -3.096592   -0.000000
     10          1           0       -2.168568   -1.252701    0.000000
     11         17           0       -2.690558    1.535855    0.000000
 ---------------------------------------------------------------------
                    Distance matrix (angstroms):
                    1          2          3          4          5
     1  C    0.000000
     2  C    1.386666   0.000000
     3  C    2.449902   1.399358   0.000000
     4  C    2.804451   2.391683   1.397680   0.000000
     5  C    2.449902   2.780297   2.441746   1.397680   0.000000
     6  C    1.386666   2.363820   2.780297   2.391683   1.399358
     7  Cl   2.692751   1.723760   2.672982   3.965511   4.503793
     8  H    3.447401   2.189593   1.098692   2.172142   3.434721
     9  Cl   4.523794   3.978209   2.692474   1.719343   2.692474
    10  H    3.447401   3.878985   3.434721   2.172142   1.098692
    11  Cl   2.692751   3.961229   4.503793   3.965511   2.672982
                    6          7          8          9         10
     6  C    0.000000
     7  Cl   3.961229   0.000000
     8  H    3.878985   2.836991   0.000000
     9  Cl   3.978209   5.357114   2.846510   0.000000
    10  H    2.189593   5.602424   4.337136   2.846510   0.000000
    11  Cl   1.723760   5.381117   5.602424   5.357114   2.836991
                   11
    11  Cl   0.000000
 Stoichiometry    C6H2Cl3(1-)
 Framework group  C2V[C2(CCCl),SGV(C4H2Cl2)]
 Deg. of freedom    10
 Full point group                 C2V     NOp   4
 Largest Abelian subgroup         C2V     NOp   4
 Largest concise Abelian subgroup C2      NOp   2
                         Standard orientation:                         
 ---------------------------------------------------------------------
 Center     Atomic      Atomic             Coordinates (Angstroms)
 Number     Number       Type             X           Y           Z
 ---------------------------------------------------------------------
      1          6           0        0.000000    0.000000   -1.456042
      2          6           0       -0.000000    1.181910   -0.730830
      3          6           0       -0.000000    1.220873    0.667985
      4          6           0       -0.000000    0.000000    1.348410
      5          6           0       -0.000000   -1.220873    0.667985
      6          6           0       -0.000000   -1.181910   -0.730830
      7         17           0       -0.000000    2.690558   -1.564694
      8          1           0       -0.000000    2.168568    1.223862
      9         17           0       -0.000000    0.000000    3.067753
     10          1           0       -0.000000   -2.168568    1.223862
     11         17           0       -0.000000   -2.690558   -1.564694
 ---------------------------------------------------------------------
 Rotational constants (GHZ):           0.8803084           0.8638014           0.4359884
 Standard basis: VSTO-6G (5D, 7F)
 There are    16 symmetry adapted cartesian basis functions of A1  symmetry.
 There are     3 symmetry adapted cartesian basis functions of A2  symmetry.
 There are     6 symmetry adapted cartesian basis functions of B1  symmetry.
 There are    13 symmetry adapted cartesian basis functions of B2  symmetry.
 There are    16 symmetry adapted basis functions of A1  symmetry.
 There are     3 symmetry adapted basis functions of A2  symmetry.
 There are     6 symmetry adapted basis functions of B1  symmetry.
 There are    13 symmetry adapted basis functions of B2  symmetry.
    38 basis functions,   228 primitive gaussians,    38 cartesian basis functions
    24 alpha electrons       24 beta electrons
       nuclear repulsion energy       242.0545406235 Hartrees.
 Integral buffers will be    131072 words long.
 Regular integral format.
 Two-electron integral symmetry is turned off.
 Do NDO integrals.
 One-electron integrals computed using PRISM.
 NBasis=    38 RedAO= T EigKep=  1.00D+00  NBF=    16     3     6    13
 NBsUse=    38 1.00D-06 EigRej= -1.00D+00 NBFU=    16     3     6    13
 Initial guess from the checkpoint file:  "calcs/am1/chks/ClPh_246_anion.chk"
 B after Tr=    -0.000000    0.000000    0.000000
         Rot=    1.000000   -0.000000    0.000000   -0.000000 Ang=   0.00 deg.
 Initial guess orbital symmetries:
       Occupied  (A1) (A1) (B2) (A1) (B2) (A1) (B2) (A1) (A1) (B2)
                 (A1) (B2) (B1) (A1) (B1) (B2) (A2) (B2) (A1) (B1)
                 (B2) (A2) (B1) (A1)
       Virtual   (A2) (B1) (A1) (A1) (B2) (B1) (A1) (B2) (B2) (A1)
                 (B2) (A1) (A1) (B2)
 Keep J ints in memory in canonical form, NReq=863588.
 Overlap will be assumed to be unity.
 Requested convergence on RMS density matrix=1.00D-08 within  32 cycles.
 Requested convergence on MAX density matrix=1.00D-06.
 Requested convergence on             energy=1.00D-06.
 No special actions if energy rises.
 Fock symm off for IB=2 I1=    2 I=   18 J=    7 Cut=1.00D-07 Err=1.76D-04
 Fock matrix is not symmetric: symmetry in diagonalization turned off.
 SCF Done:  E(RAM1) =  0.232907867316E-01 A.U. after   12 cycles
            NFock= 11  Conv=0.37D-08     -V/T= 1.0002
 QCSCF skips out because SCF is already converged.
 Calling FoFJK, ICntrl=      2127 FMM=F ISym2X=1 I1Cent= 0 IOpClX= 0 NMat=1 NMatS=1 NMatT=0.
 ***** Axes restored to original set *****
 -------------------------------------------------------------------
 Center     Atomic                   Forces (Hartrees/Bohr)
 Number     Number              X              Y              Z
 -------------------------------------------------------------------
      1        6           0.000000000    0.001240166    0.000000000
      2        6          -0.001425223   -0.001123235   -0.000000000
      3        6           0.001032770    0.000730423    0.000000000
      4        6           0.000000000   -0.000447011    0.000000000
      5        6          -0.001032770    0.000730423   -0.000000000
      6        6           0.001425223   -0.001123235   -0.000000000
      7       17           0.000585249    0.000311443   -0.000000000
      8        1          -0.000486954    0.000208642   -0.000000000
      9       17           0.000000000   -0.001047703    0.000000000
     10        1           0.000486954    0.000208642   -0.000000000
     11       17          -0.000585249    0.000311443   -0.000000000
 -------------------------------------------------------------------
 Cartesian Forces:  Max     0.001425223 RMS     0.000652778

 GradGradGradGradGradGradGradGradGradGradGradGradGradGradGradGradGradGrad
 Berny optimization.
 Using GEDIIS/GDIIS optimizer.
 FormGI is forming the generalized inverse of G from B-inverse, IUseBI=4.
 Internal  Forces:  Max     0.001047703 RMS     0.000378581
 Search for a local minimum.
 Step number   3 out of a maximum of   57
 All quantities printed in internal units (Hartrees-Bohrs-Radians)
 Mixed Optimization -- En-DIIS/RFO-DIIS
 Update second derivatives using D2CorX and points    1    2    3
 DE= -1.66D-04 DEPred=-1.57D-04 R= 1.06D+00
 TightC=F SS=  1.41D+00  RLast= 2.86D-02 DXNew= 8.4853D-01 8.5827D-02
 Trust test= 1.06D+00 RLast= 2.86D-02 DXMaxT set to 5.05D-01
 ITU=  1  1  0
 Use linear search instead of GDIIS.
     Eigenvalues ---    0.02221   0.02221   0.02221   0.02221   0.02221
     Eigenvalues ---    0.02221   0.02221   0.02221   0.15514   0.16000
     Eigenvalues ---    0.19371   0.23528   0.23848   0.25000   0.25000
     Eigenvalues ---    0.26394   0.31476   0.31531   0.32039   0.35994
     Eigenvalues ---    0.36529   0.43042   0.46768   0.47101   0.47319
     Eigenvalues ---    0.47319   0.55592
 RFO step:  Lambda=-2.55797558D-05 EMin= 2.22103665D-02
 Quartic linear search produced a step of  0.06771.
 Iteration  1 RMS(Cart)=  0.00186175 RMS(Int)=  0.00000226
 Iteration  2 RMS(Cart)=  0.00000311 RMS(Int)=  0.00000050
 Iteration  3 RMS(Cart)=  0.00000000 RMS(Int)=  0.00000050
 ClnCor:  largest displacement from symmetrization is 1.85D-12 for atom     9.
 Variable       Old X    -DE/DX   Delta X   Delta X   Delta X     New X
                                 (Linear)    (Quad)   (Total)
    R1        2.62042  -0.00008   0.00066  -0.00013   0.00053   2.62095
    R2        2.62042  -0.00008   0.00066  -0.00013   0.00053   2.62095
    R3        2.64440  -0.00018  -0.00021  -0.00036  -0.00058   2.64383
    R4        3.25743   0.00066   0.00053   0.00221   0.00274   3.26017
    R5        2.64123   0.00052  -0.00032   0.00125   0.00093   2.64216
    R6        2.07623  -0.00053  -0.00046  -0.00147  -0.00194   2.07429
    R7        2.64123   0.00052  -0.00032   0.00125   0.00093   2.64216
    R8        3.24909   0.00105  -0.00003   0.00335   0.00332   3.25241
    R9        2.64440  -0.00018  -0.00021  -0.00036  -0.00058   2.64383
   R10        2.07623  -0.00053  -0.00046  -0.00147  -0.00194   2.07429
   R11        3.25743   0.00066   0.00053   0.00221   0.00274   3.26017
    A1        2.04088  -0.00096  -0.00049  -0.00481  -0.00529   2.03559
    A2        2.14900   0.00073   0.00011   0.00337   0.00347   2.15247
    A3        2.08631  -0.00035   0.00046  -0.00139  -0.00094   2.08537
    A4        2.04788  -0.00038  -0.00056  -0.00197  -0.00254   2.04534
    A5        2.05140   0.00014   0.00003   0.00057   0.00059   2.05199
    A6        2.12912  -0.00000   0.00022   0.00030   0.00052   2.12964
    A7        2.10267  -0.00014  -0.00024  -0.00087  -0.00111   2.10156
    A8        2.12469  -0.00080   0.00022  -0.00305  -0.00283   2.12186
    A9        2.07925   0.00040  -0.00011   0.00153   0.00142   2.08066
   A10        2.07925   0.00040  -0.00011   0.00153   0.00142   2.08066
   A11        2.05140   0.00014   0.00003   0.00057   0.00059   2.05199
   A12        2.10267  -0.00014  -0.00024  -0.00087  -0.00111   2.10156
   A13        2.12912  -0.00000   0.00022   0.00030   0.00052   2.12964
   A14        2.14900   0.00073   0.00011   0.00337   0.00347   2.15247
   A15        2.08631  -0.00035   0.00046  -0.00139  -0.00094   2.08537
   A16        2.04788  -0.00038  -0.00056  -0.00197  -0.00254   2.04534
    D1        0.00000  -0.00000   0.00000  -0.00000   0.00000   0.00000
    D2        3.14159  -0.00000   0.00000  -0.00000   0.00000   3.14159
    D3       -0.00000   0.00000   0.00000   0.00000   0.00000   0.00000
    D4        3.14159   0.00000   0.00000   0.00000   0.00000   3.14159
    D5        0.00000   0.00000   0.00000   0.00000  -0.00000   0.00000
    D6        3.14159  -0.00000   0.00000  -0.00000   0.00000   3.14159
    D7        3.14159   0.00000   0.00000   0.00000   0.00000   3.14159
    D8       -0.00000   0.00000   0.00000   0.00000   0.00000   0.00000
    D9       -0.00000   0.00000   0.00000   0.00000   0.00000   0.00000
   D10        3.14159  -0.00000   0.00000  -0.00000   0.00000   3.14159
   D11        3.14159   0.00000   0.00000   0.00000   0.00000   3.14159
   D12        0.00000   0.00000   0.00000   0.00000  -0.00000   0.00000
   D13        0.00000  -0.00000   0.00000  -0.00000   0.00000   0.00000
   D14        3.14159  -0.00000   0.00000  -0.00000   0.00000   3.14159
   D15        3.14159  -0.00000   0.00000  -0.00000   0.00000   3.14159
   D16        0.00000  -0.00000   0.00000  -0.00000   0.00000   0.00000
   D17        0.00000   0.00000   0.00000   0.00000  -0.00000   0.00000
   D18        3.14159  -0.00000   0.00000  -0.00000   0.00000   3.14159
   D19        3.14159   0.00000   0.00000   0.00000   0.00000   3.14159
   D20       -0.00000  -0.00000   0.00000  -0.00000   0.00000   0.00000
         Item               Value     Threshold  Converged?
 Maximum Force            0.001048     0.000450     NO 
 RMS     Force            0.000379     0.000300     NO 
 Maximum Displacement     0.006625     0.001800     NO 
 RMS     Displacement     0.001862     0.001200     NO 
 Predicted change in Energy=-1.343594D-05
 GradGradGradGradGradGradGradGradGradGradGradGradGradGradGradGradGradGrad

                          Input orientation:                          
 ---------------------------------------------------------------------
 Center     Atomic      Atomic             Coordinates (Angstroms)
 Number     Number       Type             X           Y           Z
 ---------------------------------------------------------------------
      1          6           0       -0.000000    1.430708    0.000000
      2          6           0        1.180225    0.702223   -0.000000
      3          6           0        1.220337   -0.696256   -0.000000
      4          6           0        0.000000   -1.378650    0.000000
      5          6           0       -1.220337   -0.696256    0.000000
      6          6           0       -1.180225    0.702223    0.000000
      7         17           0        2.691567    1.534202   -0.000000
      8          1           0        2.167318   -1.251323   -0.000000
      9         17           0        0.000000   -3.099749   -0.000000
     10          1           0       -2.167318   -1.251323    0.000000
     11         17           0       -2.691567    1.534202    0.000000
 ---------------------------------------------------------------------
                    Distance matrix (angstroms):
                    1          2          3          4          5
     1  C    0.000000
     2  C    1.386947   0.000000
     3  C    2.452182   1.399054   0.000000
     4  C    2.809358   2.392271   1.398172   0.000000
     5  C    2.452182   2.778208   2.440674   1.398172   0.000000
     6  C    1.386947   2.360450   2.778208   2.392271   1.399054
     7  Cl   2.693556   1.725208   2.671977   3.966010   4.503103
     8  H    3.448269   2.188765   1.097667   2.171055   3.432828
     9  Cl   4.530458   3.980945   2.695552   1.721099   2.695552
    10  H    3.448269   3.875873   3.432828   2.171055   1.097667
    11  Cl   2.693556   3.960172   4.503103   3.966010   2.671977
                    6          7          8          9         10
     6  C    0.000000
     7  Cl   3.960172   0.000000
     8  H    3.875873   2.834428   0.000000
     9  Cl   3.980945   5.358921   2.848500   0.000000
    10  H    2.188765   5.600707   4.334637   2.848500   0.000000
    11  Cl   1.725208   5.383134   5.600707   5.358921   2.834428
                   11
    11  Cl   0.000000
 Stoichiometry    C6H2Cl3(1-)
 Framework group  C2V[C2(CCCl),SGV(C4H2Cl2)]
 Deg. of freedom    10
 Full point group                 C2V     NOp   4
 Largest Abelian subgroup         C2V     NOp   4
 Largest concise Abelian subgroup C2      NOp   2
                         Standard orientation:                         
 ---------------------------------------------------------------------
 Center     Atomic      Atomic             Coordinates (Angstroms)
 Number     Number       Type             X           Y           Z
 ---------------------------------------------------------------------
      1          6           0       -0.000000    0.000000   -1.460501
      2          6           0       -0.000000    1.180225   -0.732016
      3          6           0       -0.000000    1.220337    0.666463
      4          6           0        0.000000   -0.000000    1.348857
      5          6           0       -0.000000   -1.220337    0.666463
      6          6           0       -0.000000   -1.180225   -0.732016
      7         17           0       -0.000000    2.691567   -1.563995
      8          1           0       -0.000000    2.167318    1.221530
      9         17           0        0.000000   -0.000000    3.069956
     10          1           0       -0.000000   -2.167318    1.221530
     11         17           0       -0.000000   -2.691567   -1.563995
 ---------------------------------------------------------------------
 Rotational constants (GHZ):           0.8795851           0.8634445           0.4357200
 Standard basis: VSTO-6G (5D, 7F)
 There are    16 symmetry adapted cartesian basis functions of A1  symmetry.
 There are     3 symmetry adapted cartesian basis functions of A2  symmetry.
 There are     6 symmetry adapted cartesian basis functions of B1  symmetry.
 There are    13 symmetry adapted cartesian basis functions of B2  symmetry.
 There are    16 symmetry adapted basis functions of A1  symmetry.
 There are     3 symmetry adapted basis functions of A2  symmetry.
 There are     6 symmetry adapted basis functions of B1  symmetry.
 There are    13 symmetry adapted basis functions of B2  symmetry.
    38 basis functions,   228 primitive gaussians,    38 cartesian basis functions
    24 alpha electrons       24 beta electrons
       nuclear repulsion energy       242.0174735862 Hartrees.
 Integral buffers will be    131072 words long.
 Regular integral format.
 Two-electron integral symmetry is turned off.
 Do NDO integrals.
 One-electron integrals computed using PRISM.
 NBasis=    38 RedAO= T EigKep=  1.00D+00  NBF=    16     3     6    13
 NBsUse=    38 1.00D-06 EigRej= -1.00D+00 NBFU=    16     3     6    13
 Initial guess from the checkpoint file:  "calcs/am1/chks/ClPh_246_anion.chk"
 B after Tr=    -0.000000    0.000000   -0.000000
         Rot=    1.000000   -0.000000   -0.000000    0.000000 Ang=   0.00 deg.
 Initial guess orbital symmetries:
       Occupied  (A1) (A1) (B2) (A1) (B2) (A1) (B2) (A1) (A1) (B2)
                 (A1) (B2) (B1) (A1) (B1) (B2) (A2) (B2) (A1) (B1)
                 (B2) (A2) (B1) (A1)
       Virtual   (A2) (B1) (A1) (A1) (B2) (B1) (A1) (B2) (B2) (A1)
                 (B2) (A1) (A1) (B2)
 Keep J ints in memory in canonical form, NReq=863588.
 Overlap will be assumed to be unity.
 Requested convergence on RMS density matrix=1.00D-08 within  32 cycles.
 Requested convergence on MAX density matrix=1.00D-06.
 Requested convergence on             energy=1.00D-06.
 No special actions if energy rises.
 Fock symm off for IB=2 I1=    2 I=   18 J=    7 Cut=1.00D-07 Err=6.12D-05
 Fock matrix is not symmetric: symmetry in diagonalization turned off.
 SCF Done:  E(RAM1) =  0.232766655091E-01 A.U. after   11 cycles
            NFock= 10  Conv=0.60D-08     -V/T= 1.0002
 QCSCF skips out because SCF is already converged.
 Calling FoFJK, ICntrl=      2127 FMM=F ISym2X=1 I1Cent= 0 IOpClX= 0 NMat=1 NMatS=1 NMatT=0.
 ***** Axes restored to original set *****
 -------------------------------------------------------------------
 Center     Atomic                   Forces (Hartrees/Bohr)
 Number     Number              X              Y              Z
 -------------------------------------------------------------------
      1        6           0.000000000    0.000403239    0.000000000
      2        6          -0.000208336   -0.000517285    0.000000000
      3        6          -0.000078650    0.000222215   -0.000000000
      4        6          -0.000000000   -0.000221155    0.000000000
      5        6           0.000078650    0.000222215   -0.000000000
      6        6           0.000208336   -0.000517285    0.000000000
      7       17           0.000111159    0.000155736   -0.000000000
      8        1           0.000172204   -0.000086095   -0.000000000
      9       17           0.000000000    0.000268774    0.000000000
     10        1          -0.000172204   -0.000086095   -0.000000000
     11       17          -0.000111159    0.000155736   -0.000000000
 -------------------------------------------------------------------
 Cartesian Forces:  Max     0.000517285 RMS     0.000187827

 GradGradGradGradGradGradGradGradGradGradGradGradGradGradGradGradGradGrad
 Berny optimization.
 Using GEDIIS/GDIIS optimizer.
 FormGI is forming the generalized inverse of G from B-inverse, IUseBI=4.
 Internal  Forces:  Max     0.000268774 RMS     0.000096293
 Search for a local minimum.
 Step number   4 out of a maximum of   57
 All quantities printed in internal units (Hartrees-Bohrs-Radians)
 Mixed Optimization -- En-DIIS/RFO-DIIS
 Swapping is turned off.
 Update second derivatives using D2CorX and points    1    2    3    4
 DE= -1.41D-05 DEPred=-1.34D-05 R= 1.05D+00
 TightC=F SS=  1.41D+00  RLast= 1.09D-02 DXNew= 8.4853D-01 3.2730D-02
 Trust test= 1.05D+00 RLast= 1.09D-02 DXMaxT set to 5.05D-01
 ITU=  1  1  1  0
     Eigenvalues ---    0.02221   0.02221   0.02221   0.02221   0.02221
     Eigenvalues ---    0.02221   0.02221   0.02221   0.15052   0.16000
     Eigenvalues ---    0.17246   0.23529   0.24226   0.25000   0.25000
     Eigenvalues ---    0.25945   0.31178   0.31476   0.33491   0.35994
     Eigenvalues ---    0.39843   0.43027   0.46299   0.47246   0.47319
     Eigenvalues ---    0.47319   0.54911
 En-DIIS/RFO-DIIS/Sim-DIIS IScMMF=       -3 using points:     4    3
 RFO step:  Lambda=-1.60519436D-06.
 DidBck=F Rises=F RFO-DIIS coefs:    1.12357   -0.12357
 Iteration  1 RMS(Cart)=  0.00027620 RMS(Int)=  0.00000013
 Iteration  2 RMS(Cart)=  0.00000018 RMS(Int)=  0.00000009
 ClnCor:  largest displacement from symmetrization is 6.82D-12 for atom     9.
 Variable       Old X    -DE/DX   Delta X   Delta X   Delta X     New X
                                 (Linear)    (Quad)   (Total)
    R1        2.62095   0.00006   0.00007   0.00022   0.00028   2.62123
    R2        2.62095   0.00006   0.00007   0.00022   0.00028   2.62123
    R3        2.64383  -0.00016  -0.00007  -0.00035  -0.00042   2.64341
    R4        3.26017   0.00017   0.00034   0.00048   0.00082   3.26099
    R5        2.64216   0.00003   0.00011  -0.00004   0.00007   2.64223
    R6        2.07429   0.00019  -0.00024   0.00062   0.00038   2.07467
    R7        2.64216   0.00003   0.00011  -0.00004   0.00007   2.64223
    R8        3.25241  -0.00027   0.00041  -0.00114  -0.00073   3.25168
    R9        2.64383  -0.00016  -0.00007  -0.00035  -0.00042   2.64341
   R10        2.07429   0.00019  -0.00024   0.00062   0.00038   2.07467
   R11        3.26017   0.00017   0.00034   0.00048   0.00082   3.26099
    A1        2.03559  -0.00018  -0.00065  -0.00052  -0.00117   2.03442
    A2        2.15247   0.00014   0.00043   0.00039   0.00082   2.15329
    A3        2.08537  -0.00020  -0.00012  -0.00072  -0.00083   2.08454
    A4        2.04534   0.00007  -0.00031   0.00033   0.00001   2.04536
    A5        2.05199  -0.00005   0.00007  -0.00029  -0.00022   2.05177
    A6        2.12964   0.00001   0.00006   0.00005   0.00011   2.12975
    A7        2.10156   0.00004  -0.00014   0.00024   0.00010   2.10166
    A8        2.12186   0.00002  -0.00035   0.00031  -0.00004   2.12182
    A9        2.08066  -0.00001   0.00018  -0.00016   0.00002   2.08068
   A10        2.08066  -0.00001   0.00018  -0.00016   0.00002   2.08068
   A11        2.05199  -0.00005   0.00007  -0.00029  -0.00022   2.05177
   A12        2.10156   0.00004  -0.00014   0.00024   0.00010   2.10166
   A13        2.12964   0.00001   0.00006   0.00005   0.00011   2.12975
   A14        2.15247   0.00014   0.00043   0.00039   0.00082   2.15329
   A15        2.08537  -0.00020  -0.00012  -0.00072  -0.00083   2.08454
   A16        2.04534   0.00007  -0.00031   0.00033   0.00001   2.04536
    D1        0.00000  -0.00000   0.00000  -0.00000   0.00000   0.00000
    D2        3.14159  -0.00000   0.00000  -0.00000   0.00000   3.14159
    D3       -0.00000   0.00000   0.00000   0.00000   0.00000   0.00000
    D4        3.14159   0.00000   0.00000   0.00000   0.00000   3.14159
    D5       -0.00000  -0.00000   0.00000  -0.00000   0.00000   0.00000
    D6        3.14159  -0.00000   0.00000  -0.00000   0.00000   3.14159
    D7        3.14159   0.00000   0.00000   0.00000   0.00000   3.14159
    D8        0.00000   0.00000   0.00000   0.00000   0.00000   0.00000
    D9       -0.00000   0.00000   0.00000   0.00000   0.00000   0.00000
   D10        3.14159  -0.00000   0.00000  -0.00000   0.00000   3.14159
   D11        3.14159   0.00000   0.00000   0.00000   0.00000   3.14159
   D12       -0.00000   0.00000   0.00000   0.00000   0.00000   0.00000
   D13        0.00000  -0.00000   0.00000  -0.00000   0.00000   0.00000
   D14        3.14159  -0.00000   0.00000  -0.00000   0.00000   3.14159
   D15        3.14159   0.00000   0.00000   0.00000   0.00000   3.14159
   D16        0.00000  -0.00000   0.00000  -0.00000   0.00000   0.00000
   D17        0.00000   0.00000   0.00000   0.00000  -0.00000   0.00000
   D18        3.14159  -0.00000   0.00000  -0.00000   0.00000   3.14159
   D19        3.14159   0.00000   0.00000   0.00000   0.00000   3.14159
   D20       -0.00000  -0.00000   0.00000  -0.00000   0.00000   0.00000
         Item               Value     Threshold  Converged?
 Maximum Force            0.000269     0.000450     YES
 RMS     Force            0.000096     0.000300     YES
 Maximum Displacement     0.000830     0.001800     YES
 RMS     Displacement     0.000276     0.001200     YES
 Predicted change in Energy=-8.025966D-07
 Optimization completed.
    -- Stationary point found.
                           ----------------------------
                           !   Optimized Parameters   !
                           ! (Angstroms and Degrees)  !
 --------------------------                            --------------------------
 ! Name  Definition              Value          Derivative Info.                !
 --------------------------------------------------------------------------------
 ! R1    R(1,2)                  1.3869         -DE/DX =    0.0001              !
 ! R2    R(1,6)                  1.3869         -DE/DX =    0.0001              !
 ! R3    R(2,3)                  1.3991         -DE/DX =   -0.0002              !
 ! R4    R(2,7)                  1.7252         -DE/DX =    0.0002              !
 ! R5    R(3,4)                  1.3982         -DE/DX =    0.0                 !
 ! R6    R(3,8)                  1.0977         -DE/DX =    0.0002              !
 ! R7    R(4,5)                  1.3982         -DE/DX =    0.0                 !
 ! R8    R(4,9)                  1.7211         -DE/DX =   -0.0003              !
 ! R9    R(5,6)                  1.3991         -DE/DX =   -0.0002              !
 ! R10   R(5,10)                 1.0977         -DE/DX =    0.0002              !
 ! R11   R(6,11)                 1.7252         -DE/DX =    0.0002              !
 ! A1    A(2,1,6)              116.6307         -DE/DX =   -0.0002              !
 ! A2    A(1,2,3)              123.3276         -DE/DX =    0.0001              !
 ! A3    A(1,2,7)              119.483          -DE/DX =   -0.0002              !
 ! A4    A(3,2,7)              117.1894         -DE/DX =    0.0001              !
 ! A5    A(2,3,4)              117.5703         -DE/DX =   -0.0001              !
 ! A6    A(2,3,8)              122.0194         -DE/DX =    0.0                 !
 ! A7    A(4,3,8)              120.4103         -DE/DX =    0.0                 !
 ! A8    A(3,4,5)              121.5735         -DE/DX =    0.0                 !
 ! A9    A(3,4,9)              119.2133         -DE/DX =    0.0                 !
 ! A10   A(5,4,9)              119.2133         -DE/DX =    0.0                 !
 ! A11   A(4,5,6)              117.5703         -DE/DX =   -0.0001              !
 ! A12   A(4,5,10)             120.4103         -DE/DX =    0.0                 !
 ! A13   A(6,5,10)             122.0194         -DE/DX =    0.0                 !
 ! A14   A(1,6,5)              123.3276         -DE/DX =    0.0001              !
 ! A15   A(1,6,11)             119.483          -DE/DX =   -0.0002              !
 ! A16   A(5,6,11)             117.1894         -DE/DX =    0.0001              !
 ! D1    D(6,1,2,3)              0.0            -DE/DX =    0.0                 !
 ! D2    D(6,1,2,7)            180.0            -DE/DX =    0.0                 !
 ! D3    D(2,1,6,5)              0.0            -DE/DX =    0.0                 !
 ! D4    D(2,1,6,11)           180.0            -DE/DX =    0.0                 !
 ! D5    D(1,2,3,4)              0.0            -DE/DX =    0.0                 !
 ! D6    D(1,2,3,8)            180.0            -DE/DX =    0.0                 !
 ! D7    D(7,2,3,4)            180.0            -DE/DX =    0.0                 !
 ! D8    D(7,2,3,8)              0.0            -DE/DX =    0.0                 !
 ! D9    D(2,3,4,5)              0.0            -DE/DX =    0.0                 !
 ! D10   D(2,3,4,9)            180.0            -DE/DX =    0.0                 !
 ! D11   D(8,3,4,5)            180.0            -DE/DX =    0.0                 !
 ! D12   D(8,3,4,9)              0.0            -DE/DX =    0.0                 !
 ! D13   D(3,4,5,6)              0.0            -DE/DX =    0.0                 !
 ! D14   D(3,4,5,10)           180.0            -DE/DX =    0.0                 !
 ! D15   D(9,4,5,6)            180.0            -DE/DX =    0.0                 !
 ! D16   D(9,4,5,10)             0.0            -DE/DX =    0.0                 !
 ! D17   D(4,5,6,1)              0.0            -DE/DX =    0.0                 !
 ! D18   D(4,5,6,11)           180.0            -DE/DX =    0.0                 !
 ! D19   D(10,5,6,1)           180.0            -DE/DX =    0.0                 !
 ! D20   D(10,5,6,11)            0.0            -DE/DX =    0.0                 !
 --------------------------------------------------------------------------------
 GradGradGradGradGradGradGradGradGradGradGradGradGradGradGradGradGradGrad

                          Input orientation:                          
 ---------------------------------------------------------------------
 Center     Atomic      Atomic             Coordinates (Angstroms)
 Number     Number       Type             X           Y           Z
 ---------------------------------------------------------------------
      1          6           0       -0.000000    1.430708    0.000000
      2          6           0        1.180225    0.702223   -0.000000
      3          6           0        1.220337   -0.696256   -0.000000
      4          6           0        0.000000   -1.378650    0.000000
      5          6           0       -1.220337   -0.696256    0.000000
      6          6           0       -1.180225    0.702223    0.000000
      7         17           0        2.691567    1.534202   -0.000000
      8          1           0        2.167318   -1.251323   -0.000000
      9         17           0        0.000000   -3.099749    0.000000
     10          1           0       -2.167318   -1.251323    0.000000
     11         17           0       -2.691567    1.534202    0.000000
 ---------------------------------------------------------------------
                    Distance matrix (angstroms):
                    1          2          3          4          5
     1  C    0.000000
     2  C    1.386947   0.000000
     3  C    2.452182   1.399054   0.000000
     4  C    2.809358   2.392271   1.398172   0.000000
     5  C    2.452182   2.778208   2.440674   1.398172   0.000000
     6  C    1.386947   2.360450   2.778208   2.392271   1.399054
     7  Cl   2.693556   1.725208   2.671977   3.966010   4.503103
     8  H    3.448269   2.188765   1.097667   2.171055   3.432828
     9  Cl   4.530458   3.980945   2.695552   1.721099   2.695552
    10  H    3.448269   3.875873   3.432828   2.171055   1.097667
    11  Cl   2.693556   3.960172   4.503103   3.966010   2.671977
                    6          7          8          9         10
     6  C    0.000000
     7  Cl   3.960172   0.000000
     8  H    3.875873   2.834428   0.000000
     9  Cl   3.980945   5.358921   2.848500   0.000000
    10  H    2.188765   5.600707   4.334637   2.848500   0.000000
    11  Cl   1.725208   5.383134   5.600707   5.358921   2.834428
                   11
    11  Cl   0.000000
 Stoichiometry    C6H2Cl3(1-)
 Framework group  C2V[C2(CCCl),SGV(C4H2Cl2)]
 Deg. of freedom    10
 Full point group                 C2V     NOp   4
 Largest Abelian subgroup         C2V     NOp   4
 Largest concise Abelian subgroup C2      NOp   2
                         Standard orientation:                         
 ---------------------------------------------------------------------
 Center     Atomic      Atomic             Coordinates (Angstroms)
 Number     Number       Type             X           Y           Z
 ---------------------------------------------------------------------
      1          6           0        0.000000   -0.000000   -1.460501
      2          6           0       -0.000000    1.180225   -0.732016
      3          6           0       -0.000000    1.220337    0.666463
      4          6           0        0.000000    0.000000    1.348857
      5          6           0       -0.000000   -1.220337    0.666463
      6          6           0       -0.000000   -1.180225   -0.732016
      7         17           0       -0.000000    2.691567   -1.563995
      8          1           0       -0.000000    2.167318    1.221530
      9         17           0        0.000000    0.000000    3.069956
     10          1           0       -0.000000   -2.167318    1.221530
     11         17           0       -0.000000   -2.691567   -1.563995
 ---------------------------------------------------------------------
 Rotational constants (GHZ):           0.8795851           0.8634445           0.4357200

 **********************************************************************

            Population analysis using the SCF Density.

 **********************************************************************

 Orbital symmetries:
       Occupied  (A1) (A1) (B2) (A1) (B2) (A1) (B2) (A1) (A1) (B2)
                 (A1) (B2) (B1) (A1) (B1) (B2) (A2) (B2) (A1) (B1)
                 (B2) (A2) (B1) (A1)
       Virtual   (A2) (B1) (A1) (A1) (B2) (B1) (A1) (B2) (B2) (A1)
                 (B2) (A1) (A1) (B2)
 The electronic state is 1-A1.
 Alpha  occ. eigenvalues --   -1.28797  -1.23492  -1.21654  -1.18923  -0.98319
 Alpha  occ. eigenvalues --   -0.94864  -0.69553  -0.67757  -0.51569  -0.44275
 Alpha  occ. eigenvalues --   -0.43786  -0.39123  -0.38807  -0.37340  -0.33994
 Alpha  occ. eigenvalues --   -0.32840  -0.32628  -0.29536  -0.28526  -0.27055
 Alpha  occ. eigenvalues --   -0.26553  -0.19068  -0.16854  -0.12458
 Alpha virt. eigenvalues --    0.16725   0.18271   0.18467   0.22085   0.22454
 Alpha virt. eigenvalues --    0.27940   0.28924   0.30198   0.32738   0.32841
 Alpha virt. eigenvalues --    0.34128   0.34905   0.38199   0.39707
          Condensed to atoms (all electrons):
               1          2          3          4          5          6
     1  C    4.349447   0.000000   0.000000   0.000000   0.000000   0.000000
     2  C    0.000000   4.050623   0.000000   0.000000   0.000000   0.000000
     3  C    0.000000   0.000000   4.148660   0.000000   0.000000   0.000000
     4  C    0.000000   0.000000   0.000000   4.119469   0.000000   0.000000
     5  C    0.000000   0.000000   0.000000   0.000000   4.148660   0.000000
     6  C    0.000000   0.000000   0.000000   0.000000   0.000000   4.050623
     7  Cl   0.000000   0.000000   0.000000   0.000000   0.000000   0.000000
     8  H    0.000000   0.000000   0.000000   0.000000   0.000000   0.000000
     9  Cl   0.000000   0.000000   0.000000   0.000000   0.000000   0.000000
    10  H    0.000000   0.000000   0.000000   0.000000   0.000000   0.000000
    11  Cl   0.000000   0.000000   0.000000   0.000000   0.000000   0.000000
               7          8          9         10         11
     1  C    0.000000   0.000000   0.000000   0.000000   0.000000
     2  C    0.000000   0.000000   0.000000   0.000000   0.000000
     3  C    0.000000   0.000000   0.000000   0.000000   0.000000
     4  C    0.000000   0.000000   0.000000   0.000000   0.000000
     5  C    0.000000   0.000000   0.000000   0.000000   0.000000
     6  C    0.000000   0.000000   0.000000   0.000000   0.000000
     7  Cl   7.124211   0.000000   0.000000   0.000000   0.000000
     8  H    0.000000   0.884316   0.000000   0.000000   0.000000
     9  Cl   0.000000   0.000000   7.115463   0.000000   0.000000
    10  H    0.000000   0.000000   0.000000   0.884316   0.000000
    11  Cl   0.000000   0.000000   0.000000   0.000000   7.124211
 Mulliken charges:
               1
     1  C   -0.349447
     2  C   -0.050623
     3  C   -0.148660
     4  C   -0.119469
     5  C   -0.148660
     6  C   -0.050623
     7  Cl  -0.124211
     8  H    0.115684
     9  Cl  -0.115463
    10  H    0.115684
    11  Cl  -0.124211
 Sum of Mulliken charges =  -1.00000
 Mulliken charges with hydrogens summed into heavy atoms:
               1
     1  C   -0.349447
     2  C   -0.050623
     3  C   -0.032976
     4  C   -0.119469
     5  C   -0.032976
     6  C   -0.050623
     7  Cl  -0.124211
     9  Cl  -0.115463
    11  Cl  -0.124211
 Charge=             -1.0000 electrons
 Dipole moment (field-independent basis, Debye):
    X=             -0.0000    Y=             -0.0000    Z=              4.5747  Tot=              4.5747
 N-N= 2.420174735862D+02 E-N=-3.431098627911D+02  KE=-1.141231012177D+02
 Symmetry A1   KE=-5.024117325328D+01
 Symmetry A2   KE=-8.610841956506D+00
 Symmetry B1   KE=-1.745096905534D+01
 Symmetry B2   KE=-3.782011695257D+01
 1\1\GINC-SH02-10N59\FOpt\RAM1\ZDO\C6H2Cl3(1-)\JLAPIER\28-Sep-2026\0\\#
  Opt AM1 SCF=XQC\\ClPh_246_anion am1\\-1,1\C,0.,1.43070817,0.\C,1.1802
 250943,0.7022227113,0.\C,1.2203369386,-0.6962558747,0.\C,0.,-1.3786500
 265,0.\C,-1.2203369386,-0.6962558747,0.\C,-1.1802250943,0.7022227113,0
 .\Cl,2.6915669968,1.5342016414,0.\H,2.1673184591,-1.2513228635,0.\Cl,0
 .,-3.0997493726,0.\H,-2.1673184591,-1.2513228635,0.\Cl,-2.6915669968,1
 .5342016414,0.\\Version=ES64L-G16RevB.01\State=1-A1\HF=0.0232767\RMSD=
 5.952e-09\RMSF=1.878e-04\Dipole=0.,-1.7998372,0.\PG=C02V [C2(C1C1Cl1),
 SGV(C4H2Cl2)]\\@


 THE MOLECULE ALSO HAS A BODY.  WHEN THIS BODY IS HIT, THE MOLECULE
 FEELS HURT ALL OVER -- A. KITAIGORODSKI
 Job cpu time:       0 days  0 hours  0 minutes  2.8 seconds.
 Elapsed time:       0 days  0 hours  0 minutes  3.2 seconds.
 File lengths (MBytes):  RWF=      6 Int=      0 D2E=      0 Chk=      3 Scr=      1
 Normal termination of Gaussian 16 at Mon Sep 28 01:22:28 2026.
