 Entering Gaussian System, Link 0=g16
 Initial command:
 /share/software/user/restricted/gaussian/g16.B01/l1.exe "/lscratch/jlapier/g16_45667568_7/Gau-22302.inp" -scrdir="/lscratch/jlapier/g16_45667568_7/"
 Entering Link 1 = /share/software/user/restricted/gaussian/g16.B01/l1.exe PID=     22305.
  
 Copyright (c) 1988-2017, Gaussian, Inc.  All Rights Reserved.
  
 This is part of the Gaussian(R) 16 program.  It is based on
 the Gaussian(R) 09 system (copyright 2009, Gaussian, Inc.),
 the Gaussian(R) 03 system (copyright 2003, Gaussian, Inc.),
 the Gaussian(R) 98 system (copyright 1998, Gaussian, Inc.),
 the Gaussian(R) 94 system (copyright 1995, Gaussian, Inc.),
 the Gaussian 92(TM) system (copyright 1992, Gaussian, Inc.),
 the Gaussian 90(TM) system (copyright 1990, Gaussian, Inc.),
 the Gaussian 88(TM) system (copyright 1988, Gaussian, Inc.),
 the Gaussian 86(TM) system (copyright 1986, Carnegie Mellon
 University), and the Gaussian 82(TM) system (copyright 1983,
 Carnegie Mellon University). Gaussian is a federally registered
 trademark of Gaussian, Inc.
  
 This software contains proprietary and confidential information,
 including trade secrets, belonging to Gaussian, Inc.
  
 This software is provided under written license and may be
 used, copied, transmitted, or stored only in accord with that
 written license.
  
 The following legend is applicable only to US Government
 contracts under FAR:
  
                    RESTRICTED RIGHTS LEGEND
  
 Use, reproduction and disclosure by the US Government is
 subject to restrictions as set forth in subparagraphs (a)
 and (c) of the Commercial Computer Software - Restricted
 Rights clause in FAR 52.227-19.
  
 Gaussian, Inc.
 340 Quinnipiac St., Bldg. 40, Wallingford CT 06492
  
  
 ---------------------------------------------------------------
 Warning -- This program may not be used in any manner that
 competes with the business of Gaussian, Inc. or will provide
 assistance to any competitor of Gaussian, Inc.  The licensee
 of this program is prohibited from giving any competitor of
 Gaussian, Inc. access to this program.  By using this program,
 the user acknowledges that Gaussian, Inc. is engaged in the
 business of creating and licensing software in the field of
 computational chemistry and represents and warrants to the
 licensee that it is not a competitor of Gaussian, Inc. and that
 it will not use this program in any manner prohibited above.
 ---------------------------------------------------------------
  

 Cite this work as:
 Gaussian 16, Revision B.01,
 M. J. Frisch, G. W. Trucks, H. B. Schlegel, G. E. Scuseria, 
 M. A. Robb, J. R. Cheeseman, G. Scalmani, V. Barone, 
 G. A. Petersson, H. Nakatsuji, X. Li, M. Caricato, A. V. Marenich, 
 J. Bloino, B. G. Janesko, R. Gomperts, B. Mennucci, H. P. Hratchian, 
 J. V. Ortiz, A. F. Izmaylov, J. L. Sonnenberg, D. Williams-Young, 
 F. Ding, F. Lipparini, F. Egidi, J. Goings, B. Peng, A. Petrone, 
 T. Henderson, D. Ranasinghe, V. G. Zakrzewski, J. Gao, N. Rega, 
 G. Zheng, W. Liang, M. Hada, M. Ehara, K. Toyota, R. Fukuda, 
 J. Hasegawa, M. Ishida, T. Nakajima, Y. Honda, O. Kitao, H. Nakai, 
 T. Vreven, K. Throssell, J. A. Montgomery, Jr., J. E. Peralta, 
 F. Ogliaro, M. J. Bearpark, J. J. Heyd, E. N. Brothers, K. N. Kudin, 
 V. N. Staroverov, T. A. Keith, R. Kobayashi, J. Normand, 
 K. Raghavachari, A. P. Rendell, J. C. Burant, S. S. Iyengar, 
 J. Tomasi, M. Cossi, J. M. Millam, M. Klene, C. Adamo, R. Cammi, 
 J. W. Ochterski, R. L. Martin, K. Morokuma, O. Farkas, 
 J. B. Foresman, and D. J. Fox, Gaussian, Inc., Wallingford CT, 2016.
 
 ******************************************
 Gaussian 16:  ES64L-G16RevB.01 20-Dec-2017
                28-Sep-2026 
 ******************************************
 %nprocshared=1
 Will use up to    1 processors via shared memory.
 %mem=1GB
 %chk=calcs/am1/chks/ClPh_2_rad.chk
 -----------------
 # Opt AM1 SCF=XQC
 -----------------
 1/18=20,19=15,26=1,38=1/1,3;
 2/9=110,12=2,17=6,18=5,40=1/2;
 3/5=2,25=1,41=700000,71=1/1,2,3;
 4/35=1/1;
 5/5=2,8=3,13=1,35=1,38=5/2,8;
 6/7=2,8=2,9=2,10=2,28=1/1;
 7//1,2,3,16;
 1/18=20,19=15,26=1/3(2);
 2/9=110/2;
 99//99;
 2/9=110/2;
 3/5=2,25=1,41=700000,71=1,135=20/1,2,3;
 4/5=5,16=3,35=1/1;
 5/5=2,8=3,13=1,35=1,38=5/2,8;
 7//1,2,3,16;
 1/18=20,19=15,26=1/3(-5);
 2/9=110/2;
 6/7=2,8=2,9=2,10=2,19=2,28=1/1;
 99/9=1/99;
 --------------
 ClPh_2_rad am1
 --------------
 Symbolic Z-matrix:
 Charge =  0 Multiplicity = 2
 C                     0.        1.39      0. 
 C                     1.20378   0.695     0. 
 C                     1.20378  -0.695     0. 
 C                     0.       -1.39      0. 
 C                    -1.20378  -0.695     0. 
 C                    -1.20378   0.695     0. 
 Cl                    2.71066   1.565     0. 
 H                     2.13908  -1.235     0. 
 H                     0.       -2.47      0. 
 H                    -2.13908  -1.235     0. 
 H                    -2.13908   1.235     0. 
 

 GradGradGradGradGradGradGradGradGradGradGradGradGradGradGradGradGradGrad
 Berny optimization.
 Initialization pass.
                           ----------------------------
                           !    Initial Parameters    !
                           ! (Angstroms and Degrees)  !
 --------------------------                            --------------------------
 ! Name  Definition              Value          Derivative Info.                !
 --------------------------------------------------------------------------------
 ! R1    R(1,2)                  1.39           estimate D2E/DX2                !
 ! R2    R(1,6)                  1.39           estimate D2E/DX2                !
 ! R3    R(2,3)                  1.39           estimate D2E/DX2                !
 ! R4    R(2,7)                  1.74           estimate D2E/DX2                !
 ! R5    R(3,4)                  1.39           estimate D2E/DX2                !
 ! R6    R(3,8)                  1.08           estimate D2E/DX2                !
 ! R7    R(4,5)                  1.39           estimate D2E/DX2                !
 ! R8    R(4,9)                  1.08           estimate D2E/DX2                !
 ! R9    R(5,6)                  1.39           estimate D2E/DX2                !
 ! R10   R(5,10)                 1.08           estimate D2E/DX2                !
 ! R11   R(6,11)                 1.08           estimate D2E/DX2                !
 ! A1    A(2,1,6)              120.0            estimate D2E/DX2                !
 ! A2    A(1,2,3)              120.0            estimate D2E/DX2                !
 ! A3    A(1,2,7)              120.0            estimate D2E/DX2                !
 ! A4    A(3,2,7)              120.0            estimate D2E/DX2                !
 ! A5    A(2,3,4)              120.0            estimate D2E/DX2                !
 ! A6    A(2,3,8)              120.0            estimate D2E/DX2                !
 ! A7    A(4,3,8)              120.0            estimate D2E/DX2                !
 ! A8    A(3,4,5)              120.0            estimate D2E/DX2                !
 ! A9    A(3,4,9)              120.0            estimate D2E/DX2                !
 ! A10   A(5,4,9)              120.0            estimate D2E/DX2                !
 ! A11   A(4,5,6)              120.0            estimate D2E/DX2                !
 ! A12   A(4,5,10)             120.0            estimate D2E/DX2                !
 ! A13   A(6,5,10)             120.0            estimate D2E/DX2                !
 ! A14   A(1,6,5)              120.0            estimate D2E/DX2                !
 ! A15   A(1,6,11)             120.0            estimate D2E/DX2                !
 ! A16   A(5,6,11)             120.0            estimate D2E/DX2                !
 ! D1    D(6,1,2,3)              0.0            estimate D2E/DX2                !
 ! D2    D(6,1,2,7)            180.0            estimate D2E/DX2                !
 ! D3    D(2,1,6,5)              0.0            estimate D2E/DX2                !
 ! D4    D(2,1,6,11)           180.0            estimate D2E/DX2                !
 ! D5    D(1,2,3,4)              0.0            estimate D2E/DX2                !
 ! D6    D(1,2,3,8)            180.0            estimate D2E/DX2                !
 ! D7    D(7,2,3,4)            180.0            estimate D2E/DX2                !
 ! D8    D(7,2,3,8)              0.0            estimate D2E/DX2                !
 ! D9    D(2,3,4,5)              0.0            estimate D2E/DX2                !
 ! D10   D(2,3,4,9)            180.0            estimate D2E/DX2                !
 ! D11   D(8,3,4,5)            180.0            estimate D2E/DX2                !
 ! D12   D(8,3,4,9)              0.0            estimate D2E/DX2                !
 ! D13   D(3,4,5,6)              0.0            estimate D2E/DX2                !
 ! D14   D(3,4,5,10)           180.0            estimate D2E/DX2                !
 ! D15   D(9,4,5,6)            180.0            estimate D2E/DX2                !
 ! D16   D(9,4,5,10)             0.0            estimate D2E/DX2                !
 ! D17   D(4,5,6,1)              0.0            estimate D2E/DX2                !
 ! D18   D(4,5,6,11)           180.0            estimate D2E/DX2                !
 ! D19   D(10,5,6,1)           180.0            estimate D2E/DX2                !
 ! D20   D(10,5,6,11)            0.0            estimate D2E/DX2                !
 --------------------------------------------------------------------------------
 Trust Radius=3.00D-01 FncErr=1.00D-07 GrdErr=1.00D-07 EigMax=2.50D+02 EigMin=1.00D-04
 Number of steps in this run=     57 maximum allowed number of steps=    100.
 GradGradGradGradGradGradGradGradGradGradGradGradGradGradGradGradGradGrad

                          Input orientation:                          
 ---------------------------------------------------------------------
 Center     Atomic      Atomic             Coordinates (Angstroms)
 Number     Number       Type             X           Y           Z
 ---------------------------------------------------------------------
      1          6           0        0.000000    1.390000    0.000000
      2          6           0        1.203775    0.695000    0.000000
      3          6           0        1.203775   -0.695000    0.000000
      4          6           0        0.000000   -1.390000    0.000000
      5          6           0       -1.203775   -0.695000    0.000000
      6          6           0       -1.203775    0.695000    0.000000
      7         17           0        2.710660    1.565000    0.000000
      8          1           0        2.139083   -1.235000    0.000000
      9          1           0        0.000000   -2.470000    0.000000
     10          1           0       -2.139083   -1.235000    0.000000
     11          1           0       -2.139083    1.235000    0.000000
 ---------------------------------------------------------------------
                    Distance matrix (angstroms):
                    1          2          3          4          5
     1  C    0.000000
     2  C    1.390000   0.000000
     3  C    2.407551   1.390000   0.000000
     4  C    2.780000   2.407551   1.390000   0.000000
     5  C    2.407551   2.780000   2.407551   1.390000   0.000000
     6  C    1.390000   2.407551   2.780000   2.407551   1.390000
     7  Cl   2.716303   1.740000   2.716303   4.009950   4.520000
     8  H    3.386193   2.144691   1.080000   2.144691   3.386193
     9  H    3.860000   3.386193   2.144691   1.080000   2.144691
    10  H    3.386193   3.860000   3.386193   2.144691   1.080000
    11  H    2.144691   3.386193   3.860000   3.386193   2.144691
                    6          7          8          9         10
     6  C    0.000000
     7  Cl   4.009950   0.000000
     8  H    3.860000   2.857744   0.000000
     9  H    3.386193   4.860957   2.470000   0.000000
    10  H    2.144691   5.600000   4.278166   2.470000   0.000000
    11  H    1.080000   4.860957   4.940000   4.278165   2.470000
                   11
    11  H    0.000000
 Stoichiometry    C6H4Cl(2)
 Framework group  CS[SG(C6H4Cl)]
 Deg. of freedom    19
 Full point group                 CS      NOp   2
 Largest Abelian subgroup         CS      NOp   2
 Largest concise Abelian subgroup C1      NOp   1
                         Standard orientation:                         
 ---------------------------------------------------------------------
 Center     Atomic      Atomic             Coordinates (Angstroms)
 Number     Number       Type             X           Y           Z
 ---------------------------------------------------------------------
      1          6           0        1.241303   -0.173509    0.000000
      2          6           0        0.037528    0.521491    0.000000
      3          6           0       -1.166248   -0.173509   -0.000000
      4          6           0       -1.166248   -1.563509   -0.000000
      5          6           0        0.037528   -2.258509   -0.000000
      6          6           0        1.241303   -1.563509   -0.000000
      7         17           0        0.037528    2.261491    0.000000
      8          1           0       -2.101555    0.366491   -0.000000
      9          1           0       -2.101555   -2.103509   -0.000000
     10          1           0        0.037528   -3.338509   -0.000000
     11          1           0        2.176611   -2.103509   -0.000000
 ---------------------------------------------------------------------
 Rotational constants (GHZ):           6.0635816           1.5684507           1.2461201
 Standard basis: VSTO-6G (5D, 7F)
 There are    25 symmetry adapted cartesian basis functions of A'  symmetry.
 There are     7 symmetry adapted cartesian basis functions of A"  symmetry.
 There are    25 symmetry adapted basis functions of A'  symmetry.
 There are     7 symmetry adapted basis functions of A"  symmetry.
    32 basis functions,   192 primitive gaussians,    32 cartesian basis functions
    18 alpha electrons       17 beta electrons
       nuclear repulsion energy       152.8895011832 Hartrees.
 Integral buffers will be    131072 words long.
 Regular integral format.
 Two-electron integral symmetry is turned off.
 Do NDO integrals.
 One-electron integrals computed using PRISM.
 NBasis=    32 RedAO= T EigKep=  1.00D+00  NBF=    25     7
 NBsUse=    32 1.00D-06 EigRej= -1.00D+00 NBFU=    25     7
 Simple Huckel Guess.
 Initial guess orbital symmetries:
 Alpha Orbitals:
       Occupied  (A') (A') (A') (A') (A') (A') (A') (A') (A') (A")
                 (A') (A') (A") (A') (A") (A') (A") (A')
       Virtual   (A") (A") (A") (A') (A') (A') (A') (A') (A') (A')
                 (A') (A') (A') (A')
 Beta  Orbitals:
       Occupied  (A') (A') (A') (A') (A') (A') (A') (A') (A') (A")
                 (A') (A') (A") (A') (A") (A') (A")
       Virtual   (A') (A") (A") (A") (A') (A') (A') (A') (A') (A')
                 (A') (A') (A') (A') (A')
 The electronic state of the initial guess is 2-A'.
 Initial guess <Sx>= 0.0000 <Sy>= 0.0000 <Sz>= 0.5000 <S**2>= 0.7500 S= 0.5000
 Keep J ints in memory in canonical form, NReq=862079.
 Overlap will be assumed to be unity.
 Requested convergence on RMS density matrix=1.00D-08 within  32 cycles.
 Requested convergence on MAX density matrix=1.00D-06.
 Requested convergence on             energy=1.00D-06.
 No special actions if energy rises.
 Fock symm off for IB=2 I1=    1 I=   26 J=   16 Cut=1.00D-07 Err=1.82D-03
 Fock matrix is not symmetric: symmetry in diagonalization turned off.
 Rare condition: small coef for last iteration:  0.000D+00
 Rare condition: small coef for last iteration:  0.000D+00
 SCF Done:  E(UAM1) =  0.114718523331     A.U. after   27 cycles
            NFock= 26  Conv=0.17D-08     -V/T= 1.0017
 <Sx>= 0.0000 <Sy>= 0.0000 <Sz>= 0.5000 <S**2>= 1.1673 S= 0.6905
 <L.S>=  0.00000000000    
 Annihilation of the first spin contaminant:
 S**2 before annihilation     1.1673,   after     0.8924
 QCSCF skips out because SCF is already converged.

 **********************************************************************

            Population analysis using the SCF Density.

 **********************************************************************

 Orbital symmetries:
 Alpha Orbitals:
       Occupied  (A') (A') (A') (A') (A') (A') (A') (A') (A') (A')
                 (A") (A') (A') (A") (A') (A') (A") (A")
       Virtual   (A") (A") (A') (A") (A') (A') (A') (A') (A') (A')
                 (A') (A') (A') (A')
 Beta  Orbitals:
       Occupied  (A') (A') (A') (A') (A') (A') (A') (A') (A') (A')
                 (A") (A') (A') (A") (A') (A") (A")
       Virtual   (A') (A") (A") (A') (A") (A') (A') (A') (A') (A')
                 (A') (A') (A') (A') (A')
 The electronic state is 2-A'.
 Alpha  occ. eigenvalues --   -1.46656  -1.37369  -1.17438  -1.15579  -0.87119
 Alpha  occ. eigenvalues --   -0.85818  -0.66998  -0.60484  -0.60047  -0.55268
 Alpha  occ. eigenvalues --   -0.53406  -0.51463  -0.46785  -0.45884  -0.44211
 Alpha  occ. eigenvalues --   -0.40605  -0.38713  -0.37092
 Alpha virt. eigenvalues --    0.00299   0.00725   0.04551   0.08748   0.12917
 Alpha virt. eigenvalues --    0.13485   0.14364   0.14768   0.15319   0.16644
 Alpha virt. eigenvalues --    0.18060   0.18150   0.18916   0.19851
  Beta  occ. eigenvalues --   -1.46040  -1.37348  -1.17054  -1.14023  -0.86791
  Beta  occ. eigenvalues --   -0.83665  -0.66745  -0.59517  -0.58788  -0.55036
  Beta  occ. eigenvalues --   -0.53328  -0.50097  -0.46439  -0.46314  -0.43557
  Beta  occ. eigenvalues --   -0.37929  -0.36508
  Beta virt. eigenvalues --   -0.00844   0.00430   0.02220   0.03874   0.09606
  Beta virt. eigenvalues --    0.13491   0.13783   0.14797   0.15126   0.15795
  Beta virt. eigenvalues --    0.16831   0.18304   0.18947   0.19960   0.20167
          Condensed to atoms (all electrons):
               1          2          3          4          5          6
     1  C    4.015924   0.000000   0.000000   0.000000   0.000000   0.000000
     2  C    0.000000   4.057293   0.000000   0.000000   0.000000   0.000000
     3  C    0.000000   0.000000   4.113383   0.000000   0.000000   0.000000
     4  C    0.000000   0.000000   0.000000   4.131488   0.000000   0.000000
     5  C    0.000000   0.000000   0.000000   0.000000   4.117038   0.000000
     6  C    0.000000   0.000000   0.000000   0.000000   0.000000   4.129965
     7  Cl   0.000000   0.000000   0.000000   0.000000   0.000000   0.000000
     8  H    0.000000   0.000000   0.000000   0.000000   0.000000   0.000000
     9  H    0.000000   0.000000   0.000000   0.000000   0.000000   0.000000
    10  H    0.000000   0.000000   0.000000   0.000000   0.000000   0.000000
    11  H    0.000000   0.000000   0.000000   0.000000   0.000000   0.000000
               7          8          9         10         11
     1  C    0.000000   0.000000   0.000000   0.000000   0.000000
     2  C    0.000000   0.000000   0.000000   0.000000   0.000000
     3  C    0.000000   0.000000   0.000000   0.000000   0.000000
     4  C    0.000000   0.000000   0.000000   0.000000   0.000000
     5  C    0.000000   0.000000   0.000000   0.000000   0.000000
     6  C    0.000000   0.000000   0.000000   0.000000   0.000000
     7  Cl   7.016331   0.000000   0.000000   0.000000   0.000000
     8  H    0.000000   0.849382   0.000000   0.000000   0.000000
     9  H    0.000000   0.000000   0.858871   0.000000   0.000000
    10  H    0.000000   0.000000   0.000000   0.858876   0.000000
    11  H    0.000000   0.000000   0.000000   0.000000   0.851448
          Atomic-Atomic Spin Densities.
               1          2          3          4          5          6
     1  C    1.381083   0.000000   0.000000   0.000000   0.000000   0.000000
     2  C    0.000000  -0.429118   0.000000   0.000000   0.000000   0.000000
     3  C    0.000000   0.000000   0.436373   0.000000   0.000000   0.000000
     4  C    0.000000   0.000000   0.000000  -0.417572   0.000000   0.000000
     5  C    0.000000   0.000000   0.000000   0.000000   0.443649   0.000000
     6  C    0.000000   0.000000   0.000000   0.000000   0.000000  -0.440711
     7  Cl   0.000000   0.000000   0.000000   0.000000   0.000000   0.000000
     8  H    0.000000   0.000000   0.000000   0.000000   0.000000   0.000000
     9  H    0.000000   0.000000   0.000000   0.000000   0.000000   0.000000
    10  H    0.000000   0.000000   0.000000   0.000000   0.000000   0.000000
    11  H    0.000000   0.000000   0.000000   0.000000   0.000000   0.000000
               7          8          9         10         11
     1  C    0.000000   0.000000   0.000000   0.000000   0.000000
     2  C    0.000000   0.000000   0.000000   0.000000   0.000000
     3  C    0.000000   0.000000   0.000000   0.000000   0.000000
     4  C    0.000000   0.000000   0.000000   0.000000   0.000000
     5  C    0.000000   0.000000   0.000000   0.000000   0.000000
     6  C    0.000000   0.000000   0.000000   0.000000   0.000000
     7  Cl   0.007788   0.000000   0.000000   0.000000   0.000000
     8  H    0.000000  -0.016788   0.000000   0.000000   0.000000
     9  H    0.000000   0.000000   0.024813   0.000000   0.000000
    10  H    0.000000   0.000000   0.000000  -0.017800   0.000000
    11  H    0.000000   0.000000   0.000000   0.000000   0.028284
 Mulliken charges and spin densities:
               1          2
     1  C   -0.015924   1.381083
     2  C   -0.057293  -0.429118
     3  C   -0.113383   0.436373
     4  C   -0.131488  -0.417572
     5  C   -0.117038   0.443649
     6  C   -0.129965  -0.440711
     7  Cl  -0.016331   0.007788
     8  H    0.150618  -0.016788
     9  H    0.141129   0.024813
    10  H    0.141124  -0.017800
    11  H    0.148552   0.028284
 Sum of Mulliken charges =   0.00000   1.00000
 Mulliken charges and spin densities with hydrogens summed into heavy atoms:
               1          2
     1  C   -0.015924   1.381083
     2  C   -0.057293  -0.429118
     3  C    0.037235   0.419585
     4  C    0.009641  -0.392759
     5  C    0.024085   0.425849
     6  C    0.018586  -0.412427
     7  Cl  -0.016331   0.007788
 Charge=              0.0000 electrons
 Dipole moment (field-independent basis, Debye):
    X=             -0.9235    Y=             -1.8631    Z=              0.0000  Tot=              2.0794
 N-N= 1.528895011832D+02 E-N=-2.114481017510D+02  KE=-6.880030404852D+01
 Symmetry A'   KE=-5.398413214109D+01
 Symmetry A"   KE=-1.481617190743D+01
 Symmetry A'   SP= 1.000000000000D+00
 Symmetry A"   SP= 6.716849298982D-15
 Calling FoFJK, ICntrl=      2127 FMM=F ISym2X=1 I1Cent= 0 IOpClX= 1 NMat=1 NMatS=1 NMatT=0.
 ***** Axes restored to original set *****
 -------------------------------------------------------------------
 Center     Atomic                   Forces (Hartrees/Bohr)
 Number     Number              X              Y              Z
 -------------------------------------------------------------------
      1        6          -0.001618923   -0.046487118   -0.000000000
      2        6           0.024013908    0.047756378   -0.000000000
      3        6           0.001446115   -0.002242223   -0.000000000
      4        6           0.000351305    0.001133825   -0.000000000
      5        6           0.002621236    0.000686086   -0.000000000
      6        6           0.005331408    0.031230690    0.000000000
      7       17          -0.020400884   -0.011764239    0.000000000
      8        1           0.013704326   -0.007301105    0.000000000
      9        1           0.000534009   -0.014746122    0.000000000
     10        1          -0.013191467   -0.006507165    0.000000000
     11        1          -0.012791033    0.008240993    0.000000000
 -------------------------------------------------------------------
 Cartesian Forces:  Max     0.047756378 RMS     0.015077563

 GradGradGradGradGradGradGradGradGradGradGradGradGradGradGradGradGradGrad
 Berny optimization.
 FormGI is forming the generalized inverse of G from B-inverse, IUseBI=4.
 Internal  Forces:  Max     0.032511690 RMS     0.009929095
 Search for a local minimum.
 Step number   1 out of a maximum of   57
 All quantities printed in internal units (Hartrees-Bohrs-Radians)
 Mixed Optimization -- RFO/linear search
 Second derivative matrix not updated -- first step.
 ITU=  0
     Eigenvalues ---    0.02221   0.02221   0.02221   0.02221   0.02221
     Eigenvalues ---    0.02221   0.02221   0.02221   0.16000   0.16000
     Eigenvalues ---    0.16000   0.16000   0.22000   0.22409   0.24407
     Eigenvalues ---    0.25000   0.31476   0.35994   0.35994   0.35994
     Eigenvalues ---    0.35994   0.42938   0.43516   0.47319   0.47319
     Eigenvalues ---    0.47319   0.47319
 RFO step:  Lambda=-1.36498665D-02 EMin= 2.22103665D-02
 Linear search not attempted -- first point.
 Iteration  1 RMS(Cart)=  0.03796185 RMS(Int)=  0.00099085
 Iteration  2 RMS(Cart)=  0.00141316 RMS(Int)=  0.00030779
 Iteration  3 RMS(Cart)=  0.00000048 RMS(Int)=  0.00030779
 ClnCor:  largest displacement from symmetrization is 2.84D-12 for atom     9.
 Variable       Old X    -DE/DX   Delta X   Delta X   Delta X     New X
                                 (Linear)    (Quad)   (Total)
    R1        2.62672  -0.01043   0.00000  -0.02387  -0.02343   2.60329
    R2        2.62672  -0.01357   0.00000  -0.02991  -0.02948   2.59724
    R3        2.62672   0.01448   0.00000   0.02934   0.02936   2.65608
    R4        3.28812  -0.02355   0.00000  -0.07171  -0.07171   3.21642
    R5        2.62672   0.01840   0.00000   0.03983   0.03941   2.66613
    R6        2.04090   0.01552   0.00000   0.04154   0.04154   2.08244
    R7        2.62672   0.02103   0.00000   0.04564   0.04521   2.67192
    R8        2.04090   0.01475   0.00000   0.03947   0.03947   2.08038
    R9        2.62672   0.01449   0.00000   0.03018   0.03016   2.65688
   R10        2.04090   0.01468   0.00000   0.03929   0.03929   2.08019
   R11        2.04090   0.01520   0.00000   0.04068   0.04068   2.08158
    A1        2.09440   0.03251   0.00000   0.11350   0.11464   2.20904
    A2        2.09440  -0.01128   0.00000  -0.04630  -0.04590   2.04850
    A3        2.09440   0.00562   0.00000   0.02307   0.02287   2.11727
    A4        2.09440   0.00566   0.00000   0.02322   0.02302   2.11742
    A5        2.09440  -0.00598   0.00000  -0.02012  -0.02058   2.07381
    A6        2.09440   0.00245   0.00000   0.00695   0.00718   2.10158
    A7        2.09440   0.00353   0.00000   0.01317   0.01340   2.10780
    A8        2.09440   0.00191   0.00000   0.01964   0.01872   2.11312
    A9        2.09440  -0.00150   0.00000  -0.01296  -0.01250   2.08190
   A10        2.09440  -0.00041   0.00000  -0.00668  -0.00622   2.08817
   A11        2.09440  -0.00153   0.00000   0.00150   0.00099   2.09538
   A12        2.09440   0.00175   0.00000   0.00489   0.00515   2.09954
   A13        2.09440  -0.00021   0.00000  -0.00639  -0.00614   2.08826
   A14        2.09440  -0.01562   0.00000  -0.06823  -0.06787   2.02652
   A15        2.09440   0.00705   0.00000   0.02976   0.02958   2.12398
   A16        2.09440   0.00857   0.00000   0.03847   0.03829   2.13269
    D1        0.00000   0.00000   0.00000   0.00000  -0.00000   0.00000
    D2        3.14159   0.00000   0.00000   0.00000   0.00000   3.14159
    D3       -0.00000  -0.00000   0.00000  -0.00000   0.00000   0.00000
    D4        3.14159  -0.00000   0.00000  -0.00000   0.00000   3.14159
    D5       -0.00000   0.00000   0.00000   0.00000   0.00000   0.00000
    D6        3.14159   0.00000   0.00000   0.00000   0.00000   3.14159
    D7        3.14159  -0.00000   0.00000  -0.00000   0.00000   3.14159
    D8        0.00000  -0.00000   0.00000  -0.00000  -0.00000   0.00000
    D9        0.00000  -0.00000   0.00000  -0.00000  -0.00000   0.00000
   D10        3.14159   0.00000   0.00000   0.00000   0.00000   3.14159
   D11        3.14159  -0.00000   0.00000  -0.00000   0.00000   3.14159
   D12       -0.00000  -0.00000   0.00000  -0.00000   0.00000   0.00000
   D13        0.00000   0.00000   0.00000   0.00000  -0.00000   0.00000
   D14        3.14159   0.00000   0.00000   0.00000   0.00000   3.14159
   D15        3.14159  -0.00000   0.00000  -0.00000   0.00000   3.14159
   D16       -0.00000  -0.00000   0.00000  -0.00000   0.00000   0.00000
   D17       -0.00000   0.00000   0.00000   0.00000   0.00000   0.00000
   D18        3.14159   0.00000   0.00000   0.00000   0.00000   3.14159
   D19        3.14159  -0.00000   0.00000  -0.00000   0.00000   3.14159
   D20        0.00000  -0.00000   0.00000  -0.00000   0.00000   0.00000
         Item               Value     Threshold  Converged?
 Maximum Force            0.032512     0.000450     NO 
 RMS     Force            0.009929     0.000300     NO 
 Maximum Displacement     0.119102     0.001800     NO 
 RMS     Displacement     0.037930     0.001200     NO 
 Predicted change in Energy=-7.128857D-03
 GradGradGradGradGradGradGradGradGradGradGradGradGradGradGradGradGradGrad

                          Input orientation:                          
 ---------------------------------------------------------------------
 Center     Atomic      Atomic             Coordinates (Angstroms)
 Number     Number       Type             X           Y           Z
 ---------------------------------------------------------------------
      1          6           0        0.003478    1.326974    0.000000
      2          6           0        1.230609    0.700923   -0.000000
      3          6           0        1.238972   -0.704591    0.000000
      4          6           0        0.006946   -1.392063    0.000000
      5          6           0       -1.220428   -0.690117    0.000000
      6          6           0       -1.227568    0.715823    0.000000
      7         17           0        2.679358    1.594296   -0.000000
      8          1           0        2.192637   -1.256757   -0.000000
      9          1           0        0.004597   -2.492948    0.000000
     10          1           0       -2.174323   -1.239502    0.000000
     11          1           0       -2.162702    1.297963    0.000000
 ---------------------------------------------------------------------
                    Distance matrix (angstroms):
                    1          2          3          4          5
     1  C    0.000000
     2  C    1.377604   0.000000
     3  C    2.377751   1.405539   0.000000
     4  C    2.719040   2.424447   1.410853   0.000000
     5  C    2.359364   2.818258   2.459442   1.413922   0.000000
     6  C    1.374401   2.458223   2.846295   2.442787   1.405958
     7  Cl   2.689200   1.702054   2.712857   4.007509   4.519610
     8  H    3.386456   2.181286   1.101982   2.189875   3.459782
     9  H    3.819922   3.421099   2.172994   1.100887   2.179653
    10  H    3.365949   3.919032   3.454954   2.186597   1.100790
    11  H    2.166374   3.445434   3.947354   3.455953   2.200077
                    6          7          8          9         10
     6  C    0.000000
     7  Cl   4.004471   0.000000
     8  H    3.948274   2.892300   0.000000
     9  H    3.437214   4.884660   2.513103   0.000000
    10  H    2.172473   5.620376   4.366993   2.513726   0.000000
    11  H    1.101527   4.851119   5.049313   4.366714   2.537491
                   11
    11  H    0.000000
 Stoichiometry    C6H4Cl(2)
 Framework group  CS[SG(C6H4Cl)]
 Deg. of freedom    19
 Full point group                 CS      NOp   2
 Largest Abelian subgroup         CS      NOp   2
 Largest concise Abelian subgroup C1      NOp   1
                         Standard orientation:                         
 ---------------------------------------------------------------------
 Center     Atomic      Atomic             Coordinates (Angstroms)
 Number     Number       Type             X           Y           Z
 ---------------------------------------------------------------------
      1          6           0        1.185259   -0.151005    0.000000
      2          6           0        0.000000    0.551101   -0.000000
      3          6           0       -1.192113   -0.193484   -0.000000
      4          6           0       -1.114146   -1.602181    0.000000
      5          6           0        0.135373   -2.263903    0.000000
      6          6           0        1.327192   -1.518058    0.000000
      7         17           0       -0.019885    2.253039   -0.000000
      8          1           0       -2.168694    0.317059   -0.000000
      9          1           0       -2.043123   -2.192904   -0.000000
     10          1           0        0.181280   -3.363736    0.000000
     11          1           0        2.319190   -1.996912    0.000000
 ---------------------------------------------------------------------
 Rotational constants (GHZ):           6.0011316           1.5706857           1.2448652
 Standard basis: VSTO-6G (5D, 7F)
 There are    25 symmetry adapted cartesian basis functions of A'  symmetry.
 There are     7 symmetry adapted cartesian basis functions of A"  symmetry.
 There are    25 symmetry adapted basis functions of A'  symmetry.
 There are     7 symmetry adapted basis functions of A"  symmetry.
    32 basis functions,   192 primitive gaussians,    32 cartesian basis functions
    18 alpha electrons       17 beta electrons
       nuclear repulsion energy       152.5522045201 Hartrees.
 Integral buffers will be    131072 words long.
 Regular integral format.
 Two-electron integral symmetry is turned off.
 Do NDO integrals.
 One-electron integrals computed using PRISM.
 NBasis=    32 RedAO= T EigKep=  1.00D+00  NBF=    25     7
 NBsUse=    32 1.00D-06 EigRej= -1.00D+00 NBFU=    25     7
 Initial guess from the checkpoint file:  "calcs/am1/chks/ClPh_2_rad.chk"
 B after Tr=    -0.000000    0.000000    0.000000
         Rot=    0.999862   -0.000000   -0.000000   -0.016599 Ang=  -1.90 deg.
 Initial guess orbital symmetries:
 Alpha Orbitals:
       Occupied  (A') (A') (A') (A') (A') (A') (A') (A') (A') (A')
                 (A") (A') (A') (A") (A') (A') (A") (A")
       Virtual   (A") (A") (A') (A") (A') (A') (A') (A') (A') (A')
                 (A') (A') (A') (A')
 Beta  Orbitals:
       Occupied  (A') (A') (A') (A') (A') (A') (A') (A') (A') (A')
                 (A") (A') (A') (A") (A') (A") (A")
       Virtual   (A') (A") (A") (A') (A") (A') (A') (A') (A') (A')
                 (A') (A') (A') (A') (A')
 Initial guess <Sx>= 0.0000 <Sy>= 0.0000 <Sz>= 0.5000 <S**2>= 1.1673 S= 0.6905
 Keep J ints in memory in canonical form, NReq=862079.
 Overlap will be assumed to be unity.
 Requested convergence on RMS density matrix=1.00D-08 within  32 cycles.
 Requested convergence on MAX density matrix=1.00D-06.
 Requested convergence on             energy=1.00D-06.
 No special actions if energy rises.
 Fock symm off for IB=2 I1=    1 I=   26 J=    5 Cut=1.00D-07 Err=2.58D-03
 Fock matrix is not symmetric: symmetry in diagonalization turned off.
 SCF Done:  E(UAM1) =  0.107596416984     A.U. after   16 cycles
            NFock= 15  Conv=0.87D-08     -V/T= 1.0016
 <Sx>= 0.0000 <Sy>= 0.0000 <Sz>= 0.5000 <S**2>= 1.2168 S= 0.7111
 <L.S>=  0.00000000000    
 Annihilation of the first spin contaminant:
 S**2 before annihilation     1.2168,   after     0.9355
 QCSCF skips out because SCF is already converged.
 Calling FoFJK, ICntrl=      2127 FMM=F ISym2X=1 I1Cent= 0 IOpClX= 1 NMat=1 NMatS=1 NMatT=0.
 ***** Axes restored to original set *****
 -------------------------------------------------------------------
 Center     Atomic                   Forces (Hartrees/Bohr)
 Number     Number              X              Y              Z
 -------------------------------------------------------------------
      1        6          -0.002571373   -0.011894122   -0.000000000
      2        6           0.010495155    0.012787330    0.000000000
      3        6          -0.010031993   -0.008206500   -0.000000000
      4        6          -0.001700595    0.010758521   -0.000000000
      5        6           0.009613957   -0.006252651   -0.000000000
      6        6          -0.001332370    0.006265837   -0.000000000
      7       17          -0.005975303   -0.004177219    0.000000000
      8        1          -0.002407339    0.000866777    0.000000000
      9        1          -0.000159867    0.001590194    0.000000000
     10        1           0.001954263    0.000285182    0.000000000
     11        1           0.002115465   -0.002023349    0.000000000
 -------------------------------------------------------------------
 Cartesian Forces:  Max     0.012787330 RMS     0.005381380

 GradGradGradGradGradGradGradGradGradGradGradGradGradGradGradGradGradGrad
 Berny optimization.
 Using GEDIIS/GDIIS optimizer.
 FormGI is forming the generalized inverse of G from B-inverse, IUseBI=4.
 Internal  Forces:  Max     0.012254239 RMS     0.003181393
 Search for a local minimum.
 Step number   2 out of a maximum of   57
 All quantities printed in internal units (Hartrees-Bohrs-Radians)
 Mixed Optimization -- RFO/linear search
 Update second derivatives using D2CorX and points    1    2
 DE= -7.12D-03 DEPred=-7.13D-03 R= 9.99D-01
 TightC=F SS=  1.41D+00  RLast= 2.07D-01 DXNew= 5.0454D-01 6.2156D-01
 Trust test= 9.99D-01 RLast= 2.07D-01 DXMaxT set to 5.05D-01
 ITU=  1  0
 Use linear search instead of GDIIS.
     Eigenvalues ---    0.02221   0.02221   0.02221   0.02221   0.02221
     Eigenvalues ---    0.02221   0.02221   0.02221   0.15997   0.16000
     Eigenvalues ---    0.16000   0.16018   0.19024   0.22002   0.23015
     Eigenvalues ---    0.25008   0.30233   0.35983   0.35994   0.35994
     Eigenvalues ---    0.37046   0.43035   0.44604   0.46740   0.47319
     Eigenvalues ---    0.47319   0.58424
 RFO step:  Lambda=-1.43338989D-03 EMin= 2.22103665D-02
 Quartic linear search produced a step of  0.06338.
 Iteration  1 RMS(Cart)=  0.01088315 RMS(Int)=  0.00010933
 Iteration  2 RMS(Cart)=  0.00014787 RMS(Int)=  0.00004667
 Iteration  3 RMS(Cart)=  0.00000000 RMS(Int)=  0.00004667
 ClnCor:  largest displacement from symmetrization is 2.20D-12 for atom     8.
 Variable       Old X    -DE/DX   Delta X   Delta X   Delta X     New X
                                 (Linear)    (Quad)   (Total)
    R1        2.60329  -0.00272  -0.00148  -0.00601  -0.00742   2.59587
    R2        2.59724  -0.00450  -0.00187  -0.01037  -0.01218   2.58506
    R3        2.65608   0.00212   0.00186   0.00606   0.00794   2.66402
    R4        3.21642  -0.00728  -0.00454  -0.02724  -0.03178   3.18463
    R5        2.66613  -0.00966   0.00250  -0.02090  -0.01845   2.64767
    R6        2.08244  -0.00252   0.00263  -0.00579  -0.00315   2.07929
    R7        2.67192  -0.01225   0.00287  -0.02663  -0.02384   2.64808
    R8        2.08038  -0.00159   0.00250  -0.00314  -0.00064   2.07974
    R9        2.65688  -0.00118   0.00191  -0.00164   0.00025   2.65713
   R10        2.08019  -0.00184   0.00249  -0.00387  -0.00138   2.07881
   R11        2.08158  -0.00287   0.00258  -0.00684  -0.00426   2.07732
    A1        2.20904   0.00458   0.00727   0.02808   0.03551   2.24455
    A2        2.04850  -0.00669  -0.00291  -0.02814  -0.03096   2.01754
    A3        2.11727   0.00402   0.00145   0.01691   0.01832   2.13559
    A4        2.11742   0.00267   0.00146   0.01122   0.01264   2.13006
    A5        2.07381   0.00167  -0.00130   0.00557   0.00422   2.07803
    A6        2.10158  -0.00036   0.00046   0.00022   0.00070   2.10228
    A7        2.10780  -0.00131   0.00085  -0.00579  -0.00492   2.10288
    A8        2.11312   0.00309   0.00119   0.01149   0.01254   2.12566
    A9        2.08190  -0.00138  -0.00079  -0.00475  -0.00547   2.07642
   A10        2.08817  -0.00171  -0.00039  -0.00674  -0.00707   2.08110
   A11        2.09538   0.00051   0.00006  -0.00028  -0.00031   2.09507
   A12        2.09954  -0.00101   0.00033  -0.00463  -0.00425   2.09529
   A13        2.08826   0.00050  -0.00039   0.00490   0.00456   2.09282
   A14        2.02652  -0.00316  -0.00430  -0.01673  -0.02100   2.00552
   A15        2.12398   0.00220   0.00187   0.01230   0.01416   2.13814
   A16        2.13269   0.00095   0.00243   0.00442   0.00684   2.13953
    D1        0.00000   0.00000   0.00000   0.00000  -0.00000   0.00000
    D2        3.14159   0.00000   0.00000   0.00000   0.00000   3.14159
    D3       -0.00000  -0.00000   0.00000  -0.00000   0.00000   0.00000
    D4        3.14159  -0.00000   0.00000  -0.00000   0.00000   3.14159
    D5       -0.00000  -0.00000   0.00000  -0.00000   0.00000   0.00000
    D6        3.14159   0.00000   0.00000   0.00000   0.00000   3.14159
    D7        3.14159  -0.00000   0.00000  -0.00000   0.00000   3.14159
    D8        0.00000   0.00000   0.00000   0.00000   0.00000   0.00000
    D9        0.00000  -0.00000   0.00000  -0.00000   0.00000   0.00000
   D10        3.14159   0.00000   0.00000   0.00000   0.00000   3.14159
   D11        3.14159  -0.00000   0.00000  -0.00000   0.00000   3.14159
   D12       -0.00000   0.00000   0.00000   0.00000   0.00000   0.00000
   D13       -0.00000   0.00000   0.00000   0.00000   0.00000   0.00000
   D14        3.14159   0.00000   0.00000   0.00000   0.00000   3.14159
   D15        3.14159  -0.00000   0.00000  -0.00000   0.00000   3.14159
   D16        0.00000  -0.00000   0.00000  -0.00000   0.00000   0.00000
   D17        0.00000  -0.00000   0.00000  -0.00000   0.00000   0.00000
   D18        3.14159   0.00000   0.00000   0.00000   0.00000   3.14159
   D19        3.14159  -0.00000   0.00000  -0.00000   0.00000   3.14159
   D20       -0.00000   0.00000   0.00000   0.00000   0.00000   0.00000
         Item               Value     Threshold  Converged?
 Maximum Force            0.012254     0.000450     NO 
 RMS     Force            0.003181     0.000300     NO 
 Maximum Displacement     0.039485     0.001800     NO 
 RMS     Displacement     0.010892     0.001200     NO 
 Predicted change in Energy=-7.373693D-04
 GradGradGradGradGradGradGradGradGradGradGradGradGradGradGradGradGradGrad

                          Input orientation:                          
 ---------------------------------------------------------------------
 Center     Atomic      Atomic             Coordinates (Angstroms)
 Number     Number       Type             X           Y           Z
 ---------------------------------------------------------------------
      1          6           0        0.004618    1.306080   -0.000000
      2          6           0        1.240625    0.706688   -0.000000
      3          6           0        1.233874   -0.703037    0.000000
      4          6           0        0.005948   -1.377757    0.000000
      5          6           0       -1.214641   -0.689411    0.000000
      6          6           0       -1.229810    0.716599    0.000000
      7         17           0        2.673373    1.593960   -0.000000
      8          1           0        2.179726   -1.265222    0.000000
      9          1           0        0.002448   -2.478301    0.000000
     10          1           0       -2.162212   -1.248196    0.000000
     11          1           0       -2.162373    1.298598   -0.000000
 ---------------------------------------------------------------------
                    Distance matrix (angstroms):
                    1          2          3          4          5
     1  C    0.000000
     2  C    1.373675   0.000000
     3  C    2.355338   1.409741   0.000000
     4  C    2.683837   2.422671   1.401088   0.000000
     5  C    2.338499   2.824433   2.448552   1.401306   0.000000
     6  C    1.367955   2.470455   2.843431   2.431753   1.406091
     7  Cl   2.684237   1.685236   2.710785   3.993276   4.508928
     8  H    3.367890   2.184111   1.100313   2.176688   3.442860
     9  H    3.784381   3.417197   2.160549   1.100550   2.163661
    10  H    3.349549   3.924394   3.439564   2.172028   1.100060
    11  H    2.167004   3.454092   3.942212   3.444487   2.202357
                    6          7          8          9         10
     6  C    0.000000
     7  Cl   4.000575   0.000000
     8  H    3.943672   2.901484   0.000000
     9  H    3.424302   4.870026   2.492408   0.000000
    10  H    2.174809   5.608987   4.341971   2.489761   0.000000
    11  H    1.099271   4.844758   5.042519   4.353322   2.546794
                   11
    11  H    0.000000
 Stoichiometry    C6H4Cl(2)
 Framework group  CS[SG(C6H4Cl)]
 Deg. of freedom    19
 Full point group                 CS      NOp   2
 Largest Abelian subgroup         CS      NOp   2
 Largest concise Abelian subgroup C1      NOp   1
                         Standard orientation:                         
 ---------------------------------------------------------------------
 Center     Atomic      Atomic             Coordinates (Angstroms)
 Number     Number       Type             X           Y           Z
 ---------------------------------------------------------------------
      1          6           0        1.166109   -0.162689   -0.000000
      2          6           0        0.000000    0.563376   -0.000000
      3          6           0       -1.189021   -0.193986    0.000000
      4          6           0       -1.105113   -1.592560    0.000000
      5          6           0        0.128030   -2.258153    0.000000
      6          6           0        1.325596   -1.521316   -0.000000
      7         17           0       -0.013299    2.248560   -0.000000
      8          1           0       -2.168946    0.306449    0.000000
      9          1           0       -2.034302   -2.182320    0.000000
     10          1           0        0.160536   -3.357733    0.000000
     11          1           0        2.315198   -1.999944   -0.000000
 ---------------------------------------------------------------------
 Rotational constants (GHZ):           6.0723927           1.5763763           1.2514924
 Standard basis: VSTO-6G (5D, 7F)
 There are    25 symmetry adapted cartesian basis functions of A'  symmetry.
 There are     7 symmetry adapted cartesian basis functions of A"  symmetry.
 There are    25 symmetry adapted basis functions of A'  symmetry.
 There are     7 symmetry adapted basis functions of A"  symmetry.
    32 basis functions,   192 primitive gaussians,    32 cartesian basis functions
    18 alpha electrons       17 beta electrons
       nuclear repulsion energy       152.8563401432 Hartrees.
 Integral buffers will be    131072 words long.
 Regular integral format.
 Two-electron integral symmetry is turned off.
 Do NDO integrals.
 One-electron integrals computed using PRISM.
 NBasis=    32 RedAO= T EigKep=  1.00D+00  NBF=    25     7
 NBsUse=    32 1.00D-06 EigRej= -1.00D+00 NBFU=    25     7
 Initial guess from the checkpoint file:  "calcs/am1/chks/ClPh_2_rad.chk"
 B after Tr=     0.000000   -0.000000    0.000000
         Rot=    0.999999   -0.000000    0.000000    0.001195 Ang=   0.14 deg.
 Initial guess orbital symmetries:
 Alpha Orbitals:
       Occupied  (A') (A') (A') (A') (A') (A') (A') (A') (A') (A')
                 (A") (A') (A') (A") (A') (A') (A") (A")
       Virtual   (A") (A") (A') (A") (A') (A') (A') (A') (A') (A')
                 (A') (A') (A') (A')
 Beta  Orbitals:
       Occupied  (A') (A') (A') (A') (A') (A') (A') (A') (A') (A')
                 (A") (A') (A') (A") (A') (A") (A")
       Virtual   (A') (A") (A") (A') (A") (A') (A') (A') (A') (A')
                 (A') (A') (A') (A') (A')
 Initial guess <Sx>= 0.0000 <Sy>= 0.0000 <Sz>= 0.5000 <S**2>= 1.2168 S= 0.7111
 Keep J ints in memory in canonical form, NReq=862079.
 Overlap will be assumed to be unity.
 Requested convergence on RMS density matrix=1.00D-08 within  32 cycles.
 Requested convergence on MAX density matrix=1.00D-06.
 Requested convergence on             energy=1.00D-06.
 No special actions if energy rises.
 Fock symm off for IB=2 I1=    1 I=   26 J=   10 Cut=1.00D-07 Err=7.15D-04
 Fock matrix is not symmetric: symmetry in diagonalization turned off.
 SCF Done:  E(UAM1) =  0.106893233145     A.U. after   16 cycles
            NFock= 15  Conv=0.28D-08     -V/T= 1.0016
 <Sx>= 0.0000 <Sy>= 0.0000 <Sz>= 0.5000 <S**2>= 1.1893 S= 0.6997
 <L.S>=  0.00000000000    
 Annihilation of the first spin contaminant:
 S**2 before annihilation     1.1893,   after     0.9128
 QCSCF skips out because SCF is already converged.
 Calling FoFJK, ICntrl=      2127 FMM=F ISym2X=1 I1Cent= 0 IOpClX= 1 NMat=1 NMatS=1 NMatT=0.
 ***** Axes restored to original set *****
 -------------------------------------------------------------------
 Center     Atomic                   Forces (Hartrees/Bohr)
 Number     Number              X              Y              Z
 -------------------------------------------------------------------
      1        6          -0.000878563    0.002512139   -0.000000000
      2        6           0.003508491    0.002194128    0.000000000
      3        6           0.000580723   -0.002886298   -0.000000000
      4        6           0.000763853   -0.001343182   -0.000000000
      5        6          -0.003081835   -0.002896142   -0.000000000
      6        6          -0.002797454    0.002469256    0.000000000
      7       17           0.000537982   -0.000044099    0.000000000
      8        1          -0.000712907    0.000729528    0.000000000
      9        1           0.000078704   -0.000031573    0.000000000
     10        1           0.000594754    0.000506333    0.000000000
     11        1           0.001406251   -0.001210091    0.000000000
 -------------------------------------------------------------------
 Cartesian Forces:  Max     0.003508491 RMS     0.001481822

 GradGradGradGradGradGradGradGradGradGradGradGradGradGradGradGradGradGrad
 Berny optimization.
 Using GEDIIS/GDIIS optimizer.
 FormGI is forming the generalized inverse of G from B-inverse, IUseBI=4.
 Internal  Forces:  Max     0.003121603 RMS     0.001022620
 Search for a local minimum.
 Step number   3 out of a maximum of   57
 All quantities printed in internal units (Hartrees-Bohrs-Radians)
 Mixed Optimization -- RFO/linear search
 Update second derivatives using D2CorX and points    1    2    3
 DE= -7.03D-04 DEPred=-7.37D-04 R= 9.54D-01
 TightC=F SS=  1.41D+00  RLast= 7.71D-02 DXNew= 8.4853D-01 2.3119D-01
 Trust test= 9.54D-01 RLast= 7.71D-02 DXMaxT set to 5.05D-01
 ITU=  1  1  0
 Use linear search instead of GDIIS.
     Eigenvalues ---    0.02221   0.02221   0.02221   0.02221   0.02221
     Eigenvalues ---    0.02221   0.02221   0.02221   0.15754   0.16000
     Eigenvalues ---    0.16000   0.16069   0.17513   0.22025   0.23111
     Eigenvalues ---    0.25066   0.30328   0.35986   0.35994   0.36017
     Eigenvalues ---    0.37550   0.43019   0.45492   0.47301   0.47319
     Eigenvalues ---    0.47513   0.63687
 RFO step:  Lambda=-1.03031445D-04 EMin= 2.22103665D-02
 Quartic linear search produced a step of -0.05267.
 Iteration  1 RMS(Cart)=  0.00299848 RMS(Int)=  0.00000446
 Iteration  2 RMS(Cart)=  0.00000542 RMS(Int)=  0.00000090
 Iteration  3 RMS(Cart)=  0.00000000 RMS(Int)=  0.00000090
 ClnCor:  largest displacement from symmetrization is 1.48D-11 for atom     9.
 Variable       Old X    -DE/DX   Delta X   Delta X   Delta X     New X
                                 (Linear)    (Quad)   (Total)
    R1        2.59587   0.00312   0.00039   0.00544   0.00583   2.60170
    R2        2.58506   0.00264   0.00064   0.00395   0.00459   2.58965
    R3        2.66402   0.00306  -0.00042   0.00703   0.00661   2.67064
    R4        3.18463   0.00043   0.00167  -0.00244  -0.00077   3.18387
    R5        2.64767   0.00120   0.00097   0.00034   0.00131   2.64899
    R6        2.07929  -0.00099   0.00017  -0.00281  -0.00264   2.07665
    R7        2.64808   0.00174   0.00126   0.00084   0.00210   2.65018
    R8        2.07974   0.00003   0.00003   0.00013   0.00016   2.07990
    R9        2.65713   0.00286  -0.00001   0.00583   0.00582   2.66294
   R10        2.07881  -0.00077   0.00007  -0.00205  -0.00198   2.07683
   R11        2.07732  -0.00183   0.00022  -0.00515  -0.00493   2.07239
    A1        2.24455  -0.00052  -0.00187   0.00282   0.00094   2.24549
    A2        2.01754  -0.00089   0.00163  -0.00689  -0.00526   2.01228
    A3        2.13559   0.00096  -0.00097   0.00569   0.00472   2.14031
    A4        2.13006  -0.00006  -0.00067   0.00120   0.00054   2.13060
    A5        2.07803   0.00104  -0.00022   0.00440   0.00418   2.08221
    A6        2.10228  -0.00079  -0.00004  -0.00350  -0.00354   2.09873
    A7        2.10288  -0.00025   0.00026  -0.00090  -0.00064   2.10224
    A8        2.12566   0.00017  -0.00066   0.00152   0.00087   2.12653
    A9        2.07642  -0.00017   0.00029  -0.00116  -0.00088   2.07554
   A10        2.08110  -0.00000   0.00037  -0.00036   0.00001   2.08111
   A11        2.09507  -0.00055   0.00002  -0.00272  -0.00271   2.09236
   A12        2.09529   0.00041   0.00022   0.00170   0.00193   2.09722
   A13        2.09282   0.00014  -0.00024   0.00102   0.00078   2.09360
   A14        2.00552   0.00075   0.00111   0.00087   0.00198   2.00750
   A15        2.13814  -0.00008  -0.00075   0.00169   0.00094   2.13908
   A16        2.13953  -0.00067  -0.00036  -0.00256  -0.00292   2.13661
    D1       -0.00000   0.00000   0.00000   0.00000   0.00000   0.00000
    D2        3.14159   0.00000   0.00000   0.00000   0.00000   3.14159
    D3        0.00000  -0.00000   0.00000  -0.00000  -0.00000   0.00000
    D4        3.14159  -0.00000   0.00000  -0.00000   0.00000   3.14159
    D5        0.00000  -0.00000   0.00000  -0.00000  -0.00000   0.00000
    D6        3.14159   0.00000   0.00000   0.00000   0.00000   3.14159
    D7        3.14159  -0.00000   0.00000  -0.00000   0.00000   3.14159
    D8       -0.00000   0.00000   0.00000   0.00000   0.00000   0.00000
    D9       -0.00000  -0.00000   0.00000  -0.00000   0.00000   0.00000
   D10        3.14159   0.00000   0.00000   0.00000   0.00000   3.14159
   D11        3.14159  -0.00000   0.00000  -0.00000   0.00000   3.14159
   D12       -0.00000  -0.00000   0.00000  -0.00000   0.00000   0.00000
   D13        0.00000   0.00000   0.00000   0.00000  -0.00000   0.00000
   D14        3.14159   0.00000   0.00000   0.00000   0.00000   3.14159
   D15        3.14159  -0.00000   0.00000  -0.00000   0.00000   3.14159
   D16        0.00000   0.00000   0.00000   0.00000   0.00000   0.00000
   D17       -0.00000   0.00000   0.00000   0.00000   0.00000   0.00000
   D18        3.14159   0.00000   0.00000   0.00000   0.00000   3.14159
   D19        3.14159  -0.00000   0.00000  -0.00000   0.00000   3.14159
   D20        0.00000  -0.00000   0.00000  -0.00000   0.00000   0.00000
         Item               Value     Threshold  Converged?
 Maximum Force            0.003122     0.000450     NO 
 RMS     Force            0.001023     0.000300     NO 
 Maximum Displacement     0.011570     0.001800     NO 
 RMS     Displacement     0.002999     0.001200     NO 
 Predicted change in Energy=-5.362230D-05
 GradGradGradGradGradGradGradGradGradGradGradGradGradGradGradGradGradGrad

                          Input orientation:                          
 ---------------------------------------------------------------------
 Center     Atomic      Atomic             Coordinates (Angstroms)
 Number     Number       Type             X           Y           Z
 ---------------------------------------------------------------------
      1          6           0        0.004668    1.308940   -0.000000
      2          6           0        1.244577    0.710530   -0.000000
      3          6           0        1.233031   -0.702663    0.000000
      4          6           0        0.005037   -1.378700    0.000000
      5          6           0       -1.217666   -0.691844    0.000000
      6          6           0       -1.231401    0.717258    0.000000
      7         17           0        2.679495    1.593512   -0.000000
      8          1           0        2.177771   -1.263982    0.000000
      9          1           0        0.003383   -2.479333    0.000000
     10          1           0       -2.164481   -1.249849    0.000000
     11          1           0       -2.162839    1.296130   -0.000000
 ---------------------------------------------------------------------
                    Distance matrix (angstroms):
                    1          2          3          4          5
     1  C    0.000000
     2  C    1.376761   0.000000
     3  C    2.356995   1.413240   0.000000
     4  C    2.687640   2.429268   1.401783   0.000000
     5  C    2.344619   2.833601   2.450721   1.402417   0.000000
     6  C    1.370384   2.475987   2.844222   2.433478   1.409169
     7  Cl   2.689923   1.684829   2.713794   3.998346   4.517823
     8  H    3.367835   2.183930   1.098915   2.175761   3.443303
     9  H    3.788273   3.422834   2.160692   1.100634   2.164734
    10  H    3.354491   3.932527   3.441294   2.173341   1.099013
    11  H    2.167544   3.457370   3.940444   3.443022   2.201225
                    6          7          8          9         10
     6  C    0.000000
     7  Cl   4.007859   0.000000
     8  H    3.943066   2.901207   0.000000
     9  H    3.426789   4.873361   2.490993   0.000000
    10  H    2.177188   5.616833   4.342276   2.492241   0.000000
    11  H    1.096662   4.851457   5.039352   4.352773   2.545979
                   11
    11  H    0.000000
 Stoichiometry    C6H4Cl(2)
 Framework group  CS[SG(C6H4Cl)]
 Deg. of freedom    19
 Full point group                 CS      NOp   2
 Largest Abelian subgroup         CS      NOp   2
 Largest concise Abelian subgroup C1      NOp   1
                         Standard orientation:                         
 ---------------------------------------------------------------------
 Center     Atomic      Atomic             Coordinates (Angstroms)
 Number     Number       Type             X           Y           Z
 ---------------------------------------------------------------------
      1          6           0        1.169582   -0.158970    0.000000
      2          6           0        0.000000    0.567356    0.000000
      3          6           0       -1.187064   -0.199538   -0.000000
      4          6           0       -1.099964   -1.598612   -0.000000
      5          6           0        0.135079   -2.263023   -0.000000
      6          6           0        1.332233   -1.519667   -0.000000
      7         17           0       -0.023226    2.252025    0.000000
      8          1           0       -2.167185    0.297430   -0.000000
      9          1           0       -2.028413   -2.189694   -0.000000
     10          1           0        0.171194   -3.361442   -0.000000
     11          1           0        2.320048   -1.995998    0.000000
 ---------------------------------------------------------------------
 Rotational constants (GHZ):           6.0670921           1.5707193           1.2477002
 Standard basis: VSTO-6G (5D, 7F)
 There are    25 symmetry adapted cartesian basis functions of A'  symmetry.
 There are     7 symmetry adapted cartesian basis functions of A"  symmetry.
 There are    25 symmetry adapted basis functions of A'  symmetry.
 There are     7 symmetry adapted basis functions of A"  symmetry.
    32 basis functions,   192 primitive gaussians,    32 cartesian basis functions
    18 alpha electrons       17 beta electrons
       nuclear repulsion energy       152.7506963621 Hartrees.
 Integral buffers will be    131072 words long.
 Regular integral format.
 Two-electron integral symmetry is turned off.
 Do NDO integrals.
 One-electron integrals computed using PRISM.
 NBasis=    32 RedAO= T EigKep=  1.00D+00  NBF=    25     7
 NBsUse=    32 1.00D-06 EigRej= -1.00D+00 NBFU=    25     7
 Initial guess from the checkpoint file:  "calcs/am1/chks/ClPh_2_rad.chk"
 B after Tr=    -0.000000    0.000000    0.000000
         Rot=    0.999998    0.000000   -0.000000   -0.001854 Ang=  -0.21 deg.
 Initial guess orbital symmetries:
 Alpha Orbitals:
       Occupied  (A') (A') (A') (A') (A') (A') (A') (A') (A') (A')
                 (A") (A') (A') (A") (A') (A') (A") (A")
       Virtual   (A") (A") (A') (A") (A') (A') (A') (A') (A') (A')
                 (A') (A') (A') (A')
 Beta  Orbitals:
       Occupied  (A') (A') (A') (A') (A') (A') (A') (A') (A') (A')
                 (A") (A') (A') (A") (A') (A") (A")
       Virtual   (A') (A") (A") (A') (A") (A') (A') (A') (A') (A')
                 (A') (A') (A') (A') (A')
 Initial guess <Sx>= 0.0000 <Sy>= 0.0000 <Sz>= 0.5000 <S**2>= 1.1893 S= 0.6997
 Keep J ints in memory in canonical form, NReq=862079.
 Overlap will be assumed to be unity.
 Requested convergence on RMS density matrix=1.00D-08 within  32 cycles.
 Requested convergence on MAX density matrix=1.00D-06.
 Requested convergence on             energy=1.00D-06.
 No special actions if energy rises.
 Fock symm off for IB=2 I1=    1 I=   26 J=    7 Cut=1.00D-07 Err=2.22D-04
 Fock matrix is not symmetric: symmetry in diagonalization turned off.
 SCF Done:  E(UAM1) =  0.106848888450     A.U. after   15 cycles
            NFock= 14  Conv=0.37D-08     -V/T= 1.0016
 <Sx>= 0.0000 <Sy>= 0.0000 <Sz>= 0.5000 <S**2>= 1.2042 S= 0.7059
 <L.S>=  0.00000000000    
 Annihilation of the first spin contaminant:
 S**2 before annihilation     1.2042,   after     0.9251
 QCSCF skips out because SCF is already converged.
 Calling FoFJK, ICntrl=      2127 FMM=F ISym2X=1 I1Cent= 0 IOpClX= 1 NMat=1 NMatS=1 NMatT=0.
 ***** Axes restored to original set *****
 -------------------------------------------------------------------
 Center     Atomic                   Forces (Hartrees/Bohr)
 Number     Number              X              Y              Z
 -------------------------------------------------------------------
      1        6          -0.000179965   -0.000518047   -0.000000000
      2        6          -0.000919115   -0.000310369   -0.000000000
      3        6          -0.000420155    0.000316860   -0.000000000
      4        6           0.000548009    0.000299663   -0.000000000
      5        6          -0.000507811    0.000441907   -0.000000000
      6        6           0.001192179   -0.000370140    0.000000000
      7       17          -0.000167703   -0.000277384    0.000000000
      8        1           0.000044881    0.000202072    0.000000000
      9        1           0.000057774    0.000078710    0.000000000
     10        1           0.000205948    0.000310098    0.000000000
     11        1           0.000145958   -0.000173371    0.000000000
 -------------------------------------------------------------------
 Cartesian Forces:  Max     0.001192179 RMS     0.000359618

 GradGradGradGradGradGradGradGradGradGradGradGradGradGradGradGradGradGrad
 Berny optimization.
 Using GEDIIS/GDIIS optimizer.
 FormGI is forming the generalized inverse of G from B-inverse, IUseBI=4.
 Internal  Forces:  Max     0.001069835 RMS     0.000317909
 Search for a local minimum.
 Step number   4 out of a maximum of   57
 All quantities printed in internal units (Hartrees-Bohrs-Radians)
 Mixed Optimization -- En-DIIS/RFO-DIIS
 Update second derivatives using D2CorX and points    1    2    3    4
 DE= -4.43D-05 DEPred=-5.36D-05 R= 8.27D-01
 TightC=F SS=  1.41D+00  RLast= 1.68D-02 DXNew= 8.4853D-01 5.0435D-02
 Trust test= 8.27D-01 RLast= 1.68D-02 DXMaxT set to 5.05D-01
 ITU=  1  1  1  0
 Use linear search instead of GDIIS.
     Eigenvalues ---    0.02221   0.02221   0.02221   0.02221   0.02221
     Eigenvalues ---    0.02221   0.02221   0.02221   0.15079   0.16000
     Eigenvalues ---    0.16000   0.16078   0.18461   0.21932   0.22270
     Eigenvalues ---    0.24874   0.30143   0.35519   0.35994   0.36031
     Eigenvalues ---    0.36524   0.43102   0.45366   0.46849   0.47319
     Eigenvalues ---    0.52911   0.74691
 RFO step:  Lambda=-6.27736505D-06 EMin= 2.22103665D-02
 Quartic linear search produced a step of -0.14659.
 Iteration  1 RMS(Cart)=  0.00110134 RMS(Int)=  0.00000061
 Iteration  2 RMS(Cart)=  0.00000065 RMS(Int)=  0.00000015
 ClnCor:  largest displacement from symmetrization is 1.06D-10 for atom     9.
 Variable       Old X    -DE/DX   Delta X   Delta X   Delta X     New X
                                 (Linear)    (Quad)   (Total)
    R1        2.60170  -0.00091  -0.00085  -0.00045  -0.00130   2.60040
    R2        2.58965  -0.00107  -0.00067  -0.00091  -0.00158   2.58807
    R3        2.67064  -0.00085  -0.00097  -0.00028  -0.00125   2.66938
    R4        3.18387  -0.00029   0.00011  -0.00058  -0.00047   3.18340
    R5        2.64899  -0.00067  -0.00019  -0.00061  -0.00080   2.64819
    R6        2.07665  -0.00006   0.00039  -0.00061  -0.00022   2.07643
    R7        2.65018   0.00000  -0.00031   0.00082   0.00051   2.65070
    R8        2.07990  -0.00008  -0.00002  -0.00012  -0.00014   2.07976
    R9        2.66294  -0.00080  -0.00085  -0.00023  -0.00108   2.66187
   R10        2.07683  -0.00033   0.00029  -0.00113  -0.00084   2.07599
   R11        2.07239  -0.00022   0.00072  -0.00140  -0.00068   2.07171
    A1        2.24549  -0.00018  -0.00014  -0.00108  -0.00122   2.24427
    A2        2.01228   0.00029   0.00077   0.00013   0.00090   2.01317
    A3        2.14031   0.00009  -0.00069   0.00111   0.00042   2.14073
    A4        2.13060  -0.00038  -0.00008  -0.00124  -0.00132   2.12928
    A5        2.08221  -0.00004  -0.00061   0.00074   0.00013   2.08234
    A6        2.09873  -0.00019   0.00052  -0.00177  -0.00125   2.09749
    A7        2.10224   0.00022   0.00009   0.00103   0.00112   2.10336
    A8        2.12653  -0.00019  -0.00013  -0.00040  -0.00052   2.12601
    A9        2.07554   0.00003   0.00013  -0.00022  -0.00009   2.07545
   A10        2.08111   0.00015  -0.00000   0.00061   0.00061   2.08173
   A11        2.09236  -0.00021   0.00040  -0.00114  -0.00074   2.09162
   A12        2.09722   0.00027  -0.00028   0.00163   0.00135   2.09857
   A13        2.09360  -0.00006  -0.00011  -0.00049  -0.00061   2.09299
   A14        2.00750   0.00033  -0.00029   0.00175   0.00146   2.00896
   A15        2.13908  -0.00009  -0.00014  -0.00016  -0.00030   2.13878
   A16        2.13661  -0.00024   0.00043  -0.00159  -0.00116   2.13545
    D1       -0.00000   0.00000   0.00000   0.00000   0.00000   0.00000
    D2        3.14159   0.00000   0.00000   0.00000   0.00000   3.14159
    D3        0.00000  -0.00000   0.00000  -0.00000   0.00000   0.00000
    D4        3.14159  -0.00000   0.00000  -0.00000   0.00000   3.14159
    D5       -0.00000   0.00000   0.00000   0.00000   0.00000   0.00000
    D6        3.14159   0.00000   0.00000   0.00000   0.00000   3.14159
    D7        3.14159  -0.00000   0.00000  -0.00000   0.00000   3.14159
    D8       -0.00000   0.00000   0.00000   0.00000   0.00000   0.00000
    D9        0.00000  -0.00000   0.00000  -0.00000   0.00000   0.00000
   D10        3.14159   0.00000   0.00000   0.00000   0.00000   3.14159
   D11        3.14159  -0.00000   0.00000  -0.00000   0.00000   3.14159
   D12       -0.00000  -0.00000   0.00000  -0.00000   0.00000   0.00000
   D13       -0.00000   0.00000   0.00000   0.00000   0.00000   0.00000
   D14        3.14159   0.00000   0.00000   0.00000   0.00000   3.14159
   D15        3.14159  -0.00000   0.00000  -0.00000   0.00000   3.14159
   D16        0.00000   0.00000   0.00000   0.00000   0.00000   0.00000
   D17       -0.00000   0.00000   0.00000   0.00000   0.00000   0.00000
   D18        3.14159   0.00000   0.00000   0.00000   0.00000   3.14159
   D19        3.14159  -0.00000   0.00000  -0.00000   0.00000   3.14159
   D20        0.00000  -0.00000   0.00000  -0.00000   0.00000   0.00000
         Item               Value     Threshold  Converged?
 Maximum Force            0.001070     0.000450     NO 
 RMS     Force            0.000318     0.000300     NO 
 Maximum Displacement     0.003634     0.001800     NO 
 RMS     Displacement     0.001101     0.001200     YES
 Predicted change in Energy=-4.482273D-06
 GradGradGradGradGradGradGradGradGradGradGradGradGradGradGradGradGradGrad

                          Input orientation:                          
 ---------------------------------------------------------------------
 Center     Atomic      Atomic             Coordinates (Angstroms)
 Number     Number       Type             X           Y           Z
 ---------------------------------------------------------------------
      1          6           0        0.004451    1.308942   -0.000000
      2          6           0        1.243432    0.710193   -0.000000
      3          6           0        1.232432   -0.702341    0.000000
      4          6           0        0.005152   -1.378800    0.000000
      5          6           0       -1.217777   -0.691794    0.000000
      6          6           0       -1.230442    0.716747    0.000000
      7         17           0        2.678962    1.591705   -0.000000
      8          1           0        2.177985   -1.262059    0.000000
      9          1           0        0.004157   -2.479360    0.000000
     10          1           0       -2.164969   -1.248283    0.000000
     11          1           0       -2.161808    1.295050   -0.000000
 ---------------------------------------------------------------------
                    Distance matrix (angstroms):
                    1          2          3          4          5
     1  C    0.000000
     2  C    1.376071   0.000000
     3  C    2.356522   1.412578   0.000000
     4  C    2.687742   2.428421   1.401360   0.000000
     5  C    2.344523   2.832511   2.450232   1.402688   0.000000
     6  C    1.369546   2.473882   2.842456   2.432696   1.408599
     7  Cl   2.689417   1.684580   2.712029   3.996643   4.516520
     8  H    3.366645   2.182468   1.098797   2.175967   3.443313
     9  H    3.788302   3.421849   2.160198   1.100561   2.165298
    10  H    3.353473   3.931008   3.440985   2.174042   1.098568
    11  H    2.166304   3.455100   3.938329   3.441684   2.199714
                    6          7          8          9         10
     6  C    0.000000
     7  Cl   4.006119   0.000000
     8  H    3.941199   2.897403   0.000000
     9  H    3.426271   4.871155   2.491456   0.000000
    10  H    2.175933   5.615087   4.342976   2.494124   0.000000
    11  H    1.096301   4.849852   5.037123   4.351732   2.543335
                   11
    11  H    0.000000
 Stoichiometry    C6H4Cl(2)
 Framework group  CS[SG(C6H4Cl)]
 Deg. of freedom    19
 Full point group                 CS      NOp   2
 Largest Abelian subgroup         CS      NOp   2
 Largest concise Abelian subgroup C1      NOp   1
                         Standard orientation:                         
 ---------------------------------------------------------------------
 Center     Atomic      Atomic             Coordinates (Angstroms)
 Number     Number       Type             X           Y           Z
 ---------------------------------------------------------------------
      1          6           0        1.170231   -0.157262   -0.000000
      2          6           0        0.000000    0.566708   -0.000000
      3          6           0       -1.185890   -0.200782    0.000000
      4          6           0       -1.097867   -1.599374    0.000000
      5          6           0        0.138212   -2.262429    0.000000
      6          6           0        1.333435   -1.517049    0.000000
      7         17           0       -0.026796    2.251075   -0.000000
      8          1           0       -2.165685    0.296568    0.000000
      9          1           0       -2.025906   -2.190964    0.000000
     10          1           0        0.177112   -3.360308    0.000000
     11          1           0        2.321296   -1.992452   -0.000000
 ---------------------------------------------------------------------
 Rotational constants (GHZ):           6.0709751           1.5719128           1.2486175
 Standard basis: VSTO-6G (5D, 7F)
 There are    25 symmetry adapted cartesian basis functions of A'  symmetry.
 There are     7 symmetry adapted cartesian basis functions of A"  symmetry.
 There are    25 symmetry adapted basis functions of A'  symmetry.
 There are     7 symmetry adapted basis functions of A"  symmetry.
    32 basis functions,   192 primitive gaussians,    32 cartesian basis functions
    18 alpha electrons       17 beta electrons
       nuclear repulsion energy       152.7806727332 Hartrees.
 Integral buffers will be    131072 words long.
 Regular integral format.
 Two-electron integral symmetry is turned off.
 Do NDO integrals.
 One-electron integrals computed using PRISM.
 NBasis=    32 RedAO= T EigKep=  1.00D+00  NBF=    25     7
 NBsUse=    32 1.00D-06 EigRej= -1.00D+00 NBFU=    25     7
 Initial guess from the checkpoint file:  "calcs/am1/chks/ClPh_2_rad.chk"
 B after Tr=     0.000000   -0.000000   -0.000000
         Rot=    1.000000    0.000000   -0.000000   -0.000690 Ang=  -0.08 deg.
 Initial guess orbital symmetries:
 Alpha Orbitals:
       Occupied  (A') (A') (A') (A') (A') (A') (A') (A') (A') (A')
                 (A") (A') (A') (A") (A') (A') (A") (A")
       Virtual   (A") (A") (A') (A") (A') (A') (A') (A') (A') (A')
                 (A') (A') (A') (A')
 Beta  Orbitals:
       Occupied  (A') (A') (A') (A') (A') (A') (A') (A') (A') (A')
                 (A") (A') (A') (A") (A') (A") (A")
       Virtual   (A') (A") (A") (A') (A") (A') (A') (A') (A') (A')
                 (A') (A') (A') (A') (A')
 Initial guess <Sx>= 0.0000 <Sy>= 0.0000 <Sz>= 0.5000 <S**2>= 1.2042 S= 0.7059
 Keep J ints in memory in canonical form, NReq=862079.
 Overlap will be assumed to be unity.
 Requested convergence on RMS density matrix=1.00D-08 within  32 cycles.
 Requested convergence on MAX density matrix=1.00D-06.
 Requested convergence on             energy=1.00D-06.
 No special actions if energy rises.
 Fock symm off for IB=2 I1=    1 I=   26 J=   10 Cut=1.00D-07 Err=6.19D-05
 Fock matrix is not symmetric: symmetry in diagonalization turned off.
 SCF Done:  E(UAM1) =  0.106844175705     A.U. after   13 cycles
            NFock= 12  Conv=0.52D-08     -V/T= 1.0016
 <Sx>= 0.0000 <Sy>= 0.0000 <Sz>= 0.5000 <S**2>= 1.2012 S= 0.7047
 <L.S>=  0.00000000000    
 Annihilation of the first spin contaminant:
 S**2 before annihilation     1.2012,   after     0.9226
 QCSCF skips out because SCF is already converged.
 Calling FoFJK, ICntrl=      2127 FMM=F ISym2X=1 I1Cent= 0 IOpClX= 1 NMat=1 NMatS=1 NMatT=0.
 ***** Axes restored to original set *****
 -------------------------------------------------------------------
 Center     Atomic                   Forces (Hartrees/Bohr)
 Number     Number              X              Y              Z
 -------------------------------------------------------------------
      1        6           0.000022485    0.000040090   -0.000000000
      2        6          -0.000094020    0.000112871   -0.000000000
      3        6          -0.000182727   -0.000151171   -0.000000000
      4        6           0.000063158    0.000077966   -0.000000000
      5        6          -0.000013315   -0.000022091   -0.000000000
      6        6           0.000170046   -0.000169247   -0.000000000
      7       17           0.000082013   -0.000019691    0.000000000
      8        1           0.000085921    0.000005673    0.000000000
      9        1          -0.000010177    0.000035642    0.000000000
     10        1           0.000026596    0.000043597    0.000000000
     11        1          -0.000149979    0.000046361    0.000000000
 -------------------------------------------------------------------
 Cartesian Forces:  Max     0.000182727 RMS     0.000076154

 GradGradGradGradGradGradGradGradGradGradGradGradGradGradGradGradGradGrad
 Berny optimization.
 Using GEDIIS/GDIIS optimizer.
 FormGI is forming the generalized inverse of G from B-inverse, IUseBI=4.
 Internal  Forces:  Max     0.000151871 RMS     0.000047119
 Search for a local minimum.
 Step number   5 out of a maximum of   57
 All quantities printed in internal units (Hartrees-Bohrs-Radians)
 Mixed Optimization -- En-DIIS/RFO-DIIS
 Swapping is turned off.
 Update second derivatives using D2CorX and points    1    2    3    4    5
 DE= -4.71D-06 DEPred=-4.48D-06 R= 1.05D+00
 TightC=F SS=  1.41D+00  RLast= 4.83D-03 DXNew= 8.4853D-01 1.4490D-02
 Trust test= 1.05D+00 RLast= 4.83D-03 DXMaxT set to 5.05D-01
 ITU=  1  1  1  1  0
     Eigenvalues ---    0.02221   0.02221   0.02221   0.02221   0.02221
     Eigenvalues ---    0.02221   0.02221   0.02221   0.14269   0.15961
     Eigenvalues ---    0.16000   0.16110   0.18219   0.21034   0.22156
     Eigenvalues ---    0.24258   0.30534   0.35652   0.35994   0.36135
     Eigenvalues ---    0.38157   0.43246   0.45331   0.46537   0.47356
     Eigenvalues ---    0.55376   0.74380
 En-DIIS/RFO-DIIS/Sim-DIIS IScMMF=       -3 using points:     5    4
 RFO step:  Lambda=-3.77731831D-07.
 DidBck=F Rises=F RFO-DIIS coefs:    1.15230   -0.15230
 Iteration  1 RMS(Cart)=  0.00028783 RMS(Int)=  0.00000007
 Iteration  2 RMS(Cart)=  0.00000008 RMS(Int)=  0.00000001
 ClnCor:  largest displacement from symmetrization is 1.35D-13 for atom     2.
 Variable       Old X    -DE/DX   Delta X   Delta X   Delta X     New X
                                 (Linear)    (Quad)   (Total)
    R1        2.60040  -0.00001  -0.00020   0.00016  -0.00004   2.60036
    R2        2.58807   0.00004  -0.00024   0.00029   0.00005   2.58812
    R3        2.66938   0.00008  -0.00019   0.00035   0.00016   2.66954
    R4        3.18340   0.00006  -0.00007   0.00027   0.00019   3.18359
    R5        2.64819  -0.00012  -0.00012  -0.00015  -0.00027   2.64791
    R6        2.07643   0.00007  -0.00003   0.00023   0.00020   2.07662
    R7        2.65070  -0.00006   0.00008  -0.00017  -0.00009   2.65061
    R8        2.07976  -0.00004  -0.00002  -0.00008  -0.00010   2.07966
    R9        2.66187  -0.00007  -0.00016  -0.00001  -0.00017   2.66169
   R10        2.07599  -0.00005  -0.00013  -0.00004  -0.00017   2.07582
   R11        2.07171   0.00015  -0.00010   0.00051   0.00041   2.07212
    A1        2.24427  -0.00008  -0.00019  -0.00016  -0.00035   2.24393
    A2        2.01317  -0.00000   0.00014  -0.00009   0.00005   2.01322
    A3        2.14073   0.00010   0.00006   0.00036   0.00043   2.14115
    A4        2.12928  -0.00009  -0.00020  -0.00027  -0.00047   2.12881
    A5        2.08234   0.00002   0.00002   0.00008   0.00010   2.08244
    A6        2.09749  -0.00006  -0.00019  -0.00026  -0.00045   2.09704
    A7        2.10336   0.00004   0.00017   0.00018   0.00035   2.10371
    A8        2.12601   0.00001  -0.00008   0.00005  -0.00003   2.12598
    A9        2.07545   0.00001  -0.00001   0.00008   0.00006   2.07552
   A10        2.08173  -0.00002   0.00009  -0.00013  -0.00004   2.08169
   A11        2.09162   0.00000  -0.00011   0.00003  -0.00008   2.09154
   A12        2.09857   0.00002   0.00021   0.00005   0.00026   2.09883
   A13        2.09299  -0.00003  -0.00009  -0.00008  -0.00018   2.09282
   A14        2.00896   0.00005   0.00022   0.00009   0.00031   2.00927
   A15        2.13878   0.00002  -0.00005   0.00019   0.00014   2.13892
   A16        2.13545  -0.00007  -0.00018  -0.00028  -0.00045   2.13499
    D1       -0.00000  -0.00000   0.00000  -0.00000   0.00000   0.00000
    D2        3.14159   0.00000   0.00000   0.00000   0.00000   3.14159
    D3       -0.00000  -0.00000   0.00000  -0.00000   0.00000   0.00000
    D4        3.14159  -0.00000   0.00000  -0.00000   0.00000   3.14159
    D5        0.00000   0.00000   0.00000   0.00000   0.00000   0.00000
    D6        3.14159   0.00000   0.00000   0.00000   0.00000   3.14159
    D7        3.14159  -0.00000   0.00000  -0.00000   0.00000   3.14159
    D8       -0.00000   0.00000   0.00000   0.00000   0.00000   0.00000
    D9       -0.00000  -0.00000   0.00000  -0.00000   0.00000   0.00000
   D10        3.14159   0.00000   0.00000   0.00000   0.00000   3.14159
   D11        3.14159  -0.00000   0.00000  -0.00000   0.00000   3.14159
   D12        0.00000  -0.00000   0.00000  -0.00000   0.00000   0.00000
   D13        0.00000   0.00000   0.00000   0.00000  -0.00000   0.00000
   D14        3.14159   0.00000   0.00000   0.00000   0.00000   3.14159
   D15        3.14159  -0.00000   0.00000  -0.00000   0.00000   3.14159
   D16       -0.00000   0.00000   0.00000   0.00000   0.00000   0.00000
   D17        0.00000   0.00000   0.00000   0.00000   0.00000   0.00000
   D18        3.14159   0.00000   0.00000   0.00000   0.00000   3.14159
   D19        3.14159  -0.00000   0.00000  -0.00000   0.00000   3.14159
   D20        0.00000   0.00000   0.00000   0.00000   0.00000   0.00000
         Item               Value     Threshold  Converged?
 Maximum Force            0.000152     0.000450     YES
 RMS     Force            0.000047     0.000300     YES
 Maximum Displacement     0.001039     0.001800     YES
 RMS     Displacement     0.000288     0.001200     YES
 Predicted change in Energy=-1.888657D-07
 Optimization completed.
    -- Stationary point found.
                           ----------------------------
                           !   Optimized Parameters   !
                           ! (Angstroms and Degrees)  !
 --------------------------                            --------------------------
 ! Name  Definition              Value          Derivative Info.                !
 --------------------------------------------------------------------------------
 ! R1    R(1,2)                  1.3761         -DE/DX =    0.0                 !
 ! R2    R(1,6)                  1.3695         -DE/DX =    0.0                 !
 ! R3    R(2,3)                  1.4126         -DE/DX =    0.0001              !
 ! R4    R(2,7)                  1.6846         -DE/DX =    0.0001              !
 ! R5    R(3,4)                  1.4014         -DE/DX =   -0.0001              !
 ! R6    R(3,8)                  1.0988         -DE/DX =    0.0001              !
 ! R7    R(4,5)                  1.4027         -DE/DX =   -0.0001              !
 ! R8    R(4,9)                  1.1006         -DE/DX =    0.0                 !
 ! R9    R(5,6)                  1.4086         -DE/DX =   -0.0001              !
 ! R10   R(5,10)                 1.0986         -DE/DX =    0.0                 !
 ! R11   R(6,11)                 1.0963         -DE/DX =    0.0002              !
 ! A1    A(2,1,6)              128.5873         -DE/DX =   -0.0001              !
 ! A2    A(1,2,3)              115.3464         -DE/DX =    0.0                 !
 ! A3    A(1,2,7)              122.6547         -DE/DX =    0.0001              !
 ! A4    A(3,2,7)              121.9989         -DE/DX =   -0.0001              !
 ! A5    A(2,3,4)              119.3091         -DE/DX =    0.0                 !
 ! A6    A(2,3,8)              120.1771         -DE/DX =   -0.0001              !
 ! A7    A(4,3,8)              120.5138         -DE/DX =    0.0                 !
 ! A8    A(3,4,5)              121.8111         -DE/DX =    0.0                 !
 ! A9    A(3,4,9)              118.9147         -DE/DX =    0.0                 !
 ! A10   A(5,4,9)              119.2742         -DE/DX =    0.0                 !
 ! A11   A(4,5,6)              119.8411         -DE/DX =    0.0                 !
 ! A12   A(4,5,10)             120.2392         -DE/DX =    0.0                 !
 ! A13   A(6,5,10)             119.9197         -DE/DX =    0.0                 !
 ! A14   A(1,6,5)              115.105          -DE/DX =    0.0001              !
 ! A15   A(1,6,11)             122.543          -DE/DX =    0.0                 !
 ! A16   A(5,6,11)             122.352          -DE/DX =   -0.0001              !
 ! D1    D(6,1,2,3)              0.0            -DE/DX =    0.0                 !
 ! D2    D(6,1,2,7)            180.0            -DE/DX =    0.0                 !
 ! D3    D(2,1,6,5)              0.0            -DE/DX =    0.0                 !
 ! D4    D(2,1,6,11)           180.0            -DE/DX =    0.0                 !
 ! D5    D(1,2,3,4)              0.0            -DE/DX =    0.0                 !
 ! D6    D(1,2,3,8)            180.0            -DE/DX =    0.0                 !
 ! D7    D(7,2,3,4)            180.0            -DE/DX =    0.0                 !
 ! D8    D(7,2,3,8)              0.0            -DE/DX =    0.0                 !
 ! D9    D(2,3,4,5)              0.0            -DE/DX =    0.0                 !
 ! D10   D(2,3,4,9)            180.0            -DE/DX =    0.0                 !
 ! D11   D(8,3,4,5)            180.0            -DE/DX =    0.0                 !
 ! D12   D(8,3,4,9)              0.0            -DE/DX =    0.0                 !
 ! D13   D(3,4,5,6)              0.0            -DE/DX =    0.0                 !
 ! D14   D(3,4,5,10)           180.0            -DE/DX =    0.0                 !
 ! D15   D(9,4,5,6)            180.0            -DE/DX =    0.0                 !
 ! D16   D(9,4,5,10)             0.0            -DE/DX =    0.0                 !
 ! D17   D(4,5,6,1)              0.0            -DE/DX =    0.0                 !
 ! D18   D(4,5,6,11)           180.0            -DE/DX =    0.0                 !
 ! D19   D(10,5,6,1)           180.0            -DE/DX =    0.0                 !
 ! D20   D(10,5,6,11)            0.0            -DE/DX =    0.0                 !
 --------------------------------------------------------------------------------
 GradGradGradGradGradGradGradGradGradGradGradGradGradGradGradGradGradGrad

                          Input orientation:                          
 ---------------------------------------------------------------------
 Center     Atomic      Atomic             Coordinates (Angstroms)
 Number     Number       Type             X           Y           Z
 ---------------------------------------------------------------------
      1          6           0        0.004451    1.308942   -0.000000
      2          6           0        1.243432    0.710193   -0.000000
      3          6           0        1.232432   -0.702341    0.000000
      4          6           0        0.005152   -1.378800    0.000000
      5          6           0       -1.217777   -0.691794    0.000000
      6          6           0       -1.230442    0.716747    0.000000
      7         17           0        2.678962    1.591705   -0.000000
      8          1           0        2.177985   -1.262059    0.000000
      9          1           0        0.004157   -2.479360    0.000000
     10          1           0       -2.164969   -1.248283    0.000000
     11          1           0       -2.161808    1.295050   -0.000000
 ---------------------------------------------------------------------
                    Distance matrix (angstroms):
                    1          2          3          4          5
     1  C    0.000000
     2  C    1.376071   0.000000
     3  C    2.356522   1.412578   0.000000
     4  C    2.687742   2.428421   1.401360   0.000000
     5  C    2.344523   2.832511   2.450232   1.402688   0.000000
     6  C    1.369546   2.473882   2.842456   2.432696   1.408599
     7  Cl   2.689417   1.684580   2.712029   3.996643   4.516520
     8  H    3.366645   2.182468   1.098797   2.175967   3.443313
     9  H    3.788302   3.421849   2.160198   1.100561   2.165298
    10  H    3.353473   3.931008   3.440985   2.174042   1.098568
    11  H    2.166304   3.455100   3.938329   3.441684   2.199714
                    6          7          8          9         10
     6  C    0.000000
     7  Cl   4.006119   0.000000
     8  H    3.941199   2.897403   0.000000
     9  H    3.426271   4.871155   2.491456   0.000000
    10  H    2.175933   5.615087   4.342976   2.494124   0.000000
    11  H    1.096301   4.849852   5.037123   4.351732   2.543335
                   11
    11  H    0.000000
 Stoichiometry    C6H4Cl(2)
 Framework group  CS[SG(C6H4Cl)]
 Deg. of freedom    19
 Full point group                 CS      NOp   2
 Largest Abelian subgroup         CS      NOp   2
 Largest concise Abelian subgroup C1      NOp   1
                         Standard orientation:                         
 ---------------------------------------------------------------------
 Center     Atomic      Atomic             Coordinates (Angstroms)
 Number     Number       Type             X           Y           Z
 ---------------------------------------------------------------------
      1          6           0        1.170231   -0.157262    0.000000
      2          6           0        0.000000    0.566708    0.000000
      3          6           0       -1.185890   -0.200782   -0.000000
      4          6           0       -1.097867   -1.599374   -0.000000
      5          6           0        0.138212   -2.262429    0.000000
      6          6           0        1.333435   -1.517049    0.000000
      7         17           0       -0.026796    2.251075   -0.000000
      8          1           0       -2.165685    0.296568   -0.000000
      9          1           0       -2.025906   -2.190964   -0.000000
     10          1           0        0.177112   -3.360308    0.000000
     11          1           0        2.321296   -1.992452    0.000000
 ---------------------------------------------------------------------
 Rotational constants (GHZ):           6.0709751           1.5719128           1.2486175

 **********************************************************************

            Population analysis using the SCF Density.

 **********************************************************************

 Orbital symmetries:
 Alpha Orbitals:
       Occupied  (A') (A') (A') (A') (A') (A') (A') (A') (A') (A')
                 (A") (A') (A') (A") (A') (A') (A") (A")
       Virtual   (A") (A") (A') (A") (A') (A') (A') (A') (A') (A')
                 (A') (A') (A') (A')
 Beta  Orbitals:
       Occupied  (A') (A') (A') (A') (A') (A') (A') (A') (A') (A')
                 (A") (A') (A') (A") (A') (A") (A")
       Virtual   (A') (A") (A") (A') (A") (A') (A') (A') (A') (A')
                 (A') (A') (A') (A') (A')
 The electronic state is 2-A'.
 Alpha  occ. eigenvalues --   -1.45866  -1.38501  -1.16908  -1.14489  -0.87361
 Alpha  occ. eigenvalues --   -0.84812  -0.67042  -0.60580  -0.59728  -0.55524
 Alpha  occ. eigenvalues --   -0.53517  -0.50793  -0.47228  -0.46042  -0.44255
 Alpha  occ. eigenvalues --   -0.38884  -0.38423  -0.36533
 Alpha virt. eigenvalues --    0.00446   0.01192   0.05303   0.08976   0.12868
 Alpha virt. eigenvalues --    0.13630   0.13920   0.14686   0.15435   0.16805
 Alpha virt. eigenvalues --    0.17927   0.18674   0.19017   0.19983
  Beta  occ. eigenvalues --   -1.45157  -1.38450  -1.16588  -1.12950  -0.86967
  Beta  occ. eigenvalues --   -0.82619  -0.66950  -0.59558  -0.58477  -0.55286
  Beta  occ. eigenvalues --   -0.53613  -0.49650  -0.46856  -0.46346  -0.43593
  Beta  occ. eigenvalues --   -0.37647  -0.36030
  Beta virt. eigenvalues --    0.00331   0.00559   0.02713   0.04686   0.09772
  Beta virt. eigenvalues --    0.13308   0.13669   0.14592   0.15289   0.16003
  Beta virt. eigenvalues --    0.17023   0.18164   0.19088   0.20168   0.20693
          Condensed to atoms (all electrons):
               1          2          3          4          5          6
     1  C    4.058603   0.000000   0.000000   0.000000   0.000000   0.000000
     2  C    0.000000   4.062929   0.000000   0.000000   0.000000   0.000000
     3  C    0.000000   0.000000   4.118537   0.000000   0.000000   0.000000
     4  C    0.000000   0.000000   0.000000   4.137323   0.000000   0.000000
     5  C    0.000000   0.000000   0.000000   0.000000   4.122656   0.000000
     6  C    0.000000   0.000000   0.000000   0.000000   0.000000   4.115298
     7  Cl   0.000000   0.000000   0.000000   0.000000   0.000000   0.000000
     8  H    0.000000   0.000000   0.000000   0.000000   0.000000   0.000000
     9  H    0.000000   0.000000   0.000000   0.000000   0.000000   0.000000
    10  H    0.000000   0.000000   0.000000   0.000000   0.000000   0.000000
    11  H    0.000000   0.000000   0.000000   0.000000   0.000000   0.000000
               7          8          9         10         11
     1  C    0.000000   0.000000   0.000000   0.000000   0.000000
     2  C    0.000000   0.000000   0.000000   0.000000   0.000000
     3  C    0.000000   0.000000   0.000000   0.000000   0.000000
     4  C    0.000000   0.000000   0.000000   0.000000   0.000000
     5  C    0.000000   0.000000   0.000000   0.000000   0.000000
     6  C    0.000000   0.000000   0.000000   0.000000   0.000000
     7  Cl   6.977439   0.000000   0.000000   0.000000   0.000000
     8  H    0.000000   0.849034   0.000000   0.000000   0.000000
     9  H    0.000000   0.000000   0.860132   0.000000   0.000000
    10  H    0.000000   0.000000   0.000000   0.858400   0.000000
    11  H    0.000000   0.000000   0.000000   0.000000   0.839648
          Atomic-Atomic Spin Densities.
               1          2          3          4          5          6
     1  C    1.376594   0.000000   0.000000   0.000000   0.000000   0.000000
     2  C    0.000000  -0.457209   0.000000   0.000000   0.000000   0.000000
     3  C    0.000000   0.000000   0.476208   0.000000   0.000000   0.000000
     4  C    0.000000   0.000000   0.000000  -0.436761   0.000000   0.000000
     5  C    0.000000   0.000000   0.000000   0.000000   0.484841   0.000000
     6  C    0.000000   0.000000   0.000000   0.000000   0.000000  -0.465704
     7  Cl   0.000000   0.000000   0.000000   0.000000   0.000000   0.000000
     8  H    0.000000   0.000000   0.000000   0.000000   0.000000   0.000000
     9  H    0.000000   0.000000   0.000000   0.000000   0.000000   0.000000
    10  H    0.000000   0.000000   0.000000   0.000000   0.000000   0.000000
    11  H    0.000000   0.000000   0.000000   0.000000   0.000000   0.000000
               7          8          9         10         11
     1  C    0.000000   0.000000   0.000000   0.000000   0.000000
     2  C    0.000000   0.000000   0.000000   0.000000   0.000000
     3  C    0.000000   0.000000   0.000000   0.000000   0.000000
     4  C    0.000000   0.000000   0.000000   0.000000   0.000000
     5  C    0.000000   0.000000   0.000000   0.000000   0.000000
     6  C    0.000000   0.000000   0.000000   0.000000   0.000000
     7  Cl   0.002079   0.000000   0.000000   0.000000   0.000000
     8  H    0.000000  -0.018579   0.000000   0.000000   0.000000
     9  H    0.000000   0.000000   0.026170   0.000000   0.000000
    10  H    0.000000   0.000000   0.000000  -0.019465   0.000000
    11  H    0.000000   0.000000   0.000000   0.000000   0.031826
 Mulliken charges and spin densities:
               1          2
     1  C   -0.058603   1.376594
     2  C   -0.062929  -0.457209
     3  C   -0.118537   0.476208
     4  C   -0.137323  -0.436761
     5  C   -0.122656   0.484841
     6  C   -0.115298  -0.465704
     7  Cl   0.022561   0.002079
     8  H    0.150966  -0.018579
     9  H    0.139868   0.026170
    10  H    0.141600  -0.019465
    11  H    0.160352   0.031826
 Sum of Mulliken charges =   0.00000   1.00000
 Mulliken charges and spin densities with hydrogens summed into heavy atoms:
               1          2
     1  C   -0.058603   1.376594
     2  C   -0.062929  -0.457209
     3  C    0.032428   0.457629
     4  C    0.002546  -0.410591
     5  C    0.018944   0.465376
     6  C    0.045054  -0.433877
     7  Cl   0.022561   0.002079
 Charge=              0.0000 electrons
 Dipole moment (field-independent basis, Debye):
    X=             -0.8491    Y=             -1.6369    Z=              0.0000  Tot=              1.8441
 N-N= 1.527806727332D+02 E-N=-2.113679370341D+02  KE=-6.874752011167D+01
 Symmetry A'   KE=-5.394553896807D+01
 Symmetry A"   KE=-1.480198114360D+01
 Symmetry A'   SP= 1.000000000000D+00
 Symmetry A"   SP= 4.052314039882D-15
 1\1\GINC-SH02-01N26\FOpt\UAM1\ZDO\C6H4Cl1(2)\JLAPIER\28-Sep-2026\0\\# 
 Opt AM1 SCF=XQC\\ClPh_2_rad am1\\0,2\C,0.0044514522,1.3089420975,0.\C,
 1.2434318605,0.7101932445,0.\C,1.2324316538,-0.7023414617,0.\C,0.00515
 23424,-1.3787995205,0.\C,-1.2177773026,-0.6917944264,0.\C,-1.230441596
 2,0.7167473167,0.\Cl,2.6789623314,1.5917050142,0.\H,2.1779852654,-1.26
 20588701,0.\H,0.0041570671,-2.4793600644,0.\H,-2.1649685095,-1.2482831
 465,0.\H,-2.1618078045,1.2950498168,0.\\Version=ES64L-G16RevB.01\State
 =2-A'\HF=0.1068442\S2=1.201186\S2-1=0.\S2A=0.922571\RMSD=5.222e-09\RMS
 F=7.615e-05\Dipole=-0.3640657,-0.6275486,0.\PG=CS [SG(C6H4Cl1)]\\@


 A CHEMICAL PHYSICIST MAKES PRECISE MEASUREMENTS ON IMPURE COMPOUNDS.
 A THEORETICAL PHYSICAL CHEMIST MAKES IMPRECISE
     MEASUREMENTS ON PURE COMPOUNDS.
 AN EXPERIMENTAL PHYSICAL CHEMIST MAKES IMPRECISE
     MEASUREMENTS ON IMPURE COMPOUNDS.
 Job cpu time:       0 days  0 hours  0 minutes  3.7 seconds.
 Elapsed time:       0 days  0 hours  0 minutes  3.6 seconds.
 File lengths (MBytes):  RWF=      6 Int=      0 D2E=      0 Chk=      3 Scr=      1
 Normal termination of Gaussian 16 at Mon Sep 28 01:22:30 2026.
