 Entering Gaussian System, Link 0=g16
 Initial command:
 /share/software/user/restricted/gaussian/g16.B01/l1.exe "/lscratch/jlapier/g16_45667582_21/Gau-27930.inp" -scrdir="/lscratch/jlapier/g16_45667582_21/"
 Entering Link 1 = /share/software/user/restricted/gaussian/g16.B01/l1.exe PID=     27937.
  
 Copyright (c) 1988-2017, Gaussian, Inc.  All Rights Reserved.
  
 This is part of the Gaussian(R) 16 program.  It is based on
 the Gaussian(R) 09 system (copyright 2009, Gaussian, Inc.),
 the Gaussian(R) 03 system (copyright 2003, Gaussian, Inc.),
 the Gaussian(R) 98 system (copyright 1998, Gaussian, Inc.),
 the Gaussian(R) 94 system (copyright 1995, Gaussian, Inc.),
 the Gaussian 92(TM) system (copyright 1992, Gaussian, Inc.),
 the Gaussian 90(TM) system (copyright 1990, Gaussian, Inc.),
 the Gaussian 88(TM) system (copyright 1988, Gaussian, Inc.),
 the Gaussian 86(TM) system (copyright 1986, Carnegie Mellon
 University), and the Gaussian 82(TM) system (copyright 1983,
 Carnegie Mellon University). Gaussian is a federally registered
 trademark of Gaussian, Inc.
  
 This software contains proprietary and confidential information,
 including trade secrets, belonging to Gaussian, Inc.
  
 This software is provided under written license and may be
 used, copied, transmitted, or stored only in accord with that
 written license.
  
 The following legend is applicable only to US Government
 contracts under FAR:
  
                    RESTRICTED RIGHTS LEGEND
  
 Use, reproduction and disclosure by the US Government is
 subject to restrictions as set forth in subparagraphs (a)
 and (c) of the Commercial Computer Software - Restricted
 Rights clause in FAR 52.227-19.
  
 Gaussian, Inc.
 340 Quinnipiac St., Bldg. 40, Wallingford CT 06492
  
  
 ---------------------------------------------------------------
 Warning -- This program may not be used in any manner that
 competes with the business of Gaussian, Inc. or will provide
 assistance to any competitor of Gaussian, Inc.  The licensee
 of this program is prohibited from giving any competitor of
 Gaussian, Inc. access to this program.  By using this program,
 the user acknowledges that Gaussian, Inc. is engaged in the
 business of creating and licensing software in the field of
 computational chemistry and represents and warrants to the
 licensee that it is not a competitor of Gaussian, Inc. and that
 it will not use this program in any manner prohibited above.
 ---------------------------------------------------------------
  

 Cite this work as:
 Gaussian 16, Revision B.01,
 M. J. Frisch, G. W. Trucks, H. B. Schlegel, G. E. Scuseria, 
 M. A. Robb, J. R. Cheeseman, G. Scalmani, V. Barone, 
 G. A. Petersson, H. Nakatsuji, X. Li, M. Caricato, A. V. Marenich, 
 J. Bloino, B. G. Janesko, R. Gomperts, B. Mennucci, H. P. Hratchian, 
 J. V. Ortiz, A. F. Izmaylov, J. L. Sonnenberg, D. Williams-Young, 
 F. Ding, F. Lipparini, F. Egidi, J. Goings, B. Peng, A. Petrone, 
 T. Henderson, D. Ranasinghe, V. G. Zakrzewski, J. Gao, N. Rega, 
 G. Zheng, W. Liang, M. Hada, M. Ehara, K. Toyota, R. Fukuda, 
 J. Hasegawa, M. Ishida, T. Nakajima, Y. Honda, O. Kitao, H. Nakai, 
 T. Vreven, K. Throssell, J. A. Montgomery, Jr., J. E. Peralta, 
 F. Ogliaro, M. J. Bearpark, J. J. Heyd, E. N. Brothers, K. N. Kudin, 
 V. N. Staroverov, T. A. Keith, R. Kobayashi, J. Normand, 
 K. Raghavachari, A. P. Rendell, J. C. Burant, S. S. Iyengar, 
 J. Tomasi, M. Cossi, J. M. Millam, M. Klene, C. Adamo, R. Cammi, 
 J. W. Ochterski, R. L. Martin, K. Morokuma, O. Farkas, 
 J. B. Foresman, and D. J. Fox, Gaussian, Inc., Wallingford CT, 2016.
 
 ******************************************
 Gaussian 16:  ES64L-G16RevB.01 20-Dec-2017
                28-Sep-2026 
 ******************************************
 %nprocshared=1
 Will use up to    1 processors via shared memory.
 %mem=1GB
 %chk=calcs/am1/chks/ClPh_26_rad.chk
 -----------------
 # Opt AM1 SCF=XQC
 -----------------
 1/18=20,19=15,26=1,38=1/1,3;
 2/9=110,12=2,17=6,18=5,40=1/2;
 3/5=2,25=1,41=700000,71=1/1,2,3;
 4/35=1/1;
 5/5=2,8=3,13=1,35=1,38=5/2,8;
 6/7=2,8=2,9=2,10=2,28=1/1;
 7//1,2,3,16;
 1/18=20,19=15,26=1/3(2);
 2/9=110/2;
 99//99;
 2/9=110/2;
 3/5=2,25=1,41=700000,71=1,135=20/1,2,3;
 4/5=5,16=3,35=1/1;
 5/5=2,8=3,13=1,35=1,38=5/2,8;
 7//1,2,3,16;
 1/18=20,19=15,26=1/3(-5);
 2/9=110/2;
 6/7=2,8=2,9=2,10=2,19=2,28=1/1;
 99/9=1/99;
 ---------------
 ClPh_26_rad am1
 ---------------
 Symbolic Z-matrix:
 Charge =  0 Multiplicity = 2
 C                     0.        1.39      0. 
 C                     1.20378   0.695     0. 
 C                     1.20378  -0.695     0. 
 C                     0.       -1.39      0. 
 C                    -1.20378  -0.695     0. 
 C                    -1.20378   0.695     0. 
 Cl                    2.71066   1.565     0. 
 H                     2.13908  -1.235     0. 
 H                     0.       -2.47      0. 
 H                    -2.13908  -1.235     0. 
 Cl                   -2.71066   1.565     0. 
 

 GradGradGradGradGradGradGradGradGradGradGradGradGradGradGradGradGradGrad
 Berny optimization.
 Initialization pass.
                           ----------------------------
                           !    Initial Parameters    !
                           ! (Angstroms and Degrees)  !
 --------------------------                            --------------------------
 ! Name  Definition              Value          Derivative Info.                !
 --------------------------------------------------------------------------------
 ! R1    R(1,2)                  1.39           estimate D2E/DX2                !
 ! R2    R(1,6)                  1.39           estimate D2E/DX2                !
 ! R3    R(2,3)                  1.39           estimate D2E/DX2                !
 ! R4    R(2,7)                  1.74           estimate D2E/DX2                !
 ! R5    R(3,4)                  1.39           estimate D2E/DX2                !
 ! R6    R(3,8)                  1.08           estimate D2E/DX2                !
 ! R7    R(4,5)                  1.39           estimate D2E/DX2                !
 ! R8    R(4,9)                  1.08           estimate D2E/DX2                !
 ! R9    R(5,6)                  1.39           estimate D2E/DX2                !
 ! R10   R(5,10)                 1.08           estimate D2E/DX2                !
 ! R11   R(6,11)                 1.74           estimate D2E/DX2                !
 ! A1    A(2,1,6)              120.0            estimate D2E/DX2                !
 ! A2    A(1,2,3)              120.0            estimate D2E/DX2                !
 ! A3    A(1,2,7)              120.0            estimate D2E/DX2                !
 ! A4    A(3,2,7)              120.0            estimate D2E/DX2                !
 ! A5    A(2,3,4)              120.0            estimate D2E/DX2                !
 ! A6    A(2,3,8)              120.0            estimate D2E/DX2                !
 ! A7    A(4,3,8)              120.0            estimate D2E/DX2                !
 ! A8    A(3,4,5)              120.0            estimate D2E/DX2                !
 ! A9    A(3,4,9)              120.0            estimate D2E/DX2                !
 ! A10   A(5,4,9)              120.0            estimate D2E/DX2                !
 ! A11   A(4,5,6)              120.0            estimate D2E/DX2                !
 ! A12   A(4,5,10)             120.0            estimate D2E/DX2                !
 ! A13   A(6,5,10)             120.0            estimate D2E/DX2                !
 ! A14   A(1,6,5)              120.0            estimate D2E/DX2                !
 ! A15   A(1,6,11)             120.0            estimate D2E/DX2                !
 ! A16   A(5,6,11)             120.0            estimate D2E/DX2                !
 ! D1    D(6,1,2,3)              0.0            estimate D2E/DX2                !
 ! D2    D(6,1,2,7)            180.0            estimate D2E/DX2                !
 ! D3    D(2,1,6,5)              0.0            estimate D2E/DX2                !
 ! D4    D(2,1,6,11)           180.0            estimate D2E/DX2                !
 ! D5    D(1,2,3,4)              0.0            estimate D2E/DX2                !
 ! D6    D(1,2,3,8)            180.0            estimate D2E/DX2                !
 ! D7    D(7,2,3,4)            180.0            estimate D2E/DX2                !
 ! D8    D(7,2,3,8)              0.0            estimate D2E/DX2                !
 ! D9    D(2,3,4,5)              0.0            estimate D2E/DX2                !
 ! D10   D(2,3,4,9)            180.0            estimate D2E/DX2                !
 ! D11   D(8,3,4,5)            180.0            estimate D2E/DX2                !
 ! D12   D(8,3,4,9)              0.0            estimate D2E/DX2                !
 ! D13   D(3,4,5,6)              0.0            estimate D2E/DX2                !
 ! D14   D(3,4,5,10)           180.0            estimate D2E/DX2                !
 ! D15   D(9,4,5,6)            180.0            estimate D2E/DX2                !
 ! D16   D(9,4,5,10)             0.0            estimate D2E/DX2                !
 ! D17   D(4,5,6,1)              0.0            estimate D2E/DX2                !
 ! D18   D(4,5,6,11)           180.0            estimate D2E/DX2                !
 ! D19   D(10,5,6,1)           180.0            estimate D2E/DX2                !
 ! D20   D(10,5,6,11)            0.0            estimate D2E/DX2                !
 --------------------------------------------------------------------------------
 Trust Radius=3.00D-01 FncErr=1.00D-07 GrdErr=1.00D-07 EigMax=2.50D+02 EigMin=1.00D-04
 Number of steps in this run=     57 maximum allowed number of steps=    100.
 GradGradGradGradGradGradGradGradGradGradGradGradGradGradGradGradGradGrad

                          Input orientation:                          
 ---------------------------------------------------------------------
 Center     Atomic      Atomic             Coordinates (Angstroms)
 Number     Number       Type             X           Y           Z
 ---------------------------------------------------------------------
      1          6           0        0.000000    1.390000    0.000000
      2          6           0        1.203775    0.695000    0.000000
      3          6           0        1.203775   -0.695000    0.000000
      4          6           0        0.000000   -1.390000    0.000000
      5          6           0       -1.203775   -0.695000    0.000000
      6          6           0       -1.203775    0.695000    0.000000
      7         17           0        2.710660    1.565000    0.000000
      8          1           0        2.139083   -1.235000    0.000000
      9          1           0        0.000000   -2.470000    0.000000
     10          1           0       -2.139083   -1.235000    0.000000
     11         17           0       -2.710660    1.565000    0.000000
 ---------------------------------------------------------------------
                    Distance matrix (angstroms):
                    1          2          3          4          5
     1  C    0.000000
     2  C    1.390000   0.000000
     3  C    2.407551   1.390000   0.000000
     4  C    2.780000   2.407551   1.390000   0.000000
     5  C    2.407551   2.780000   2.407551   1.390000   0.000000
     6  C    1.390000   2.407551   2.780000   2.407551   1.390000
     7  Cl   2.716303   1.740000   2.716303   4.009950   4.520000
     8  H    3.386193   2.144691   1.080000   2.144691   3.386193
     9  H    3.860000   3.386193   2.144691   1.080000   2.144691
    10  H    3.386193   3.860000   3.386193   2.144691   1.080000
    11  Cl   2.716303   4.009950   4.520000   4.009950   2.716303
                    6          7          8          9         10
     6  C    0.000000
     7  Cl   4.009950   0.000000
     8  H    3.860000   2.857744   0.000000
     9  H    3.386193   4.860957   2.470000   0.000000
    10  H    2.144691   5.600000   4.278166   2.470000   0.000000
    11  Cl   1.740000   5.421319   5.600000   4.860957   2.857744
                   11
    11  Cl   0.000000
 Stoichiometry    C6H3Cl2(2)
 Framework group  C2V[C2(CCH),SGV(C4H2Cl2)]
 Deg. of freedom    10
 Full point group                 C2V     NOp   4
 Largest Abelian subgroup         C2V     NOp   4
 Largest concise Abelian subgroup C2      NOp   2
                         Standard orientation:                         
 ---------------------------------------------------------------------
 Center     Atomic      Atomic             Coordinates (Angstroms)
 Number     Number       Type             X           Y           Z
 ---------------------------------------------------------------------
      1          6           0        0.000000   -0.000000   -0.728767
      2          6           0        0.000000    1.203775   -0.033767
      3          6           0        0.000000    1.203775    1.356233
      4          6           0       -0.000000    0.000000    2.051233
      5          6           0       -0.000000   -1.203775    1.356233
      6          6           0       -0.000000   -1.203775   -0.033767
      7         17           0        0.000000    2.710660   -0.903767
      8          1           0        0.000000    2.139083    1.896233
      9          1           0       -0.000000    0.000000    3.131233
     10          1           0       -0.000000   -2.139083    1.896233
     11         17           0       -0.000000   -2.710660   -0.903767
 ---------------------------------------------------------------------
 Rotational constants (GHZ):           2.8915616           0.8527328           0.6585298
 Standard basis: VSTO-6G (5D, 7F)
 There are    15 symmetry adapted cartesian basis functions of A1  symmetry.
 There are     3 symmetry adapted cartesian basis functions of A2  symmetry.
 There are     5 symmetry adapted cartesian basis functions of B1  symmetry.
 There are    12 symmetry adapted cartesian basis functions of B2  symmetry.
 There are    15 symmetry adapted basis functions of A1  symmetry.
 There are     3 symmetry adapted basis functions of A2  symmetry.
 There are     5 symmetry adapted basis functions of B1  symmetry.
 There are    12 symmetry adapted basis functions of B2  symmetry.
    35 basis functions,   210 primitive gaussians,    35 cartesian basis functions
    21 alpha electrons       20 beta electrons
       nuclear repulsion energy       195.2522567001 Hartrees.
 Integral buffers will be    131072 words long.
 Regular integral format.
 Two-electron integral symmetry is turned off.
 Do NDO integrals.
 One-electron integrals computed using PRISM.
 NBasis=    35 RedAO= T EigKep=  1.00D+00  NBF=    15     3     5    12
 NBsUse=    35 1.00D-06 EigRej= -1.00D+00 NBFU=    15     3     5    12
 Simple Huckel Guess.
 Initial guess orbital symmetries:
 Alpha Orbitals:
       Occupied  (A1) (B2) (A1) (B2) (A1) (A1) (B2) (A1) (B2) (B1)
                 (A1) (B2) (A1) (A2) (B2) (B1) (A1) (B2) (B1) (A2)
                 (A1)
       Virtual   (B1) (A2) (B1) (B2) (A1) (A1) (B2) (B2) (A1) (B2)
                 (A1) (A1) (B2) (A1)
 Beta  Orbitals:
       Occupied  (A1) (B2) (A1) (B2) (A1) (A1) (B2) (A1) (B2) (B1)
                 (A1) (B2) (A1) (A2) (B2) (B1) (A1) (B2) (B1) (A2)
       Virtual   (A1) (B1) (A2) (B1) (B2) (A1) (A1) (B2) (B2) (A1)
                 (B2) (A1) (A1) (B2) (A1)
 The electronic state of the initial guess is 2-A1.
 Initial guess <Sx>= 0.0000 <Sy>= 0.0000 <Sz>= 0.5000 <S**2>= 0.7500 S= 0.5000
 Keep J ints in memory in canonical form, NReq=862793.
 Overlap will be assumed to be unity.
 Requested convergence on RMS density matrix=1.00D-08 within  32 cycles.
 Requested convergence on MAX density matrix=1.00D-06.
 Requested convergence on             energy=1.00D-06.
 No special actions if energy rises.
 Fock symm off for IB=2 I1=    1 I=   16 J=   13 Cut=1.00D-07 Err=3.56D-03
 Fock matrix is not symmetric: symmetry in diagonalization turned off.
 Rare condition: small coef for last iteration:  0.000D+00
 SCF Done:  E(UAM1) =  0.106566831869     A.U. after   28 cycles
            NFock= 27  Conv=0.11D-08     -V/T= 1.0012
 <Sx>= 0.0000 <Sy>= 0.0000 <Sz>= 0.5000 <S**2>= 1.1999 S= 0.7041
 <L.S>=  0.00000000000    
 Annihilation of the first spin contaminant:
 S**2 before annihilation     1.1999,   after     0.9177
 QCSCF skips out because SCF is already converged.

 **********************************************************************

            Population analysis using the SCF Density.

 **********************************************************************

 Orbital symmetries:
 Alpha Orbitals:
       Occupied  (A1) (B2) (A1) (B2) (A1) (B2) (A1) (A1) (B2) (A1)
                 (B2) (B1) (A1) (A2) (B2) (A1) (B1) (B2) (A1) (B1)
                 (A2)
       Virtual   (B1) (A2) (A1) (B2) (B1) (A1) (B2) (A1) (A1) (B2)
                 (B2) (A1) (B2) (A1)
 Beta  Orbitals:
       Occupied  (A1) (B2) (A1) (B2) (A1) (B2) (A1) (A1) (B2) (A1)
                 (B2) (B1) (A1) (A2) (B2) (B1) (A1) (B2) (B1) (A2)
       Virtual   (A1) (A2) (B1) (A1) (B2) (B1) (A1) (B2) (A1) (A1)
                 (B2) (A1) (B2) (B2) (A1)
 The electronic state is 2-A1.
 Alpha  occ. eigenvalues --   -1.47900  -1.39033  -1.37350  -1.17318  -1.16734
 Alpha  occ. eigenvalues --   -0.87895  -0.87366  -0.68330  -0.62257  -0.61632
 Alpha  occ. eigenvalues --   -0.57435  -0.55449  -0.53041  -0.48914  -0.48433
 Alpha  occ. eigenvalues --   -0.45861  -0.45023  -0.44255  -0.41750  -0.39270
 Alpha  occ. eigenvalues --   -0.37610
 Alpha virt. eigenvalues --   -0.00694  -0.00643   0.02983   0.04412   0.07485
 Alpha virt. eigenvalues --    0.12334   0.12558   0.13352   0.13975   0.14311
 Alpha virt. eigenvalues --    0.16581   0.16895   0.17592   0.18434
  Beta  occ. eigenvalues --   -1.47294  -1.39088  -1.37256  -1.16877  -1.14943
  Beta  occ. eigenvalues --   -0.87719  -0.85268  -0.68147  -0.61715  -0.59974
  Beta  occ. eigenvalues --   -0.57300  -0.55394  -0.51941  -0.49895  -0.48033
  Beta  occ. eigenvalues --   -0.45295  -0.44906  -0.44015  -0.37563  -0.37351
  Beta virt. eigenvalues --   -0.02195  -0.00703   0.01217   0.02526   0.03512
  Beta virt. eigenvalues --    0.08379   0.12801   0.13713   0.13836   0.14464
  Beta virt. eigenvalues --    0.14751   0.17039   0.17816   0.18491   0.18588
          Condensed to atoms (all electrons):
               1          2          3          4          5          6
     1  C    3.996864   0.000000   0.000000   0.000000   0.000000   0.000000
     2  C    0.000000   4.052663   0.000000   0.000000   0.000000   0.000000
     3  C    0.000000   0.000000   4.113165   0.000000   0.000000   0.000000
     4  C    0.000000   0.000000   0.000000   4.122865   0.000000   0.000000
     5  C    0.000000   0.000000   0.000000   0.000000   4.113165   0.000000
     6  C    0.000000   0.000000   0.000000   0.000000   0.000000   4.052663
     7  Cl   0.000000   0.000000   0.000000   0.000000   0.000000   0.000000
     8  H    0.000000   0.000000   0.000000   0.000000   0.000000   0.000000
     9  H    0.000000   0.000000   0.000000   0.000000   0.000000   0.000000
    10  H    0.000000   0.000000   0.000000   0.000000   0.000000   0.000000
    11  Cl   0.000000   0.000000   0.000000   0.000000   0.000000   0.000000
               7          8          9         10         11
     1  C    0.000000   0.000000   0.000000   0.000000   0.000000
     2  C    0.000000   0.000000   0.000000   0.000000   0.000000
     3  C    0.000000   0.000000   0.000000   0.000000   0.000000
     4  C    0.000000   0.000000   0.000000   0.000000   0.000000
     5  C    0.000000   0.000000   0.000000   0.000000   0.000000
     6  C    0.000000   0.000000   0.000000   0.000000   0.000000
     7  Cl   7.003184   0.000000   0.000000   0.000000   0.000000
     8  H    0.000000   0.845152   0.000000   0.000000   0.000000
     9  H    0.000000   0.000000   0.851944   0.000000   0.000000
    10  H    0.000000   0.000000   0.000000   0.845152   0.000000
    11  Cl   0.000000   0.000000   0.000000   0.000000   7.003184
          Atomic-Atomic Spin Densities.
               1          2          3          4          5          6
     1  C    1.403027   0.000000   0.000000   0.000000   0.000000   0.000000
     2  C    0.000000  -0.442936   0.000000   0.000000   0.000000   0.000000
     3  C    0.000000   0.000000   0.451529   0.000000   0.000000   0.000000
     4  C    0.000000   0.000000   0.000000  -0.425833   0.000000   0.000000
     5  C    0.000000   0.000000   0.000000   0.000000   0.451529   0.000000
     6  C    0.000000   0.000000   0.000000   0.000000   0.000000  -0.442936
     7  Cl   0.000000   0.000000   0.000000   0.000000   0.000000   0.000000
     8  H    0.000000   0.000000   0.000000   0.000000   0.000000   0.000000
     9  H    0.000000   0.000000   0.000000   0.000000   0.000000   0.000000
    10  H    0.000000   0.000000   0.000000   0.000000   0.000000   0.000000
    11  Cl   0.000000   0.000000   0.000000   0.000000   0.000000   0.000000
               7          8          9         10         11
     1  C    0.000000   0.000000   0.000000   0.000000   0.000000
     2  C    0.000000   0.000000   0.000000   0.000000   0.000000
     3  C    0.000000   0.000000   0.000000   0.000000   0.000000
     4  C    0.000000   0.000000   0.000000   0.000000   0.000000
     5  C    0.000000   0.000000   0.000000   0.000000   0.000000
     6  C    0.000000   0.000000   0.000000   0.000000   0.000000
     7  Cl   0.008360   0.000000   0.000000   0.000000   0.000000
     8  H    0.000000  -0.017962   0.000000   0.000000   0.000000
     9  H    0.000000   0.000000   0.024825   0.000000   0.000000
    10  H    0.000000   0.000000   0.000000  -0.017962   0.000000
    11  Cl   0.000000   0.000000   0.000000   0.000000   0.008360
 Mulliken charges and spin densities:
               1          2
     1  C    0.003136   1.403027
     2  C   -0.052663  -0.442936
     3  C   -0.113165   0.451529
     4  C   -0.122865  -0.425833
     5  C   -0.113165   0.451529
     6  C   -0.052663  -0.442936
     7  Cl  -0.003184   0.008360
     8  H    0.154848  -0.017962
     9  H    0.148056   0.024825
    10  H    0.154848  -0.017962
    11  Cl  -0.003184   0.008360
 Sum of Mulliken charges =  -0.00000   1.00000
 Mulliken charges and spin densities with hydrogens summed into heavy atoms:
               1          2
     1  C    0.003136   1.403027
     2  C   -0.052663  -0.442936
     3  C    0.041683   0.433566
     4  C    0.025191  -0.401007
     5  C    0.041683   0.433566
     6  C   -0.052663  -0.442936
     7  Cl  -0.003184   0.008360
    11  Cl  -0.003184   0.008360
 Charge=             -0.0000 electrons
 Dipole moment (field-independent basis, Debye):
    X=              0.0000    Y=             -0.0000    Z=              2.3405  Tot=              2.3405
 N-N= 1.952522567001D+02 E-N=-2.694389937264D+02  KE=-9.052409364849D+01
 Symmetry A1   KE=-3.800036137724D+01
 Symmetry A2   KE=-8.600045949583D+00
 Symmetry B1   KE=-1.181171482779D+01
 Symmetry B2   KE=-3.211197149388D+01
 Symmetry A1   SP= 1.000000000000D+00
 Symmetry A2   SP= 2.903927098785D-15
 Symmetry B1   SP= 5.551115123126D-16
 Symmetry B2   SP= 2.484124017599D-15
 Calling FoFJK, ICntrl=      2127 FMM=F ISym2X=1 I1Cent= 0 IOpClX= 1 NMat=1 NMatS=1 NMatT=0.
 ***** Axes restored to original set *****
 -------------------------------------------------------------------
 Center     Atomic                   Forces (Hartrees/Bohr)
 Number     Number              X              Y              Z
 -------------------------------------------------------------------
      1        6           0.000000000   -0.039867617    0.000000000
      2        6           0.023968215    0.047678934   -0.000000000
      3        6           0.002069834   -0.002505202   -0.000000000
      4        6           0.000000000    0.003325840    0.000000000
      5        6          -0.002069834   -0.002505202   -0.000000000
      6        6          -0.023968215    0.047678934    0.000000000
      7       17          -0.021928916   -0.012105888   -0.000000000
      8        1           0.013880725   -0.007384673   -0.000000000
      9        1          -0.000000000   -0.014824566    0.000000000
     10        1          -0.013880725   -0.007384673    0.000000000
     11       17           0.021928916   -0.012105888   -0.000000000
 -------------------------------------------------------------------
 Cartesian Forces:  Max     0.047678934 RMS     0.016774949

 GradGradGradGradGradGradGradGradGradGradGradGradGradGradGradGradGradGrad
 Berny optimization.
 FormGI is forming the generalized inverse of G from B-inverse, IUseBI=4.
 Internal  Forces:  Max     0.028496603 RMS     0.010027578
 Search for a local minimum.
 Step number   1 out of a maximum of   57
 All quantities printed in internal units (Hartrees-Bohrs-Radians)
 Mixed Optimization -- RFO/linear search
 Second derivative matrix not updated -- first step.
 ITU=  0
     Eigenvalues ---    0.02221   0.02221   0.02221   0.02221   0.02221
     Eigenvalues ---    0.02221   0.02221   0.02221   0.16000   0.16000
     Eigenvalues ---    0.16000   0.22068   0.23479   0.24896   0.25000
     Eigenvalues ---    0.25000   0.31476   0.31476   0.35994   0.35994
     Eigenvalues ---    0.35994   0.43086   0.43531   0.47319   0.47319
     Eigenvalues ---    0.47319   0.47319
 RFO step:  Lambda=-1.34650012D-02 EMin= 2.22103665D-02
 Linear search not attempted -- first point.
 Iteration  1 RMS(Cart)=  0.03546509 RMS(Int)=  0.00073602
 Iteration  2 RMS(Cart)=  0.00094496 RMS(Int)=  0.00021381
 Iteration  3 RMS(Cart)=  0.00000012 RMS(Int)=  0.00021381
 ClnCor:  largest displacement from symmetrization is 6.10D-11 for atom     9.
 Variable       Old X    -DE/DX   Delta X   Delta X   Delta X     New X
                                 (Linear)    (Quad)   (Total)
    R1        2.62672  -0.01125   0.00000  -0.02557  -0.02527   2.60145
    R2        2.62672  -0.01125   0.00000  -0.02557  -0.02527   2.60145
    R3        2.62672   0.01564   0.00000   0.03214   0.03214   2.65886
    R4        3.28812  -0.02504   0.00000  -0.07630  -0.07630   3.21182
    R5        2.62672   0.01974   0.00000   0.04301   0.04272   2.66944
    R6        2.04090   0.01571   0.00000   0.04208   0.04208   2.08299
    R7        2.62672   0.01974   0.00000   0.04301   0.04272   2.66944
    R8        2.04090   0.01482   0.00000   0.03970   0.03970   2.08060
    R9        2.62672   0.01564   0.00000   0.03214   0.03214   2.65886
   R10        2.04090   0.01571   0.00000   0.04208   0.04208   2.08299
   R11        3.28812  -0.02504   0.00000  -0.07630  -0.07630   3.21182
    A1        2.09440   0.02850   0.00000   0.09575   0.09654   2.19094
    A2        2.09440  -0.01046   0.00000  -0.04340  -0.04314   2.05125
    A3        2.09440   0.00444   0.00000   0.01870   0.01857   2.11297
    A4        2.09440   0.00602   0.00000   0.02470   0.02457   2.11896
    A5        2.09440  -0.00518   0.00000  -0.01607  -0.01641   2.07799
    A6        2.09440   0.00203   0.00000   0.00483   0.00500   2.09939
    A7        2.09440   0.00315   0.00000   0.01124   0.01141   2.10581
    A8        2.09440   0.00278   0.00000   0.02319   0.02256   2.11695
    A9        2.09440  -0.00139   0.00000  -0.01160  -0.01128   2.08312
   A10        2.09440  -0.00139   0.00000  -0.01160  -0.01128   2.08312
   A11        2.09440  -0.00518   0.00000  -0.01607  -0.01641   2.07799
   A12        2.09440   0.00315   0.00000   0.01124   0.01141   2.10581
   A13        2.09440   0.00203   0.00000   0.00483   0.00500   2.09939
   A14        2.09440  -0.01046   0.00000  -0.04340  -0.04314   2.05125
   A15        2.09440   0.00444   0.00000   0.01870   0.01857   2.11297
   A16        2.09440   0.00602   0.00000   0.02470   0.02457   2.11896
    D1        0.00000  -0.00000   0.00000  -0.00000   0.00000   0.00000
    D2        3.14159  -0.00000   0.00000  -0.00000   0.00000   3.14159
    D3       -0.00000   0.00000   0.00000   0.00000   0.00000   0.00000
    D4        3.14159   0.00000   0.00000   0.00000   0.00000   3.14159
    D5       -0.00000   0.00000   0.00000   0.00000   0.00000   0.00000
    D6        3.14159   0.00000   0.00000  -0.00000   0.00000   3.14159
    D7        3.14159   0.00000   0.00000   0.00000   0.00000   3.14159
    D8        0.00000   0.00000   0.00000   0.00000   0.00000   0.00000
    D9       -0.00000   0.00000   0.00000   0.00000   0.00000   0.00000
   D10        3.14159  -0.00000   0.00000  -0.00000   0.00000   3.14159
   D11        3.14159   0.00000   0.00000   0.00000   0.00000   3.14159
   D12       -0.00000  -0.00000   0.00000  -0.00000   0.00000   0.00000
   D13        0.00000  -0.00000   0.00000  -0.00000   0.00000   0.00000
   D14        3.14159  -0.00000   0.00000  -0.00000   0.00000   3.14159
   D15        3.14159  -0.00000   0.00000  -0.00000   0.00000   3.14159
   D16        0.00000  -0.00000   0.00000  -0.00000   0.00000   0.00000
   D17        0.00000   0.00000   0.00000   0.00000   0.00000   0.00000
   D18        3.14159  -0.00000   0.00000  -0.00000   0.00000   3.14159
   D19        3.14159   0.00000   0.00000   0.00000   0.00000   3.14159
   D20       -0.00000  -0.00000   0.00000  -0.00000   0.00000   0.00000
         Item               Value     Threshold  Converged?
 Maximum Force            0.028497     0.000450     NO 
 RMS     Force            0.010028     0.000300     NO 
 Maximum Displacement     0.095614     0.001800     NO 
 RMS     Displacement     0.035550     0.001200     NO 
 Predicted change in Energy=-7.012307D-03
 GradGradGradGradGradGradGradGradGradGradGradGradGradGradGradGradGradGrad

                          Input orientation:                          
 ---------------------------------------------------------------------
 Center     Atomic      Atomic             Coordinates (Angstroms)
 Number     Number       Type             X           Y           Z
 ---------------------------------------------------------------------
      1          6           0        0.000000    1.339403    0.000000
      2          6           0        1.224019    0.709418   -0.000000
      3          6           0        1.231239   -0.697570   -0.000000
      4          6           0       -0.000000   -1.390031   -0.000000
      5          6           0       -1.231239   -0.697570    0.000000
      6          6           0       -1.224019    0.709418    0.000000
      7         17           0        2.670052    1.602564   -0.000000
      8          1           0        2.185905   -1.248578   -0.000000
      9          1           0       -0.000000   -2.491040   -0.000000
     10          1           0       -2.185905   -1.248578    0.000000
     11         17           0       -2.670052    1.602564    0.000000
 ---------------------------------------------------------------------
                    Distance matrix (angstroms):
                    1          2          3          4          5
     1  C    0.000000
     2  C    1.376628   0.000000
     3  C    2.380170   1.407007   0.000000
     4  C    2.729434   2.430207   1.412604   0.000000
     5  C    2.380170   2.829825   2.462478   1.412604   0.000000
     6  C    1.376628   2.448038   2.829825   2.430207   1.407007
     7  Cl   2.682989   1.699624   2.713080   4.010586   4.528873
     8  H    3.387598   2.181506   1.102268   2.190477   3.461283
     9  H    3.830443   3.426536   2.175427   1.101009   2.175427
    10  H    3.387598   3.932089   3.461283   2.190477   1.102268
    11  Cl   2.682989   3.995185   4.528873   4.010586   2.713080
                    6          7          8          9         10
     6  C    0.000000
     7  Cl   3.995185   0.000000
     8  H    3.932089   2.891955   0.000000
     9  H    3.426536   4.887409   2.514337   0.000000
    10  H    2.181506   5.631103   4.371809   2.514337   0.000000
    11  Cl   1.699624   5.340104   5.631103   4.887409   2.891955
                   11
    11  Cl   0.000000
 Stoichiometry    C6H3Cl2(2)
 Framework group  C2V[C2(CCH),SGV(C4H2Cl2)]
 Deg. of freedom    10
 Full point group                 C2V     NOp   4
 Largest Abelian subgroup         C2V     NOp   4
 Largest concise Abelian subgroup C2      NOp   2
                         Standard orientation:                         
 ---------------------------------------------------------------------
 Center     Atomic      Atomic             Coordinates (Angstroms)
 Number     Number       Type             X           Y           Z
 ---------------------------------------------------------------------
      1          6           0        0.000000   -0.000000   -0.663549
      2          6           0       -0.000000    1.224019   -0.033563
      3          6           0       -0.000000    1.231239    1.373425
      4          6           0       -0.000000    0.000000    2.065885
      5          6           0       -0.000000   -1.231239    1.373425
      6          6           0       -0.000000   -1.224019   -0.033563
      7         17           0       -0.000000    2.670052   -0.926709
      8          1           0       -0.000000    2.185905    1.924432
      9          1           0       -0.000000    0.000000    3.166894
     10          1           0       -0.000000   -2.185905    1.924432
     11         17           0       -0.000000   -2.670052   -0.926709
 ---------------------------------------------------------------------
 Rotational constants (GHZ):           2.8248978           0.8704882           0.6654353
 Standard basis: VSTO-6G (5D, 7F)
 There are    15 symmetry adapted cartesian basis functions of A1  symmetry.
 There are     3 symmetry adapted cartesian basis functions of A2  symmetry.
 There are     5 symmetry adapted cartesian basis functions of B1  symmetry.
 There are    12 symmetry adapted cartesian basis functions of B2  symmetry.
 There are    15 symmetry adapted basis functions of A1  symmetry.
 There are     3 symmetry adapted basis functions of A2  symmetry.
 There are     5 symmetry adapted basis functions of B1  symmetry.
 There are    12 symmetry adapted basis functions of B2  symmetry.
    35 basis functions,   210 primitive gaussians,    35 cartesian basis functions
    21 alpha electrons       20 beta electrons
       nuclear repulsion energy       195.2378125595 Hartrees.
 Integral buffers will be    131072 words long.
 Regular integral format.
 Two-electron integral symmetry is turned off.
 Do NDO integrals.
 One-electron integrals computed using PRISM.
 NBasis=    35 RedAO= T EigKep=  1.00D+00  NBF=    15     3     5    12
 NBsUse=    35 1.00D-06 EigRej= -1.00D+00 NBFU=    15     3     5    12
 Initial guess from the checkpoint file:  "calcs/am1/chks/ClPh_26_rad.chk"
 B after Tr=     0.000000    0.000000   -0.000000
         Rot=    1.000000    0.000000    0.000000   -0.000000 Ang=   0.00 deg.
 Initial guess orbital symmetries:
 Alpha Orbitals:
       Occupied  (A1) (B2) (A1) (B2) (A1) (B2) (A1) (A1) (B2) (A1)
                 (B2) (B1) (A1) (A2) (B2) (A1) (B1) (B2) (A1) (B1)
                 (A2)
       Virtual   (B1) (A2) (A1) (B2) (B1) (A1) (B2) (A1) (A1) (B2)
                 (B2) (A1) (B2) (A1)
 Beta  Orbitals:
       Occupied  (A1) (B2) (A1) (B2) (A1) (B2) (A1) (A1) (B2) (A1)
                 (B2) (B1) (A1) (A2) (B2) (B1) (A1) (B2) (B1) (A2)
       Virtual   (A1) (A2) (B1) (A1) (B2) (B1) (A1) (B2) (A1) (A1)
                 (B2) (A1) (B2) (B2) (A1)
 Initial guess <Sx>= 0.0000 <Sy>= 0.0000 <Sz>= 0.5000 <S**2>= 1.1999 S= 0.7041
 Keep J ints in memory in canonical form, NReq=862793.
 Overlap will be assumed to be unity.
 Requested convergence on RMS density matrix=1.00D-08 within  32 cycles.
 Requested convergence on MAX density matrix=1.00D-06.
 Requested convergence on             energy=1.00D-06.
 No special actions if energy rises.
 Fock symm off for IB=2 I1=    1 I=   16 J=   13 Cut=1.00D-07 Err=1.78D-03
 Fock matrix is not symmetric: symmetry in diagonalization turned off.
 SCF Done:  E(UAM1) =  0.991590375475E-01 A.U. after   17 cycles
            NFock= 16  Conv=0.58D-08     -V/T= 1.0011
 <Sx>= 0.0000 <Sy>= 0.0000 <Sz>= 0.5000 <S**2>= 1.2610 S= 0.7292
 <L.S>=  0.00000000000    
 Annihilation of the first spin contaminant:
 S**2 before annihilation     1.2610,   after     0.9763
 QCSCF skips out because SCF is already converged.
 Calling FoFJK, ICntrl=      2127 FMM=F ISym2X=1 I1Cent= 0 IOpClX= 1 NMat=1 NMatS=1 NMatT=0.
 ***** Axes restored to original set *****
 -------------------------------------------------------------------
 Center     Atomic                   Forces (Hartrees/Bohr)
 Number     Number              X              Y              Z
 -------------------------------------------------------------------
      1        6           0.000000000   -0.012860373    0.000000000
      2        6           0.011244346    0.011590411    0.000000000
      3        6          -0.010781642   -0.008339498   -0.000000000
      4        6           0.000000000    0.011259234    0.000000000
      5        6           0.010781642   -0.008339498   -0.000000000
      6        6          -0.011244346    0.011590411    0.000000000
      7       17          -0.005554568   -0.004066016   -0.000000000
      8        1          -0.002454790    0.000895507   -0.000000000
      9        1           0.000000000    0.001440332    0.000000000
     10        1           0.002454790    0.000895507   -0.000000000
     11       17           0.005554568   -0.004066016   -0.000000000
 -------------------------------------------------------------------
 Cartesian Forces:  Max     0.012860373 RMS     0.006266286

 GradGradGradGradGradGradGradGradGradGradGradGradGradGradGradGradGradGrad
 Berny optimization.
 Using GEDIIS/GDIIS optimizer.
 FormGI is forming the generalized inverse of G from B-inverse, IUseBI=4.
 Internal  Forces:  Max     0.011070369 RMS     0.003454879
 Search for a local minimum.
 Step number   2 out of a maximum of   57
 All quantities printed in internal units (Hartrees-Bohrs-Radians)
 Mixed Optimization -- RFO/linear search
 Update second derivatives using D2CorX and points    1    2
 DE= -7.41D-03 DEPred=-7.01D-03 R= 1.06D+00
 TightC=F SS=  1.41D+00  RLast= 2.01D-01 DXNew= 5.0454D-01 6.0229D-01
 Trust test= 1.06D+00 RLast= 2.01D-01 DXMaxT set to 5.05D-01
 ITU=  1  0
 Use linear search instead of GDIIS.
     Eigenvalues ---    0.02221   0.02221   0.02221   0.02221   0.02221
     Eigenvalues ---    0.02221   0.02221   0.02221   0.16000   0.16000
     Eigenvalues ---    0.16004   0.18382   0.22274   0.23490   0.25000
     Eigenvalues ---    0.25041   0.29615   0.31476   0.35989   0.35994
     Eigenvalues ---    0.36923   0.43333   0.45379   0.46637   0.47319
     Eigenvalues ---    0.47319   0.59473
 RFO step:  Lambda=-1.88360118D-03 EMin= 2.22103665D-02
 Quartic linear search produced a step of  0.12282.
 Iteration  1 RMS(Cart)=  0.01251968 RMS(Int)=  0.00015810
 Iteration  2 RMS(Cart)=  0.00021518 RMS(Int)=  0.00006390
 Iteration  3 RMS(Cart)=  0.00000001 RMS(Int)=  0.00006390
 ClnCor:  largest displacement from symmetrization is 4.06D-11 for atom     9.
 Variable       Old X    -DE/DX   Delta X   Delta X   Delta X     New X
                                 (Linear)    (Quad)   (Total)
    R1        2.60145  -0.00153  -0.00310  -0.00278  -0.00579   2.59566
    R2        2.60145  -0.00153  -0.00310  -0.00278  -0.00579   2.59566
    R3        2.65886   0.00107   0.00395   0.00294   0.00688   2.66574
    R4        3.21182  -0.00686  -0.00937  -0.02518  -0.03455   3.17728
    R5        2.66944  -0.01107   0.00525  -0.02673  -0.02157   2.64786
    R6        2.08299  -0.00257   0.00517  -0.00748  -0.00231   2.08068
    R7        2.66944  -0.01107   0.00525  -0.02673  -0.02157   2.64786
    R8        2.08060  -0.00144   0.00488  -0.00399   0.00088   2.08149
    R9        2.65886   0.00107   0.00395   0.00294   0.00688   2.66574
   R10        2.08299  -0.00257   0.00517  -0.00748  -0.00231   2.08068
   R11        3.21182  -0.00686  -0.00937  -0.02518  -0.03455   3.17728
    A1        2.19094   0.00605   0.01186   0.03291   0.04501   2.23595
    A2        2.05125  -0.00656  -0.00530  -0.02823  -0.03345   2.01780
    A3        2.11297   0.00415   0.00228   0.01795   0.02019   2.13316
    A4        2.11896   0.00241   0.00302   0.01029   0.01326   2.13223
    A5        2.07799   0.00162  -0.00202   0.00480   0.00269   2.08067
    A6        2.09939  -0.00034   0.00061   0.00083   0.00149   2.10088
    A7        2.10581  -0.00128   0.00140  -0.00563  -0.00418   2.10163
    A8        2.11695   0.00382   0.00277   0.01395   0.01653   2.13348
    A9        2.08312  -0.00191  -0.00139  -0.00697  -0.00826   2.07485
   A10        2.08312  -0.00191  -0.00139  -0.00697  -0.00826   2.07485
   A11        2.07799   0.00162  -0.00202   0.00480   0.00269   2.08067
   A12        2.10581  -0.00128   0.00140  -0.00563  -0.00418   2.10163
   A13        2.09939  -0.00034   0.00061   0.00083   0.00149   2.10088
   A14        2.05125  -0.00656  -0.00530  -0.02823  -0.03345   2.01780
   A15        2.11297   0.00415   0.00228   0.01795   0.02019   2.13316
   A16        2.11896   0.00241   0.00302   0.01029   0.01326   2.13223
    D1        0.00000  -0.00000   0.00000  -0.00000   0.00000   0.00000
    D2        3.14159  -0.00000   0.00000  -0.00000   0.00000   3.14159
    D3       -0.00000   0.00000   0.00000   0.00000   0.00000   0.00000
    D4        3.14159   0.00000   0.00000   0.00000   0.00000   3.14159
    D5       -0.00000  -0.00000   0.00000  -0.00000   0.00000   0.00000
    D6        3.14159  -0.00000   0.00000  -0.00000   0.00000   3.14159
    D7        3.14159   0.00000   0.00000   0.00000   0.00000   3.14159
    D8        0.00000   0.00000   0.00000   0.00000   0.00000   0.00000
    D9       -0.00000   0.00000   0.00000   0.00000   0.00000   0.00000
   D10        3.14159  -0.00000   0.00000  -0.00000   0.00000   3.14159
   D11        3.14159   0.00000   0.00000   0.00000   0.00000   3.14159
   D12       -0.00000   0.00000   0.00000   0.00000   0.00000   0.00000
   D13        0.00000  -0.00000   0.00000  -0.00000   0.00000   0.00000
   D14        3.14159  -0.00000   0.00000  -0.00000   0.00000   3.14159
   D15        3.14159   0.00000   0.00000   0.00000   0.00000   3.14159
   D16       -0.00000   0.00000   0.00000   0.00000   0.00000   0.00000
   D17       -0.00000  -0.00000   0.00000  -0.00000   0.00000   0.00000
   D18        3.14159  -0.00000   0.00000  -0.00000   0.00000   3.14159
   D19        3.14159   0.00000   0.00000   0.00000   0.00000   3.14159
   D20        0.00000  -0.00000   0.00000  -0.00000   0.00000   0.00000
         Item               Value     Threshold  Converged?
 Maximum Force            0.011070     0.000450     NO 
 RMS     Force            0.003455     0.000300     NO 
 Maximum Displacement     0.045446     0.001800     NO 
 RMS     Displacement     0.012533     0.001200     NO 
 Predicted change in Energy=-1.025647D-03
 GradGradGradGradGradGradGradGradGradGradGradGradGradGradGradGradGradGrad

                          Input orientation:                          
 ---------------------------------------------------------------------
 Center     Atomic      Atomic             Coordinates (Angstroms)
 Number     Number       Type             X           Y           Z
 ---------------------------------------------------------------------
      1          6           0        0.000000    1.315354    0.000000
      2          6           0        1.235131    0.714411   -0.000000
      3          6           0        1.226924   -0.696215   -0.000000
      4          6           0       -0.000000   -1.372963   -0.000000
      5          6           0       -1.226924   -0.696215    0.000000
      6          6           0       -1.235131    0.714411    0.000000
      7         17           0        2.663561    1.601259   -0.000000
      8          1           0        2.173610   -1.258431   -0.000000
      9          1           0       -0.000000   -2.474438   -0.000000
     10          1           0       -2.173610   -1.258431    0.000000
     11         17           0       -2.663561    1.601259    0.000000
 ---------------------------------------------------------------------
                    Distance matrix (angstroms):
                    1          2          3          4          5
     1  C    0.000000
     2  C    1.373565   0.000000
     3  C    2.356215   1.410649   0.000000
     4  C    2.688317   2.425423   1.401189   0.000000
     5  C    2.356215   2.837530   2.453847   1.401189   0.000000
     6  C    1.373565   2.470262   2.837530   2.425423   1.410649
     7  Cl   2.678861   1.681342   2.709670   3.992562   4.518214
     8  H    3.368820   2.184685   1.101046   2.176626   3.446697
     9  H    3.789792   3.419694   2.160422   1.101475   2.160422
    10  H    3.368820   3.938480   3.446697   2.176626   1.101046
    11  Cl   2.678861   3.998287   4.518214   3.992562   2.709670
                    6          7          8          9         10
     6  C    0.000000
     7  Cl   3.998287   0.000000
     8  H    3.938480   2.901358   0.000000
     9  H    3.419694   4.868867   2.490633   0.000000
    10  H    2.184685   5.619257   4.347220   2.490633   0.000000
    11  Cl   1.681342   5.327122   5.619257   4.868867   2.901358
                   11
    11  Cl   0.000000
 Stoichiometry    C6H3Cl2(2)
 Framework group  C2V[C2(CCH),SGV(C4H2Cl2)]
 Deg. of freedom    10
 Full point group                 C2V     NOp   4
 Largest Abelian subgroup         C2V     NOp   4
 Largest concise Abelian subgroup C2      NOp   2
                         Standard orientation:                         
 ---------------------------------------------------------------------
 Center     Atomic      Atomic             Coordinates (Angstroms)
 Number     Number       Type             X           Y           Z
 ---------------------------------------------------------------------
      1          6           0        0.000000    0.000000   -0.639680
      2          6           0       -0.000000    1.235131   -0.038737
      3          6           0       -0.000000    1.226924    1.371888
      4          6           0       -0.000000    0.000000    2.048637
      5          6           0       -0.000000   -1.226924    1.371888
      6          6           0       -0.000000   -1.235131   -0.038737
      7         17           0       -0.000000    2.663561   -0.925585
      8          1           0       -0.000000    2.173610    1.934105
      9          1           0       -0.000000   -0.000000    3.150112
     10          1           0       -0.000000   -2.173610    1.934105
     11         17           0       -0.000000   -2.663561   -0.925585
 ---------------------------------------------------------------------
 Rotational constants (GHZ):           2.8486953           0.8736907           0.6686245
 Standard basis: VSTO-6G (5D, 7F)
 There are    15 symmetry adapted cartesian basis functions of A1  symmetry.
 There are     3 symmetry adapted cartesian basis functions of A2  symmetry.
 There are     5 symmetry adapted cartesian basis functions of B1  symmetry.
 There are    12 symmetry adapted cartesian basis functions of B2  symmetry.
 There are    15 symmetry adapted basis functions of A1  symmetry.
 There are     3 symmetry adapted basis functions of A2  symmetry.
 There are     5 symmetry adapted basis functions of B1  symmetry.
 There are    12 symmetry adapted basis functions of B2  symmetry.
    35 basis functions,   210 primitive gaussians,    35 cartesian basis functions
    21 alpha electrons       20 beta electrons
       nuclear repulsion energy       195.6178719250 Hartrees.
 Integral buffers will be    131072 words long.
 Regular integral format.
 Two-electron integral symmetry is turned off.
 Do NDO integrals.
 One-electron integrals computed using PRISM.
 NBasis=    35 RedAO= T EigKep=  1.00D+00  NBF=    15     3     5    12
 NBsUse=    35 1.00D-06 EigRej= -1.00D+00 NBFU=    15     3     5    12
 Initial guess from the checkpoint file:  "calcs/am1/chks/ClPh_26_rad.chk"
 B after Tr=     0.000000   -0.000000   -0.000000
         Rot=    1.000000   -0.000000    0.000000   -0.000000 Ang=   0.00 deg.
 Initial guess orbital symmetries:
 Alpha Orbitals:
       Occupied  (A1) (B2) (A1) (B2) (A1) (B2) (A1) (A1) (B2) (A1)
                 (B2) (B1) (A1) (A2) (B2) (A1) (B1) (B2) (A1) (B1)
                 (A2)
       Virtual   (A2) (B1) (A1) (B2) (B1) (A1) (A1) (B2) (A1) (B2)
                 (A1) (B2) (B2) (A1)
 Beta  Orbitals:
       Occupied  (A1) (B2) (A1) (B2) (A1) (B2) (A1) (A1) (B2) (A1)
                 (B2) (B1) (A1) (A2) (B2) (B1) (A1) (B2) (B1) (A2)
       Virtual   (A1) (A2) (B1) (A1) (B2) (B1) (A1) (A1) (B2) (A1)
                 (B2) (A1) (B2) (A1) (B2)
 Initial guess <Sx>= 0.0000 <Sy>= 0.0000 <Sz>= 0.5000 <S**2>= 1.2610 S= 0.7292
 Keep J ints in memory in canonical form, NReq=862793.
 Overlap will be assumed to be unity.
 Requested convergence on RMS density matrix=1.00D-08 within  32 cycles.
 Requested convergence on MAX density matrix=1.00D-06.
 Requested convergence on             energy=1.00D-06.
 No special actions if energy rises.
 Fock symm off for IB=2 I1=    1 I=   16 J=   13 Cut=1.00D-07 Err=8.44D-04
 Fock matrix is not symmetric: symmetry in diagonalization turned off.
 SCF Done:  E(UAM1) =  0.981568659337E-01 A.U. after   15 cycles
            NFock= 14  Conv=0.83D-08     -V/T= 1.0011
 <Sx>= 0.0000 <Sy>= 0.0000 <Sz>= 0.5000 <S**2>= 1.2436 S= 0.7221
 <L.S>=  0.00000000000    
 Annihilation of the first spin contaminant:
 S**2 before annihilation     1.2436,   after     0.9598
 QCSCF skips out because SCF is already converged.
 Calling FoFJK, ICntrl=      2127 FMM=F ISym2X=1 I1Cent= 0 IOpClX= 1 NMat=1 NMatS=1 NMatT=0.
 ***** Axes restored to original set *****
 -------------------------------------------------------------------
 Center     Atomic                   Forces (Hartrees/Bohr)
 Number     Number              X              Y              Z
 -------------------------------------------------------------------
      1        6          -0.000000000    0.001130055    0.000000000
      2        6           0.001517346    0.001626176    0.000000000
      3        6           0.000895503   -0.003044105   -0.000000000
      4        6          -0.000000000   -0.001657763    0.000000000
      5        6          -0.000895503   -0.003044105   -0.000000000
      6        6          -0.001517346    0.001626176    0.000000000
      7       17           0.001568891    0.000655538   -0.000000000
      8        1          -0.000999850    0.000914028   -0.000000000
      9        1          -0.000000000    0.000224435    0.000000000
     10        1           0.000999850    0.000914028   -0.000000000
     11       17          -0.001568891    0.000655538   -0.000000000
 -------------------------------------------------------------------
 Cartesian Forces:  Max     0.003044105 RMS     0.001148896

 GradGradGradGradGradGradGradGradGradGradGradGradGradGradGradGradGradGrad
 Berny optimization.
 Using GEDIIS/GDIIS optimizer.
 FormGI is forming the generalized inverse of G from B-inverse, IUseBI=4.
 Internal  Forces:  Max     0.002850635 RMS     0.000946126
 Search for a local minimum.
 Step number   3 out of a maximum of   57
 All quantities printed in internal units (Hartrees-Bohrs-Radians)
 Mixed Optimization -- En-DIIS/RFO-DIIS
 Update second derivatives using D2CorX and points    1    2    3
 DE= -1.00D-03 DEPred=-1.03D-03 R= 9.77D-01
 TightC=F SS=  1.41D+00  RLast= 9.69D-02 DXNew= 8.4853D-01 2.9064D-01
 Trust test= 9.77D-01 RLast= 9.69D-02 DXMaxT set to 5.05D-01
 ITU=  1  1  0
 Use linear search instead of GDIIS.
     Eigenvalues ---    0.02221   0.02221   0.02221   0.02221   0.02221
     Eigenvalues ---    0.02221   0.02221   0.02221   0.15976   0.16000
     Eigenvalues ---    0.16000   0.17168   0.22236   0.23471   0.25000
     Eigenvalues ---    0.25075   0.31050   0.31476   0.35994   0.36011
     Eigenvalues ---    0.37262   0.43412   0.45744   0.47319   0.47319
     Eigenvalues ---    0.47700   0.60601
 RFO step:  Lambda=-9.58209383D-05 EMin= 2.22103665D-02
 Quartic linear search produced a step of -0.03059.
 Iteration  1 RMS(Cart)=  0.00312132 RMS(Int)=  0.00000290
 Iteration  2 RMS(Cart)=  0.00000273 RMS(Int)=  0.00000040
 Iteration  3 RMS(Cart)=  0.00000000 RMS(Int)=  0.00000040
 ClnCor:  largest displacement from symmetrization is 2.00D-12 for atom     9.
 Variable       Old X    -DE/DX   Delta X   Delta X   Delta X     New X
                                 (Linear)    (Quad)   (Total)
    R1        2.59566   0.00241   0.00018   0.00458   0.00476   2.60042
    R2        2.59566   0.00241   0.00018   0.00458   0.00476   2.60042
    R3        2.66574   0.00285  -0.00021   0.00636   0.00615   2.67189
    R4        3.17728   0.00168   0.00106   0.00266   0.00372   3.18099
    R5        2.64786   0.00085   0.00066   0.00050   0.00116   2.64903
    R6        2.08068  -0.00133   0.00007  -0.00346  -0.00339   2.07728
    R7        2.64786   0.00085   0.00066   0.00050   0.00116   2.64903
    R8        2.08149  -0.00022  -0.00003  -0.00034  -0.00037   2.08112
    R9        2.66574   0.00285  -0.00021   0.00636   0.00615   2.67189
   R10        2.08068  -0.00133   0.00007  -0.00346  -0.00339   2.07728
   R11        3.17728   0.00168   0.00106   0.00266   0.00372   3.18099
    A1        2.23595   0.00007  -0.00138   0.00414   0.00277   2.23871
    A2        2.01780  -0.00061   0.00102  -0.00440  -0.00338   2.01442
    A3        2.13316   0.00074  -0.00062   0.00404   0.00343   2.13658
    A4        2.13223  -0.00012  -0.00041   0.00036  -0.00005   2.13218
    A5        2.08067   0.00066  -0.00008   0.00249   0.00241   2.08308
    A6        2.10088  -0.00061  -0.00005  -0.00281  -0.00286   2.09803
    A7        2.10163  -0.00004   0.00013   0.00032   0.00045   2.10208
    A8        2.13348  -0.00015  -0.00051  -0.00033  -0.00083   2.13265
    A9        2.07485   0.00008   0.00025   0.00016   0.00042   2.07527
   A10        2.07485   0.00008   0.00025   0.00016   0.00042   2.07527
   A11        2.08067   0.00066  -0.00008   0.00249   0.00241   2.08308
   A12        2.10163  -0.00004   0.00013   0.00032   0.00045   2.10208
   A13        2.10088  -0.00061  -0.00005  -0.00281  -0.00286   2.09803
   A14        2.01780  -0.00061   0.00102  -0.00440  -0.00338   2.01442
   A15        2.13316   0.00074  -0.00062   0.00404   0.00343   2.13658
   A16        2.13223  -0.00012  -0.00041   0.00036  -0.00005   2.13218
    D1        0.00000  -0.00000   0.00000  -0.00000   0.00000   0.00000
    D2        3.14159  -0.00000   0.00000  -0.00000   0.00000   3.14159
    D3       -0.00000   0.00000   0.00000   0.00000   0.00000   0.00000
    D4        3.14159   0.00000   0.00000   0.00000   0.00000   3.14159
    D5        0.00000  -0.00000   0.00000  -0.00000   0.00000   0.00000
    D6        3.14159  -0.00000   0.00000  -0.00000   0.00000   3.14159
    D7        3.14159   0.00000   0.00000   0.00000   0.00000   3.14159
    D8       -0.00000   0.00000   0.00000   0.00000   0.00000   0.00000
    D9       -0.00000   0.00000   0.00000   0.00000   0.00000   0.00000
   D10        3.14159  -0.00000   0.00000  -0.00000   0.00000   3.14159
   D11        3.14159   0.00000   0.00000   0.00000   0.00000   3.14159
   D12       -0.00000   0.00000   0.00000   0.00000   0.00000   0.00000
   D13        0.00000  -0.00000   0.00000  -0.00000   0.00000   0.00000
   D14        3.14159  -0.00000   0.00000  -0.00000   0.00000   3.14159
   D15        3.14159   0.00000   0.00000   0.00000   0.00000   3.14159
   D16       -0.00000  -0.00000   0.00000  -0.00000   0.00000   0.00000
   D17       -0.00000   0.00000   0.00000   0.00000   0.00000   0.00000
   D18        3.14159  -0.00000   0.00000  -0.00000   0.00000   3.14159
   D19        3.14159   0.00000   0.00000   0.00000   0.00000   3.14159
   D20        0.00000  -0.00000   0.00000  -0.00000   0.00000   0.00000
         Item               Value     Threshold  Converged?
 Maximum Force            0.002851     0.000450     NO 
 RMS     Force            0.000946     0.000300     NO 
 Maximum Displacement     0.012431     0.001800     NO 
 RMS     Displacement     0.003121     0.001200     NO 
 Predicted change in Energy=-4.887606D-05
 GradGradGradGradGradGradGradGradGradGradGradGradGradGradGradGradGradGrad

                          Input orientation:                          
 ---------------------------------------------------------------------
 Center     Atomic      Atomic             Coordinates (Angstroms)
 Number     Number       Type             X           Y           Z
 ---------------------------------------------------------------------
      1          6           0        0.000000    1.316720    0.000000
      2          6           0        1.238227    0.716387   -0.000000
      3          6           0        1.227181   -0.697472   -0.000000
      4          6           0       -0.000000   -1.375027    0.000000
      5          6           0       -1.227181   -0.697472    0.000000
      6          6           0       -1.238227    0.716387    0.000000
      7         17           0        2.670139    1.601349   -0.000000
      8          1           0        2.172809   -1.257956   -0.000000
      9          1           0       -0.000000   -2.476307    0.000000
     10          1           0       -2.172809   -1.257956    0.000000
     11         17           0       -2.670139    1.601349    0.000000
 ---------------------------------------------------------------------
                    Distance matrix (angstroms):
                    1          2          3          4          5
     1  C    0.000000
     2  C    1.376083   0.000000
     3  C    2.358590   1.413902   0.000000
     4  C    2.691747   2.430477   1.401804   0.000000
     5  C    2.358590   2.842048   2.454363   1.401804   0.000000
     6  C    1.376083   2.476454   2.842048   2.430477   1.413902
     7  Cl   2.685267   1.683310   2.714168   3.998557   4.524786
     8  H    3.368984   2.184370   1.099252   2.175961   3.445878
     9  H    3.793027   3.424398   2.161071   1.101280   2.161071
    10  H    3.368984   3.941218   3.445878   2.175961   1.099252
    11  Cl   2.685267   4.007304   4.524786   3.998557   2.714168
                    6          7          8          9         10
     6  C    0.000000
     7  Cl   4.007304   0.000000
     8  H    3.941218   2.902234   0.000000
     9  H    3.424398   4.874108   2.491080   0.000000
    10  H    2.184370   5.624036   4.345618   2.491080   0.000000
    11  Cl   1.683310   5.340279   5.624036   4.874108   2.902234
                   11
    11  Cl   0.000000
 Stoichiometry    C6H3Cl2(2)
 Framework group  C2V[C2(CCH),SGV(C4H2Cl2)]
 Deg. of freedom    10
 Full point group                 C2V     NOp   4
 Largest Abelian subgroup         C2V     NOp   4
 Largest concise Abelian subgroup C2      NOp   2
                         Standard orientation:                         
 ---------------------------------------------------------------------
 Center     Atomic      Atomic             Coordinates (Angstroms)
 Number     Number       Type             X           Y           Z
 ---------------------------------------------------------------------
      1          6           0       -0.000000    0.000000   -0.640956
      2          6           0        0.000000    1.238227   -0.040623
      3          6           0        0.000000    1.227181    1.373236
      4          6           0        0.000000    0.000000    2.050791
      5          6           0       -0.000000   -1.227181    1.373236
      6          6           0       -0.000000   -1.238227   -0.040623
      7         17           0        0.000000    2.670139   -0.925585
      8          1           0        0.000000    2.172809    1.933720
      9          1           0        0.000000    0.000000    3.152071
     10          1           0       -0.000000   -2.172809    1.933720
     11         17           0       -0.000000   -2.670139   -0.925585
 ---------------------------------------------------------------------
 Rotational constants (GHZ):           2.8450495           0.8697126           0.6660925
 Standard basis: VSTO-6G (5D, 7F)
 There are    15 symmetry adapted cartesian basis functions of A1  symmetry.
 There are     3 symmetry adapted cartesian basis functions of A2  symmetry.
 There are     5 symmetry adapted cartesian basis functions of B1  symmetry.
 There are    12 symmetry adapted cartesian basis functions of B2  symmetry.
 There are    15 symmetry adapted basis functions of A1  symmetry.
 There are     3 symmetry adapted basis functions of A2  symmetry.
 There are     5 symmetry adapted basis functions of B1  symmetry.
 There are    12 symmetry adapted basis functions of B2  symmetry.
    35 basis functions,   210 primitive gaussians,    35 cartesian basis functions
    21 alpha electrons       20 beta electrons
       nuclear repulsion energy       195.4527083783 Hartrees.
 Integral buffers will be    131072 words long.
 Regular integral format.
 Two-electron integral symmetry is turned off.
 Do NDO integrals.
 One-electron integrals computed using PRISM.
 NBasis=    35 RedAO= T EigKep=  1.00D+00  NBF=    15     3     5    12
 NBsUse=    35 1.00D-06 EigRej= -1.00D+00 NBFU=    15     3     5    12
 Initial guess from the checkpoint file:  "calcs/am1/chks/ClPh_26_rad.chk"
 B after Tr=    -0.000000    0.000000   -0.000000
         Rot=    1.000000    0.000000   -0.000000    0.000000 Ang=   0.00 deg.
 Initial guess orbital symmetries:
 Alpha Orbitals:
       Occupied  (A1) (B2) (A1) (B2) (A1) (B2) (A1) (A1) (B2) (A1)
                 (B2) (B1) (A1) (A2) (B2) (A1) (B1) (B2) (A1) (B1)
                 (A2)
       Virtual   (A2) (B1) (A1) (B2) (B1) (A1) (A1) (B2) (A1) (B2)
                 (A1) (B2) (B2) (A1)
 Beta  Orbitals:
       Occupied  (A1) (B2) (A1) (B2) (A1) (B2) (A1) (A1) (B2) (A1)
                 (B2) (B1) (A1) (A2) (B2) (B1) (A1) (B2) (B1) (A2)
       Virtual   (A1) (A2) (B1) (A1) (B2) (B1) (A1) (A1) (B2) (A1)
                 (B2) (A1) (B2) (A1) (B2)
 Initial guess <Sx>= 0.0000 <Sy>= 0.0000 <Sz>= 0.5000 <S**2>= 1.2436 S= 0.7221
 Keep J ints in memory in canonical form, NReq=862793.
 Overlap will be assumed to be unity.
 Requested convergence on RMS density matrix=1.00D-08 within  32 cycles.
 Requested convergence on MAX density matrix=1.00D-06.
 Requested convergence on             energy=1.00D-06.
 No special actions if energy rises.
 Fock symm off for IB=2 I1=    1 I=   16 J=    8 Cut=1.00D-07 Err=2.28D-05
 Fock matrix is not symmetric: symmetry in diagonalization turned off.
 SCF Done:  E(UAM1) =  0.981227578241E-01 A.U. after   14 cycles
            NFock= 13  Conv=0.46D-08     -V/T= 1.0011
 <Sx>= 0.0000 <Sy>= 0.0000 <Sz>= 0.5000 <S**2>= 1.2567 S= 0.7275
 <L.S>=  0.00000000000    
 Annihilation of the first spin contaminant:
 S**2 before annihilation     1.2567,   after     0.9724
 QCSCF skips out because SCF is already converged.
 Calling FoFJK, ICntrl=      2127 FMM=F ISym2X=1 I1Cent= 0 IOpClX= 1 NMat=1 NMatS=1 NMatT=0.
 ***** Axes restored to original set *****
 -------------------------------------------------------------------
 Center     Atomic                   Forces (Hartrees/Bohr)
 Number     Number              X              Y              Z
 -------------------------------------------------------------------
      1        6          -0.000000000   -0.000843428    0.000000000
      2        6          -0.001334893   -0.000206614   -0.000000000
      3        6          -0.000157284    0.000336379    0.000000000
      4        6           0.000000000    0.000440352    0.000000000
      5        6           0.000157284    0.000336379    0.000000000
      6        6           0.001334893   -0.000206614    0.000000000
      7       17          -0.000253665   -0.000287334   -0.000000000
      8        1          -0.000050798    0.000263561   -0.000000000
      9        1          -0.000000000    0.000191094    0.000000000
     10        1           0.000050798    0.000263561   -0.000000000
     11       17           0.000253665   -0.000287334   -0.000000000
 -------------------------------------------------------------------
 Cartesian Forces:  Max     0.001334893 RMS     0.000400936

 GradGradGradGradGradGradGradGradGradGradGradGradGradGradGradGradGradGrad
 Berny optimization.
 Using GEDIIS/GDIIS optimizer.
 FormGI is forming the generalized inverse of G from B-inverse, IUseBI=4.
 Internal  Forces:  Max     0.001368870 RMS     0.000393320
 Search for a local minimum.
 Step number   4 out of a maximum of   57
 All quantities printed in internal units (Hartrees-Bohrs-Radians)
 Mixed Optimization -- En-DIIS/RFO-DIIS
 Swapping is turned off.
 Update second derivatives using D2CorX and points    1    2    3    4
 DE= -3.41D-05 DEPred=-4.89D-05 R= 6.98D-01
 TightC=F SS=  1.41D+00  RLast= 1.61D-02 DXNew= 8.4853D-01 4.8156D-02
 Trust test= 6.98D-01 RLast= 1.61D-02 DXMaxT set to 5.05D-01
 ITU=  1  1  1  0
     Eigenvalues ---    0.02221   0.02221   0.02221   0.02221   0.02221
     Eigenvalues ---    0.02221   0.02221   0.02221   0.15158   0.16000
     Eigenvalues ---    0.16000   0.18202   0.22088   0.23468   0.24711
     Eigenvalues ---    0.25000   0.31275   0.31476   0.35687   0.35994
     Eigenvalues ---    0.36289   0.43423   0.44940   0.47319   0.47319
     Eigenvalues ---    0.55183   0.73400
 En-DIIS/RFO-DIIS/Sim-DIIS IScMMF=       -3 using points:     4    3
 RFO step:  Lambda=-1.17991453D-05.
 DidBck=F Rises=F RFO-DIIS coefs:    0.85040    0.14960
 Iteration  1 RMS(Cart)=  0.00111107 RMS(Int)=  0.00000059
 Iteration  2 RMS(Cart)=  0.00000063 RMS(Int)=  0.00000008
 ClnCor:  largest displacement from symmetrization is 1.18D-12 for atom     9.
 Variable       Old X    -DE/DX   Delta X   Delta X   Delta X     New X
                                 (Linear)    (Quad)   (Total)
    R1        2.60042  -0.00137  -0.00071  -0.00126  -0.00197   2.59845
    R2        2.60042  -0.00137  -0.00071  -0.00126  -0.00197   2.59845
    R3        2.67189  -0.00092  -0.00092  -0.00031  -0.00123   2.67066
    R4        3.18099  -0.00037  -0.00056   0.00021  -0.00034   3.18065
    R5        2.64903  -0.00057  -0.00017  -0.00037  -0.00054   2.64849
    R6        2.07728  -0.00018   0.00051  -0.00101  -0.00050   2.07678
    R7        2.64903  -0.00057  -0.00017  -0.00037  -0.00054   2.64849
    R8        2.08112  -0.00019   0.00006  -0.00047  -0.00042   2.08070
    R9        2.67189  -0.00092  -0.00092  -0.00031  -0.00123   2.67066
   R10        2.07728  -0.00018   0.00051  -0.00101  -0.00050   2.07678
   R11        3.18099  -0.00037  -0.00056   0.00021  -0.00034   3.18065
    A1        2.23871  -0.00017  -0.00041  -0.00072  -0.00113   2.23758
    A2        2.01442   0.00034   0.00051   0.00063   0.00114   2.01556
    A3        2.13658   0.00001  -0.00051   0.00053   0.00001   2.13659
    A4        2.13218  -0.00035   0.00001  -0.00116  -0.00115   2.13103
    A5        2.08308  -0.00015  -0.00036   0.00010  -0.00026   2.08282
    A6        2.09803  -0.00013   0.00043  -0.00141  -0.00098   2.09705
    A7        2.10208   0.00028  -0.00007   0.00130   0.00124   2.10331
    A8        2.13265  -0.00021   0.00012  -0.00076  -0.00063   2.13202
    A9        2.07527   0.00011  -0.00006   0.00038   0.00032   2.07558
   A10        2.07527   0.00011  -0.00006   0.00038   0.00032   2.07558
   A11        2.08308  -0.00015  -0.00036   0.00010  -0.00026   2.08282
   A12        2.10208   0.00028  -0.00007   0.00130   0.00124   2.10331
   A13        2.09803  -0.00013   0.00043  -0.00141  -0.00098   2.09705
   A14        2.01442   0.00034   0.00051   0.00063   0.00114   2.01556
   A15        2.13658   0.00001  -0.00051   0.00053   0.00001   2.13659
   A16        2.13218  -0.00035   0.00001  -0.00116  -0.00115   2.13103
    D1        0.00000  -0.00000   0.00000  -0.00000   0.00000   0.00000
    D2        3.14159  -0.00000   0.00000  -0.00000   0.00000   3.14159
    D3       -0.00000   0.00000   0.00000   0.00000   0.00000   0.00000
    D4        3.14159   0.00000   0.00000   0.00000   0.00000   3.14159
    D5        0.00000   0.00000   0.00000  -0.00000  -0.00000   0.00000
    D6        3.14159  -0.00000   0.00000  -0.00000   0.00000   3.14159
    D7        3.14159   0.00000   0.00000   0.00000   0.00000   3.14159
    D8       -0.00000   0.00000   0.00000   0.00000   0.00000   0.00000
    D9       -0.00000   0.00000   0.00000   0.00000   0.00000   0.00000
   D10        3.14159  -0.00000   0.00000  -0.00000   0.00000   3.14159
   D11        3.14159   0.00000   0.00000   0.00000   0.00000   3.14159
   D12       -0.00000   0.00000   0.00000   0.00000   0.00000   0.00000
   D13        0.00000  -0.00000   0.00000  -0.00000   0.00000   0.00000
   D14        3.14159  -0.00000   0.00000  -0.00000   0.00000   3.14159
   D15        3.14159   0.00000   0.00000   0.00000   0.00000   3.14159
   D16        0.00000  -0.00000   0.00000  -0.00000   0.00000   0.00000
   D17        0.00000   0.00000   0.00000   0.00000  -0.00000   0.00000
   D18        3.14159  -0.00000   0.00000  -0.00000   0.00000   3.14159
   D19        3.14159   0.00000   0.00000   0.00000   0.00000   3.14159
   D20       -0.00000  -0.00000   0.00000  -0.00000   0.00000   0.00000
         Item               Value     Threshold  Converged?
 Maximum Force            0.001369     0.000450     NO 
 RMS     Force            0.000393     0.000300     NO 
 Maximum Displacement     0.003355     0.001800     NO 
 RMS     Displacement     0.001111     0.001200     YES
 Predicted change in Energy=-5.899739D-06
 GradGradGradGradGradGradGradGradGradGradGradGradGradGradGradGradGradGrad

                          Input orientation:                          
 ---------------------------------------------------------------------
 Center     Atomic      Atomic             Coordinates (Angstroms)
 Number     Number       Type             X           Y           Z
 ---------------------------------------------------------------------
      1          6           0        0.000000    1.316493    0.000000
      2          6           0        1.236948    0.715914   -0.000000
      3          6           0        1.226718   -0.697299   -0.000000
      4          6           0       -0.000000   -1.375103    0.000000
      5          6           0       -1.226718   -0.697299    0.000000
      6          6           0       -1.236948    0.715914    0.000000
      7         17           0        2.669218    1.599952   -0.000000
      8          1           0        2.172985   -1.256181   -0.000000
      9          1           0       -0.000000   -2.476163    0.000000
     10          1           0       -2.172985   -1.256181    0.000000
     11         17           0       -2.669218    1.599952    0.000000
 ---------------------------------------------------------------------
                    Distance matrix (angstroms):
                    1          2          3          4          5
     1  C    0.000000
     2  C    1.375040   0.000000
     3  C    2.358006   1.413250   0.000000
     4  C    2.691596   2.429484   1.401519   0.000000
     5  C    2.358006   2.840215   2.453436   1.401519   0.000000
     6  C    1.375040   2.473896   2.840215   2.429484   1.413250
     7  Cl   2.684227   1.683128   2.712595   3.996959   4.522796
     8  H    3.367568   2.182962   1.098986   2.176237   3.445335
     9  H    3.792656   3.423361   2.160832   1.101060   2.160832
    10  H    3.367568   3.939138   3.445335   2.176237   1.098986
    11  Cl   2.684227   4.004954   4.522796   3.996959   2.712595
                    6          7          8          9         10
     6  C    0.000000
     7  Cl   4.004954   0.000000
     8  H    3.939138   2.898921   0.000000
     9  H    3.423361   4.872314   2.492032   0.000000
    10  H    2.182962   5.621782   4.345971   2.492032   0.000000
    11  Cl   1.683128   5.338436   5.621782   4.872314   2.898921
                   11
    11  Cl   0.000000
 Stoichiometry    C6H3Cl2(2)
 Framework group  C2V[C2(CCH),SGV(C4H2Cl2)]
 Deg. of freedom    10
 Full point group                 C2V     NOp   4
 Largest Abelian subgroup         C2V     NOp   4
 Largest concise Abelian subgroup C2      NOp   2
                         Standard orientation:                         
 ---------------------------------------------------------------------
 Center     Atomic      Atomic             Coordinates (Angstroms)
 Number     Number       Type             X           Y           Z
 ---------------------------------------------------------------------
      1          6           0       -0.000000    0.000000   -0.641403
      2          6           0        0.000000    1.236948   -0.040824
      3          6           0        0.000000    1.226718    1.372389
      4          6           0        0.000000   -0.000000    2.050193
      5          6           0       -0.000000   -1.226718    1.372389
      6          6           0       -0.000000   -1.236948   -0.040824
      7         17           0        0.000000    2.669218   -0.924862
      8          1           0        0.000000    2.172985    1.931271
      9          1           0        0.000000    0.000000    3.151253
     10          1           0       -0.000000   -2.172985    1.931271
     11         17           0       -0.000000   -2.669218   -0.924862
 ---------------------------------------------------------------------
 Rotational constants (GHZ):           2.8481756           0.8703802           0.6666555
 Standard basis: VSTO-6G (5D, 7F)
 There are    15 symmetry adapted cartesian basis functions of A1  symmetry.
 There are     3 symmetry adapted cartesian basis functions of A2  symmetry.
 There are     5 symmetry adapted cartesian basis functions of B1  symmetry.
 There are    12 symmetry adapted cartesian basis functions of B2  symmetry.
 There are    15 symmetry adapted basis functions of A1  symmetry.
 There are     3 symmetry adapted basis functions of A2  symmetry.
 There are     5 symmetry adapted basis functions of B1  symmetry.
 There are    12 symmetry adapted basis functions of B2  symmetry.
    35 basis functions,   210 primitive gaussians,    35 cartesian basis functions
    21 alpha electrons       20 beta electrons
       nuclear repulsion energy       195.5007073006 Hartrees.
 Integral buffers will be    131072 words long.
 Regular integral format.
 Two-electron integral symmetry is turned off.
 Do NDO integrals.
 One-electron integrals computed using PRISM.
 NBasis=    35 RedAO= T EigKep=  1.00D+00  NBF=    15     3     5    12
 NBsUse=    35 1.00D-06 EigRej= -1.00D+00 NBFU=    15     3     5    12
 Initial guess from the checkpoint file:  "calcs/am1/chks/ClPh_26_rad.chk"
 B after Tr=     0.000000   -0.000000    0.000000
         Rot=    1.000000   -0.000000   -0.000000   -0.000000 Ang=   0.00 deg.
 Initial guess orbital symmetries:
 Alpha Orbitals:
       Occupied  (A1) (B2) (A1) (B2) (A1) (B2) (A1) (A1) (B2) (A1)
                 (B2) (B1) (A1) (A2) (B2) (A1) (B1) (B2) (A1) (B1)
                 (A2)
       Virtual   (A2) (B1) (A1) (B2) (B1) (A1) (A1) (B2) (A1) (B2)
                 (A1) (B2) (B2) (A1)
 Beta  Orbitals:
       Occupied  (A1) (B2) (A1) (B2) (A1) (B2) (A1) (A1) (B2) (A1)
                 (B2) (B1) (A1) (A2) (B2) (B1) (A1) (B2) (B1) (A2)
       Virtual   (A1) (A2) (B1) (A1) (B2) (B1) (A1) (A1) (B2) (A1)
                 (B2) (A1) (B2) (A1) (B2)
 Initial guess <Sx>= 0.0000 <Sy>= 0.0000 <Sz>= 0.5000 <S**2>= 1.2567 S= 0.7275
 Keep J ints in memory in canonical form, NReq=862793.
 Overlap will be assumed to be unity.
 Requested convergence on RMS density matrix=1.00D-08 within  32 cycles.
 Requested convergence on MAX density matrix=1.00D-06.
 Requested convergence on             energy=1.00D-06.
 No special actions if energy rises.
 Fock symm off for IB=2 I1=    1 I=   16 J=   13 Cut=1.00D-07 Err=2.23D-05
 Fock matrix is not symmetric: symmetry in diagonalization turned off.
 SCF Done:  E(UAM1) =  0.981164489447E-01 A.U. after   12 cycles
            NFock= 11  Conv=0.87D-08     -V/T= 1.0011
 <Sx>= 0.0000 <Sy>= 0.0000 <Sz>= 0.5000 <S**2>= 1.2525 S= 0.7258
 <L.S>=  0.00000000000    
 Annihilation of the first spin contaminant:
 S**2 before annihilation     1.2525,   after     0.9684
 QCSCF skips out because SCF is already converged.
 Calling FoFJK, ICntrl=      2127 FMM=F ISym2X=1 I1Cent= 0 IOpClX= 1 NMat=1 NMatS=1 NMatT=0.
 ***** Axes restored to original set *****
 -------------------------------------------------------------------
 Center     Atomic                   Forces (Hartrees/Bohr)
 Number     Number              X              Y              Z
 -------------------------------------------------------------------
      1        6           0.000000000   -0.000003574    0.000000000
      2        6          -0.000094069    0.000075088    0.000000000
      3        6          -0.000036530   -0.000109561   -0.000000000
      4        6          -0.000000000    0.000097858    0.000000000
      5        6           0.000036530   -0.000109561   -0.000000000
      6        6           0.000094069    0.000075088   -0.000000000
      7       17           0.000022133   -0.000061084   -0.000000000
      8        1           0.000064450    0.000031531   -0.000000000
      9        1          -0.000000000    0.000033768    0.000000000
     10        1          -0.000064450    0.000031531   -0.000000000
     11       17          -0.000022133   -0.000061084   -0.000000000
 -------------------------------------------------------------------
 Cartesian Forces:  Max     0.000109561 RMS     0.000050787

 GradGradGradGradGradGradGradGradGradGradGradGradGradGradGradGradGradGrad
 Berny optimization.
 Using GEDIIS/GDIIS optimizer.
 FormGI is forming the generalized inverse of G from B-inverse, IUseBI=4.
 Internal  Forces:  Max     0.000121456 RMS     0.000040755
 Search for a local minimum.
 Step number   5 out of a maximum of   57
 All quantities printed in internal units (Hartrees-Bohrs-Radians)
 Mixed Optimization -- En-DIIS/RFO-DIIS
 Swapping is turned off.
 Update second derivatives using D2CorX and points    1    2    3    4    5
 DE= -6.31D-06 DEPred=-5.90D-06 R= 1.07D+00
 TightC=F SS=  1.41D+00  RLast= 4.95D-03 DXNew= 8.4853D-01 1.4858D-02
 Trust test= 1.07D+00 RLast= 4.95D-03 DXMaxT set to 5.05D-01
 ITU=  1  1  1  1  0
     Eigenvalues ---    0.02221   0.02221   0.02221   0.02221   0.02221
     Eigenvalues ---    0.02221   0.02221   0.02221   0.14258   0.16000
     Eigenvalues ---    0.16000   0.17951   0.22175   0.23152   0.23469
     Eigenvalues ---    0.25000   0.31217   0.31476   0.35994   0.36020
     Eigenvalues ---    0.36779   0.43416   0.44822   0.47319   0.47319
     Eigenvalues ---    0.55889   0.74478
 En-DIIS/RFO-DIIS/Sim-DIIS IScMMF=       -3 using points:     5    4    3
 RFO step:  Lambda=-3.86218825D-07.
 DidBck=F Rises=F RFO-DIIS coefs:    1.25010   -0.20978   -0.04031
 Iteration  1 RMS(Cart)=  0.00040269 RMS(Int)=  0.00000012
 Iteration  2 RMS(Cart)=  0.00000012 RMS(Int)=  0.00000002
 ClnCor:  largest displacement from symmetrization is 1.26D-12 for atom     9.
 Variable       Old X    -DE/DX   Delta X   Delta X   Delta X     New X
                                 (Linear)    (Quad)   (Total)
    R1        2.59845  -0.00002  -0.00030   0.00025  -0.00005   2.59840
    R2        2.59845  -0.00002  -0.00030   0.00025  -0.00005   2.59840
    R3        2.67066   0.00001  -0.00006   0.00012   0.00006   2.67072
    R4        3.18065  -0.00001   0.00006  -0.00008  -0.00002   3.18063
    R5        2.64849  -0.00005  -0.00009  -0.00003  -0.00012   2.64836
    R6        2.07678   0.00004  -0.00026   0.00035   0.00008   2.07687
    R7        2.64849  -0.00005  -0.00009  -0.00003  -0.00012   2.64836
    R8        2.08070  -0.00003  -0.00012  -0.00000  -0.00012   2.08058
    R9        2.67066   0.00001  -0.00006   0.00012   0.00006   2.67072
   R10        2.07678   0.00004  -0.00026   0.00035   0.00008   2.07687
   R11        3.18065  -0.00001   0.00006  -0.00008  -0.00002   3.18063
    A1        2.23758  -0.00006  -0.00017  -0.00011  -0.00028   2.23730
    A2        2.01556   0.00004   0.00015   0.00005   0.00020   2.01576
    A3        2.13659   0.00008   0.00014   0.00027   0.00041   2.13701
    A4        2.13103  -0.00012  -0.00029  -0.00032  -0.00061   2.13042
    A5        2.08282  -0.00002   0.00003  -0.00013  -0.00010   2.08273
    A6        2.09705  -0.00005  -0.00036  -0.00010  -0.00046   2.09659
    A7        2.10331   0.00007   0.00033   0.00023   0.00055   2.10387
    A8        2.13202   0.00002  -0.00019   0.00027   0.00008   2.13210
    A9        2.07558  -0.00001   0.00010  -0.00014  -0.00004   2.07554
   A10        2.07558  -0.00001   0.00010  -0.00014  -0.00004   2.07554
   A11        2.08282  -0.00002   0.00003  -0.00013  -0.00010   2.08273
   A12        2.10331   0.00007   0.00033   0.00023   0.00055   2.10387
   A13        2.09705  -0.00005  -0.00036  -0.00010  -0.00046   2.09659
   A14        2.01556   0.00004   0.00015   0.00005   0.00020   2.01576
   A15        2.13659   0.00008   0.00014   0.00027   0.00041   2.13701
   A16        2.13103  -0.00012  -0.00029  -0.00032  -0.00061   2.13042
    D1        0.00000  -0.00000   0.00000  -0.00000   0.00000   0.00000
    D2        3.14159  -0.00000   0.00000  -0.00000   0.00000   3.14159
    D3       -0.00000   0.00000   0.00000   0.00000   0.00000   0.00000
    D4        3.14159   0.00000   0.00000   0.00000   0.00000   3.14159
    D5        0.00000  -0.00000   0.00000  -0.00000  -0.00000   0.00000
    D6        3.14159  -0.00000   0.00000  -0.00000   0.00000   3.14159
    D7        3.14159   0.00000   0.00000   0.00000   0.00000   3.14159
    D8       -0.00000   0.00000   0.00000   0.00000   0.00000   0.00000
    D9       -0.00000   0.00000   0.00000   0.00000   0.00000   0.00000
   D10        3.14159  -0.00000   0.00000  -0.00000   0.00000   3.14159
   D11        3.14159   0.00000   0.00000   0.00000   0.00000   3.14159
   D12        0.00000   0.00000   0.00000   0.00000   0.00000   0.00000
   D13        0.00000  -0.00000   0.00000  -0.00000   0.00000   0.00000
   D14        3.14159  -0.00000   0.00000  -0.00000   0.00000   3.14159
   D15        3.14159   0.00000   0.00000   0.00000   0.00000   3.14159
   D16       -0.00000   0.00000   0.00000   0.00000   0.00000   0.00000
   D17       -0.00000  -0.00000   0.00000  -0.00000   0.00000   0.00000
   D18        3.14159  -0.00000   0.00000  -0.00000   0.00000   3.14159
   D19        3.14159   0.00000   0.00000   0.00000   0.00000   3.14159
   D20        0.00000  -0.00000   0.00000  -0.00000  -0.00000   0.00000
         Item               Value     Threshold  Converged?
 Maximum Force            0.000121     0.000450     YES
 RMS     Force            0.000041     0.000300     YES
 Maximum Displacement     0.001421     0.001800     YES
 RMS     Displacement     0.000403     0.001200     YES
 Predicted change in Energy=-1.922843D-07
 Optimization completed.
    -- Stationary point found.
                           ----------------------------
                           !   Optimized Parameters   !
                           ! (Angstroms and Degrees)  !
 --------------------------                            --------------------------
 ! Name  Definition              Value          Derivative Info.                !
 --------------------------------------------------------------------------------
 ! R1    R(1,2)                  1.375          -DE/DX =    0.0                 !
 ! R2    R(1,6)                  1.375          -DE/DX =    0.0                 !
 ! R3    R(2,3)                  1.4133         -DE/DX =    0.0                 !
 ! R4    R(2,7)                  1.6831         -DE/DX =    0.0                 !
 ! R5    R(3,4)                  1.4015         -DE/DX =   -0.0001              !
 ! R6    R(3,8)                  1.099          -DE/DX =    0.0                 !
 ! R7    R(4,5)                  1.4015         -DE/DX =   -0.0001              !
 ! R8    R(4,9)                  1.1011         -DE/DX =    0.0                 !
 ! R9    R(5,6)                  1.4133         -DE/DX =    0.0                 !
 ! R10   R(5,10)                 1.099          -DE/DX =    0.0                 !
 ! R11   R(6,11)                 1.6831         -DE/DX =    0.0                 !
 ! A1    A(2,1,6)              128.2038         -DE/DX =   -0.0001              !
 ! A2    A(1,2,3)              115.4833         -DE/DX =    0.0                 !
 ! A3    A(1,2,7)              122.4178         -DE/DX =    0.0001              !
 ! A4    A(3,2,7)              122.0988         -DE/DX =   -0.0001              !
 ! A5    A(2,3,4)              119.3369         -DE/DX =    0.0                 !
 ! A6    A(2,3,8)              120.1521         -DE/DX =   -0.0001              !
 ! A7    A(4,3,8)              120.511          -DE/DX =    0.0001              !
 ! A8    A(3,4,5)              122.1557         -DE/DX =    0.0                 !
 ! A9    A(3,4,9)              118.9222         -DE/DX =    0.0                 !
 ! A10   A(5,4,9)              118.9222         -DE/DX =    0.0                 !
 ! A11   A(4,5,6)              119.3369         -DE/DX =    0.0                 !
 ! A12   A(4,5,10)             120.511          -DE/DX =    0.0001              !
 ! A13   A(6,5,10)             120.1521         -DE/DX =   -0.0001              !
 ! A14   A(1,6,5)              115.4833         -DE/DX =    0.0                 !
 ! A15   A(1,6,11)             122.4178         -DE/DX =    0.0001              !
 ! A16   A(5,6,11)             122.0988         -DE/DX =   -0.0001              !
 ! D1    D(6,1,2,3)              0.0            -DE/DX =    0.0                 !
 ! D2    D(6,1,2,7)            180.0            -DE/DX =    0.0                 !
 ! D3    D(2,1,6,5)              0.0            -DE/DX =    0.0                 !
 ! D4    D(2,1,6,11)           180.0            -DE/DX =    0.0                 !
 ! D5    D(1,2,3,4)              0.0            -DE/DX =    0.0                 !
 ! D6    D(1,2,3,8)            180.0            -DE/DX =    0.0                 !
 ! D7    D(7,2,3,4)            180.0            -DE/DX =    0.0                 !
 ! D8    D(7,2,3,8)              0.0            -DE/DX =    0.0                 !
 ! D9    D(2,3,4,5)              0.0            -DE/DX =    0.0                 !
 ! D10   D(2,3,4,9)            180.0            -DE/DX =    0.0                 !
 ! D11   D(8,3,4,5)            180.0            -DE/DX =    0.0                 !
 ! D12   D(8,3,4,9)              0.0            -DE/DX =    0.0                 !
 ! D13   D(3,4,5,6)              0.0            -DE/DX =    0.0                 !
 ! D14   D(3,4,5,10)           180.0            -DE/DX =    0.0                 !
 ! D15   D(9,4,5,6)            180.0            -DE/DX =    0.0                 !
 ! D16   D(9,4,5,10)             0.0            -DE/DX =    0.0                 !
 ! D17   D(4,5,6,1)              0.0            -DE/DX =    0.0                 !
 ! D18   D(4,5,6,11)           180.0            -DE/DX =    0.0                 !
 ! D19   D(10,5,6,1)           180.0            -DE/DX =    0.0                 !
 ! D20   D(10,5,6,11)            0.0            -DE/DX =    0.0                 !
 --------------------------------------------------------------------------------
 GradGradGradGradGradGradGradGradGradGradGradGradGradGradGradGradGradGrad

                          Input orientation:                          
 ---------------------------------------------------------------------
 Center     Atomic      Atomic             Coordinates (Angstroms)
 Number     Number       Type             X           Y           Z
 ---------------------------------------------------------------------
      1          6           0        0.000000    1.316493    0.000000
      2          6           0        1.236948    0.715914    0.000000
      3          6           0        1.226718   -0.697299   -0.000000
      4          6           0       -0.000000   -1.375103    0.000000
      5          6           0       -1.226718   -0.697299    0.000000
      6          6           0       -1.236948    0.715914    0.000000
      7         17           0        2.669218    1.599952   -0.000000
      8          1           0        2.172985   -1.256181   -0.000000
      9          1           0       -0.000000   -2.476163    0.000000
     10          1           0       -2.172985   -1.256181    0.000000
     11         17           0       -2.669218    1.599952    0.000000
 ---------------------------------------------------------------------
                    Distance matrix (angstroms):
                    1          2          3          4          5
     1  C    0.000000
     2  C    1.375040   0.000000
     3  C    2.358006   1.413250   0.000000
     4  C    2.691596   2.429484   1.401519   0.000000
     5  C    2.358006   2.840215   2.453436   1.401519   0.000000
     6  C    1.375040   2.473896   2.840215   2.429484   1.413250
     7  Cl   2.684227   1.683128   2.712595   3.996959   4.522796
     8  H    3.367568   2.182962   1.098986   2.176237   3.445335
     9  H    3.792656   3.423361   2.160832   1.101060   2.160832
    10  H    3.367568   3.939138   3.445335   2.176237   1.098986
    11  Cl   2.684227   4.004954   4.522796   3.996959   2.712595
                    6          7          8          9         10
     6  C    0.000000
     7  Cl   4.004954   0.000000
     8  H    3.939138   2.898921   0.000000
     9  H    3.423361   4.872314   2.492032   0.000000
    10  H    2.182962   5.621782   4.345971   2.492032   0.000000
    11  Cl   1.683128   5.338436   5.621782   4.872314   2.898921
                   11
    11  Cl   0.000000
 Stoichiometry    C6H3Cl2(2)
 Framework group  C2V[C2(CCH),SGV(C4H2Cl2)]
 Deg. of freedom    10
 Full point group                 C2V     NOp   4
 Largest Abelian subgroup         C2V     NOp   4
 Largest concise Abelian subgroup C2      NOp   2
                         Standard orientation:                         
 ---------------------------------------------------------------------
 Center     Atomic      Atomic             Coordinates (Angstroms)
 Number     Number       Type             X           Y           Z
 ---------------------------------------------------------------------
      1          6           0       -0.000000    0.000000   -0.641403
      2          6           0        0.000000    1.236948   -0.040824
      3          6           0        0.000000    1.226718    1.372389
      4          6           0        0.000000    0.000000    2.050193
      5          6           0       -0.000000   -1.226718    1.372389
      6          6           0       -0.000000   -1.236948   -0.040824
      7         17           0        0.000000    2.669218   -0.924862
      8          1           0        0.000000    2.172985    1.931271
      9          1           0        0.000000   -0.000000    3.151253
     10          1           0       -0.000000   -2.172985    1.931271
     11         17           0       -0.000000   -2.669218   -0.924862
 ---------------------------------------------------------------------
 Rotational constants (GHZ):           2.8481756           0.8703802           0.6666555

 **********************************************************************

            Population analysis using the SCF Density.

 **********************************************************************

 Orbital symmetries:
 Alpha Orbitals:
       Occupied  (A1) (B2) (A1) (B2) (A1) (B2) (A1) (A1) (B2) (A1)
                 (B2) (B1) (A1) (A2) (B2) (A1) (B1) (B2) (A1) (B1)
                 (A2)
       Virtual   (A2) (B1) (A1) (B2) (B1) (A1) (A1) (B2) (A1) (B2)
                 (A1) (B2) (B2) (A1)
 Beta  Orbitals:
       Occupied  (A1) (B2) (A1) (B2) (A1) (B2) (A1) (A1) (B2) (A1)
                 (B2) (B1) (A1) (A2) (B2) (B1) (A1) (B2) (B1) (A2)
       Virtual   (A1) (A2) (B1) (A1) (B2) (B1) (A1) (A1) (B2) (A1)
                 (B2) (A1) (B2) (A1) (B2)
 The electronic state is 2-A1.
 Alpha  occ. eigenvalues --   -1.47105  -1.40446  -1.38078  -1.16816  -1.15491
 Alpha  occ. eigenvalues --   -0.88523  -0.86252  -0.68808  -0.62194  -0.61589
 Alpha  occ. eigenvalues --   -0.58099  -0.55542  -0.52286  -0.49570  -0.48749
 Alpha  occ. eigenvalues --   -0.45824  -0.44859  -0.44202  -0.40066  -0.38785
 Alpha  occ. eigenvalues --   -0.36919
 Alpha virt. eigenvalues --   -0.00583   0.00183   0.03952   0.05290   0.07783
 Alpha virt. eigenvalues --    0.12284   0.13008   0.13253   0.14357   0.14450
 Alpha virt. eigenvalues --    0.16814   0.17174   0.17902   0.18687
  Beta  occ. eigenvalues --   -1.46445  -1.40585  -1.37917  -1.16405  -1.13760
  Beta  occ. eigenvalues --   -0.88151  -0.84166  -0.68804  -0.61742  -0.59724
  Beta  occ. eigenvalues --   -0.57967  -0.55638  -0.51516  -0.50714  -0.48335
  Beta  occ. eigenvalues --   -0.45003  -0.44799  -0.43935  -0.37283  -0.36451
  Beta virt. eigenvalues --   -0.01027  -0.00408   0.01892   0.03606   0.04310
  Beta virt. eigenvalues --    0.08651   0.12823   0.13686   0.14185   0.14969
  Beta virt. eigenvalues --    0.14986   0.16995   0.18144   0.18864   0.19119
          Condensed to atoms (all electrons):
               1          2          3          4          5          6
     1  C    4.042364   0.000000   0.000000   0.000000   0.000000   0.000000
     2  C    0.000000   4.056348   0.000000   0.000000   0.000000   0.000000
     3  C    0.000000   0.000000   4.118540   0.000000   0.000000   0.000000
     4  C    0.000000   0.000000   0.000000   4.129368   0.000000   0.000000
     5  C    0.000000   0.000000   0.000000   0.000000   4.118540   0.000000
     6  C    0.000000   0.000000   0.000000   0.000000   0.000000   4.056348
     7  Cl   0.000000   0.000000   0.000000   0.000000   0.000000   0.000000
     8  H    0.000000   0.000000   0.000000   0.000000   0.000000   0.000000
     9  H    0.000000   0.000000   0.000000   0.000000   0.000000   0.000000
    10  H    0.000000   0.000000   0.000000   0.000000   0.000000   0.000000
    11  Cl   0.000000   0.000000   0.000000   0.000000   0.000000   0.000000
               7          8          9         10         11
     1  C    0.000000   0.000000   0.000000   0.000000   0.000000
     2  C    0.000000   0.000000   0.000000   0.000000   0.000000
     3  C    0.000000   0.000000   0.000000   0.000000   0.000000
     4  C    0.000000   0.000000   0.000000   0.000000   0.000000
     5  C    0.000000   0.000000   0.000000   0.000000   0.000000
     6  C    0.000000   0.000000   0.000000   0.000000   0.000000
     7  Cl   6.966727   0.000000   0.000000   0.000000   0.000000
     8  H    0.000000   0.845133   0.000000   0.000000   0.000000
     9  H    0.000000   0.000000   0.854773   0.000000   0.000000
    10  H    0.000000   0.000000   0.000000   0.845133   0.000000
    11  Cl   0.000000   0.000000   0.000000   0.000000   6.966727
          Atomic-Atomic Spin Densities.
               1          2          3          4          5          6
     1  C    1.407143   0.000000   0.000000   0.000000   0.000000   0.000000
     2  C    0.000000  -0.474009   0.000000   0.000000   0.000000   0.000000
     3  C    0.000000   0.000000   0.500497   0.000000   0.000000   0.000000
     4  C    0.000000   0.000000   0.000000  -0.449638   0.000000   0.000000
     5  C    0.000000   0.000000   0.000000   0.000000   0.500497   0.000000
     6  C    0.000000   0.000000   0.000000   0.000000   0.000000  -0.474009
     7  Cl   0.000000   0.000000   0.000000   0.000000   0.000000   0.000000
     8  H    0.000000   0.000000   0.000000   0.000000   0.000000   0.000000
     9  H    0.000000   0.000000   0.000000   0.000000   0.000000   0.000000
    10  H    0.000000   0.000000   0.000000   0.000000   0.000000   0.000000
    11  Cl   0.000000   0.000000   0.000000   0.000000   0.000000   0.000000
               7          8          9         10         11
     1  C    0.000000   0.000000   0.000000   0.000000   0.000000
     2  C    0.000000   0.000000   0.000000   0.000000   0.000000
     3  C    0.000000   0.000000   0.000000   0.000000   0.000000
     4  C    0.000000   0.000000   0.000000   0.000000   0.000000
     5  C    0.000000   0.000000   0.000000   0.000000   0.000000
     6  C    0.000000   0.000000   0.000000   0.000000   0.000000
     7  Cl   0.001729   0.000000   0.000000   0.000000   0.000000
     8  H    0.000000  -0.020233   0.000000   0.000000   0.000000
     9  H    0.000000   0.000000   0.026529   0.000000   0.000000
    10  H    0.000000   0.000000   0.000000  -0.020233   0.000000
    11  Cl   0.000000   0.000000   0.000000   0.000000   0.001729
 Mulliken charges and spin densities:
               1          2
     1  C   -0.042364   1.407143
     2  C   -0.056348  -0.474009
     3  C   -0.118540   0.500497
     4  C   -0.129368  -0.449638
     5  C   -0.118540   0.500497
     6  C   -0.056348  -0.474009
     7  Cl   0.033273   0.001729
     8  H    0.154867  -0.020233
     9  H    0.145227   0.026529
    10  H    0.154867  -0.020233
    11  Cl   0.033273   0.001729
 Sum of Mulliken charges =   0.00000   1.00000
 Mulliken charges and spin densities with hydrogens summed into heavy atoms:
               1          2
     1  C   -0.042364   1.407143
     2  C   -0.056348  -0.474009
     3  C    0.036327   0.480264
     4  C    0.015859  -0.423109
     5  C    0.036327   0.480264
     6  C   -0.056348  -0.474009
     7  Cl   0.033273   0.001729
    11  Cl   0.033273   0.001729
 Charge=              0.0000 electrons
 Dipole moment (field-independent basis, Debye):
    X=             -0.0000    Y=              0.0000    Z=              2.1144  Tot=              2.1144
 N-N= 1.955007073006D+02 E-N=-2.700748825011D+02  KE=-9.043491309463D+01
 Symmetry A1   KE=-3.793657577777D+01
 Symmetry A2   KE=-8.585121185702D+00
 Symmetry B1   KE=-1.180139003362D+01
 Symmetry B2   KE=-3.211182609753D+01
 Symmetry A1   SP= 1.000000000000D+00
 Symmetry A2   SP= 1.526556658860D-15
 Symmetry B1   SP= 2.109423746788D-15
 Symmetry B2   SP=-3.684552662975D-15
 1\1\GINC-SH02-01N23\FOpt\UAM1\ZDO\C6H3Cl2(2)\JLAPIER\28-Sep-2026\0\\# 
 Opt AM1 SCF=XQC\\ClPh_26_rad am1\\0,2\C,0.,1.3164927726,0.\C,1.2369481
 801,0.715914206,0.\C,1.2267178838,-0.6972990521,0.\C,0.,-1.3751032817,
 0.\C,-1.2267178838,-0.6972990521,0.\C,-1.2369481801,0.715914206,0.\Cl,
 2.6692182269,1.5999522578,0.\H,2.1729854601,-1.2561805082,0.\H,0.,-2.4
 761632979,0.\H,-2.1729854601,-1.2561805082,0.\Cl,-2.6692182269,1.59995
 22578,0.\\Version=ES64L-G16RevB.01\State=2-A1\HF=0.0981164\S2=1.252492
 \S2-1=0.\S2A=0.968363\RMSD=8.727e-09\RMSF=5.079e-05\Dipole=0.,-0.83187
 8,0.\PG=C02V [C2(C1C1H1),SGV(C4H2Cl2)]\\@


      LET US REMEMBER, PLEASE, THAT THE SEARCH FOR THE CONSTITUTION
      OF THE WORLD IS ONE OF THE GREATEST AND NOBLEST PROBLEMS PRESENTED 
      BY NATURE.

                                                  -- GALILEO
 Job cpu time:       0 days  0 hours  0 minutes  3.7 seconds.
 Elapsed time:       0 days  0 hours  0 minutes  3.7 seconds.
 File lengths (MBytes):  RWF=      6 Int=      0 D2E=      0 Chk=      3 Scr=      1
 Normal termination of Gaussian 16 at Mon Sep 28 01:22:33 2026.
