 Entering Gaussian System, Link 0=g16
 Initial command:
 /share/software/user/restricted/gaussian/g16.B01/l1.exe "/lscratch/jlapier/g16_45667778_60/Gau-22979.inp" -scrdir="/lscratch/jlapier/g16_45667778_60/"
 Entering Link 1 = /share/software/user/restricted/gaussian/g16.B01/l1.exe PID=     22980.
  
 Copyright (c) 1988-2017, Gaussian, Inc.  All Rights Reserved.
  
 This is part of the Gaussian(R) 16 program.  It is based on
 the Gaussian(R) 09 system (copyright 2009, Gaussian, Inc.),
 the Gaussian(R) 03 system (copyright 2003, Gaussian, Inc.),
 the Gaussian(R) 98 system (copyright 1998, Gaussian, Inc.),
 the Gaussian(R) 94 system (copyright 1995, Gaussian, Inc.),
 the Gaussian 92(TM) system (copyright 1992, Gaussian, Inc.),
 the Gaussian 90(TM) system (copyright 1990, Gaussian, Inc.),
 the Gaussian 88(TM) system (copyright 1988, Gaussian, Inc.),
 the Gaussian 86(TM) system (copyright 1986, Carnegie Mellon
 University), and the Gaussian 82(TM) system (copyright 1983,
 Carnegie Mellon University). Gaussian is a federally registered
 trademark of Gaussian, Inc.
  
 This software contains proprietary and confidential information,
 including trade secrets, belonging to Gaussian, Inc.
  
 This software is provided under written license and may be
 used, copied, transmitted, or stored only in accord with that
 written license.
  
 The following legend is applicable only to US Government
 contracts under FAR:
  
                    RESTRICTED RIGHTS LEGEND
  
 Use, reproduction and disclosure by the US Government is
 subject to restrictions as set forth in subparagraphs (a)
 and (c) of the Commercial Computer Software - Restricted
 Rights clause in FAR 52.227-19.
  
 Gaussian, Inc.
 340 Quinnipiac St., Bldg. 40, Wallingford CT 06492
  
  
 ---------------------------------------------------------------
 Warning -- This program may not be used in any manner that
 competes with the business of Gaussian, Inc. or will provide
 assistance to any competitor of Gaussian, Inc.  The licensee
 of this program is prohibited from giving any competitor of
 Gaussian, Inc. access to this program.  By using this program,
 the user acknowledges that Gaussian, Inc. is engaged in the
 business of creating and licensing software in the field of
 computational chemistry and represents and warrants to the
 licensee that it is not a competitor of Gaussian, Inc. and that
 it will not use this program in any manner prohibited above.
 ---------------------------------------------------------------
  

 Cite this work as:
 Gaussian 16, Revision B.01,
 M. J. Frisch, G. W. Trucks, H. B. Schlegel, G. E. Scuseria, 
 M. A. Robb, J. R. Cheeseman, G. Scalmani, V. Barone, 
 G. A. Petersson, H. Nakatsuji, X. Li, M. Caricato, A. V. Marenich, 
 J. Bloino, B. G. Janesko, R. Gomperts, B. Mennucci, H. P. Hratchian, 
 J. V. Ortiz, A. F. Izmaylov, J. L. Sonnenberg, D. Williams-Young, 
 F. Ding, F. Lipparini, F. Egidi, J. Goings, B. Peng, A. Petrone, 
 T. Henderson, D. Ranasinghe, V. G. Zakrzewski, J. Gao, N. Rega, 
 G. Zheng, W. Liang, M. Hada, M. Ehara, K. Toyota, R. Fukuda, 
 J. Hasegawa, M. Ishida, T. Nakajima, Y. Honda, O. Kitao, H. Nakai, 
 T. Vreven, K. Throssell, J. A. Montgomery, Jr., J. E. Peralta, 
 F. Ogliaro, M. J. Bearpark, J. J. Heyd, E. N. Brothers, K. N. Kudin, 
 V. N. Staroverov, T. A. Keith, R. Kobayashi, J. Normand, 
 K. Raghavachari, A. P. Rendell, J. C. Burant, S. S. Iyengar, 
 J. Tomasi, M. Cossi, J. M. Millam, M. Klene, C. Adamo, R. Cammi, 
 J. W. Ochterski, R. L. Martin, K. Morokuma, O. Farkas, 
 J. B. Foresman, and D. J. Fox, Gaussian, Inc., Wallingford CT, 2016.
 
 ******************************************
 Gaussian 16:  ES64L-G16RevB.01 20-Dec-2017
                28-Sep-2026 
 ******************************************
 %nprocshared=1
 Will use up to    1 processors via shared memory.
 %mem=1GB
 %chk=calcs/am1/chks/ClPh_2356_anion.chk
 -----------------
 # Opt AM1 SCF=XQC
 -----------------
 1/18=20,19=15,26=1,38=1/1,3;
 2/9=110,12=2,17=6,18=5,40=1/2;
 3/5=2,25=1,41=700000,71=1/1,2,3;
 4/35=1/1;
 5/5=2,8=3,13=1,35=1,38=5/2,8;
 6/7=2,8=2,9=2,10=2,28=1/1;
 7//1,2,3,16;
 1/18=20,19=15,26=1/3(2);
 2/9=110/2;
 99//99;
 2/9=110/2;
 3/5=2,25=1,41=700000,71=1,135=20/1,2,3;
 4/5=5,16=3,35=1/1;
 5/5=2,8=3,13=1,35=1,38=5/2,8;
 7//1,2,3,16;
 1/18=20,19=15,26=1/3(-5);
 2/9=110/2;
 6/7=2,8=2,9=2,10=2,19=2,28=1/1;
 99/9=1/99;
 -------------------
 ClPh_2356_anion am1
 -------------------
 Symbolic Z-matrix:
 Charge = -1 Multiplicity = 1
 C                     0.        1.39      0. 
 C                     1.20378   0.695     0. 
 C                     1.20378  -0.695     0. 
 C                     0.       -1.39      0. 
 C                    -1.20378  -0.695     0. 
 C                    -1.20378   0.695     0. 
 Cl                    2.71066   1.565     0. 
 Cl                    2.71066  -1.565     0. 
 H                     0.       -2.47      0. 
 Cl                   -2.71066  -1.565     0. 
 Cl                   -2.71066   1.565     0. 
 

 GradGradGradGradGradGradGradGradGradGradGradGradGradGradGradGradGradGrad
 Berny optimization.
 Initialization pass.
                           ----------------------------
                           !    Initial Parameters    !
                           ! (Angstroms and Degrees)  !
 --------------------------                            --------------------------
 ! Name  Definition              Value          Derivative Info.                !
 --------------------------------------------------------------------------------
 ! R1    R(1,2)                  1.39           estimate D2E/DX2                !
 ! R2    R(1,6)                  1.39           estimate D2E/DX2                !
 ! R3    R(2,3)                  1.39           estimate D2E/DX2                !
 ! R4    R(2,7)                  1.74           estimate D2E/DX2                !
 ! R5    R(3,4)                  1.39           estimate D2E/DX2                !
 ! R6    R(3,8)                  1.74           estimate D2E/DX2                !
 ! R7    R(4,5)                  1.39           estimate D2E/DX2                !
 ! R8    R(4,9)                  1.08           estimate D2E/DX2                !
 ! R9    R(5,6)                  1.39           estimate D2E/DX2                !
 ! R10   R(5,10)                 1.74           estimate D2E/DX2                !
 ! R11   R(6,11)                 1.74           estimate D2E/DX2                !
 ! A1    A(2,1,6)              120.0            estimate D2E/DX2                !
 ! A2    A(1,2,3)              120.0            estimate D2E/DX2                !
 ! A3    A(1,2,7)              120.0            estimate D2E/DX2                !
 ! A4    A(3,2,7)              120.0            estimate D2E/DX2                !
 ! A5    A(2,3,4)              120.0            estimate D2E/DX2                !
 ! A6    A(2,3,8)              120.0            estimate D2E/DX2                !
 ! A7    A(4,3,8)              120.0            estimate D2E/DX2                !
 ! A8    A(3,4,5)              120.0            estimate D2E/DX2                !
 ! A9    A(3,4,9)              120.0            estimate D2E/DX2                !
 ! A10   A(5,4,9)              120.0            estimate D2E/DX2                !
 ! A11   A(4,5,6)              120.0            estimate D2E/DX2                !
 ! A12   A(4,5,10)             120.0            estimate D2E/DX2                !
 ! A13   A(6,5,10)             120.0            estimate D2E/DX2                !
 ! A14   A(1,6,5)              120.0            estimate D2E/DX2                !
 ! A15   A(1,6,11)             120.0            estimate D2E/DX2                !
 ! A16   A(5,6,11)             120.0            estimate D2E/DX2                !
 ! D1    D(6,1,2,3)              0.0            estimate D2E/DX2                !
 ! D2    D(6,1,2,7)            180.0            estimate D2E/DX2                !
 ! D3    D(2,1,6,5)              0.0            estimate D2E/DX2                !
 ! D4    D(2,1,6,11)           180.0            estimate D2E/DX2                !
 ! D5    D(1,2,3,4)              0.0            estimate D2E/DX2                !
 ! D6    D(1,2,3,8)            180.0            estimate D2E/DX2                !
 ! D7    D(7,2,3,4)            180.0            estimate D2E/DX2                !
 ! D8    D(7,2,3,8)              0.0            estimate D2E/DX2                !
 ! D9    D(2,3,4,5)              0.0            estimate D2E/DX2                !
 ! D10   D(2,3,4,9)            180.0            estimate D2E/DX2                !
 ! D11   D(8,3,4,5)            180.0            estimate D2E/DX2                !
 ! D12   D(8,3,4,9)              0.0            estimate D2E/DX2                !
 ! D13   D(3,4,5,6)              0.0            estimate D2E/DX2                !
 ! D14   D(3,4,5,10)           180.0            estimate D2E/DX2                !
 ! D15   D(9,4,5,6)            180.0            estimate D2E/DX2                !
 ! D16   D(9,4,5,10)             0.0            estimate D2E/DX2                !
 ! D17   D(4,5,6,1)              0.0            estimate D2E/DX2                !
 ! D18   D(4,5,6,11)           180.0            estimate D2E/DX2                !
 ! D19   D(10,5,6,1)           180.0            estimate D2E/DX2                !
 ! D20   D(10,5,6,11)            0.0            estimate D2E/DX2                !
 --------------------------------------------------------------------------------
 Trust Radius=3.00D-01 FncErr=1.00D-07 GrdErr=1.00D-07 EigMax=2.50D+02 EigMin=1.00D-04
 Number of steps in this run=     57 maximum allowed number of steps=    100.
 GradGradGradGradGradGradGradGradGradGradGradGradGradGradGradGradGradGrad

                          Input orientation:                          
 ---------------------------------------------------------------------
 Center     Atomic      Atomic             Coordinates (Angstroms)
 Number     Number       Type             X           Y           Z
 ---------------------------------------------------------------------
      1          6           0        0.000000    1.390000    0.000000
      2          6           0        1.203775    0.695000    0.000000
      3          6           0        1.203775   -0.695000    0.000000
      4          6           0        0.000000   -1.390000    0.000000
      5          6           0       -1.203775   -0.695000    0.000000
      6          6           0       -1.203775    0.695000    0.000000
      7         17           0        2.710660    1.565000    0.000000
      8         17           0        2.710660   -1.565000    0.000000
      9          1           0        0.000000   -2.470000    0.000000
     10         17           0       -2.710660   -1.565000    0.000000
     11         17           0       -2.710660    1.565000    0.000000
 ---------------------------------------------------------------------
                    Distance matrix (angstroms):
                    1          2          3          4          5
     1  C    0.000000
     2  C    1.390000   0.000000
     3  C    2.407551   1.390000   0.000000
     4  C    2.780000   2.407551   1.390000   0.000000
     5  C    2.407551   2.780000   2.407551   1.390000   0.000000
     6  C    1.390000   2.407551   2.780000   2.407551   1.390000
     7  Cl   2.716303   1.740000   2.716303   4.009950   4.520000
     8  Cl   4.009950   2.716303   1.740000   2.716303   4.009950
     9  H    3.860000   3.386193   2.144691   1.080000   2.144691
    10  Cl   4.009950   4.520000   4.009950   2.716303   1.740000
    11  Cl   2.716303   4.009950   4.520000   4.009950   2.716303
                    6          7          8          9         10
     6  C    0.000000
     7  Cl   4.009950   0.000000
     8  Cl   4.520000   3.130000   0.000000
     9  H    3.386193   4.860957   2.857744   0.000000
    10  Cl   2.716303   6.260000   5.421319   2.857744   0.000000
    11  Cl   1.740000   5.421319   6.260000   4.860957   3.130000
                   11
    11  Cl   0.000000
 Stoichiometry    C6HCl4(1-)
 Framework group  C2V[C2(HCC),SGV(C4Cl4)]
 Deg. of freedom    10
 Full point group                 C2V     NOp   4
 Largest Abelian subgroup         C2V     NOp   4
 Largest concise Abelian subgroup C2      NOp   2
                         Standard orientation:                         
 ---------------------------------------------------------------------
 Center     Atomic      Atomic             Coordinates (Angstroms)
 Number     Number       Type             X           Y           Z
 ---------------------------------------------------------------------
      1          6           0        0.000000    0.000000    1.413524
      2          6           0        0.000000    1.203775    0.718524
      3          6           0        0.000000    1.203775   -0.671476
      4          6           0        0.000000   -0.000000   -1.366476
      5          6           0       -0.000000   -1.203775   -0.671476
      6          6           0       -0.000000   -1.203775    0.718524
      7         17           0        0.000000    2.710660    1.588524
      8         17           0        0.000000    2.710660   -1.541476
      9          1           0        0.000000   -0.000000   -2.446476
     10         17           0       -0.000000   -2.710660   -1.541476
     11         17           0       -0.000000   -2.710660    1.588524
 ---------------------------------------------------------------------
 Rotational constants (GHZ):           1.2082848           0.4605598           0.3334567
 Standard basis: VSTO-6G (5D, 7F)
 There are    17 symmetry adapted cartesian basis functions of A1  symmetry.
 There are     4 symmetry adapted cartesian basis functions of A2  symmetry.
 There are     6 symmetry adapted cartesian basis functions of B1  symmetry.
 There are    14 symmetry adapted cartesian basis functions of B2  symmetry.
 There are    17 symmetry adapted basis functions of A1  symmetry.
 There are     4 symmetry adapted basis functions of A2  symmetry.
 There are     6 symmetry adapted basis functions of B1  symmetry.
 There are    14 symmetry adapted basis functions of B2  symmetry.
    41 basis functions,   246 primitive gaussians,    41 cartesian basis functions
    27 alpha electrons       27 beta electrons
       nuclear repulsion energy       294.5942064797 Hartrees.
 Integral buffers will be    131072 words long.
 Regular integral format.
 Two-electron integral symmetry is turned off.
 Do NDO integrals.
 One-electron integrals computed using PRISM.
 NBasis=    41 RedAO= T EigKep=  1.00D+00  NBF=    17     4     6    14
 NBsUse=    41 1.00D-06 EigRej= -1.00D+00 NBFU=    17     4     6    14
 Simple Huckel Guess.
 Initial guess orbital symmetries:
       Occupied  (A1) (B2) (A1) (B2) (A1) (A1) (A1) (B2) (B2) (B2)
                 (B1) (A1) (A1) (A2) (A1) (B2) (B1) (B2) (A2) (A1)
                 (B1) (A1) (B2) (B2) (B1) (A2) (A1)
       Virtual   (B1) (A2) (B1) (B2) (A1) (A1) (B2) (A1) (B2) (B2)
                 (A1) (B2) (A1) (A1)
 The electronic state of the initial guess is 1-A1.
 Keep J ints in memory in canonical form, NReq=864464.
 Overlap will be assumed to be unity.
 Requested convergence on RMS density matrix=1.00D-08 within  32 cycles.
 Requested convergence on MAX density matrix=1.00D-06.
 Requested convergence on             energy=1.00D-06.
 No special actions if energy rises.
 Fock symm off for IB=2 I1=    1 I=   18 J=   14 Cut=1.00D-07 Err=7.75D-03
 Fock matrix is not symmetric: symmetry in diagonalization turned off.
 SCF Done:  E(RAM1) =  0.104878991492E-01 A.U. after   15 cycles
            NFock= 14  Conv=0.54D-08     -V/T= 1.0001
 QCSCF skips out because SCF is already converged.

 **********************************************************************

            Population analysis using the SCF Density.

 **********************************************************************

 Orbital symmetries:
       Occupied  (A1) (B2) (A1) (B2) (A1) (B2) (A1) (B2) (A1) (A1)
                 (A1) (B2) (B2) (B1) (A1) (A2) (B2) (B1) (A1) (A2)
                 (B2) (A1) (B1) (B2) (A2) (B1) (A1)
       Virtual   (A2) (B1) (A1) (B2) (A1) (B2) (B1) (A1) (B2) (A1)
                 (B2) (A1) (A1) (B2)
 The electronic state is 1-A1.
 Alpha  occ. eigenvalues --   -1.30518  -1.24749  -1.22669  -1.21773  -1.19934
 Alpha  occ. eigenvalues --   -0.98161  -0.97067  -0.70311  -0.69543  -0.52130
 Alpha  occ. eigenvalues --   -0.46837  -0.46686  -0.42574  -0.40814  -0.36979
 Alpha  occ. eigenvalues --   -0.36185  -0.34003  -0.32907  -0.31963  -0.31936
 Alpha  occ. eigenvalues --   -0.30369  -0.28779  -0.27773  -0.27447  -0.19496
 Alpha  occ. eigenvalues --   -0.18393  -0.13349
 Alpha virt. eigenvalues --    0.15120   0.17134   0.17205   0.18325   0.19854
 Alpha virt. eigenvalues --    0.21752   0.26504   0.28897   0.30913   0.31186
 Alpha virt. eigenvalues --    0.32391   0.33597   0.36233   0.38371
          Condensed to atoms (all electrons):
               1          2          3          4          5          6
     1  C    4.344992   0.000000   0.000000   0.000000   0.000000   0.000000
     2  C    0.000000   4.040781   0.000000   0.000000   0.000000   0.000000
     3  C    0.000000   0.000000   4.047648   0.000000   0.000000   0.000000
     4  C    0.000000   0.000000   0.000000   4.199531   0.000000   0.000000
     5  C    0.000000   0.000000   0.000000   0.000000   4.047648   0.000000
     6  C    0.000000   0.000000   0.000000   0.000000   0.000000   4.040781
     7  Cl   0.000000   0.000000   0.000000   0.000000   0.000000   0.000000
     8  Cl   0.000000   0.000000   0.000000   0.000000   0.000000   0.000000
     9  H    0.000000   0.000000   0.000000   0.000000   0.000000   0.000000
    10  Cl   0.000000   0.000000   0.000000   0.000000   0.000000   0.000000
    11  Cl   0.000000   0.000000   0.000000   0.000000   0.000000   0.000000
               7          8          9         10         11
     1  C    0.000000   0.000000   0.000000   0.000000   0.000000
     2  C    0.000000   0.000000   0.000000   0.000000   0.000000
     3  C    0.000000   0.000000   0.000000   0.000000   0.000000
     4  C    0.000000   0.000000   0.000000   0.000000   0.000000
     5  C    0.000000   0.000000   0.000000   0.000000   0.000000
     6  C    0.000000   0.000000   0.000000   0.000000   0.000000
     7  Cl   7.097222   0.000000   0.000000   0.000000   0.000000
     8  Cl   0.000000   7.104779   0.000000   0.000000   0.000000
     9  H    0.000000   0.000000   0.874618   0.000000   0.000000
    10  Cl   0.000000   0.000000   0.000000   7.104779   0.000000
    11  Cl   0.000000   0.000000   0.000000   0.000000   7.097222
 Mulliken charges:
               1
     1  C   -0.344992
     2  C   -0.040781
     3  C   -0.047648
     4  C   -0.199531
     5  C   -0.047648
     6  C   -0.040781
     7  Cl  -0.097222
     8  Cl  -0.104779
     9  H    0.125382
    10  Cl  -0.104779
    11  Cl  -0.097222
 Sum of Mulliken charges =  -1.00000
 Mulliken charges with hydrogens summed into heavy atoms:
               1
     1  C   -0.344992
     2  C   -0.040781
     3  C   -0.047648
     4  C   -0.074149
     5  C   -0.047648
     6  C   -0.040781
     7  Cl  -0.097222
     8  Cl  -0.104779
    10  Cl  -0.104779
    11  Cl  -0.097222
 Charge=             -1.0000 electrons
 Dipole moment (field-independent basis, Debye):
    X=             -0.0000    Y=              0.0000    Z=             -4.3143  Tot=              4.3143
 N-N= 2.945942064797D+02 E-N=-4.221572452986D+02  KE=-1.359432699908D+02
 Symmetry A1   KE=-5.575961232676D+01
 Symmetry A2   KE=-1.421785247584D+01
 Symmetry B1   KE=-1.744808932912D+01
 Symmetry B2   KE=-4.851771585912D+01
 Calling FoFJK, ICntrl=      2127 FMM=F ISym2X=1 I1Cent= 0 IOpClX= 0 NMat=1 NMatS=1 NMatT=0.
 ***** Axes restored to original set *****
 -------------------------------------------------------------------
 Center     Atomic                   Forces (Hartrees/Bohr)
 Number     Number              X              Y              Z
 -------------------------------------------------------------------
      1        6          -0.000000000    0.004073123   -0.000000000
      2        6          -0.003630851    0.018832334   -0.000000000
      3        6           0.022293495   -0.005163743   -0.000000000
      4        6           0.000000000   -0.007525349   -0.000000000
      5        6          -0.022293495   -0.005163743   -0.000000000
      6        6           0.003630851    0.018832334   -0.000000000
      7       17          -0.013286624   -0.005271707    0.000000000
      8       17          -0.012138886    0.000265759    0.000000000
      9        1           0.000000000   -0.013873060   -0.000000000
     10       17           0.012138886    0.000265759    0.000000000
     11       17           0.013286624   -0.005271707    0.000000000
 -------------------------------------------------------------------
 Cartesian Forces:  Max     0.022293495 RMS     0.009132340

 GradGradGradGradGradGradGradGradGradGradGradGradGradGradGradGradGradGrad
 Berny optimization.
 FormGI is forming the generalized inverse of G from B-inverse, IUseBI=4.
 Internal  Forces:  Max     0.015597189 RMS     0.006888222
 Search for a local minimum.
 Step number   1 out of a maximum of   57
 All quantities printed in internal units (Hartrees-Bohrs-Radians)
 Mixed Optimization -- RFO/linear search
 Second derivative matrix not updated -- first step.
 ITU=  0
     Eigenvalues ---    0.02221   0.02221   0.02221   0.02221   0.02221
     Eigenvalues ---    0.02221   0.02221   0.02221   0.16000   0.23455
     Eigenvalues ---    0.25000   0.25000   0.25000   0.25000   0.25000
     Eigenvalues ---    0.25000   0.31476   0.31476   0.31476   0.31476
     Eigenvalues ---    0.35994   0.43333   0.43633   0.47319   0.47319
     Eigenvalues ---    0.47319   0.47319
 RFO step:  Lambda=-6.60488099D-03 EMin= 2.22103665D-02
 Linear search not attempted -- first point.
 Iteration  1 RMS(Cart)=  0.03303847 RMS(Int)=  0.00025580
 Iteration  2 RMS(Cart)=  0.00035461 RMS(Int)=  0.00004210
 Iteration  3 RMS(Cart)=  0.00000004 RMS(Int)=  0.00004210
 ClnCor:  largest displacement from symmetrization is 8.22D-11 for atom     9.
 Variable       Old X    -DE/DX   Delta X   Delta X   Delta X     New X
                                 (Linear)    (Quad)   (Total)
    R1        2.62672  -0.00785   0.00000  -0.01792  -0.01798   2.60874
    R2        2.62672  -0.00785   0.00000  -0.01792  -0.01798   2.60874
    R3        2.62672   0.01560   0.00000   0.03251   0.03251   2.65923
    R4        3.28812  -0.01414   0.00000  -0.04401  -0.04401   3.24412
    R5        2.62672   0.00836   0.00000   0.01899   0.01904   2.64576
    R6        3.28812  -0.01065   0.00000  -0.03313  -0.03313   3.25500
    R7        2.62672   0.00836   0.00000   0.01899   0.01904   2.64576
    R8        2.04090   0.01387   0.00000   0.03785   0.03785   2.07875
    R9        2.62672   0.01560   0.00000   0.03251   0.03251   2.65923
   R10        3.28812  -0.01065   0.00000  -0.03313  -0.03313   3.25500
   R11        3.28812  -0.01414   0.00000  -0.04401  -0.04401   3.24412
    A1        2.09440  -0.00446   0.00000  -0.02491  -0.02507   2.06932
    A2        2.09440   0.00680   0.00000   0.02444   0.02439   2.11879
    A3        2.09440  -0.00681   0.00000  -0.02553  -0.02551   2.06889
    A4        2.09440   0.00002   0.00000   0.00109   0.00112   2.09551
    A5        2.09440  -0.00078   0.00000   0.00083   0.00090   2.09530
    A6        2.09440   0.00999   0.00000   0.03699   0.03696   2.13136
    A7        2.09440  -0.00921   0.00000  -0.03783  -0.03786   2.05653
    A8        2.09440  -0.00757   0.00000  -0.02564  -0.02552   2.06888
    A9        2.09440   0.00378   0.00000   0.01282   0.01276   2.10715
   A10        2.09440   0.00378   0.00000   0.01282   0.01276   2.10715
   A11        2.09440  -0.00078   0.00000   0.00083   0.00090   2.09530
   A12        2.09440  -0.00921   0.00000  -0.03783  -0.03786   2.05653
   A13        2.09440   0.00999   0.00000   0.03699   0.03696   2.13136
   A14        2.09440   0.00680   0.00000   0.02444   0.02439   2.11879
   A15        2.09440  -0.00681   0.00000  -0.02553  -0.02551   2.06889
   A16        2.09440   0.00002   0.00000   0.00109   0.00112   2.09551
    D1       -0.00000   0.00000   0.00000   0.00000   0.00000   0.00000
    D2        3.14159   0.00000   0.00000   0.00000   0.00000   3.14159
    D3        0.00000  -0.00000   0.00000  -0.00000   0.00000   0.00000
    D4        3.14159  -0.00000   0.00000  -0.00000   0.00000   3.14159
    D5        0.00000   0.00000   0.00000   0.00000   0.00000   0.00000
    D6        3.14159   0.00000   0.00000   0.00000   0.00000   3.14159
    D7        3.14159  -0.00000   0.00000  -0.00000   0.00000   3.14159
    D8        0.00000   0.00000   0.00000   0.00000   0.00000   0.00000
    D9        0.00000  -0.00000   0.00000  -0.00000   0.00000   0.00000
   D10        3.14159   0.00000   0.00000   0.00000   0.00000   3.14159
   D11        3.14159  -0.00000   0.00000  -0.00000   0.00000   3.14159
   D12        0.00000  -0.00000   0.00000  -0.00000   0.00000   0.00000
   D13       -0.00000   0.00000   0.00000   0.00000   0.00000   0.00000
   D14        3.14159   0.00000   0.00000   0.00000   0.00000   3.14159
   D15        3.14159  -0.00000   0.00000  -0.00000   0.00000   3.14159
   D16       -0.00000   0.00000   0.00000   0.00000   0.00000   0.00000
   D17        0.00000  -0.00000   0.00000  -0.00000   0.00000   0.00000
   D18        3.14159   0.00000   0.00000   0.00000   0.00000   3.14159
   D19        3.14159  -0.00000   0.00000  -0.00000   0.00000   3.14159
   D20        0.00000  -0.00000   0.00000  -0.00000  -0.00000   0.00000
         Item               Value     Threshold  Converged?
 Maximum Force            0.015597     0.000450     NO 
 RMS     Force            0.006888     0.000300     NO 
 Maximum Displacement     0.091487     0.001800     NO 
 RMS     Displacement     0.032964     0.001200     NO 
 Predicted change in Energy=-3.369651D-03
 GradGradGradGradGradGradGradGradGradGradGradGradGradGradGradGradGradGrad

                          Input orientation:                          
 ---------------------------------------------------------------------
 Center     Atomic      Atomic             Coordinates (Angstroms)
 Number     Number       Type             X           Y           Z
 ---------------------------------------------------------------------
      1          6           0        0.000000    1.417909    0.000000
      2          6           0        1.186790    0.712732    0.000000
      3          6           0        1.203473   -0.694371    0.000000
      4          6           0        0.000000   -1.409821   -0.000000
      5          6           0       -1.203473   -0.694371   -0.000000
      6          6           0       -1.186790    0.712732   -0.000000
      7         17           0        2.662247    1.590302    0.000000
      8         17           0        2.673087   -1.592782    0.000000
      9          1           0        0.000000   -2.509849   -0.000000
     10         17           0       -2.673087   -1.592782   -0.000000
     11         17           0       -2.662247    1.590302   -0.000000
 ---------------------------------------------------------------------
                    Distance matrix (angstroms):
                    1          2          3          4          5
     1  C    0.000000
     2  C    1.380487   0.000000
     3  C    2.431064   1.407202   0.000000
     4  C    2.827730   2.431810   1.400077   0.000000
     5  C    2.431064   2.773679   2.406945   1.400077   0.000000
     6  C    1.380487   2.373580   2.773679   2.431810   1.407202
     7  Cl   2.667823   1.716713   2.710674   4.011022   4.490381
     8  Cl   4.026121   2.743077   1.722471   2.679341   3.979303
     9  H    3.927758   3.434166   2.178143   1.100028   2.178143
    10  Cl   4.026121   4.496003   3.979303   2.679341   1.722471
    11  Cl   2.667823   3.947811   4.490381   4.011022   2.710674
                    6          7          8          9         10
     6  C    0.000000
     7  Cl   3.947811   0.000000
     8  Cl   4.496003   3.183102   0.000000
     9  H    3.434166   4.888639   2.826023   0.000000
    10  Cl   2.743077   6.212713   5.346173   2.826023   0.000000
    11  Cl   1.716713   5.324494   6.212713   4.888639   3.183102
                   11
    11  Cl   0.000000
 Stoichiometry    C6HCl4(1-)
 Framework group  C2V[C2(HCC),SGV(C4Cl4)]
 Deg. of freedom    10
 Full point group                 C2V     NOp   4
 Largest Abelian subgroup         C2V     NOp   4
 Largest concise Abelian subgroup C2      NOp   2
                         Standard orientation:                         
 ---------------------------------------------------------------------
 Center     Atomic      Atomic             Coordinates (Angstroms)
 Number     Number       Type             X           Y           Z
 ---------------------------------------------------------------------
      1          6           0        0.000000    0.000000    1.440055
      2          6           0       -0.000000    1.186790    0.734878
      3          6           0       -0.000000    1.203473   -0.672226
      4          6           0       -0.000000   -0.000000   -1.387675
      5          6           0       -0.000000   -1.203473   -0.672226
      6          6           0       -0.000000   -1.186790    0.734878
      7         17           0       -0.000000    2.662247    1.612448
      8         17           0       -0.000000    2.673087   -1.570636
      9          1           0       -0.000000   -0.000000   -2.487703
     10         17           0       -0.000000   -2.673087   -1.570636
     11         17           0       -0.000000   -2.662247    1.612448
 ---------------------------------------------------------------------
 Rotational constants (GHZ):           1.1688523           0.4749876           0.3377399
 Standard basis: VSTO-6G (5D, 7F)
 There are    17 symmetry adapted cartesian basis functions of A1  symmetry.
 There are     4 symmetry adapted cartesian basis functions of A2  symmetry.
 There are     6 symmetry adapted cartesian basis functions of B1  symmetry.
 There are    14 symmetry adapted cartesian basis functions of B2  symmetry.
 There are    17 symmetry adapted basis functions of A1  symmetry.
 There are     4 symmetry adapted basis functions of A2  symmetry.
 There are     6 symmetry adapted basis functions of B1  symmetry.
 There are    14 symmetry adapted basis functions of B2  symmetry.
    41 basis functions,   246 primitive gaussians,    41 cartesian basis functions
    27 alpha electrons       27 beta electrons
       nuclear repulsion energy       295.0279878007 Hartrees.
 Integral buffers will be    131072 words long.
 Regular integral format.
 Two-electron integral symmetry is turned off.
 Do NDO integrals.
 One-electron integrals computed using PRISM.
 NBasis=    41 RedAO= T EigKep=  1.00D+00  NBF=    17     4     6    14
 NBsUse=    41 1.00D-06 EigRej= -1.00D+00 NBFU=    17     4     6    14
 Initial guess from the checkpoint file:  "calcs/am1/chks/ClPh_2356_anion.chk"
 B after Tr=     0.000000   -0.000000   -0.000000
         Rot=    1.000000    0.000000   -0.000000   -0.000000 Ang=   0.00 deg.
 Initial guess orbital symmetries:
       Occupied  (A1) (B2) (A1) (B2) (A1) (B2) (A1) (B2) (A1) (A1)
                 (A1) (B2) (B2) (B1) (A1) (A2) (B2) (B1) (A1) (A2)
                 (B2) (A1) (B1) (B2) (A2) (B1) (A1)
       Virtual   (A2) (B1) (A1) (B2) (A1) (B2) (B1) (A1) (B2) (A1)
                 (B2) (A1) (A1) (B2)
 Keep J ints in memory in canonical form, NReq=864464.
 Overlap will be assumed to be unity.
 Requested convergence on RMS density matrix=1.00D-08 within  32 cycles.
 Requested convergence on MAX density matrix=1.00D-06.
 Requested convergence on             energy=1.00D-06.
 No special actions if energy rises.
 Fock symm off for IB=2 I1=    1 I=   18 J=   14 Cut=1.00D-07 Err=4.28D-05
 Fock matrix is not symmetric: symmetry in diagonalization turned off.
 SCF Done:  E(RAM1) =  0.757789886489E-02 A.U. after   13 cycles
            NFock= 12  Conv=0.35D-08     -V/T= 1.0001
 QCSCF skips out because SCF is already converged.
 Calling FoFJK, ICntrl=      2127 FMM=F ISym2X=1 I1Cent= 0 IOpClX= 0 NMat=1 NMatS=1 NMatT=0.
 ***** Axes restored to original set *****
 -------------------------------------------------------------------
 Center     Atomic                   Forces (Hartrees/Bohr)
 Number     Number              X              Y              Z
 -------------------------------------------------------------------
      1        6          -0.000000000    0.001768352   -0.000000000
      2        6           0.003994516   -0.006322700   -0.000000000
      3        6           0.003712670    0.003141321   -0.000000000
      4        6          -0.000000000    0.002850696   -0.000000000
      5        6          -0.003712670    0.003141321   -0.000000000
      6        6          -0.003994516   -0.006322700   -0.000000000
      7       17           0.000279415   -0.001641448    0.000000000
      8       17          -0.002868709    0.001422212    0.000000000
      9        1          -0.000000000    0.002182183   -0.000000000
     10       17           0.002868709    0.001422212    0.000000000
     11       17          -0.000279415   -0.001641448    0.000000000
 -------------------------------------------------------------------
 Cartesian Forces:  Max     0.006322700 RMS     0.002469411

 GradGradGradGradGradGradGradGradGradGradGradGradGradGradGradGradGradGrad
 Berny optimization.
 Using GEDIIS/GDIIS optimizer.
 FormGI is forming the generalized inverse of G from B-inverse, IUseBI=4.
 Internal  Forces:  Max     0.007070795 RMS     0.002187581
 Search for a local minimum.
 Step number   2 out of a maximum of   57
 All quantities printed in internal units (Hartrees-Bohrs-Radians)
 Mixed Optimization -- RFO/linear search
 Update second derivatives using D2CorX and points    1    2
 DE= -2.91D-03 DEPred=-3.37D-03 R= 8.64D-01
 TightC=F SS=  1.41D+00  RLast= 1.44D-01 DXNew= 5.0454D-01 4.3147D-01
 Trust test= 8.64D-01 RLast= 1.44D-01 DXMaxT set to 4.31D-01
 ITU=  1  0
 Use linear search instead of GDIIS.
     Eigenvalues ---    0.02221   0.02221   0.02221   0.02221   0.02221
     Eigenvalues ---    0.02221   0.02221   0.02221   0.16000   0.22475
     Eigenvalues ---    0.23911   0.25000   0.25000   0.25000   0.25000
     Eigenvalues ---    0.26580   0.29046   0.31476   0.31476   0.31737
     Eigenvalues ---    0.36324   0.43238   0.44611   0.47163   0.47319
     Eigenvalues ---    0.47319   0.58226
 RFO step:  Lambda=-4.00415422D-04 EMin= 2.22103665D-02
 Quartic linear search produced a step of -0.10705.
 Iteration  1 RMS(Cart)=  0.00940395 RMS(Int)=  0.00002955
 Iteration  2 RMS(Cart)=  0.00003343 RMS(Int)=  0.00000124
 Iteration  3 RMS(Cart)=  0.00000000 RMS(Int)=  0.00000124
 ClnCor:  largest displacement from symmetrization is 6.22D-12 for atom     9.
 Variable       Old X    -DE/DX   Delta X   Delta X   Delta X     New X
                                 (Linear)    (Quad)   (Total)
    R1        2.60874   0.00476   0.00192   0.00646   0.00838   2.61713
    R2        2.60874   0.00476   0.00192   0.00646   0.00838   2.61713
    R3        2.65923  -0.00707  -0.00348  -0.00784  -0.01132   2.64791
    R4        3.24412  -0.00060   0.00471  -0.00916  -0.00445   3.23967
    R5        2.64576  -0.00119  -0.00204   0.00044  -0.00160   2.64416
    R6        3.25500  -0.00319   0.00355  -0.01465  -0.01111   3.24389
    R7        2.64576  -0.00119  -0.00204   0.00044  -0.00160   2.64416
    R8        2.07875  -0.00218  -0.00405   0.00100  -0.00305   2.07570
    R9        2.65923  -0.00707  -0.00348  -0.00784  -0.01132   2.64791
   R10        3.25500  -0.00319   0.00355  -0.01465  -0.01111   3.24389
   R11        3.24412  -0.00060   0.00471  -0.00916  -0.00445   3.23967
    A1        2.06932   0.00032   0.00268  -0.00064   0.00205   2.07137
    A2        2.11879  -0.00123  -0.00261   0.00040  -0.00221   2.11658
    A3        2.06889   0.00314   0.00273   0.00652   0.00925   2.07813
    A4        2.09551  -0.00190  -0.00012  -0.00692  -0.00704   2.08847
    A5        2.09530  -0.00069  -0.00010  -0.00370  -0.00379   2.09150
    A6        2.13136   0.00081  -0.00396   0.00986   0.00590   2.13726
    A7        2.05653  -0.00011   0.00405  -0.00616  -0.00211   2.05442
    A8        2.06888   0.00353   0.00273   0.00722   0.00995   2.07883
    A9        2.10715  -0.00177  -0.00137  -0.00361  -0.00497   2.10218
   A10        2.10715  -0.00177  -0.00137  -0.00361  -0.00497   2.10218
   A11        2.09530  -0.00069  -0.00010  -0.00370  -0.00379   2.09150
   A12        2.05653  -0.00011   0.00405  -0.00616  -0.00211   2.05442
   A13        2.13136   0.00081  -0.00396   0.00986   0.00590   2.13726
   A14        2.11879  -0.00123  -0.00261   0.00040  -0.00221   2.11658
   A15        2.06889   0.00314   0.00273   0.00652   0.00925   2.07813
   A16        2.09551  -0.00190  -0.00012  -0.00692  -0.00704   2.08847
    D1       -0.00000   0.00000   0.00000   0.00000   0.00000   0.00000
    D2        3.14159   0.00000   0.00000   0.00000   0.00000   3.14159
    D3        0.00000  -0.00000   0.00000  -0.00000   0.00000   0.00000
    D4        3.14159  -0.00000   0.00000  -0.00000   0.00000   3.14159
    D5        0.00000   0.00000   0.00000   0.00000   0.00000   0.00000
    D6        3.14159   0.00000   0.00000   0.00000   0.00000   3.14159
    D7        3.14159  -0.00000   0.00000  -0.00000   0.00000   3.14159
    D8        0.00000  -0.00000   0.00000  -0.00000   0.00000   0.00000
    D9        0.00000  -0.00000   0.00000  -0.00000   0.00000   0.00000
   D10        3.14159   0.00000   0.00000   0.00000   0.00000   3.14159
   D11        3.14159  -0.00000   0.00000  -0.00000   0.00000   3.14159
   D12        0.00000  -0.00000   0.00000  -0.00000   0.00000   0.00000
   D13       -0.00000   0.00000   0.00000   0.00000   0.00000   0.00000
   D14        3.14159   0.00000   0.00000   0.00000   0.00000   3.14159
   D15        3.14159  -0.00000   0.00000  -0.00000   0.00000   3.14159
   D16        0.00000   0.00000   0.00000   0.00000  -0.00000   0.00000
   D17        0.00000  -0.00000   0.00000  -0.00000   0.00000   0.00000
   D18        3.14159   0.00000   0.00000   0.00000   0.00000   3.14159
   D19        3.14159  -0.00000   0.00000  -0.00000   0.00000   3.14159
   D20       -0.00000   0.00000   0.00000   0.00000   0.00000   0.00000
         Item               Value     Threshold  Converged?
 Maximum Force            0.007071     0.000450     NO 
 RMS     Force            0.002188     0.000300     NO 
 Maximum Displacement     0.026955     0.001800     NO 
 RMS     Displacement     0.009405     0.001200     NO 
 Predicted change in Energy=-2.429457D-04
 GradGradGradGradGradGradGradGradGradGradGradGradGradGradGradGradGradGrad

                          Input orientation:                          
 ---------------------------------------------------------------------
 Center     Atomic      Atomic             Coordinates (Angstroms)
 Number     Number       Type             X           Y           Z
 ---------------------------------------------------------------------
      1          6           0       -0.000000    1.418037   -0.000000
      2          6           0        1.191330    0.711816    0.000000
      3          6           0        1.206288   -0.689315    0.000000
      4          6           0        0.000000   -1.398342   -0.000000
      5          6           0       -1.206288   -0.689315   -0.000000
      6          6           0       -1.191330    0.711816   -0.000000
      7         17           0        2.671920    1.576038    0.000000
      8         17           0        2.664511   -1.595008    0.000000
      9          1           0        0.000000   -2.496755   -0.000000
     10         17           0       -2.664511   -1.595008   -0.000000
     11         17           0       -2.671920    1.576038   -0.000000
 ---------------------------------------------------------------------
                    Distance matrix (angstroms):
                    1          2          3          4          5
     1  C    0.000000
     2  C    1.384924   0.000000
     3  C    2.428181   1.401211   0.000000
     4  C    2.816379   2.423228   1.399232   0.000000
     5  C    2.428181   2.777002   2.412576   1.399232   0.000000
     6  C    1.384924   2.382659   2.777002   2.423228   1.401211
     7  Cl   2.676587   1.714359   2.698130   3.998261   4.491361
     8  Cl   4.022196   2.737097   1.716594   2.671759   3.975345
     9  H    3.914791   3.422600   2.173009   1.098412   2.173009
    10  Cl   4.022196   4.493211   3.975345   2.671759   1.716594
    11  Cl   2.676587   3.958734   4.491361   3.998261   2.698130
                    6          7          8          9         10
     6  C    0.000000
     7  Cl   3.958734   0.000000
     8  Cl   4.493211   3.171055   0.000000
     9  H    3.422600   4.871016   2.812964   0.000000
    10  Cl   2.737097   6.207498   5.329022   2.812964   0.000000
    11  Cl   1.714359   5.343840   6.207498   4.871016   3.171055
                   11
    11  Cl   0.000000
 Stoichiometry    C6HCl4(1-)
 Framework group  C2V[C2(HCC),SGV(C4Cl4)]
 Deg. of freedom    10
 Full point group                 C2V     NOp   4
 Largest Abelian subgroup         C2V     NOp   4
 Largest concise Abelian subgroup C2      NOp   2
                         Standard orientation:                         
 ---------------------------------------------------------------------
 Center     Atomic      Atomic             Coordinates (Angstroms)
 Number     Number       Type             X           Y           Z
 ---------------------------------------------------------------------
      1          6           0        0.000000    0.000000    1.444261
      2          6           0       -0.000000    1.191330    0.738040
      3          6           0       -0.000000    1.206288   -0.663091
      4          6           0        0.000000   -0.000000   -1.372118
      5          6           0       -0.000000   -1.206288   -0.663091
      6          6           0       -0.000000   -1.191330    0.738040
      7         17           0       -0.000000    2.671920    1.602263
      8         17           0       -0.000000    2.664511   -1.568784
      9          1           0        0.000000   -0.000000   -2.470530
     10         17           0       -0.000000   -2.664511   -1.568784
     11         17           0       -0.000000   -2.671920    1.602263
 ---------------------------------------------------------------------
 Rotational constants (GHZ):           1.1779302           0.4746177           0.3383058
 Standard basis: VSTO-6G (5D, 7F)
 There are    17 symmetry adapted cartesian basis functions of A1  symmetry.
 There are     4 symmetry adapted cartesian basis functions of A2  symmetry.
 There are     6 symmetry adapted cartesian basis functions of B1  symmetry.
 There are    14 symmetry adapted cartesian basis functions of B2  symmetry.
 There are    17 symmetry adapted basis functions of A1  symmetry.
 There are     4 symmetry adapted basis functions of A2  symmetry.
 There are     6 symmetry adapted basis functions of B1  symmetry.
 There are    14 symmetry adapted basis functions of B2  symmetry.
    41 basis functions,   246 primitive gaussians,    41 cartesian basis functions
    27 alpha electrons       27 beta electrons
       nuclear repulsion energy       295.2706783482 Hartrees.
 Integral buffers will be    131072 words long.
 Regular integral format.
 Two-electron integral symmetry is turned off.
 Do NDO integrals.
 One-electron integrals computed using PRISM.
 NBasis=    41 RedAO= T EigKep=  1.00D+00  NBF=    17     4     6    14
 NBsUse=    41 1.00D-06 EigRej= -1.00D+00 NBFU=    17     4     6    14
 Initial guess from the checkpoint file:  "calcs/am1/chks/ClPh_2356_anion.chk"
 B after Tr=    -0.000000    0.000000    0.000000
         Rot=    1.000000   -0.000000   -0.000000   -0.000000 Ang=   0.00 deg.
 Initial guess orbital symmetries:
       Occupied  (A1) (B2) (A1) (B2) (A1) (A1) (B2) (B2) (A1) (A1)
                 (A1) (B2) (B2) (B1) (A1) (A2) (B2) (B1) (A2) (A1)
                 (B2) (A1) (B1) (B2) (A2) (B1) (A1)
       Virtual   (A2) (B1) (A1) (B2) (A1) (B2) (B1) (A1) (B2) (A1)
                 (B2) (A1) (A1) (B2)
 Keep J ints in memory in canonical form, NReq=864464.
 Overlap will be assumed to be unity.
 Requested convergence on RMS density matrix=1.00D-08 within  32 cycles.
 Requested convergence on MAX density matrix=1.00D-06.
 Requested convergence on             energy=1.00D-06.
 No special actions if energy rises.
 Fock symm off for IB=2 I1=    1 I=   18 J=   14 Cut=1.00D-07 Err=2.94D-05
 Fock matrix is not symmetric: symmetry in diagonalization turned off.
 SCF Done:  E(RAM1) =  0.734126304451E-02 A.U. after   11 cycles
            NFock= 10  Conv=0.87D-08     -V/T= 1.0001
 QCSCF skips out because SCF is already converged.
 Calling FoFJK, ICntrl=      2127 FMM=F ISym2X=1 I1Cent= 0 IOpClX= 0 NMat=1 NMatS=1 NMatT=0.
 ***** Axes restored to original set *****
 -------------------------------------------------------------------
 Center     Atomic                   Forces (Hartrees/Bohr)
 Number     Number              X              Y              Z
 -------------------------------------------------------------------
      1        6           0.000000000    0.000430843   -0.000000000
      2        6          -0.000810922    0.000154477    0.000000000
      3        6           0.000718629   -0.000697330   -0.000000000
      4        6           0.000000000   -0.000225248   -0.000000000
      5        6          -0.000718629   -0.000697330   -0.000000000
      6        6           0.000810922    0.000154477   -0.000000000
      7       17           0.000612863    0.000377568    0.000000000
      8       17           0.000211367   -0.000236742    0.000000000
      9        1           0.000000000    0.000598458   -0.000000000
     10       17          -0.000211367   -0.000236742    0.000000000
     11       17          -0.000612863    0.000377568    0.000000000
 -------------------------------------------------------------------
 Cartesian Forces:  Max     0.000810922 RMS     0.000396980

 GradGradGradGradGradGradGradGradGradGradGradGradGradGradGradGradGradGrad
 Berny optimization.
 Using GEDIIS/GDIIS optimizer.
 FormGI is forming the generalized inverse of G from B-inverse, IUseBI=4.
 Internal  Forces:  Max     0.000751359 RMS     0.000296588
 Search for a local minimum.
 Step number   3 out of a maximum of   57
 All quantities printed in internal units (Hartrees-Bohrs-Radians)
 Mixed Optimization -- En-DIIS/RFO-DIIS
 Update second derivatives using D2CorX and points    1    2    3
 DE= -2.37D-04 DEPred=-2.43D-04 R= 9.74D-01
 TightC=F SS=  1.41D+00  RLast= 3.52D-02 DXNew= 7.2565D-01 1.0554D-01
 Trust test= 9.74D-01 RLast= 3.52D-02 DXMaxT set to 4.31D-01
 ITU=  1  1  0
 Use linear search instead of GDIIS.
     Eigenvalues ---    0.02221   0.02221   0.02221   0.02221   0.02221
     Eigenvalues ---    0.02221   0.02221   0.02221   0.16000   0.20913
     Eigenvalues ---    0.24229   0.25000   0.25000   0.25000   0.25009
     Eigenvalues ---    0.26488   0.30801   0.31476   0.31476   0.31758
     Eigenvalues ---    0.36297   0.43270   0.44492   0.46638   0.47319
     Eigenvalues ---    0.47319   0.61516
 RFO step:  Lambda=-1.12895034D-05 EMin= 2.22103665D-02
 Quartic linear search produced a step of -0.02622.
 Iteration  1 RMS(Cart)=  0.00123792 RMS(Int)=  0.00000048
 Iteration  2 RMS(Cart)=  0.00000072 RMS(Int)=  0.00000003
 ClnCor:  largest displacement from symmetrization is 7.29D-12 for atom     9.
 Variable       Old X    -DE/DX   Delta X   Delta X   Delta X     New X
                                 (Linear)    (Quad)   (Total)
    R1        2.61713   0.00026  -0.00022   0.00093   0.00071   2.61784
    R2        2.61713   0.00026  -0.00022   0.00093   0.00071   2.61784
    R3        2.64791   0.00075   0.00030   0.00099   0.00129   2.64919
    R4        3.23967   0.00072   0.00012   0.00201   0.00212   3.24179
    R5        2.64416   0.00039   0.00004   0.00071   0.00075   2.64491
    R6        3.24389   0.00030   0.00029   0.00042   0.00071   3.24460
    R7        2.64416   0.00039   0.00004   0.00071   0.00075   2.64491
    R8        2.07570  -0.00060   0.00008  -0.00176  -0.00168   2.07402
    R9        2.64791   0.00075   0.00030   0.00099   0.00129   2.64919
   R10        3.24389   0.00030   0.00029   0.00042   0.00071   3.24460
   R11        3.23967   0.00072   0.00012   0.00201   0.00212   3.24179
    A1        2.07137   0.00001  -0.00005   0.00011   0.00006   2.07143
    A2        2.11658   0.00016   0.00006   0.00047   0.00053   2.11711
    A3        2.07813  -0.00011  -0.00024   0.00004  -0.00020   2.07793
    A4        2.08847  -0.00005   0.00018  -0.00052  -0.00033   2.08814
    A5        2.09150  -0.00040   0.00010  -0.00178  -0.00168   2.08982
    A6        2.13726   0.00035  -0.00015   0.00163   0.00148   2.13873
    A7        2.05442   0.00006   0.00006   0.00015   0.00020   2.05463
    A8        2.07883   0.00048  -0.00026   0.00250   0.00224   2.08107
    A9        2.10218  -0.00024   0.00013  -0.00125  -0.00112   2.10106
   A10        2.10218  -0.00024   0.00013  -0.00125  -0.00112   2.10106
   A11        2.09150  -0.00040   0.00010  -0.00178  -0.00168   2.08982
   A12        2.05442   0.00006   0.00006   0.00015   0.00020   2.05463
   A13        2.13726   0.00035  -0.00015   0.00163   0.00148   2.13873
   A14        2.11658   0.00016   0.00006   0.00047   0.00053   2.11711
   A15        2.07813  -0.00011  -0.00024   0.00004  -0.00020   2.07793
   A16        2.08847  -0.00005   0.00018  -0.00052  -0.00033   2.08814
    D1       -0.00000   0.00000   0.00000   0.00000   0.00000   0.00000
    D2        3.14159   0.00000   0.00000   0.00000   0.00000   3.14159
    D3        0.00000  -0.00000   0.00000  -0.00000   0.00000   0.00000
    D4        3.14159  -0.00000   0.00000  -0.00000   0.00000   3.14159
    D5        0.00000  -0.00000   0.00000  -0.00000   0.00000   0.00000
    D6        3.14159   0.00000   0.00000   0.00000   0.00000   3.14159
    D7        3.14159  -0.00000   0.00000  -0.00000   0.00000   3.14159
    D8        0.00000   0.00000   0.00000   0.00000  -0.00000   0.00000
    D9        0.00000  -0.00000   0.00000  -0.00000   0.00000   0.00000
   D10        3.14159   0.00000   0.00000   0.00000   0.00000   3.14159
   D11        3.14159  -0.00000   0.00000  -0.00000   0.00000   3.14159
   D12       -0.00000  -0.00000   0.00000  -0.00000   0.00000   0.00000
   D13       -0.00000   0.00000   0.00000   0.00000   0.00000   0.00000
   D14        3.14159   0.00000   0.00000   0.00000   0.00000   3.14159
   D15        3.14159  -0.00000   0.00000  -0.00000   0.00000   3.14159
   D16        0.00000   0.00000   0.00000   0.00000   0.00000   0.00000
   D17        0.00000   0.00000   0.00000   0.00000   0.00000   0.00000
   D18        3.14159   0.00000   0.00000   0.00000   0.00000   3.14159
   D19        3.14159  -0.00000   0.00000  -0.00000   0.00000   3.14159
   D20       -0.00000   0.00000   0.00000   0.00000   0.00000   0.00000
         Item               Value     Threshold  Converged?
 Maximum Force            0.000751     0.000450     NO 
 RMS     Force            0.000297     0.000300     YES
 Maximum Displacement     0.003839     0.001800     NO 
 RMS     Displacement     0.001238     0.001200     NO 
 Predicted change in Energy=-5.815322D-06
 GradGradGradGradGradGradGradGradGradGradGradGradGradGradGradGradGradGrad

                          Input orientation:                          
 ---------------------------------------------------------------------
 Center     Atomic      Atomic             Coordinates (Angstroms)
 Number     Number       Type             X           Y           Z
 ---------------------------------------------------------------------
      1          6           0       -0.000000    1.418371   -0.000000
      2          6           0        1.191673    0.711993    0.000000
      3          6           0        1.207424   -0.689812   -0.000000
      4          6           0        0.000000   -1.397686   -0.000000
      5          6           0       -1.207424   -0.689812   -0.000000
      6          6           0       -1.191673    0.711993   -0.000000
      7         17           0        2.673035    1.577122    0.000000
      8         17           0        2.665135   -1.597040    0.000000
      9          1           0        0.000000   -2.495211   -0.000000
     10         17           0       -2.665135   -1.597040   -0.000000
     11         17           0       -2.673035    1.577122   -0.000000
 ---------------------------------------------------------------------
                    Distance matrix (angstroms):
                    1          2          3          4          5
     1  C    0.000000
     2  C    1.385299   0.000000
     3  C    2.429466   1.401894   0.000000
     4  C    2.816057   2.422980   1.399628   0.000000
     5  C    2.429466   2.778619   2.414847   1.399628   0.000000
     6  C    1.385299   2.383346   2.778619   2.422980   1.401894
     7  Cl   2.677745   1.715483   2.699446   3.999325   4.494102
     8  Cl   4.024382   2.739110   1.716970   2.672581   3.977408
     9  H    3.913582   3.421439   2.171943   1.097525   2.171943
    10  Cl   4.024382   4.495175   3.977408   2.672581   1.716970
    11  Cl   2.677745   3.960356   4.494102   3.999325   2.699446
                    6          7          8          9         10
     6  C    0.000000
     7  Cl   3.960356   0.000000
     8  Cl   4.495175   3.174172   0.000000
     9  H    3.421439   4.871244   2.812411   0.000000
    10  Cl   2.739110   6.210585   5.330270   2.812411   0.000000
    11  Cl   1.715483   5.346071   6.210585   4.871244   3.174172
                   11
    11  Cl   0.000000
 Stoichiometry    C6HCl4(1-)
 Framework group  C2V[C2(HCC),SGV(C4Cl4)]
 Deg. of freedom    10
 Full point group                 C2V     NOp   4
 Largest Abelian subgroup         C2V     NOp   4
 Largest concise Abelian subgroup C2      NOp   2
                         Standard orientation:                         
 ---------------------------------------------------------------------
 Center     Atomic      Atomic             Coordinates (Angstroms)
 Number     Number       Type             X           Y           Z
 ---------------------------------------------------------------------
      1          6           0        0.000000    0.000000    1.444867
      2          6           0        0.000000    1.191673    0.738490
      3          6           0        0.000000    1.207424   -0.663315
      4          6           0        0.000000   -0.000000   -1.371189
      5          6           0       -0.000000   -1.207424   -0.663315
      6          6           0       -0.000000   -1.191673    0.738490
      7         17           0        0.000000    2.673035    1.603618
      8         17           0        0.000000    2.665135   -1.570543
      9          1           0        0.000000   -0.000000   -2.468714
     10         17           0       -0.000000   -2.665135   -1.570543
     11         17           0       -0.000000   -2.673035    1.603618
 ---------------------------------------------------------------------
 Rotational constants (GHZ):           1.1760255           0.4742903           0.3379823
 Standard basis: VSTO-6G (5D, 7F)
 There are    17 symmetry adapted cartesian basis functions of A1  symmetry.
 There are     4 symmetry adapted cartesian basis functions of A2  symmetry.
 There are     6 symmetry adapted cartesian basis functions of B1  symmetry.
 There are    14 symmetry adapted cartesian basis functions of B2  symmetry.
 There are    17 symmetry adapted basis functions of A1  symmetry.
 There are     4 symmetry adapted basis functions of A2  symmetry.
 There are     6 symmetry adapted basis functions of B1  symmetry.
 There are    14 symmetry adapted basis functions of B2  symmetry.
    41 basis functions,   246 primitive gaussians,    41 cartesian basis functions
    27 alpha electrons       27 beta electrons
       nuclear repulsion energy       295.1900424172 Hartrees.
 Integral buffers will be    131072 words long.
 Regular integral format.
 Two-electron integral symmetry is turned off.
 Do NDO integrals.
 One-electron integrals computed using PRISM.
 NBasis=    41 RedAO= T EigKep=  1.00D+00  NBF=    17     4     6    14
 NBsUse=    41 1.00D-06 EigRej= -1.00D+00 NBFU=    17     4     6    14
 Initial guess from the checkpoint file:  "calcs/am1/chks/ClPh_2356_anion.chk"
 B after Tr=    -0.000000   -0.000000    0.000000
         Rot=    1.000000   -0.000000   -0.000000    0.000000 Ang=   0.00 deg.
 Initial guess orbital symmetries:
       Occupied  (A1) (B2) (A1) (B2) (A1) (B2) (A1) (B2) (A1) (A1)
                 (A1) (B2) (B2) (B1) (A1) (A2) (B2) (B1) (A2) (A1)
                 (B2) (A1) (B1) (B2) (A2) (B1) (A1)
       Virtual   (A2) (B1) (A1) (B2) (A1) (B2) (B1) (A1) (B2) (A1)
                 (B2) (A1) (A1) (B2)
 Keep J ints in memory in canonical form, NReq=864464.
 Overlap will be assumed to be unity.
 Requested convergence on RMS density matrix=1.00D-08 within  32 cycles.
 Requested convergence on MAX density matrix=1.00D-06.
 Requested convergence on             energy=1.00D-06.
 No special actions if energy rises.
 Fock symm off for IB=2 I1=    1 I=   18 J=   14 Cut=1.00D-07 Err=1.77D-05
 Fock matrix is not symmetric: symmetry in diagonalization turned off.
 SCF Done:  E(RAM1) =  0.733628277601E-02 A.U. after   10 cycles
            NFock=  9  Conv=0.61D-08     -V/T= 1.0001
 QCSCF skips out because SCF is already converged.
 Calling FoFJK, ICntrl=      2127 FMM=F ISym2X=1 I1Cent= 0 IOpClX= 0 NMat=1 NMatS=1 NMatT=0.
 ***** Axes restored to original set *****
 -------------------------------------------------------------------
 Center     Atomic                   Forces (Hartrees/Bohr)
 Number     Number              X              Y              Z
 -------------------------------------------------------------------
      1        6           0.000000000   -0.000194915   -0.000000000
      2        6          -0.000638834   -0.000171431   -0.000000000
      3        6           0.000027188    0.000058380   -0.000000000
      4        6           0.000000000    0.000301760   -0.000000000
      5        6          -0.000027188    0.000058380    0.000000000
      6        6           0.000638834   -0.000171431   -0.000000000
      7       17           0.000047246    0.000004968    0.000000000
      8       17          -0.000124793    0.000090405    0.000000000
      9        1           0.000000000   -0.000071491    0.000000000
     10       17           0.000124793    0.000090405    0.000000000
     11       17          -0.000047246    0.000004968    0.000000000
 -------------------------------------------------------------------
 Cartesian Forces:  Max     0.000638834 RMS     0.000180022

 GradGradGradGradGradGradGradGradGradGradGradGradGradGradGradGradGradGrad
 Berny optimization.
 Using GEDIIS/GDIIS optimizer.
 FormGI is forming the generalized inverse of G from B-inverse, IUseBI=4.
 Internal  Forces:  Max     0.000449514 RMS     0.000135809
 Search for a local minimum.
 Step number   4 out of a maximum of   57
 All quantities printed in internal units (Hartrees-Bohrs-Radians)
 Mixed Optimization -- En-DIIS/RFO-DIIS
 Swapping is turned off.
 Update second derivatives using D2CorX and points    1    2    3    4
 DE= -4.98D-06 DEPred=-5.82D-06 R= 8.56D-01
 TightC=F SS=  1.41D+00  RLast= 6.07D-03 DXNew= 7.2565D-01 1.8200D-02
 Trust test= 8.56D-01 RLast= 6.07D-03 DXMaxT set to 4.31D-01
 ITU=  1  1  1  0
     Eigenvalues ---    0.02221   0.02221   0.02221   0.02221   0.02221
     Eigenvalues ---    0.02221   0.02221   0.02221   0.16000   0.17777
     Eigenvalues ---    0.23745   0.25000   0.25000   0.25000   0.25247
     Eigenvalues ---    0.26801   0.29732   0.31158   0.31476   0.31476
     Eigenvalues ---    0.36092   0.43276   0.44784   0.47319   0.47319
     Eigenvalues ---    0.57414   0.70283
 En-DIIS/RFO-DIIS/Sim-DIIS IScMMF=       -3 using points:     4    3
 RFO step:  Lambda=-1.66413547D-06.
 DidBck=F Rises=F RFO-DIIS coefs:    1.05301   -0.05301
 Iteration  1 RMS(Cart)=  0.00031825 RMS(Int)=  0.00000006
 Iteration  2 RMS(Cart)=  0.00000007 RMS(Int)=  0.00000000
 ClnCor:  largest displacement from symmetrization is 1.09D-12 for atom     9.
 Variable       Old X    -DE/DX   Delta X   Delta X   Delta X     New X
                                 (Linear)    (Quad)   (Total)
    R1        2.61784  -0.00045   0.00004  -0.00077  -0.00073   2.61710
    R2        2.61784  -0.00045   0.00004  -0.00077  -0.00073   2.61710
    R3        2.64919  -0.00026   0.00007  -0.00040  -0.00033   2.64886
    R4        3.24179   0.00004   0.00011   0.00027   0.00039   3.24218
    R5        2.64491  -0.00025   0.00004  -0.00039  -0.00035   2.64456
    R6        3.24460  -0.00015   0.00004  -0.00040  -0.00036   3.24424
    R7        2.64491  -0.00025   0.00004  -0.00039  -0.00035   2.64456
    R8        2.07402   0.00007  -0.00009   0.00004  -0.00005   2.07397
    R9        2.64919  -0.00026   0.00007  -0.00040  -0.00033   2.64886
   R10        3.24460  -0.00015   0.00004  -0.00040  -0.00036   3.24424
   R11        3.24179   0.00004   0.00011   0.00027   0.00039   3.24218
    A1        2.07143  -0.00017   0.00000  -0.00068  -0.00068   2.07076
    A2        2.11711   0.00017   0.00003   0.00062   0.00065   2.11776
    A3        2.07793  -0.00006  -0.00001  -0.00018  -0.00019   2.07774
    A4        2.08814  -0.00012  -0.00002  -0.00045  -0.00046   2.08768
    A5        2.08982  -0.00005  -0.00009  -0.00026  -0.00035   2.08947
    A6        2.13873   0.00001   0.00008   0.00014   0.00022   2.13895
    A7        2.05463   0.00004   0.00001   0.00013   0.00014   2.05477
    A8        2.08107  -0.00008   0.00012  -0.00004   0.00008   2.08115
    A9        2.10106   0.00004  -0.00006   0.00002  -0.00004   2.10102
   A10        2.10106   0.00004  -0.00006   0.00002  -0.00004   2.10102
   A11        2.08982  -0.00005  -0.00009  -0.00026  -0.00035   2.08947
   A12        2.05463   0.00004   0.00001   0.00013   0.00014   2.05477
   A13        2.13873   0.00001   0.00008   0.00014   0.00022   2.13895
   A14        2.11711   0.00017   0.00003   0.00062   0.00065   2.11776
   A15        2.07793  -0.00006  -0.00001  -0.00018  -0.00019   2.07774
   A16        2.08814  -0.00012  -0.00002  -0.00045  -0.00046   2.08768
    D1       -0.00000   0.00000   0.00000   0.00000   0.00000   0.00000
    D2        3.14159   0.00000  -0.00000   0.00000   0.00000   3.14159
    D3        0.00000  -0.00000   0.00000  -0.00000   0.00000   0.00000
    D4        3.14159  -0.00000  -0.00000  -0.00000   0.00000   3.14159
    D5        0.00000   0.00000   0.00000   0.00000  -0.00000   0.00000
    D6        3.14159   0.00000  -0.00000   0.00000   0.00000   3.14159
    D7        3.14159  -0.00000  -0.00000  -0.00000   0.00000   3.14159
    D8       -0.00000  -0.00000   0.00000  -0.00000   0.00000   0.00000
    D9        0.00000  -0.00000   0.00000  -0.00000   0.00000   0.00000
   D10        3.14159   0.00000  -0.00000   0.00000   0.00000   3.14159
   D11        3.14159  -0.00000  -0.00000  -0.00000   0.00000   3.14159
   D12        0.00000  -0.00000   0.00000  -0.00000  -0.00000   0.00000
   D13       -0.00000   0.00000   0.00000   0.00000   0.00000   0.00000
   D14        3.14159   0.00000  -0.00000   0.00000   0.00000   3.14159
   D15        3.14159  -0.00000  -0.00000  -0.00000   0.00000   3.14159
   D16        0.00000   0.00000   0.00000   0.00000   0.00000   0.00000
   D17        0.00000  -0.00000   0.00000  -0.00000  -0.00000   0.00000
   D18        3.14159   0.00000  -0.00000   0.00000   0.00000   3.14159
   D19        3.14159  -0.00000  -0.00000  -0.00000   0.00000   3.14159
   D20       -0.00000   0.00000   0.00000   0.00000   0.00000   0.00000
         Item               Value     Threshold  Converged?
 Maximum Force            0.000450     0.000450     YES
 RMS     Force            0.000136     0.000300     YES
 Maximum Displacement     0.001083     0.001800     YES
 RMS     Displacement     0.000318     0.001200     YES
 Predicted change in Energy=-8.320725D-07
 Optimization completed.
    -- Stationary point found.
                           ----------------------------
                           !   Optimized Parameters   !
                           ! (Angstroms and Degrees)  !
 --------------------------                            --------------------------
 ! Name  Definition              Value          Derivative Info.                !
 --------------------------------------------------------------------------------
 ! R1    R(1,2)                  1.3853         -DE/DX =   -0.0004              !
 ! R2    R(1,6)                  1.3853         -DE/DX =   -0.0004              !
 ! R3    R(2,3)                  1.4019         -DE/DX =   -0.0003              !
 ! R4    R(2,7)                  1.7155         -DE/DX =    0.0                 !
 ! R5    R(3,4)                  1.3996         -DE/DX =   -0.0003              !
 ! R6    R(3,8)                  1.717          -DE/DX =   -0.0002              !
 ! R7    R(4,5)                  1.3996         -DE/DX =   -0.0003              !
 ! R8    R(4,9)                  1.0975         -DE/DX =    0.0001              !
 ! R9    R(5,6)                  1.4019         -DE/DX =   -0.0003              !
 ! R10   R(5,10)                 1.717          -DE/DX =   -0.0002              !
 ! R11   R(6,11)                 1.7155         -DE/DX =    0.0                 !
 ! A1    A(2,1,6)              118.6843         -DE/DX =   -0.0002              !
 ! A2    A(1,2,3)              121.3016         -DE/DX =    0.0002              !
 ! A3    A(1,2,7)              119.0569         -DE/DX =   -0.0001              !
 ! A4    A(3,2,7)              119.6416         -DE/DX =   -0.0001              !
 ! A5    A(2,3,4)              119.738          -DE/DX =    0.0                 !
 ! A6    A(2,3,8)              122.5404         -DE/DX =    0.0                 !
 ! A7    A(4,3,8)              117.7216         -DE/DX =    0.0                 !
 ! A8    A(3,4,5)              119.2365         -DE/DX =   -0.0001              !
 ! A9    A(3,4,9)              120.3817         -DE/DX =    0.0                 !
 ! A10   A(5,4,9)              120.3817         -DE/DX =    0.0                 !
 ! A11   A(4,5,6)              119.738          -DE/DX =    0.0                 !
 ! A12   A(4,5,10)             117.7216         -DE/DX =    0.0                 !
 ! A13   A(6,5,10)             122.5404         -DE/DX =    0.0                 !
 ! A14   A(1,6,5)              121.3016         -DE/DX =    0.0002              !
 ! A15   A(1,6,11)             119.0569         -DE/DX =   -0.0001              !
 ! A16   A(5,6,11)             119.6416         -DE/DX =   -0.0001              !
 ! D1    D(6,1,2,3)              0.0            -DE/DX =    0.0                 !
 ! D2    D(6,1,2,7)            180.0            -DE/DX =    0.0                 !
 ! D3    D(2,1,6,5)              0.0            -DE/DX =    0.0                 !
 ! D4    D(2,1,6,11)           180.0            -DE/DX =    0.0                 !
 ! D5    D(1,2,3,4)              0.0            -DE/DX =    0.0                 !
 ! D6    D(1,2,3,8)            180.0            -DE/DX =    0.0                 !
 ! D7    D(7,2,3,4)            180.0            -DE/DX =    0.0                 !
 ! D8    D(7,2,3,8)              0.0            -DE/DX =    0.0                 !
 ! D9    D(2,3,4,5)              0.0            -DE/DX =    0.0                 !
 ! D10   D(2,3,4,9)            180.0            -DE/DX =    0.0                 !
 ! D11   D(8,3,4,5)            180.0            -DE/DX =    0.0                 !
 ! D12   D(8,3,4,9)              0.0            -DE/DX =    0.0                 !
 ! D13   D(3,4,5,6)              0.0            -DE/DX =    0.0                 !
 ! D14   D(3,4,5,10)           180.0            -DE/DX =    0.0                 !
 ! D15   D(9,4,5,6)            180.0            -DE/DX =    0.0                 !
 ! D16   D(9,4,5,10)             0.0            -DE/DX =    0.0                 !
 ! D17   D(4,5,6,1)              0.0            -DE/DX =    0.0                 !
 ! D18   D(4,5,6,11)           180.0            -DE/DX =    0.0                 !
 ! D19   D(10,5,6,1)           180.0            -DE/DX =    0.0                 !
 ! D20   D(10,5,6,11)            0.0            -DE/DX =    0.0                 !
 --------------------------------------------------------------------------------
 GradGradGradGradGradGradGradGradGradGradGradGradGradGradGradGradGradGrad

                          Input orientation:                          
 ---------------------------------------------------------------------
 Center     Atomic      Atomic             Coordinates (Angstroms)
 Number     Number       Type             X           Y           Z
 ---------------------------------------------------------------------
      1          6           0        0.000000    1.418371   -0.000000
      2          6           0        1.191673    0.711993   -0.000000
      3          6           0        1.207424   -0.689812   -0.000000
      4          6           0       -0.000000   -1.397686   -0.000000
      5          6           0       -1.207424   -0.689812   -0.000000
      6          6           0       -1.191673    0.711993   -0.000000
      7         17           0        2.673035    1.577122    0.000000
      8         17           0        2.665135   -1.597040    0.000000
      9          1           0       -0.000000   -2.495211   -0.000000
     10         17           0       -2.665135   -1.597040   -0.000000
     11         17           0       -2.673035    1.577122   -0.000000
 ---------------------------------------------------------------------
                    Distance matrix (angstroms):
                    1          2          3          4          5
     1  C    0.000000
     2  C    1.385299   0.000000
     3  C    2.429466   1.401894   0.000000
     4  C    2.816057   2.422980   1.399628   0.000000
     5  C    2.429466   2.778619   2.414847   1.399628   0.000000
     6  C    1.385299   2.383346   2.778619   2.422980   1.401894
     7  Cl   2.677745   1.715483   2.699446   3.999325   4.494102
     8  Cl   4.024382   2.739110   1.716970   2.672581   3.977408
     9  H    3.913582   3.421439   2.171943   1.097525   2.171943
    10  Cl   4.024382   4.495175   3.977408   2.672581   1.716970
    11  Cl   2.677745   3.960356   4.494102   3.999325   2.699446
                    6          7          8          9         10
     6  C    0.000000
     7  Cl   3.960356   0.000000
     8  Cl   4.495175   3.174172   0.000000
     9  H    3.421439   4.871244   2.812411   0.000000
    10  Cl   2.739110   6.210585   5.330270   2.812411   0.000000
    11  Cl   1.715483   5.346071   6.210585   4.871244   3.174172
                   11
    11  Cl   0.000000
 Stoichiometry    C6HCl4(1-)
 Framework group  C2V[C2(HCC),SGV(C4Cl4)]
 Deg. of freedom    10
 Full point group                 C2V     NOp   4
 Largest Abelian subgroup         C2V     NOp   4
 Largest concise Abelian subgroup C2      NOp   2
                         Standard orientation:                         
 ---------------------------------------------------------------------
 Center     Atomic      Atomic             Coordinates (Angstroms)
 Number     Number       Type             X           Y           Z
 ---------------------------------------------------------------------
      1          6           0       -0.000000    0.000000    1.444867
      2          6           0        0.000000    1.191673    0.738490
      3          6           0        0.000000    1.207424   -0.663315
      4          6           0        0.000000   -0.000000   -1.371189
      5          6           0       -0.000000   -1.207424   -0.663315
      6          6           0       -0.000000   -1.191673    0.738490
      7         17           0        0.000000    2.673035    1.603618
      8         17           0        0.000000    2.665135   -1.570543
      9          1           0        0.000000   -0.000000   -2.468714
     10         17           0       -0.000000   -2.665135   -1.570543
     11         17           0       -0.000000   -2.673035    1.603618
 ---------------------------------------------------------------------
 Rotational constants (GHZ):           1.1760255           0.4742903           0.3379823

 **********************************************************************

            Population analysis using the SCF Density.

 **********************************************************************

 Orbital symmetries:
       Occupied  (A1) (B2) (A1) (B2) (A1) (B2) (A1) (B2) (A1) (A1)
                 (A1) (B2) (B2) (B1) (A1) (A2) (B2) (B1) (A2) (A1)
                 (B2) (A1) (B1) (B2) (A2) (B1) (A1)
       Virtual   (A2) (B1) (A1) (B2) (A1) (B2) (B1) (A1) (B2) (A1)
                 (B2) (A1) (A1) (B2)
 The electronic state is 1-A1.
 Alpha  occ. eigenvalues --   -1.30173  -1.25191  -1.23075  -1.22200  -1.19683
 Alpha  occ. eigenvalues --   -0.97407  -0.97060  -0.70717  -0.69344  -0.52128
 Alpha  occ. eigenvalues --   -0.47377  -0.46740  -0.42471  -0.40799  -0.36882
 Alpha  occ. eigenvalues --   -0.36368  -0.34083  -0.33186  -0.32127  -0.31960
 Alpha  occ. eigenvalues --   -0.30037  -0.28769  -0.27295  -0.27187  -0.18909
 Alpha  occ. eigenvalues --   -0.18118  -0.13380
 Alpha virt. eigenvalues --    0.15213   0.17280   0.17832   0.18846   0.20462
 Alpha virt. eigenvalues --    0.22230   0.26709   0.28760   0.31012   0.31323
 Alpha virt. eigenvalues --    0.32460   0.33751   0.36630   0.38520
          Condensed to atoms (all electrons):
               1          2          3          4          5          6
     1  C    4.338835   0.000000   0.000000   0.000000   0.000000   0.000000
     2  C    0.000000   4.047414   0.000000   0.000000   0.000000   0.000000
     3  C    0.000000   0.000000   4.063084   0.000000   0.000000   0.000000
     4  C    0.000000   0.000000   0.000000   4.200104   0.000000   0.000000
     5  C    0.000000   0.000000   0.000000   0.000000   4.063084   0.000000
     6  C    0.000000   0.000000   0.000000   0.000000   0.000000   4.047414
     7  Cl   0.000000   0.000000   0.000000   0.000000   0.000000   0.000000
     8  Cl   0.000000   0.000000   0.000000   0.000000   0.000000   0.000000
     9  H    0.000000   0.000000   0.000000   0.000000   0.000000   0.000000
    10  Cl   0.000000   0.000000   0.000000   0.000000   0.000000   0.000000
    11  Cl   0.000000   0.000000   0.000000   0.000000   0.000000   0.000000
               7          8          9         10         11
     1  C    0.000000   0.000000   0.000000   0.000000   0.000000
     2  C    0.000000   0.000000   0.000000   0.000000   0.000000
     3  C    0.000000   0.000000   0.000000   0.000000   0.000000
     4  C    0.000000   0.000000   0.000000   0.000000   0.000000
     5  C    0.000000   0.000000   0.000000   0.000000   0.000000
     6  C    0.000000   0.000000   0.000000   0.000000   0.000000
     7  Cl   7.089420   0.000000   0.000000   0.000000   0.000000
     8  Cl   0.000000   7.093854   0.000000   0.000000   0.000000
     9  H    0.000000   0.000000   0.873517   0.000000   0.000000
    10  Cl   0.000000   0.000000   0.000000   7.093854   0.000000
    11  Cl   0.000000   0.000000   0.000000   0.000000   7.089420
 Mulliken charges:
               1
     1  C   -0.338835
     2  C   -0.047414
     3  C   -0.063084
     4  C   -0.200104
     5  C   -0.063084
     6  C   -0.047414
     7  Cl  -0.089420
     8  Cl  -0.093854
     9  H    0.126483
    10  Cl  -0.093854
    11  Cl  -0.089420
 Sum of Mulliken charges =  -1.00000
 Mulliken charges with hydrogens summed into heavy atoms:
               1
     1  C   -0.338835
     2  C   -0.047414
     3  C   -0.063084
     4  C   -0.073621
     5  C   -0.063084
     6  C   -0.047414
     7  Cl  -0.089420
     8  Cl  -0.093854
    10  Cl  -0.093854
    11  Cl  -0.089420
 Charge=             -1.0000 electrons
 Dipole moment (field-independent basis, Debye):
    X=             -0.0000    Y=             -0.0000    Z=             -4.3775  Tot=              4.3775
 N-N= 2.951900424172D+02 E-N=-4.233975726472D+02  KE=-1.359145302958D+02
 Symmetry A1   KE=-5.575877924977D+01
 Symmetry A2   KE=-1.420872385359D+01
 Symmetry B1   KE=-1.744396226034D+01
 Symmetry B2   KE=-4.850306493214D+01
 1\1\GINC-SH02-01N26\FOpt\RAM1\ZDO\C6H1Cl4(1-)\JLAPIER\28-Sep-2026\0\\#
  Opt AM1 SCF=XQC\\ClPh_2356_anion am1\\-1,1\C,0.,1.418370899,0.\C,1.19
 16728753,0.7119930789,0.\C,1.2074235911,-0.6898119421,0.\C,0.,-1.39768
 59946,0.\C,-1.2074235911,-0.6898119421,0.\C,-1.1916728753,0.7119930789
 ,0.\Cl,2.6730353631,1.5771218415,0.\Cl,2.6651350911,-1.5970398909,0.\H
 ,0.,-2.495211079,0.\Cl,-2.6651350911,-1.5970398909,0.\Cl,-2.6730353631
 ,1.5771218415,0.\\Version=ES64L-G16RevB.01\State=1-A1\HF=0.0073363\RMS
 D=6.085e-09\RMSF=1.800e-04\Dipole=0.,-1.7222464,0.\PG=C02V [C2(H1C1C1)
 ,SGV(C4Cl4)]\\@


 TO ERR IS HUMAN - AND TO BLAME IT ON A COMPUTER IS EVEN MORE SO.
 Job cpu time:       0 days  0 hours  0 minutes  2.8 seconds.
 Elapsed time:       0 days  0 hours  0 minutes  2.7 seconds.
 File lengths (MBytes):  RWF=      6 Int=      0 D2E=      0 Chk=      3 Scr=      1
 Normal termination of Gaussian 16 at Mon Sep 28 01:24:01 2026.
