 Entering Gaussian System, Link 0=g16
 Initial command:
 /share/software/user/restricted/gaussian/g16.B01/l1.exe "/lscratch/jlapier/g16_45667580_19/Gau-27934.inp" -scrdir="/lscratch/jlapier/g16_45667580_19/"
 Entering Link 1 = /share/software/user/restricted/gaussian/g16.B01/l1.exe PID=     27940.
  
 Copyright (c) 1988-2017, Gaussian, Inc.  All Rights Reserved.
  
 This is part of the Gaussian(R) 16 program.  It is based on
 the Gaussian(R) 09 system (copyright 2009, Gaussian, Inc.),
 the Gaussian(R) 03 system (copyright 2003, Gaussian, Inc.),
 the Gaussian(R) 98 system (copyright 1998, Gaussian, Inc.),
 the Gaussian(R) 94 system (copyright 1995, Gaussian, Inc.),
 the Gaussian 92(TM) system (copyright 1992, Gaussian, Inc.),
 the Gaussian 90(TM) system (copyright 1990, Gaussian, Inc.),
 the Gaussian 88(TM) system (copyright 1988, Gaussian, Inc.),
 the Gaussian 86(TM) system (copyright 1986, Carnegie Mellon
 University), and the Gaussian 82(TM) system (copyright 1983,
 Carnegie Mellon University). Gaussian is a federally registered
 trademark of Gaussian, Inc.
  
 This software contains proprietary and confidential information,
 including trade secrets, belonging to Gaussian, Inc.
  
 This software is provided under written license and may be
 used, copied, transmitted, or stored only in accord with that
 written license.
  
 The following legend is applicable only to US Government
 contracts under FAR:
  
                    RESTRICTED RIGHTS LEGEND
  
 Use, reproduction and disclosure by the US Government is
 subject to restrictions as set forth in subparagraphs (a)
 and (c) of the Commercial Computer Software - Restricted
 Rights clause in FAR 52.227-19.
  
 Gaussian, Inc.
 340 Quinnipiac St., Bldg. 40, Wallingford CT 06492
  
  
 ---------------------------------------------------------------
 Warning -- This program may not be used in any manner that
 competes with the business of Gaussian, Inc. or will provide
 assistance to any competitor of Gaussian, Inc.  The licensee
 of this program is prohibited from giving any competitor of
 Gaussian, Inc. access to this program.  By using this program,
 the user acknowledges that Gaussian, Inc. is engaged in the
 business of creating and licensing software in the field of
 computational chemistry and represents and warrants to the
 licensee that it is not a competitor of Gaussian, Inc. and that
 it will not use this program in any manner prohibited above.
 ---------------------------------------------------------------
  

 Cite this work as:
 Gaussian 16, Revision B.01,
 M. J. Frisch, G. W. Trucks, H. B. Schlegel, G. E. Scuseria, 
 M. A. Robb, J. R. Cheeseman, G. Scalmani, V. Barone, 
 G. A. Petersson, H. Nakatsuji, X. Li, M. Caricato, A. V. Marenich, 
 J. Bloino, B. G. Janesko, R. Gomperts, B. Mennucci, H. P. Hratchian, 
 J. V. Ortiz, A. F. Izmaylov, J. L. Sonnenberg, D. Williams-Young, 
 F. Ding, F. Lipparini, F. Egidi, J. Goings, B. Peng, A. Petrone, 
 T. Henderson, D. Ranasinghe, V. G. Zakrzewski, J. Gao, N. Rega, 
 G. Zheng, W. Liang, M. Hada, M. Ehara, K. Toyota, R. Fukuda, 
 J. Hasegawa, M. Ishida, T. Nakajima, Y. Honda, O. Kitao, H. Nakai, 
 T. Vreven, K. Throssell, J. A. Montgomery, Jr., J. E. Peralta, 
 F. Ogliaro, M. J. Bearpark, J. J. Heyd, E. N. Brothers, K. N. Kudin, 
 V. N. Staroverov, T. A. Keith, R. Kobayashi, J. Normand, 
 K. Raghavachari, A. P. Rendell, J. C. Burant, S. S. Iyengar, 
 J. Tomasi, M. Cossi, J. M. Millam, M. Klene, C. Adamo, R. Cammi, 
 J. W. Ochterski, R. L. Martin, K. Morokuma, O. Farkas, 
 J. B. Foresman, and D. J. Fox, Gaussian, Inc., Wallingford CT, 2016.
 
 ******************************************
 Gaussian 16:  ES64L-G16RevB.01 20-Dec-2017
                28-Sep-2026 
 ******************************************
 %nprocshared=1
 Will use up to    1 processors via shared memory.
 %mem=1GB
 %chk=calcs/am1/chks/ClPh_23_rad.chk
 -----------------
 # Opt AM1 SCF=XQC
 -----------------
 1/18=20,19=15,26=1,38=1/1,3;
 2/9=110,12=2,17=6,18=5,40=1/2;
 3/5=2,25=1,41=700000,71=1/1,2,3;
 4/35=1/1;
 5/5=2,8=3,13=1,35=1,38=5/2,8;
 6/7=2,8=2,9=2,10=2,28=1/1;
 7//1,2,3,16;
 1/18=20,19=15,26=1/3(2);
 2/9=110/2;
 99//99;
 2/9=110/2;
 3/5=2,25=1,41=700000,71=1,135=20/1,2,3;
 4/5=5,16=3,35=1/1;
 5/5=2,8=3,13=1,35=1,38=5/2,8;
 7//1,2,3,16;
 1/18=20,19=15,26=1/3(-5);
 2/9=110/2;
 6/7=2,8=2,9=2,10=2,19=2,28=1/1;
 99/9=1/99;
 ---------------
 ClPh_23_rad am1
 ---------------
 Symbolic Z-matrix:
 Charge =  0 Multiplicity = 2
 C                     0.        1.39      0. 
 C                     1.20378   0.695     0. 
 C                     1.20378  -0.695     0. 
 C                     0.       -1.39      0. 
 C                    -1.20378  -0.695     0. 
 C                    -1.20378   0.695     0. 
 Cl                    2.71066   1.565     0. 
 Cl                    2.71066  -1.565     0. 
 H                     0.       -2.47      0. 
 H                    -2.13908  -1.235     0. 
 H                    -2.13908   1.235     0. 
 

 GradGradGradGradGradGradGradGradGradGradGradGradGradGradGradGradGradGrad
 Berny optimization.
 Initialization pass.
                           ----------------------------
                           !    Initial Parameters    !
                           ! (Angstroms and Degrees)  !
 --------------------------                            --------------------------
 ! Name  Definition              Value          Derivative Info.                !
 --------------------------------------------------------------------------------
 ! R1    R(1,2)                  1.39           estimate D2E/DX2                !
 ! R2    R(1,6)                  1.39           estimate D2E/DX2                !
 ! R3    R(2,3)                  1.39           estimate D2E/DX2                !
 ! R4    R(2,7)                  1.74           estimate D2E/DX2                !
 ! R5    R(3,4)                  1.39           estimate D2E/DX2                !
 ! R6    R(3,8)                  1.74           estimate D2E/DX2                !
 ! R7    R(4,5)                  1.39           estimate D2E/DX2                !
 ! R8    R(4,9)                  1.08           estimate D2E/DX2                !
 ! R9    R(5,6)                  1.39           estimate D2E/DX2                !
 ! R10   R(5,10)                 1.08           estimate D2E/DX2                !
 ! R11   R(6,11)                 1.08           estimate D2E/DX2                !
 ! A1    A(2,1,6)              120.0            estimate D2E/DX2                !
 ! A2    A(1,2,3)              120.0            estimate D2E/DX2                !
 ! A3    A(1,2,7)              120.0            estimate D2E/DX2                !
 ! A4    A(3,2,7)              120.0            estimate D2E/DX2                !
 ! A5    A(2,3,4)              120.0            estimate D2E/DX2                !
 ! A6    A(2,3,8)              120.0            estimate D2E/DX2                !
 ! A7    A(4,3,8)              120.0            estimate D2E/DX2                !
 ! A8    A(3,4,5)              120.0            estimate D2E/DX2                !
 ! A9    A(3,4,9)              120.0            estimate D2E/DX2                !
 ! A10   A(5,4,9)              120.0            estimate D2E/DX2                !
 ! A11   A(4,5,6)              120.0            estimate D2E/DX2                !
 ! A12   A(4,5,10)             120.0            estimate D2E/DX2                !
 ! A13   A(6,5,10)             120.0            estimate D2E/DX2                !
 ! A14   A(1,6,5)              120.0            estimate D2E/DX2                !
 ! A15   A(1,6,11)             120.0            estimate D2E/DX2                !
 ! A16   A(5,6,11)             120.0            estimate D2E/DX2                !
 ! D1    D(6,1,2,3)              0.0            estimate D2E/DX2                !
 ! D2    D(6,1,2,7)            180.0            estimate D2E/DX2                !
 ! D3    D(2,1,6,5)              0.0            estimate D2E/DX2                !
 ! D4    D(2,1,6,11)           180.0            estimate D2E/DX2                !
 ! D5    D(1,2,3,4)              0.0            estimate D2E/DX2                !
 ! D6    D(1,2,3,8)            180.0            estimate D2E/DX2                !
 ! D7    D(7,2,3,4)            180.0            estimate D2E/DX2                !
 ! D8    D(7,2,3,8)              0.0            estimate D2E/DX2                !
 ! D9    D(2,3,4,5)              0.0            estimate D2E/DX2                !
 ! D10   D(2,3,4,9)            180.0            estimate D2E/DX2                !
 ! D11   D(8,3,4,5)            180.0            estimate D2E/DX2                !
 ! D12   D(8,3,4,9)              0.0            estimate D2E/DX2                !
 ! D13   D(3,4,5,6)              0.0            estimate D2E/DX2                !
 ! D14   D(3,4,5,10)           180.0            estimate D2E/DX2                !
 ! D15   D(9,4,5,6)            180.0            estimate D2E/DX2                !
 ! D16   D(9,4,5,10)             0.0            estimate D2E/DX2                !
 ! D17   D(4,5,6,1)              0.0            estimate D2E/DX2                !
 ! D18   D(4,5,6,11)           180.0            estimate D2E/DX2                !
 ! D19   D(10,5,6,1)           180.0            estimate D2E/DX2                !
 ! D20   D(10,5,6,11)            0.0            estimate D2E/DX2                !
 --------------------------------------------------------------------------------
 Trust Radius=3.00D-01 FncErr=1.00D-07 GrdErr=1.00D-07 EigMax=2.50D+02 EigMin=1.00D-04
 Number of steps in this run=     57 maximum allowed number of steps=    100.
 GradGradGradGradGradGradGradGradGradGradGradGradGradGradGradGradGradGrad

                          Input orientation:                          
 ---------------------------------------------------------------------
 Center     Atomic      Atomic             Coordinates (Angstroms)
 Number     Number       Type             X           Y           Z
 ---------------------------------------------------------------------
      1          6           0        0.000000    1.390000    0.000000
      2          6           0        1.203775    0.695000    0.000000
      3          6           0        1.203775   -0.695000    0.000000
      4          6           0        0.000000   -1.390000    0.000000
      5          6           0       -1.203775   -0.695000    0.000000
      6          6           0       -1.203775    0.695000    0.000000
      7         17           0        2.710660    1.565000    0.000000
      8         17           0        2.710660   -1.565000    0.000000
      9          1           0        0.000000   -2.470000    0.000000
     10          1           0       -2.139083   -1.235000    0.000000
     11          1           0       -2.139083    1.235000    0.000000
 ---------------------------------------------------------------------
                    Distance matrix (angstroms):
                    1          2          3          4          5
     1  C    0.000000
     2  C    1.390000   0.000000
     3  C    2.407551   1.390000   0.000000
     4  C    2.780000   2.407551   1.390000   0.000000
     5  C    2.407551   2.780000   2.407551   1.390000   0.000000
     6  C    1.390000   2.407551   2.780000   2.407551   1.390000
     7  Cl   2.716303   1.740000   2.716303   4.009950   4.520000
     8  Cl   4.009950   2.716303   1.740000   2.716303   4.009950
     9  H    3.860000   3.386193   2.144691   1.080000   2.144691
    10  H    3.386193   3.860000   3.386193   2.144691   1.080000
    11  H    2.144691   3.386193   3.860000   3.386193   2.144691
                    6          7          8          9         10
     6  C    0.000000
     7  Cl   4.009950   0.000000
     8  Cl   4.520000   3.130000   0.000000
     9  H    3.386193   4.860957   2.857744   0.000000
    10  H    2.144691   5.600000   4.860957   2.470000   0.000000
    11  H    1.080000   4.860957   5.600000   4.278165   2.470000
                   11
    11  H    0.000000
 Stoichiometry    C6H3Cl2(2)
 Framework group  CS[SG(C6H3Cl2)]
 Deg. of freedom    19
 Full point group                 CS      NOp   2
 Largest Abelian subgroup         CS      NOp   2
 Largest concise Abelian subgroup C1      NOp   1
                         Standard orientation:                         
 ---------------------------------------------------------------------
 Center     Atomic      Atomic             Coordinates (Angstroms)
 Number     Number       Type             X           Y           Z
 ---------------------------------------------------------------------
      1          6           0        1.835025    0.330685    0.000000
      2          6           0        0.631249   -0.364315    0.000000
      3          6           0       -0.572526    0.330685    0.000000
      4          6           0       -0.572526    1.720685    0.000000
      5          6           0        0.631249    2.415685    0.000000
      6          6           0        1.835025    1.720685    0.000000
      7         17           0        0.631249   -2.104315    0.000000
      8         17           0       -2.079410   -0.539315    0.000000
      9          1           0       -1.507833    2.260685    0.000000
     10          1           0        0.631249    3.495685    0.000000
     11          1           0        2.770332    2.260685    0.000000
 ---------------------------------------------------------------------
 Rotational constants (GHZ):           2.0220543           1.4196942           0.8340815
 Standard basis: VSTO-6G (5D, 7F)
 There are    27 symmetry adapted cartesian basis functions of A'  symmetry.
 There are     8 symmetry adapted cartesian basis functions of A"  symmetry.
 There are    27 symmetry adapted basis functions of A'  symmetry.
 There are     8 symmetry adapted basis functions of A"  symmetry.
    35 basis functions,   210 primitive gaussians,    35 cartesian basis functions
    21 alpha electrons       20 beta electrons
       nuclear repulsion energy       197.9926854814 Hartrees.
 Integral buffers will be    131072 words long.
 Regular integral format.
 Two-electron integral symmetry is turned off.
 Do NDO integrals.
 One-electron integrals computed using PRISM.
 NBasis=    35 RedAO= T EigKep=  1.00D+00  NBF=    27     8
 NBsUse=    35 1.00D-06 EigRej= -1.00D+00 NBFU=    27     8
 Simple Huckel Guess.
 Initial guess orbital symmetries:
 Alpha Orbitals:
       Occupied  (A') (A') (A') (A') (A') (A') (A') (A') (A') (A")
                 (A') (A') (A') (A") (A") (A') (A') (A") (A') (A")
                 (A')
       Virtual   (A") (A") (A") (A') (A') (A') (A') (A') (A') (A')
                 (A') (A') (A') (A')
 Beta  Orbitals:
       Occupied  (A') (A') (A') (A') (A') (A') (A') (A') (A') (A")
                 (A') (A') (A') (A") (A") (A') (A') (A") (A') (A")
       Virtual   (A') (A") (A") (A") (A') (A') (A') (A') (A') (A')
                 (A') (A') (A') (A') (A')
 The electronic state of the initial guess is 2-A'.
 Initial guess <Sx>= 0.0000 <Sy>= 0.0000 <Sz>= 0.5000 <S**2>= 0.7500 S= 0.5000
 Keep J ints in memory in canonical form, NReq=862793.
 Overlap will be assumed to be unity.
 Requested convergence on RMS density matrix=1.00D-08 within  32 cycles.
 Requested convergence on MAX density matrix=1.00D-06.
 Requested convergence on             energy=1.00D-06.
 No special actions if energy rises.
 Fock symm off for IB=2 I1=    1 I=   28 J=   19 Cut=1.00D-07 Err=4.20D-03
 Fock matrix is not symmetric: symmetry in diagonalization turned off.
 Rare condition: small coef for last iteration:  0.000D+00
 Rare condition: small coef for last iteration:  0.000D+00
 Rare condition: small coef for last iteration:  0.000D+00
 SCF Done:  E(UAM1) =  0.107686441811     A.U. after   28 cycles
            NFock= 27  Conv=0.42D-08     -V/T= 1.0012
 <Sx>= 0.0000 <Sy>= 0.0000 <Sz>= 0.5000 <S**2>= 1.1947 S= 0.7020
 <L.S>=  0.00000000000    
 Annihilation of the first spin contaminant:
 S**2 before annihilation     1.1947,   after     0.9144
 QCSCF skips out because SCF is already converged.

 **********************************************************************

            Population analysis using the SCF Density.

 **********************************************************************

 Orbital symmetries:
 Alpha Orbitals:
       Occupied  (A') (A') (A') (A') (A') (A') (A') (A') (A') (A')
                 (A') (A") (A') (A') (A") (A") (A') (A') (A') (A")
                 (A")
       Virtual   (A") (A") (A') (A') (A") (A') (A') (A') (A') (A')
                 (A') (A') (A') (A')
 Beta  Orbitals:
       Occupied  (A') (A') (A') (A') (A') (A') (A') (A') (A') (A')
                 (A') (A") (A') (A') (A") (A") (A') (A') (A") (A")
       Virtual   (A') (A") (A") (A') (A') (A") (A') (A') (A') (A')
                 (A') (A') (A') (A') (A')
 The electronic state is 2-A'.
 Alpha  occ. eigenvalues --   -1.47839  -1.38252  -1.37953  -1.17012  -1.16570
 Alpha  occ. eigenvalues --   -0.87826  -0.87357  -0.68118  -0.62377  -0.62004
 Alpha  occ. eigenvalues --   -0.56951  -0.55918  -0.52448  -0.48618  -0.47701
 Alpha  occ. eigenvalues --   -0.46301  -0.45936  -0.43736  -0.41506  -0.38895
 Alpha  occ. eigenvalues --   -0.37108
 Alpha virt. eigenvalues --   -0.00596  -0.00390   0.02340   0.04070   0.07663
 Alpha virt. eigenvalues --    0.12431   0.12818   0.13803   0.14041   0.14582
 Alpha virt. eigenvalues --    0.16734   0.17085   0.17909   0.18551
  Beta  occ. eigenvalues --   -1.47263  -1.38057  -1.37935  -1.16844  -1.15102
  Beta  occ. eigenvalues --   -0.87553  -0.85002  -0.67765  -0.61785  -0.60735
  Beta  occ. eigenvalues --   -0.56777  -0.55644  -0.51115  -0.48273  -0.47522
  Beta  occ. eigenvalues --   -0.46286  -0.45122  -0.43631  -0.37927  -0.37270
  Beta virt. eigenvalues --   -0.02061  -0.00783   0.01196   0.03039   0.04067
  Beta virt. eigenvalues --    0.08525   0.12797   0.13266   0.13710   0.14517
  Beta virt. eigenvalues --    0.14968   0.16999   0.17611   0.18735   0.19132
          Condensed to atoms (all electrons):
               1          2          3          4          5          6
     1  C    4.002089   0.000000   0.000000   0.000000   0.000000   0.000000
     2  C    0.000000   4.056944   0.000000   0.000000   0.000000   0.000000
     3  C    0.000000   0.000000   4.042274   0.000000   0.000000   0.000000
     4  C    0.000000   0.000000   0.000000   4.123423   0.000000   0.000000
     5  C    0.000000   0.000000   0.000000   0.000000   4.109875   0.000000
     6  C    0.000000   0.000000   0.000000   0.000000   0.000000   4.129526
     7  Cl   0.000000   0.000000   0.000000   0.000000   0.000000   0.000000
     8  Cl   0.000000   0.000000   0.000000   0.000000   0.000000   0.000000
     9  H    0.000000   0.000000   0.000000   0.000000   0.000000   0.000000
    10  H    0.000000   0.000000   0.000000   0.000000   0.000000   0.000000
    11  H    0.000000   0.000000   0.000000   0.000000   0.000000   0.000000
               7          8          9         10         11
     1  C    0.000000   0.000000   0.000000   0.000000   0.000000
     2  C    0.000000   0.000000   0.000000   0.000000   0.000000
     3  C    0.000000   0.000000   0.000000   0.000000   0.000000
     4  C    0.000000   0.000000   0.000000   0.000000   0.000000
     5  C    0.000000   0.000000   0.000000   0.000000   0.000000
     6  C    0.000000   0.000000   0.000000   0.000000   0.000000
     7  Cl   6.992392   0.000000   0.000000   0.000000   0.000000
     8  Cl   0.000000   6.998116   0.000000   0.000000   0.000000
     9  H    0.000000   0.000000   0.846031   0.000000   0.000000
    10  H    0.000000   0.000000   0.000000   0.851804   0.000000
    11  H    0.000000   0.000000   0.000000   0.000000   0.847526
          Atomic-Atomic Spin Densities.
               1          2          3          4          5          6
     1  C    1.388099   0.000000   0.000000   0.000000   0.000000   0.000000
     2  C    0.000000  -0.445371   0.000000   0.000000   0.000000   0.000000
     3  C    0.000000   0.000000   0.437674   0.000000   0.000000   0.000000
     4  C    0.000000   0.000000   0.000000  -0.430554   0.000000   0.000000
     5  C    0.000000   0.000000   0.000000   0.000000   0.451418   0.000000
     6  C    0.000000   0.000000   0.000000   0.000000   0.000000  -0.452185
     7  Cl   0.000000   0.000000   0.000000   0.000000   0.000000   0.000000
     8  Cl   0.000000   0.000000   0.000000   0.000000   0.000000   0.000000
     9  H    0.000000   0.000000   0.000000   0.000000   0.000000   0.000000
    10  H    0.000000   0.000000   0.000000   0.000000   0.000000   0.000000
    11  H    0.000000   0.000000   0.000000   0.000000   0.000000   0.000000
               7          8          9         10         11
     1  C    0.000000   0.000000   0.000000   0.000000   0.000000
     2  C    0.000000   0.000000   0.000000   0.000000   0.000000
     3  C    0.000000   0.000000   0.000000   0.000000   0.000000
     4  C    0.000000   0.000000   0.000000   0.000000   0.000000
     5  C    0.000000   0.000000   0.000000   0.000000   0.000000
     6  C    0.000000   0.000000   0.000000   0.000000   0.000000
     7  Cl   0.007621   0.000000   0.000000   0.000000   0.000000
     8  Cl   0.000000   0.007108   0.000000   0.000000   0.000000
     9  H    0.000000   0.000000   0.025087   0.000000   0.000000
    10  H    0.000000   0.000000   0.000000  -0.017451   0.000000
    11  H    0.000000   0.000000   0.000000   0.000000   0.028555
 Mulliken charges and spin densities:
               1          2
     1  C   -0.002089   1.388099
     2  C   -0.056944  -0.445371
     3  C   -0.042274   0.437674
     4  C   -0.123423  -0.430554
     5  C   -0.109875   0.451418
     6  C   -0.129526  -0.452185
     7  Cl   0.007608   0.007621
     8  Cl   0.001884   0.007108
     9  H    0.153969   0.025087
    10  H    0.148196  -0.017451
    11  H    0.152474   0.028555
 Sum of Mulliken charges =  -0.00000   1.00000
 Mulliken charges and spin densities with hydrogens summed into heavy atoms:
               1          2
     1  C   -0.002089   1.388099
     2  C   -0.056944  -0.445371
     3  C   -0.042274   0.437674
     4  C    0.030546  -0.405467
     5  C    0.038321   0.433967
     6  C    0.022948  -0.423630
     7  Cl   0.007608   0.007621
     8  Cl   0.001884   0.007108
 Charge=             -0.0000 electrons
 Dipole moment (field-independent basis, Debye):
    X=              0.1050    Y=              2.3157    Z=              0.0000  Tot=              2.3181
 N-N= 1.979926854814D+02 E-N=-2.749879988033D+02  KE=-9.050165346278D+01
 Symmetry A'   KE=-7.009272121881D+01
 Symmetry A"   KE=-2.040893224397D+01
 Symmetry A'   SP= 1.000000000000D+00
 Symmetry A"   SP= 1.498801083244D-15
 Calling FoFJK, ICntrl=      2127 FMM=F ISym2X=1 I1Cent= 0 IOpClX= 1 NMat=1 NMatS=1 NMatT=0.
 ***** Axes restored to original set *****
 -------------------------------------------------------------------
 Center     Atomic                   Forces (Hartrees/Bohr)
 Number     Number              X              Y              Z
 -------------------------------------------------------------------
      1        6          -0.001651150   -0.048342286   -0.000000000
      2        6           0.032245133    0.052035195    0.000000000
      3        6           0.030870994   -0.019325260    0.000000000
      4        6           0.000018841   -0.004581303    0.000000000
      5        6           0.004912844    0.001679520    0.000000000
      6        6           0.004564091    0.032204423    0.000000000
      7       17          -0.022755383   -0.009601667   -0.000000000
      8       17          -0.022364527    0.010282495   -0.000000000
      9        1           0.000097402   -0.015713346   -0.000000000
     10        1          -0.012960720   -0.006966217   -0.000000000
     11        1          -0.012977525    0.008328446   -0.000000000
 -------------------------------------------------------------------
 Cartesian Forces:  Max     0.052035195 RMS     0.017783722

 GradGradGradGradGradGradGradGradGradGradGradGradGradGradGradGradGradGrad
 Berny optimization.
 FormGI is forming the generalized inverse of G from B-inverse, IUseBI=4.
 Internal  Forces:  Max     0.034629450 RMS     0.010922083
 Search for a local minimum.
 Step number   1 out of a maximum of   57
 All quantities printed in internal units (Hartrees-Bohrs-Radians)
 Mixed Optimization -- RFO/linear search
 Second derivative matrix not updated -- first step.
 ITU=  0
     Eigenvalues ---    0.02221   0.02221   0.02221   0.02221   0.02221
     Eigenvalues ---    0.02221   0.02221   0.02221   0.16000   0.16000
     Eigenvalues ---    0.16000   0.22076   0.23332   0.24905   0.25000
     Eigenvalues ---    0.25000   0.31476   0.31476   0.35994   0.35994
     Eigenvalues ---    0.35994   0.43071   0.43565   0.47319   0.47319
     Eigenvalues ---    0.47319   0.47319
 RFO step:  Lambda=-1.65763329D-02 EMin= 2.22103665D-02
 Linear search not attempted -- first point.
 Iteration  1 RMS(Cart)=  0.03850250 RMS(Int)=  0.00117535
 Iteration  2 RMS(Cart)=  0.00174351 RMS(Int)=  0.00034695
 Iteration  3 RMS(Cart)=  0.00000074 RMS(Int)=  0.00034695
 ClnCor:  largest displacement from symmetrization is 8.19D-12 for atom     8.
 Variable       Old X    -DE/DX   Delta X   Delta X   Delta X     New X
                                 (Linear)    (Quad)   (Total)
    R1        2.62672  -0.01057   0.00000  -0.02389  -0.02339   2.60333
    R2        2.62672  -0.01319   0.00000  -0.02902  -0.02854   2.59818
    R3        2.62672   0.01945   0.00000   0.03950   0.03952   2.66624
    R4        3.28812  -0.02451   0.00000  -0.07396  -0.07396   3.21416
    R5        2.62672   0.01987   0.00000   0.04266   0.04219   2.66891
    R6        3.28812  -0.02451   0.00000  -0.07397  -0.07397   3.21415
    R7        2.62672   0.01971   0.00000   0.04255   0.04206   2.66878
    R8        2.04090   0.01571   0.00000   0.04173   0.04173   2.08264
    R9        2.62672   0.01517   0.00000   0.03120   0.03117   2.65789
   R10        2.04090   0.01471   0.00000   0.03906   0.03906   2.07997
   R11        2.04090   0.01540   0.00000   0.04091   0.04091   2.08181
    A1        2.09440   0.03463   0.00000   0.11998   0.12127   2.21566
    A2        2.09440  -0.01606   0.00000  -0.06336  -0.06289   2.03150
    A3        2.09440   0.00299   0.00000   0.01279   0.01256   2.10696
    A4        2.09440   0.01306   0.00000   0.05057   0.05033   2.14473
    A5        2.09440  -0.00216   0.00000  -0.00306  -0.00357   2.09082
    A6        2.09440   0.00482   0.00000   0.01558   0.01583   2.11023
    A7        2.09440  -0.00266   0.00000  -0.01251  -0.01226   2.08214
    A8        2.09440  -0.00069   0.00000   0.00806   0.00702   2.10142
    A9        2.09440   0.00024   0.00000  -0.00459  -0.00408   2.09032
   A10        2.09440   0.00044   0.00000  -0.00347  -0.00295   2.09145
   A11        2.09440  -0.00038   0.00000   0.00542   0.00484   2.09923
   A12        2.09440   0.00065   0.00000  -0.00013   0.00017   2.09456
   A13        2.09440  -0.00027   0.00000  -0.00530  -0.00500   2.08939
   A14        2.09440  -0.01535   0.00000  -0.06705  -0.06666   2.02774
   A15        2.09440   0.00693   0.00000   0.02934   0.02915   2.12354
   A16        2.09440   0.00841   0.00000   0.03771   0.03751   2.13191
    D1        0.00000   0.00000   0.00000   0.00000   0.00000   0.00000
    D2        3.14159  -0.00000   0.00000  -0.00000   0.00000   3.14159
    D3        0.00000  -0.00000   0.00000  -0.00000   0.00000   0.00000
    D4        3.14159   0.00000   0.00000   0.00000   0.00000   3.14159
    D5        0.00000  -0.00000   0.00000  -0.00000   0.00000   0.00000
    D6        3.14159  -0.00000   0.00000  -0.00000   0.00000   3.14159
    D7        3.14159   0.00000   0.00000   0.00000   0.00000   3.14159
    D8        0.00000  -0.00000   0.00000  -0.00000   0.00000   0.00000
    D9        0.00000  -0.00000   0.00000  -0.00000   0.00000   0.00000
   D10        3.14159  -0.00000   0.00000  -0.00000   0.00000   3.14159
   D11        3.14159   0.00000   0.00000   0.00000   0.00000   3.14159
   D12        0.00000   0.00000   0.00000   0.00000   0.00000   0.00000
   D13        0.00000   0.00000   0.00000   0.00000   0.00000   0.00000
   D14        3.14159  -0.00000   0.00000  -0.00000   0.00000   3.14159
   D15        3.14159   0.00000   0.00000   0.00000   0.00000   3.14159
   D16        0.00000   0.00000   0.00000   0.00000   0.00000   0.00000
   D17        0.00000  -0.00000   0.00000  -0.00000   0.00000   0.00000
   D18        3.14159  -0.00000   0.00000  -0.00000   0.00000   3.14159
   D19        3.14159   0.00000   0.00000   0.00000   0.00000   3.14159
   D20        0.00000  -0.00000   0.00000  -0.00000   0.00000   0.00000
         Item               Value     Threshold  Converged?
 Maximum Force            0.034629     0.000450     NO 
 RMS     Force            0.010922     0.000300     NO 
 Maximum Displacement     0.124763     0.001800     NO 
 RMS     Displacement     0.038394     0.001200     NO 
 Predicted change in Energy=-8.730528D-03
 GradGradGradGradGradGradGradGradGradGradGradGradGradGradGradGradGradGrad

                          Input orientation:                          
 ---------------------------------------------------------------------
 Center     Atomic      Atomic             Coordinates (Angstroms)
 Number     Number       Type             X           Y           Z
 ---------------------------------------------------------------------
      1          6           0        0.014108    1.323979    0.000000
      2          6           0        1.245491    0.706288    0.000000
      3          6           0        1.239508   -0.704613    0.000000
      4          6           0        0.010916   -1.401197    0.000000
      5          6           0       -1.211577   -0.694104    0.000000
      6          6           0       -1.217270    0.712379    0.000000
      7         17           0        2.677729    1.623686    0.000000
      8         17           0        2.695127   -1.584434    0.000000
      9          1           0        0.006795   -2.503274    0.000000
     10          1           0       -2.165312   -1.243527    0.000000
     11          1           0       -2.152361    1.294817    0.000000
 ---------------------------------------------------------------------
                    Distance matrix (angstroms):
                    1          2          3          4          5
     1  C    0.000000
     2  C    1.377623   0.000000
     3  C    2.369976   1.410914   0.000000
     4  C    2.725178   2.442473   1.412328   0.000000
     5  C    2.361135   2.828124   2.451107   1.412257   0.000000
     6  C    1.374898   2.462768   2.836128   2.444513   1.406494
     7  Cl   2.680430   1.700860   2.736687   4.032594   4.527566
     8  Cl   3.955594   2.710877   1.700856   2.690458   4.006872
     9  H    3.827260   3.440299   2.180542   1.102084   2.181176
    10  H    3.367781   3.928786   3.447205   2.181932   1.100670
    11  H    2.166664   3.448443   3.937320   3.456625   2.200200
                    6          7          8          9         10
     6  C    0.000000
     7  Cl   4.000187   0.000000
     8  Cl   4.536760   3.208167   0.000000
     9  H    3.440750   4.915860   2.841020   0.000000
    10  H    2.173557   5.628139   4.872379   2.510978   0.000000
    11  H    1.101648   4.841273   5.638104   4.368918   2.538376
                   11
    11  H    0.000000
 Stoichiometry    C6H3Cl2(2)
 Framework group  CS[SG(C6H3Cl2)]
 Deg. of freedom    19
 Full point group                 CS      NOp   2
 Largest Abelian subgroup         CS      NOp   2
 Largest concise Abelian subgroup C1      NOp   1
                         Standard orientation:                         
 ---------------------------------------------------------------------
 Center     Atomic      Atomic             Coordinates (Angstroms)
 Number     Number       Type             X           Y           Z
 ---------------------------------------------------------------------
      1          6           0        1.101244   -1.421901    0.000000
      2          6           0       -0.090783   -0.731309    0.000000
      3          6           0        0.000000    0.676681    0.000000
      4          6           0        1.268243    1.298155    0.000000
      5          6           0        2.446021    0.518855    0.000000
      6          6           0        2.367158   -0.885427    0.000000
      7         17           0       -1.575577   -1.560954    0.000000
      8         17           0       -1.400100    1.642410    0.000000
      9          1           0        1.338602    2.397991    0.000000
     10          1           0        3.431057    1.009954    0.000000
     11          1           0        3.265547   -1.523021    0.000000
 ---------------------------------------------------------------------
 Rotational constants (GHZ):           1.9611385           1.4358899           0.8289536
 Standard basis: VSTO-6G (5D, 7F)
 There are    27 symmetry adapted cartesian basis functions of A'  symmetry.
 There are     8 symmetry adapted cartesian basis functions of A"  symmetry.
 There are    27 symmetry adapted basis functions of A'  symmetry.
 There are     8 symmetry adapted basis functions of A"  symmetry.
    35 basis functions,   210 primitive gaussians,    35 cartesian basis functions
    21 alpha electrons       20 beta electrons
       nuclear repulsion energy       197.7128625081 Hartrees.
 Integral buffers will be    131072 words long.
 Regular integral format.
 Two-electron integral symmetry is turned off.
 Do NDO integrals.
 One-electron integrals computed using PRISM.
 NBasis=    35 RedAO= T EigKep=  1.00D+00  NBF=    27     8
 NBsUse=    35 1.00D-06 EigRej= -1.00D+00 NBFU=    27     8
 Initial guess from the checkpoint file:  "calcs/am1/chks/ClPh_23_rad.chk"
 B after Tr=     0.000000   -0.000000   -0.000000
         Rot=    0.851941    0.000000   -0.000000    0.523638 Ang=  63.15 deg.
 Initial guess orbital symmetries:
 Alpha Orbitals:
       Occupied  (A') (A') (A') (A') (A') (A') (A') (A') (A') (A')
                 (A') (A") (A') (A') (A") (A") (A') (A') (A') (A")
                 (A")
       Virtual   (A") (A") (A') (A') (A") (A') (A') (A') (A') (A')
                 (A') (A') (A') (A')
 Beta  Orbitals:
       Occupied  (A') (A') (A') (A') (A') (A') (A') (A') (A') (A')
                 (A') (A") (A') (A') (A") (A") (A') (A') (A") (A")
       Virtual   (A') (A") (A") (A') (A') (A") (A') (A') (A') (A')
                 (A') (A') (A') (A') (A')
 Initial guess <Sx>= 0.0000 <Sy>= 0.0000 <Sz>= 0.5000 <S**2>= 1.1947 S= 0.7020
 Keep J ints in memory in canonical form, NReq=862793.
 Overlap will be assumed to be unity.
 Requested convergence on RMS density matrix=1.00D-08 within  32 cycles.
 Requested convergence on MAX density matrix=1.00D-06.
 Requested convergence on             energy=1.00D-06.
 No special actions if energy rises.
 Fock symm off for IB=2 I1=    1 I=   28 J=   11 Cut=1.00D-07 Err=2.40D-03
 Fock matrix is not symmetric: symmetry in diagonalization turned off.
 SCF Done:  E(UAM1) =  0.984277074398E-01 A.U. after   17 cycles
            NFock= 16  Conv=0.53D-08     -V/T= 1.0011
 <Sx>= 0.0000 <Sy>= 0.0000 <Sz>= 0.5000 <S**2>= 1.2585 S= 0.7282
 <L.S>=  0.00000000000    
 Annihilation of the first spin contaminant:
 S**2 before annihilation     1.2585,   after     0.9747
 QCSCF skips out because SCF is already converged.
 Calling FoFJK, ICntrl=      2127 FMM=F ISym2X=1 I1Cent= 0 IOpClX= 1 NMat=1 NMatS=1 NMatT=0.
 ***** Axes restored to original set *****
 -------------------------------------------------------------------
 Center     Atomic                   Forces (Hartrees/Bohr)
 Number     Number              X              Y              Z
 -------------------------------------------------------------------
      1        6          -0.003828242   -0.013089578    0.000000000
      2        6           0.011451262    0.014251075    0.000000000
      3        6          -0.000574938   -0.010191058    0.000000000
      4        6          -0.005426938    0.009998971    0.000000000
      5        6           0.009244584   -0.005400182    0.000000000
      6        6          -0.001238677    0.006777424    0.000000000
      7       17          -0.007745860   -0.005929722   -0.000000000
      8       17          -0.005526196    0.003455290   -0.000000000
      9        1          -0.000023266    0.001909237   -0.000000000
     10        1           0.001616241    0.000190871   -0.000000000
     11        1           0.002052030   -0.001972328   -0.000000000
 -------------------------------------------------------------------
 Cartesian Forces:  Max     0.014251075 RMS     0.005688802

 GradGradGradGradGradGradGradGradGradGradGradGradGradGradGradGradGradGrad
 Berny optimization.
 Using GEDIIS/GDIIS optimizer.
 FormGI is forming the generalized inverse of G from B-inverse, IUseBI=4.
 Internal  Forces:  Max     0.011249618 RMS     0.003214131
 Search for a local minimum.
 Step number   2 out of a maximum of   57
 All quantities printed in internal units (Hartrees-Bohrs-Radians)
 Mixed Optimization -- RFO/linear search
 Update second derivatives using D2CorX and points    1    2
 DE= -9.26D-03 DEPred=-8.73D-03 R= 1.06D+00
 TightC=F SS=  1.41D+00  RLast= 2.28D-01 DXNew= 5.0454D-01 6.8356D-01
 Trust test= 1.06D+00 RLast= 2.28D-01 DXMaxT set to 5.05D-01
 ITU=  1  0
 Use linear search instead of GDIIS.
     Eigenvalues ---    0.02221   0.02221   0.02221   0.02221   0.02221
     Eigenvalues ---    0.02221   0.02221   0.02221   0.15993   0.16000
     Eigenvalues ---    0.16002   0.19148   0.22190   0.24262   0.25000
     Eigenvalues ---    0.25213   0.29376   0.31514   0.35989   0.35994
     Eigenvalues ---    0.37050   0.42990   0.44762   0.46787   0.47319
     Eigenvalues ---    0.47319   0.55493
 RFO step:  Lambda=-1.55130296D-03 EMin= 2.22103665D-02
 Quartic linear search produced a step of  0.15269.
 Iteration  1 RMS(Cart)=  0.01295577 RMS(Int)=  0.00015788
 Iteration  2 RMS(Cart)=  0.00019746 RMS(Int)=  0.00008688
 Iteration  3 RMS(Cart)=  0.00000001 RMS(Int)=  0.00008688
 ClnCor:  largest displacement from symmetrization is 1.45D-10 for atom     8.
 Variable       Old X    -DE/DX   Delta X   Delta X   Delta X     New X
                                 (Linear)    (Quad)   (Total)
    R1        2.60333  -0.00193  -0.00357  -0.00228  -0.00572   2.59762
    R2        2.59818  -0.00539  -0.00436  -0.01070  -0.01494   2.58324
    R3        2.66624   0.00185   0.00603   0.00238   0.00844   2.67468
    R4        3.21416  -0.00972  -0.01129  -0.03065  -0.04194   3.17222
    R5        2.66891  -0.00545   0.00644  -0.01641  -0.01007   2.65884
    R6        3.21415  -0.00652  -0.01129  -0.01898  -0.03028   3.18388
    R7        2.66878  -0.01125   0.00642  -0.03086  -0.02457   2.64421
    R8        2.08264  -0.00191   0.00637  -0.00875  -0.00237   2.08026
    R9        2.65789  -0.00179   0.00476  -0.00674  -0.00200   2.65589
   R10        2.07997  -0.00150   0.00596  -0.00726  -0.00129   2.07867
   R11        2.08181  -0.00278   0.00625  -0.01148  -0.00524   2.07658
    A1        2.21566   0.00602   0.01852   0.02309   0.04192   2.25758
    A2        2.03150  -0.00602  -0.00960  -0.02113  -0.03059   2.00091
    A3        2.10696   0.00432   0.00192   0.01778   0.01963   2.12658
    A4        2.14473   0.00170   0.00769   0.00335   0.01096   2.15569
    A5        2.09082  -0.00063  -0.00055  -0.00288  -0.00353   2.08729
    A6        2.11023   0.00016   0.00242  -0.00019   0.00228   2.11250
    A7        2.08214   0.00047  -0.00187   0.00307   0.00125   2.08339
    A8        2.10142   0.00380   0.00107   0.01628   0.01709   2.11851
    A9        2.09032  -0.00187  -0.00062  -0.00787  -0.00837   2.08195
   A10        2.09145  -0.00193  -0.00045  -0.00840  -0.00872   2.08272
   A11        2.09923   0.00055   0.00074  -0.00037   0.00020   2.09943
   A12        2.09456  -0.00094   0.00003  -0.00474  -0.00463   2.08993
   A13        2.08939   0.00039  -0.00076   0.00511   0.00443   2.09382
   A14        2.02774  -0.00372  -0.01018  -0.01499  -0.02510   2.00264
   A15        2.12354   0.00247   0.00445   0.01214   0.01656   2.14010
   A16        2.13191   0.00125   0.00573   0.00285   0.00854   2.14045
    D1        0.00000   0.00000   0.00000  -0.00000   0.00000   0.00000
    D2        3.14159  -0.00000   0.00000  -0.00000   0.00000   3.14159
    D3        0.00000  -0.00000   0.00000  -0.00000   0.00000   0.00000
    D4        3.14159   0.00000   0.00000   0.00000   0.00000   3.14159
    D5        0.00000   0.00000   0.00000   0.00000   0.00000   0.00000
    D6        3.14159  -0.00000   0.00000  -0.00000   0.00000   3.14159
    D7        3.14159   0.00000   0.00000   0.00000   0.00000   3.14159
    D8        0.00000   0.00000   0.00000   0.00000   0.00000   0.00000
    D9        0.00000  -0.00000   0.00000  -0.00000   0.00000   0.00000
   D10        3.14159  -0.00000   0.00000  -0.00000   0.00000   3.14159
   D11        3.14159   0.00000   0.00000   0.00000   0.00000   3.14159
   D12        0.00000   0.00000   0.00000  -0.00000   0.00000   0.00000
   D13        0.00000   0.00000   0.00000   0.00000   0.00000   0.00000
   D14        3.14159  -0.00000   0.00000  -0.00000   0.00000   3.14159
   D15        3.14159   0.00000   0.00000   0.00000   0.00000   3.14159
   D16        0.00000   0.00000   0.00000   0.00000   0.00000   0.00000
   D17        0.00000   0.00000   0.00000   0.00000   0.00000   0.00000
   D18        3.14159  -0.00000   0.00000  -0.00000   0.00000   3.14159
   D19        3.14159   0.00000   0.00000   0.00000   0.00000   3.14159
   D20        0.00000  -0.00000   0.00000  -0.00000   0.00000   0.00000
         Item               Value     Threshold  Converged?
 Maximum Force            0.011250     0.000450     NO 
 RMS     Force            0.003214     0.000300     NO 
 Maximum Displacement     0.048593     0.001800     NO 
 RMS     Displacement     0.012959     0.001200     NO 
 Predicted change in Energy=-9.208429D-04
 GradGradGradGradGradGradGradGradGradGradGradGradGradGradGradGradGradGrad

                          Input orientation:                          
 ---------------------------------------------------------------------
 Center     Atomic      Atomic             Coordinates (Angstroms)
 Number     Number       Type             X           Y           Z
 ---------------------------------------------------------------------
      1          6           0        0.014852    1.298264    0.000000
      2          6           0        1.257745    0.711120    0.000000
      3          6           0        1.241881   -0.704170    0.000000
      4          6           0        0.010709   -1.385242    0.000000
      5          6           0       -1.205126   -0.692664    0.000000
      6          6           0       -1.220365    0.712687    0.000000
      7         17           0        2.667670    1.622179    0.000000
      8         17           0        2.675670   -1.588995    0.000000
      9          1           0        0.004253   -2.486051    0.000000
     10          1           0       -2.152043   -1.252412    0.000000
     11          1           0       -2.152091    1.295284    0.000000
 ---------------------------------------------------------------------
                    Distance matrix (angstroms):
                    1          2          3          4          5
     1  C    0.000000
     2  C    1.374599   0.000000
     3  C    2.348477   1.415379   0.000000
     4  C    2.683509   2.439228   1.406998   0.000000
     5  C    2.334982   2.834845   2.447034   1.399257   0.000000
     6  C    1.366990   2.478111   2.840800   2.432458   1.405434
     7  Cl   2.672520   1.678665   2.728512   4.012982   4.511878
     8  Cl   3.926349   2.702044   1.684834   2.672739   3.982962
     9  H    3.784330   3.434115   2.169522   1.100828   2.163062
    10  H    3.346846   3.934731   3.437918   2.166827   1.099986
    11  H    2.166945   3.459513   3.939145   3.444260   2.201972
                    6          7          8          9         10
     6  C    0.000000
     7  Cl   3.992993   0.000000
     8  Cl   4.525134   3.211184   0.000000
     9  H    3.425145   4.896055   2.818010   0.000000
    10  H    2.174773   5.611854   4.839431   2.484245   0.000000
    11  H    1.098878   4.830834   5.623731   4.352967   2.547696
                   11
    11  H    0.000000
 Stoichiometry    C6H3Cl2(2)
 Framework group  CS[SG(C6H3Cl2)]
 Deg. of freedom    19
 Full point group                 CS      NOp   2
 Largest Abelian subgroup         CS      NOp   2
 Largest concise Abelian subgroup C1      NOp   1
                         Standard orientation:                         
 ---------------------------------------------------------------------
 Center     Atomic      Atomic             Coordinates (Angstroms)
 Number     Number       Type             X           Y           Z
 ---------------------------------------------------------------------
      1          6           0        1.080804   -1.409771    0.000000
      2          6           0       -0.116957   -0.735315    0.000000
      3          6           0        0.000000    0.675224    0.000000
      4          6           0        1.276692    1.266579    0.000000
      5          6           0        2.439929    0.488891    0.000000
      6          6           0        2.354707   -0.913957    0.000000
      7         17           0       -1.588379   -1.543296    0.000000
      8         17           0       -1.366897    1.660242    0.000000
      9          1           0        1.361793    2.364113    0.000000
     10          1           0        3.424423    0.979544    0.000000
     11          1           0        3.242420   -1.561643    0.000000
 ---------------------------------------------------------------------
 Rotational constants (GHZ):           1.9692277           1.4489981           0.8347626
 Standard basis: VSTO-6G (5D, 7F)
 There are    27 symmetry adapted cartesian basis functions of A'  symmetry.
 There are     8 symmetry adapted cartesian basis functions of A"  symmetry.
 There are    27 symmetry adapted basis functions of A'  symmetry.
 There are     8 symmetry adapted basis functions of A"  symmetry.
    35 basis functions,   210 primitive gaussians,    35 cartesian basis functions
    21 alpha electrons       20 beta electrons
       nuclear repulsion energy       198.2120340396 Hartrees.
 Integral buffers will be    131072 words long.
 Regular integral format.
 Two-electron integral symmetry is turned off.
 Do NDO integrals.
 One-electron integrals computed using PRISM.
 NBasis=    35 RedAO= T EigKep=  1.00D+00  NBF=    27     8
 NBsUse=    35 1.00D-06 EigRej= -1.00D+00 NBFU=    27     8
 Initial guess from the checkpoint file:  "calcs/am1/chks/ClPh_23_rad.chk"
 B after Tr=     0.000000    0.000000    0.000000
         Rot=    0.999981    0.000000    0.000000    0.006217 Ang=   0.71 deg.
 Initial guess orbital symmetries:
 Alpha Orbitals:
       Occupied  (A') (A') (A') (A') (A') (A') (A') (A') (A') (A')
                 (A') (A") (A') (A') (A") (A") (A') (A') (A') (A")
                 (A")
       Virtual   (A") (A") (A') (A') (A") (A') (A') (A') (A') (A')
                 (A') (A') (A') (A')
 Beta  Orbitals:
       Occupied  (A') (A') (A') (A') (A') (A') (A') (A') (A') (A')
                 (A') (A") (A') (A') (A") (A") (A') (A') (A") (A")
       Virtual   (A') (A") (A") (A') (A') (A") (A') (A') (A') (A')
                 (A') (A') (A') (A') (A')
 Initial guess <Sx>= 0.0000 <Sy>= 0.0000 <Sz>= 0.5000 <S**2>= 1.2585 S= 0.7282
 Keep J ints in memory in canonical form, NReq=862793.
 Overlap will be assumed to be unity.
 Requested convergence on RMS density matrix=1.00D-08 within  32 cycles.
 Requested convergence on MAX density matrix=1.00D-06.
 Requested convergence on             energy=1.00D-06.
 No special actions if energy rises.
 Fock symm off for IB=2 I1=    1 I=   28 J=    8 Cut=1.00D-07 Err=1.32D-03
 Fock matrix is not symmetric: symmetry in diagonalization turned off.
 SCF Done:  E(UAM1) =  0.976367618282E-01 A.U. after   16 cycles
            NFock= 15  Conv=0.40D-08     -V/T= 1.0011
 <Sx>= 0.0000 <Sy>= 0.0000 <Sz>= 0.5000 <S**2>= 1.2379 S= 0.7198
 <L.S>=  0.00000000000    
 Annihilation of the first spin contaminant:
 S**2 before annihilation     1.2379,   after     0.9552
 QCSCF skips out because SCF is already converged.
 Calling FoFJK, ICntrl=      2127 FMM=F ISym2X=1 I1Cent= 0 IOpClX= 1 NMat=1 NMatS=1 NMatT=0.
 ***** Axes restored to original set *****
 -------------------------------------------------------------------
 Center     Atomic                   Forces (Hartrees/Bohr)
 Number     Number              X              Y              Z
 -------------------------------------------------------------------
      1        6          -0.000424265    0.002886232    0.000000000
      2        6           0.001004184    0.002752427    0.000000000
      3        6          -0.000096030   -0.002406834    0.000000000
      4        6          -0.000623285   -0.000808643    0.000000000
      5        6          -0.003235519   -0.004057760    0.000000000
      6        6          -0.002827079    0.003660408   -0.000000000
      7       17           0.001524820    0.000243915   -0.000000000
      8       17           0.003129615   -0.001299609   -0.000000000
      9        1           0.000192756   -0.000339940   -0.000000000
     10        1           0.000250640    0.000319109   -0.000000000
     11        1           0.001104164   -0.000949305   -0.000000000
 -------------------------------------------------------------------
 Cartesian Forces:  Max     0.004057760 RMS     0.001638271

 GradGradGradGradGradGradGradGradGradGradGradGradGradGradGradGradGradGrad
 Berny optimization.
 Using GEDIIS/GDIIS optimizer.
 FormGI is forming the generalized inverse of G from B-inverse, IUseBI=4.
 Internal  Forces:  Max     0.004334871 RMS     0.001368757
 Search for a local minimum.
 Step number   3 out of a maximum of   57
 All quantities printed in internal units (Hartrees-Bohrs-Radians)
 Mixed Optimization -- RFO/linear search
 Update second derivatives using D2CorX and points    1    2    3
 DE= -7.91D-04 DEPred=-9.21D-04 R= 8.59D-01
 TightC=F SS=  1.41D+00  RLast= 9.18D-02 DXNew= 8.4853D-01 2.7529D-01
 Trust test= 8.59D-01 RLast= 9.18D-02 DXMaxT set to 5.05D-01
 ITU=  1  1  0
 Use linear search instead of GDIIS.
     Eigenvalues ---    0.02221   0.02221   0.02221   0.02221   0.02221
     Eigenvalues ---    0.02221   0.02221   0.02221   0.15832   0.16000
     Eigenvalues ---    0.16022   0.17713   0.22276   0.24263   0.25009
     Eigenvalues ---    0.25567   0.30201   0.32086   0.35990   0.36082
     Eigenvalues ---    0.37323   0.42765   0.45607   0.46914   0.47319
     Eigenvalues ---    0.47605   0.61486
 RFO step:  Lambda=-1.30735749D-04 EMin= 2.22103665D-02
 Quartic linear search produced a step of -0.13544.
 Iteration  1 RMS(Cart)=  0.00361568 RMS(Int)=  0.00000616
 Iteration  2 RMS(Cart)=  0.00000461 RMS(Int)=  0.00000477
 Iteration  3 RMS(Cart)=  0.00000000 RMS(Int)=  0.00000477
 ClnCor:  largest displacement from symmetrization is 4.64D-12 for atom     9.
 Variable       Old X    -DE/DX   Delta X   Delta X   Delta X     New X
                                 (Linear)    (Quad)   (Total)
    R1        2.59762   0.00305   0.00077   0.00466   0.00543   2.60304
    R2        2.58324   0.00283   0.00202   0.00254   0.00456   2.58780
    R3        2.67468   0.00425  -0.00114   0.00920   0.00806   2.68274
    R4        3.17222   0.00141   0.00568  -0.00367   0.00201   3.17423
    R5        2.65884   0.00270   0.00136   0.00285   0.00422   2.66306
    R6        3.18388   0.00335   0.00410   0.00386   0.00796   3.19184
    R7        2.64421   0.00234   0.00333  -0.00053   0.00281   2.64702
    R8        2.08026   0.00034   0.00032   0.00018   0.00050   2.08076
    R9        2.65589   0.00433   0.00027   0.00743   0.00770   2.66359
   R10        2.07867  -0.00038   0.00018  -0.00133  -0.00116   2.07751
   R11        2.07658  -0.00144   0.00071  -0.00464  -0.00393   2.07264
    A1        2.25758  -0.00056  -0.00568   0.00558  -0.00011   2.25747
    A2        2.00091   0.00020   0.00414  -0.00476  -0.00062   2.00029
    A3        2.12658   0.00089  -0.00266   0.00671   0.00406   2.13065
    A4        2.15569  -0.00109  -0.00148  -0.00196  -0.00344   2.15225
    A5        2.08729  -0.00024   0.00048  -0.00159  -0.00111   2.08618
    A6        2.11250  -0.00073  -0.00031  -0.00214  -0.00245   2.11005
    A7        2.08339   0.00098  -0.00017   0.00374   0.00356   2.08695
    A8        2.11851   0.00059  -0.00232   0.00533   0.00303   2.12154
    A9        2.08195  -0.00050   0.00113  -0.00373  -0.00260   2.07935
   A10        2.08272  -0.00009   0.00118  -0.00160  -0.00043   2.08229
   A11        2.09943  -0.00057  -0.00003  -0.00240  -0.00242   2.09701
   A12        2.08993   0.00044   0.00063   0.00115   0.00177   2.09170
   A13        2.09382   0.00013  -0.00060   0.00125   0.00065   2.09447
   A14        2.00264   0.00058   0.00340  -0.00216   0.00123   2.00387
   A15        2.14010  -0.00006  -0.00224   0.00311   0.00086   2.14096
   A16        2.14045  -0.00052  -0.00116  -0.00094  -0.00210   2.13835
    D1        0.00000  -0.00000   0.00000  -0.00000   0.00000   0.00000
    D2        3.14159  -0.00000   0.00000  -0.00000   0.00000   3.14159
    D3        0.00000   0.00000   0.00000   0.00000   0.00000   0.00000
    D4        3.14159   0.00000   0.00000   0.00000   0.00000   3.14159
    D5        0.00000  -0.00000   0.00000  -0.00000   0.00000   0.00000
    D6        3.14159  -0.00000   0.00000  -0.00000   0.00000   3.14159
    D7        3.14159   0.00000   0.00000   0.00000   0.00000   3.14159
    D8        0.00000   0.00000   0.00000   0.00000   0.00000   0.00000
    D9        0.00000   0.00000   0.00000   0.00000   0.00000   0.00000
   D10        3.14159  -0.00000   0.00000  -0.00000   0.00000   3.14159
   D11        3.14159   0.00000   0.00000   0.00000   0.00000   3.14159
   D12        0.00000   0.00000   0.00000   0.00000   0.00000   0.00000
   D13        0.00000  -0.00000   0.00000  -0.00000   0.00000   0.00000
   D14        3.14159  -0.00000   0.00000  -0.00000   0.00000   3.14159
   D15        3.14159   0.00000   0.00000   0.00000   0.00000   3.14159
   D16        0.00000   0.00000   0.00000   0.00000   0.00000   0.00000
   D17        0.00000  -0.00000   0.00000  -0.00000   0.00000   0.00000
   D18        3.14159  -0.00000   0.00000  -0.00000   0.00000   3.14159
   D19        3.14159   0.00000   0.00000   0.00000   0.00000   3.14159
   D20        0.00000  -0.00000   0.00000  -0.00000   0.00000   0.00000
         Item               Value     Threshold  Converged?
 Maximum Force            0.004335     0.000450     NO 
 RMS     Force            0.001369     0.000300     NO 
 Maximum Displacement     0.012993     0.001800     NO 
 RMS     Displacement     0.003615     0.001200     NO 
 Predicted change in Energy=-8.556705D-05
 GradGradGradGradGradGradGradGradGradGradGradGradGradGradGradGradGradGrad

                          Input orientation:                          
 ---------------------------------------------------------------------
 Center     Atomic      Atomic             Coordinates (Angstroms)
 Number     Number       Type             X           Y           Z
 ---------------------------------------------------------------------
      1          6           0        0.013644    1.301988    0.000000
      2          6           0        1.259382    0.714139    0.000000
      3          6           0        1.243180   -0.705411    0.000000
      4          6           0        0.009159   -1.385941    0.000000
      5          6           0       -1.209154   -0.694714    0.000000
      6          6           0       -1.223444    0.714722    0.000000
      7         17           0        2.673512    1.620632    0.000000
      8         17           0        2.682545   -1.589214    0.000000
      9          1           0        0.004117   -2.487023    0.000000
     10          1           0       -2.155574   -1.254096    0.000000
     11          1           0       -2.154214    1.294918    0.000000
 ---------------------------------------------------------------------
                    Distance matrix (angstroms):
                    1          2          3          4          5
     1  C    0.000000
     2  C    1.377472   0.000000
     3  C    2.354020   1.419642   0.000000
     4  C    2.687933   2.444052   1.409230   0.000000
     5  C    2.341379   2.842276   2.452357   1.400743   0.000000
     6  C    1.369404   2.482826   2.846228   2.435589   1.409509
     7  Cl   2.678886   1.679730   2.730627   4.017245   4.520610
     8  Cl   3.934728   2.707551   1.689047   2.681103   3.993176
     9  H    3.789023   3.438477   2.170119   1.101093   2.164346
    10  H    3.352473   3.941557   3.442758   2.168745   1.099372
    11  H    2.167870   3.462650   3.942538   3.444879   2.202675
                    6          7          8          9         10
     6  C    0.000000
     7  Cl   4.000867   0.000000
     8  Cl   4.534851   3.209859   0.000000
     9  H    3.429004   4.898826   2.824897   0.000000
    10  H    2.178327   5.619976   4.849712   2.486840   0.000000
    11  H    1.096796   4.838701   5.631382   4.354477   2.549014
                   11
    11  H    0.000000
 Stoichiometry    C6H3Cl2(2)
 Framework group  CS[SG(C6H3Cl2)]
 Deg. of freedom    19
 Full point group                 CS      NOp   2
 Largest Abelian subgroup         CS      NOp   2
 Largest concise Abelian subgroup C1      NOp   1
                         Standard orientation:                         
 ---------------------------------------------------------------------
 Center     Atomic      Atomic             Coordinates (Angstroms)
 Number     Number       Type             X           Y           Z
 ---------------------------------------------------------------------
      1          6           0        1.086333   -1.412039    0.000000
      2          6           0       -0.115306   -0.738621    0.000000
      3          6           0        0.000000    0.676331    0.000000
      4          6           0        1.278537    1.269013    0.000000
      5          6           0        2.445598    0.494385    0.000000
      6          6           0        2.361416   -0.912607    0.000000
      7         17           0       -1.589294   -1.544135    0.000000
      8         17           0       -1.374124    1.658504    0.000000
      9          1           0        1.360469    2.367054    0.000000
     10          1           0        3.428776    0.986302    0.000000
     11          1           0        3.249392   -1.556393    0.000000
 ---------------------------------------------------------------------
 Rotational constants (GHZ):           1.9680130           1.4416604           0.8321050
 Standard basis: VSTO-6G (5D, 7F)
 There are    27 symmetry adapted cartesian basis functions of A'  symmetry.
 There are     8 symmetry adapted cartesian basis functions of A"  symmetry.
 There are    27 symmetry adapted basis functions of A'  symmetry.
 There are     8 symmetry adapted basis functions of A"  symmetry.
    35 basis functions,   210 primitive gaussians,    35 cartesian basis functions
    21 alpha electrons       20 beta electrons
       nuclear repulsion energy       198.0135422903 Hartrees.
 Integral buffers will be    131072 words long.
 Regular integral format.
 Two-electron integral symmetry is turned off.
 Do NDO integrals.
 One-electron integrals computed using PRISM.
 NBasis=    35 RedAO= T EigKep=  1.00D+00  NBF=    27     8
 NBsUse=    35 1.00D-06 EigRej= -1.00D+00 NBFU=    27     8
 Initial guess from the checkpoint file:  "calcs/am1/chks/ClPh_23_rad.chk"
 B after Tr=     0.000000    0.000000    0.000000
         Rot=    1.000000   -0.000000   -0.000000   -0.000734 Ang=  -0.08 deg.
 Initial guess orbital symmetries:
 Alpha Orbitals:
       Occupied  (A') (A') (A') (A') (A') (A') (A') (A') (A') (A')
                 (A') (A") (A') (A') (A") (A") (A') (A') (A') (A")
                 (A")
       Virtual   (A") (A") (A') (A') (A") (A') (A') (A') (A') (A')
                 (A') (A') (A') (A')
 Beta  Orbitals:
       Occupied  (A') (A') (A') (A') (A') (A') (A') (A') (A') (A')
                 (A') (A") (A') (A') (A") (A") (A') (A') (A") (A")
       Virtual   (A') (A") (A") (A') (A') (A") (A') (A') (A') (A')
                 (A') (A') (A') (A') (A')
 Initial guess <Sx>= 0.0000 <Sy>= 0.0000 <Sz>= 0.5000 <S**2>= 1.2379 S= 0.7198
 Keep J ints in memory in canonical form, NReq=862793.
 Overlap will be assumed to be unity.
 Requested convergence on RMS density matrix=1.00D-08 within  32 cycles.
 Requested convergence on MAX density matrix=1.00D-06.
 Requested convergence on             energy=1.00D-06.
 No special actions if energy rises.
 Fock symm off for IB=2 I1=    1 I=   28 J=    4 Cut=1.00D-07 Err=1.20D-04
 Fock matrix is not symmetric: symmetry in diagonalization turned off.
 SCF Done:  E(UAM1) =  0.975616790132E-01 A.U. after   15 cycles
            NFock= 14  Conv=0.42D-08     -V/T= 1.0011
 <Sx>= 0.0000 <Sy>= 0.0000 <Sz>= 0.5000 <S**2>= 1.2562 S= 0.7273
 <L.S>=  0.00000000000    
 Annihilation of the first spin contaminant:
 S**2 before annihilation     1.2562,   after     0.9726
 QCSCF skips out because SCF is already converged.
 Calling FoFJK, ICntrl=      2127 FMM=F ISym2X=1 I1Cent= 0 IOpClX= 1 NMat=1 NMatS=1 NMatT=0.
 ***** Axes restored to original set *****
 -------------------------------------------------------------------
 Center     Atomic                   Forces (Hartrees/Bohr)
 Number     Number              X              Y              Z
 -------------------------------------------------------------------
      1        6           0.000249455   -0.000767401    0.000000000
      2        6          -0.001444567   -0.000196973    0.000000000
      3        6          -0.001087743    0.000194844   -0.000000000
      4        6           0.000610002    0.000814974    0.000000000
      5        6          -0.000119470   -0.000093996    0.000000000
      6        6           0.001006689    0.000087854    0.000000000
      7       17           0.000202504   -0.000168095   -0.000000000
      8       17           0.000120512    0.000150941    0.000000000
      9        1           0.000140852   -0.000101367   -0.000000000
     10        1           0.000172311    0.000300767   -0.000000000
     11        1           0.000149456   -0.000221549   -0.000000000
 -------------------------------------------------------------------
 Cartesian Forces:  Max     0.001444567 RMS     0.000440614

 GradGradGradGradGradGradGradGradGradGradGradGradGradGradGradGradGradGrad
 Berny optimization.
 Using GEDIIS/GDIIS optimizer.
 FormGI is forming the generalized inverse of G from B-inverse, IUseBI=4.
 Internal  Forces:  Max     0.001276381 RMS     0.000359445
 Search for a local minimum.
 Step number   4 out of a maximum of   57
 All quantities printed in internal units (Hartrees-Bohrs-Radians)
 Mixed Optimization -- En-DIIS/RFO-DIIS
 Update second derivatives using D2CorX and points    1    2    3    4
 DE= -7.51D-05 DEPred=-8.56D-05 R= 8.77D-01
 TightC=F SS=  1.41D+00  RLast= 1.91D-02 DXNew= 8.4853D-01 5.7357D-02
 Trust test= 8.77D-01 RLast= 1.91D-02 DXMaxT set to 5.05D-01
 ITU=  1  1  1  0
 Use linear search instead of GDIIS.
     Eigenvalues ---    0.02221   0.02221   0.02221   0.02221   0.02221
     Eigenvalues ---    0.02221   0.02221   0.02221   0.15528   0.16000
     Eigenvalues ---    0.16029   0.18497   0.22089   0.23964   0.24714
     Eigenvalues ---    0.25019   0.30255   0.31639   0.35575   0.36015
     Eigenvalues ---    0.36857   0.43053   0.44709   0.46746   0.47319
     Eigenvalues ---    0.49359   0.75272
 RFO step:  Lambda=-9.53742455D-06 EMin= 2.22103665D-02
 Quartic linear search produced a step of -0.10558.
 Iteration  1 RMS(Cart)=  0.00132916 RMS(Int)=  0.00000105
 Iteration  2 RMS(Cart)=  0.00000115 RMS(Int)=  0.00000004
 Iteration  3 RMS(Cart)=  0.00000000 RMS(Int)=  0.00000004
 ClnCor:  largest displacement from symmetrization is 9.37D-13 for atom     8.
 Variable       Old X    -DE/DX   Delta X   Delta X   Delta X     New X
                                 (Linear)    (Quad)   (Total)
    R1        2.60304  -0.00128  -0.00057  -0.00153  -0.00210   2.60094
    R2        2.58780  -0.00095  -0.00048  -0.00092  -0.00140   2.58640
    R3        2.68274  -0.00087  -0.00085  -0.00037  -0.00122   2.68151
    R4        3.17423   0.00008  -0.00021   0.00090   0.00069   3.17492
    R5        2.66306  -0.00116  -0.00045  -0.00121  -0.00166   2.66140
    R6        3.19184   0.00002  -0.00084   0.00155   0.00071   3.19254
    R7        2.64702  -0.00034  -0.00030   0.00029  -0.00000   2.64702
    R8        2.08076   0.00010  -0.00005   0.00045   0.00040   2.08116
    R9        2.66359  -0.00040  -0.00081   0.00064  -0.00018   2.66341
   R10        2.07751  -0.00030   0.00012  -0.00081  -0.00068   2.07683
   R11        2.07264  -0.00024   0.00042  -0.00106  -0.00064   2.07200
    A1        2.25747  -0.00019   0.00001  -0.00113  -0.00111   2.25636
    A2        2.00029   0.00022   0.00007   0.00069   0.00076   2.00105
    A3        2.13065   0.00029  -0.00043   0.00153   0.00110   2.13175
    A4        2.15225  -0.00051   0.00036  -0.00223  -0.00186   2.15039
    A5        2.08618   0.00018   0.00012   0.00045   0.00057   2.08675
    A6        2.11005  -0.00040   0.00026  -0.00174  -0.00148   2.10857
    A7        2.08695   0.00021  -0.00038   0.00129   0.00091   2.08787
    A8        2.12154  -0.00020  -0.00032  -0.00030  -0.00062   2.12092
    A9        2.07935  -0.00005   0.00027  -0.00083  -0.00055   2.07880
   A10        2.08229   0.00025   0.00005   0.00113   0.00117   2.08346
   A11        2.09701  -0.00023   0.00026  -0.00100  -0.00075   2.09626
   A12        2.09170   0.00029  -0.00019   0.00163   0.00144   2.09314
   A13        2.09447  -0.00006  -0.00007  -0.00062  -0.00069   2.09378
   A14        2.00387   0.00021  -0.00013   0.00129   0.00116   2.00503
   A15        2.14096   0.00001  -0.00009   0.00014   0.00005   2.14101
   A16        2.13835  -0.00022   0.00022  -0.00143  -0.00121   2.13714
    D1        0.00000  -0.00000   0.00000  -0.00000   0.00000   0.00000
    D2        3.14159  -0.00000   0.00000  -0.00000   0.00000   3.14159
    D3        0.00000   0.00000   0.00000   0.00000   0.00000   0.00000
    D4        3.14159   0.00000   0.00000   0.00000   0.00000   3.14159
    D5        0.00000  -0.00000   0.00000  -0.00000   0.00000   0.00000
    D6        3.14159  -0.00000   0.00000  -0.00000   0.00000   3.14159
    D7        3.14159   0.00000   0.00000   0.00000   0.00000   3.14159
    D8        0.00000   0.00000   0.00000   0.00000   0.00000   0.00000
    D9        0.00000   0.00000   0.00000   0.00000   0.00000   0.00000
   D10        3.14159  -0.00000   0.00000  -0.00000   0.00000   3.14159
   D11        3.14159   0.00000   0.00000   0.00000   0.00000   3.14159
   D12        0.00000  -0.00000   0.00000  -0.00000   0.00000   0.00000
   D13        0.00000  -0.00000   0.00000  -0.00000   0.00000   0.00000
   D14        3.14159  -0.00000   0.00000  -0.00000   0.00000   3.14159
   D15        3.14159   0.00000   0.00000   0.00000   0.00000   3.14159
   D16        0.00000   0.00000   0.00000   0.00000   0.00000   0.00000
   D17        0.00000  -0.00000   0.00000  -0.00000   0.00000   0.00000
   D18        3.14159  -0.00000   0.00000  -0.00000   0.00000   3.14159
   D19        3.14159   0.00000   0.00000   0.00000   0.00000   3.14159
   D20        0.00000  -0.00000   0.00000  -0.00000   0.00000   0.00000
         Item               Value     Threshold  Converged?
 Maximum Force            0.001276     0.000450     NO 
 RMS     Force            0.000359     0.000300     NO 
 Maximum Displacement     0.004816     0.001800     NO 
 RMS     Displacement     0.001330     0.001200     NO 
 Predicted change in Energy=-5.830714D-06
 GradGradGradGradGradGradGradGradGradGradGradGradGradGradGradGradGradGrad

                          Input orientation:                          
 ---------------------------------------------------------------------
 Center     Atomic      Atomic             Coordinates (Angstroms)
 Number     Number       Type             X           Y           Z
 ---------------------------------------------------------------------
      1          6           0        0.013539    1.302049    0.000000
      2          6           0        1.257891    0.713870    0.000000
      3          6           0        1.241857   -0.705035    0.000000
      4          6           0        0.009067   -1.385981    0.000000
      5          6           0       -1.209286   -0.694829    0.000000
      6          6           0       -1.222605    0.714522    0.000000
      7         17           0        2.673913    1.618083    0.000000
      8         17           0        2.682950   -1.586737    0.000000
      9          1           0        0.005380   -2.487279    0.000000
     10          1           0       -2.156166   -1.252721    0.000000
     11          1           0       -2.153386    1.294059    0.000000
 ---------------------------------------------------------------------
                    Distance matrix (angstroms):
                    1          2          3          4          5
     1  C    0.000000
     2  C    1.376360   0.000000
     3  C    2.353115   1.418995   0.000000
     4  C    2.688034   2.443141   1.408354   0.000000
     5  C    2.341543   2.841020   2.451165   1.400741   0.000000
     6  C    1.368663   2.480496   2.844067   2.434981   1.409415
     7  Cl   2.679080   1.680096   2.729041   4.015696   4.519824
     8  Cl   3.933298   2.706212   1.689421   2.681409   3.993119
     9  H    3.789337   3.437461   2.169163   1.101304   2.165246
    10  H    3.351785   3.939957   3.441877   2.169329   1.099010
    11  H    2.166940   3.460265   3.940058   3.443663   2.201590
                    6          7          8          9         10
     6  C    0.000000
     7  Cl   3.999910   0.000000
     8  Cl   4.533117   3.204833   0.000000
     9  H    3.429210   4.896435   2.824952   0.000000
    10  H    2.177517   5.618824   4.850629   2.489260   0.000000
    11  H    1.096456   4.838162   5.629310   4.354169   2.546781
                   11
    11  H    0.000000
 Stoichiometry    C6H3Cl2(2)
 Framework group  CS[SG(C6H3Cl2)]
 Deg. of freedom    19
 Full point group                 CS      NOp   2
 Largest Abelian subgroup         CS      NOp   2
 Largest concise Abelian subgroup C1      NOp   1
                         Standard orientation:                         
 ---------------------------------------------------------------------
 Center     Atomic      Atomic             Coordinates (Angstroms)
 Number     Number       Type             X           Y           Z
 ---------------------------------------------------------------------
      1          6           0        1.089186   -1.410028    0.000000
      2          6           0       -0.112352   -0.738705    0.000000
      3          6           0        0.000000    0.675835    0.000000
      4          6           0        1.276186    1.271494    0.000000
      5          6           0        2.444792    0.499201    0.000000
      6          6           0        2.362374   -0.907802    0.000000
      7         17           0       -1.586508   -1.544673    0.000000
      8         17           0       -1.377891    1.653363    0.000000
      9          1           0        1.354651    2.369999    0.000000
     10          1           0        3.427371    0.991504    0.000000
     11          1           0        3.251652   -1.549207    0.000000
 ---------------------------------------------------------------------
 Rotational constants (GHZ):           1.9724450           1.4415004           0.8328429
 Standard basis: VSTO-6G (5D, 7F)
 There are    27 symmetry adapted cartesian basis functions of A'  symmetry.
 There are     8 symmetry adapted cartesian basis functions of A"  symmetry.
 There are    27 symmetry adapted basis functions of A'  symmetry.
 There are     8 symmetry adapted basis functions of A"  symmetry.
    35 basis functions,   210 primitive gaussians,    35 cartesian basis functions
    21 alpha electrons       20 beta electrons
       nuclear repulsion energy       198.0522007854 Hartrees.
 Integral buffers will be    131072 words long.
 Regular integral format.
 Two-electron integral symmetry is turned off.
 Do NDO integrals.
 One-electron integrals computed using PRISM.
 NBasis=    35 RedAO= T EigKep=  1.00D+00  NBF=    27     8
 NBsUse=    35 1.00D-06 EigRej= -1.00D+00 NBFU=    27     8
 Initial guess from the checkpoint file:  "calcs/am1/chks/ClPh_23_rad.chk"
 B after Tr=     0.000000    0.000000    0.000000
         Rot=    1.000000   -0.000000   -0.000000   -0.000968 Ang=  -0.11 deg.
 Initial guess orbital symmetries:
 Alpha Orbitals:
       Occupied  (A') (A') (A') (A') (A') (A') (A') (A') (A') (A')
                 (A') (A") (A') (A') (A") (A") (A') (A') (A') (A")
                 (A")
       Virtual   (A") (A") (A') (A') (A") (A') (A') (A') (A') (A')
                 (A') (A') (A') (A')
 Beta  Orbitals:
       Occupied  (A') (A') (A') (A') (A') (A') (A') (A') (A') (A')
                 (A') (A") (A') (A') (A") (A") (A') (A') (A") (A")
       Virtual   (A') (A") (A") (A') (A') (A") (A') (A') (A') (A')
                 (A') (A') (A') (A') (A')
 Initial guess <Sx>= 0.0000 <Sy>= 0.0000 <Sz>= 0.5000 <S**2>= 1.2562 S= 0.7273
 Keep J ints in memory in canonical form, NReq=862793.
 Overlap will be assumed to be unity.
 Requested convergence on RMS density matrix=1.00D-08 within  32 cycles.
 Requested convergence on MAX density matrix=1.00D-06.
 Requested convergence on             energy=1.00D-06.
 No special actions if energy rises.
 Fock symm off for IB=2 I1=    1 I=   28 J=   10 Cut=1.00D-07 Err=7.93D-05
 Fock matrix is not symmetric: symmetry in diagonalization turned off.
 SCF Done:  E(UAM1) =  0.975554670595E-01 A.U. after   14 cycles
            NFock= 13  Conv=0.34D-08     -V/T= 1.0011
 <Sx>= 0.0000 <Sy>= 0.0000 <Sz>= 0.5000 <S**2>= 1.2523 S= 0.7257
 <L.S>=  0.00000000000    
 Annihilation of the first spin contaminant:
 S**2 before annihilation     1.2523,   after     0.9689
 QCSCF skips out because SCF is already converged.
 Calling FoFJK, ICntrl=      2127 FMM=F ISym2X=1 I1Cent= 0 IOpClX= 1 NMat=1 NMatS=1 NMatT=0.
 ***** Axes restored to original set *****
 -------------------------------------------------------------------
 Center     Atomic                   Forces (Hartrees/Bohr)
 Number     Number              X              Y              Z
 -------------------------------------------------------------------
      1        6          -0.000005210   -0.000021553    0.000000000
      2        6          -0.000015277    0.000183230    0.000000000
      3        6          -0.000187181   -0.000244078    0.000000000
      4        6           0.000069798    0.000171663    0.000000000
      5        6           0.000042683   -0.000042022    0.000000000
      6        6           0.000082666   -0.000135211   -0.000000000
      7       17           0.000088687   -0.000021445   -0.000000000
      8       17          -0.000019168    0.000027172   -0.000000000
      9        1           0.000005980    0.000020972   -0.000000000
     10        1           0.000037789    0.000086318   -0.000000000
     11        1          -0.000100767   -0.000025046   -0.000000000
 -------------------------------------------------------------------
 Cartesian Forces:  Max     0.000244078 RMS     0.000081931

 GradGradGradGradGradGradGradGradGradGradGradGradGradGradGradGradGradGrad
 Berny optimization.
 Using GEDIIS/GDIIS optimizer.
 FormGI is forming the generalized inverse of G from B-inverse, IUseBI=4.
 Internal  Forces:  Max     0.000202629 RMS     0.000059190
 Search for a local minimum.
 Step number   5 out of a maximum of   57
 All quantities printed in internal units (Hartrees-Bohrs-Radians)
 Mixed Optimization -- En-DIIS/RFO-DIIS
 Swapping is turned off.
 Update second derivatives using D2CorX and points    1    2    3    4    5
 DE= -6.21D-06 DEPred=-5.83D-06 R= 1.07D+00
 TightC=F SS=  1.41D+00  RLast= 5.52D-03 DXNew= 8.4853D-01 1.6564D-02
 Trust test= 1.07D+00 RLast= 5.52D-03 DXMaxT set to 5.05D-01
 ITU=  1  1  1  1  0
     Eigenvalues ---    0.02221   0.02221   0.02221   0.02221   0.02221
     Eigenvalues ---    0.02221   0.02221   0.02221   0.14418   0.15934
     Eigenvalues ---    0.16106   0.18335   0.21610   0.22855   0.24700
     Eigenvalues ---    0.25130   0.30013   0.31950   0.35677   0.36218
     Eigenvalues ---    0.37284   0.43173   0.44361   0.47121   0.47347
     Eigenvalues ---    0.52170   0.73689
 En-DIIS/RFO-DIIS/Sim-DIIS IScMMF=       -3 using points:     5    4
 RFO step:  Lambda=-5.55823964D-07.
 DidBck=F Rises=F RFO-DIIS coefs:    1.15378   -0.15378
 Iteration  1 RMS(Cart)=  0.00037442 RMS(Int)=  0.00000011
 Iteration  2 RMS(Cart)=  0.00000011 RMS(Int)=  0.00000001
 ClnCor:  largest displacement from symmetrization is 1.19D-12 for atom    11.
 Variable       Old X    -DE/DX   Delta X   Delta X   Delta X     New X
                                 (Linear)    (Quad)   (Total)
    R1        2.60094   0.00002  -0.00032   0.00032  -0.00000   2.60094
    R2        2.58640   0.00004  -0.00022   0.00029   0.00008   2.58648
    R3        2.68151   0.00011  -0.00019   0.00051   0.00033   2.68184
    R4        3.17492   0.00006   0.00011   0.00013   0.00024   3.17516
    R5        2.66140  -0.00020  -0.00025  -0.00021  -0.00047   2.66093
    R6        3.19254  -0.00003   0.00011  -0.00014  -0.00003   3.19252
    R7        2.64702  -0.00013  -0.00000  -0.00023  -0.00024   2.64678
    R8        2.08116  -0.00002   0.00006  -0.00006   0.00000   2.08117
    R9        2.66341  -0.00013  -0.00003  -0.00019  -0.00022   2.66319
   R10        2.07683  -0.00008  -0.00011  -0.00014  -0.00024   2.07659
   R11        2.07200   0.00007  -0.00010   0.00028   0.00018   2.07219
    A1        2.25636  -0.00005  -0.00017   0.00006  -0.00011   2.25625
    A2        2.00105  -0.00007   0.00012  -0.00036  -0.00025   2.00080
    A3        2.13175   0.00014   0.00017   0.00050   0.00067   2.13242
    A4        2.15039  -0.00007  -0.00029  -0.00014  -0.00042   2.14996
    A5        2.08675   0.00004   0.00009   0.00009   0.00018   2.08693
    A6        2.10857  -0.00004  -0.00023  -0.00003  -0.00026   2.10831
    A7        2.08787   0.00000   0.00014  -0.00006   0.00008   2.08795
    A8        2.12092   0.00003  -0.00010   0.00016   0.00007   2.12099
    A9        2.07880  -0.00002  -0.00008  -0.00005  -0.00013   2.07867
   A10        2.08346  -0.00001   0.00018  -0.00012   0.00006   2.08353
   A11        2.09626   0.00002  -0.00012   0.00004  -0.00007   2.09619
   A12        2.09314   0.00005   0.00022   0.00027   0.00049   2.09363
   A13        2.09378  -0.00007  -0.00011  -0.00031  -0.00042   2.09336
   A14        2.00503   0.00003   0.00018  -0.00000   0.00017   2.00521
   A15        2.14101   0.00006   0.00001   0.00047   0.00047   2.14149
   A16        2.13714  -0.00009  -0.00019  -0.00046  -0.00065   2.13649
    D1        0.00000  -0.00000   0.00000  -0.00000   0.00000   0.00000
    D2        3.14159  -0.00000   0.00000  -0.00000   0.00000   3.14159
    D3        0.00000   0.00000   0.00000   0.00000   0.00000   0.00000
    D4        3.14159   0.00000   0.00000   0.00000   0.00000   3.14159
    D5        0.00000  -0.00000   0.00000  -0.00000   0.00000   0.00000
    D6        3.14159  -0.00000   0.00000  -0.00000   0.00000   3.14159
    D7        3.14159   0.00000   0.00000   0.00000   0.00000   3.14159
    D8        0.00000   0.00000   0.00000   0.00000   0.00000   0.00000
    D9        0.00000   0.00000   0.00000   0.00000   0.00000   0.00000
   D10        3.14159  -0.00000   0.00000  -0.00000   0.00000   3.14159
   D11        3.14159   0.00000   0.00000   0.00000   0.00000   3.14159
   D12        0.00000   0.00000   0.00000   0.00000   0.00000   0.00000
   D13        0.00000  -0.00000   0.00000  -0.00000   0.00000   0.00000
   D14        3.14159  -0.00000   0.00000  -0.00000   0.00000   3.14159
   D15        3.14159   0.00000   0.00000   0.00000   0.00000   3.14159
   D16        0.00000   0.00000   0.00000   0.00000   0.00000   0.00000
   D17        0.00000  -0.00000   0.00000  -0.00000   0.00000   0.00000
   D18        3.14159  -0.00000   0.00000  -0.00000   0.00000   3.14159
   D19        3.14159   0.00000   0.00000   0.00000   0.00000   3.14159
   D20        0.00000   0.00000   0.00000   0.00000   0.00000   0.00000
         Item               Value     Threshold  Converged?
 Maximum Force            0.000203     0.000450     YES
 RMS     Force            0.000059     0.000300     YES
 Maximum Displacement     0.001330     0.001800     YES
 RMS     Displacement     0.000374     0.001200     YES
 Predicted change in Energy=-2.779116D-07
 Optimization completed.
    -- Stationary point found.
                           ----------------------------
                           !   Optimized Parameters   !
                           ! (Angstroms and Degrees)  !
 --------------------------                            --------------------------
 ! Name  Definition              Value          Derivative Info.                !
 --------------------------------------------------------------------------------
 ! R1    R(1,2)                  1.3764         -DE/DX =    0.0                 !
 ! R2    R(1,6)                  1.3687         -DE/DX =    0.0                 !
 ! R3    R(2,3)                  1.419          -DE/DX =    0.0001              !
 ! R4    R(2,7)                  1.6801         -DE/DX =    0.0001              !
 ! R5    R(3,4)                  1.4084         -DE/DX =   -0.0002              !
 ! R6    R(3,8)                  1.6894         -DE/DX =    0.0                 !
 ! R7    R(4,5)                  1.4007         -DE/DX =   -0.0001              !
 ! R8    R(4,9)                  1.1013         -DE/DX =    0.0                 !
 ! R9    R(5,6)                  1.4094         -DE/DX =   -0.0001              !
 ! R10   R(5,10)                 1.099          -DE/DX =   -0.0001              !
 ! R11   R(6,11)                 1.0965         -DE/DX =    0.0001              !
 ! A1    A(2,1,6)              129.2796         -DE/DX =   -0.0001              !
 ! A2    A(1,2,3)              114.6517         -DE/DX =   -0.0001              !
 ! A3    A(1,2,7)              122.1403         -DE/DX =    0.0001              !
 ! A4    A(3,2,7)              123.2081         -DE/DX =   -0.0001              !
 ! A5    A(2,3,4)              119.562          -DE/DX =    0.0                 !
 ! A6    A(2,3,8)              120.8121         -DE/DX =    0.0                 !
 ! A7    A(4,3,8)              119.6259         -DE/DX =    0.0                 !
 ! A8    A(3,4,5)              121.5199         -DE/DX =    0.0                 !
 ! A9    A(3,4,9)              119.1064         -DE/DX =    0.0                 !
 ! A10   A(5,4,9)              119.3737         -DE/DX =    0.0                 !
 ! A11   A(4,5,6)              120.107          -DE/DX =    0.0                 !
 ! A12   A(4,5,10)             119.9283         -DE/DX =    0.0                 !
 ! A13   A(6,5,10)             119.9647         -DE/DX =   -0.0001              !
 ! A14   A(1,6,5)              114.8798         -DE/DX =    0.0                 !
 ! A15   A(1,6,11)             122.6709         -DE/DX =    0.0001              !
 ! A16   A(5,6,11)             122.4492         -DE/DX =   -0.0001              !
 ! D1    D(6,1,2,3)              0.0            -DE/DX =    0.0                 !
 ! D2    D(6,1,2,7)            180.0            -DE/DX =    0.0                 !
 ! D3    D(2,1,6,5)              0.0            -DE/DX =    0.0                 !
 ! D4    D(2,1,6,11)           180.0            -DE/DX =    0.0                 !
 ! D5    D(1,2,3,4)              0.0            -DE/DX =    0.0                 !
 ! D6    D(1,2,3,8)            180.0            -DE/DX =    0.0                 !
 ! D7    D(7,2,3,4)            180.0            -DE/DX =    0.0                 !
 ! D8    D(7,2,3,8)              0.0            -DE/DX =    0.0                 !
 ! D9    D(2,3,4,5)              0.0            -DE/DX =    0.0                 !
 ! D10   D(2,3,4,9)            180.0            -DE/DX =    0.0                 !
 ! D11   D(8,3,4,5)            180.0            -DE/DX =    0.0                 !
 ! D12   D(8,3,4,9)              0.0            -DE/DX =    0.0                 !
 ! D13   D(3,4,5,6)              0.0            -DE/DX =    0.0                 !
 ! D14   D(3,4,5,10)           180.0            -DE/DX =    0.0                 !
 ! D15   D(9,4,5,6)            180.0            -DE/DX =    0.0                 !
 ! D16   D(9,4,5,10)             0.0            -DE/DX =    0.0                 !
 ! D17   D(4,5,6,1)              0.0            -DE/DX =    0.0                 !
 ! D18   D(4,5,6,11)           180.0            -DE/DX =    0.0                 !
 ! D19   D(10,5,6,1)           180.0            -DE/DX =    0.0                 !
 ! D20   D(10,5,6,11)            0.0            -DE/DX =    0.0                 !
 --------------------------------------------------------------------------------
 GradGradGradGradGradGradGradGradGradGradGradGradGradGradGradGradGradGrad

                          Input orientation:                          
 ---------------------------------------------------------------------
 Center     Atomic      Atomic             Coordinates (Angstroms)
 Number     Number       Type             X           Y           Z
 ---------------------------------------------------------------------
      1          6           0        0.013539    1.302049    0.000000
      2          6           0        1.257891    0.713870    0.000000
      3          6           0        1.241857   -0.705035    0.000000
      4          6           0        0.009067   -1.385981    0.000000
      5          6           0       -1.209286   -0.694829    0.000000
      6          6           0       -1.222605    0.714522    0.000000
      7         17           0        2.673913    1.618083    0.000000
      8         17           0        2.682950   -1.586737    0.000000
      9          1           0        0.005380   -2.487279    0.000000
     10          1           0       -2.156166   -1.252721    0.000000
     11          1           0       -2.153386    1.294059    0.000000
 ---------------------------------------------------------------------
                    Distance matrix (angstroms):
                    1          2          3          4          5
     1  C    0.000000
     2  C    1.376360   0.000000
     3  C    2.353115   1.418995   0.000000
     4  C    2.688034   2.443141   1.408354   0.000000
     5  C    2.341543   2.841020   2.451165   1.400741   0.000000
     6  C    1.368663   2.480496   2.844067   2.434981   1.409415
     7  Cl   2.679080   1.680096   2.729041   4.015696   4.519824
     8  Cl   3.933298   2.706212   1.689421   2.681409   3.993119
     9  H    3.789337   3.437461   2.169163   1.101304   2.165246
    10  H    3.351785   3.939957   3.441877   2.169329   1.099010
    11  H    2.166940   3.460265   3.940058   3.443663   2.201590
                    6          7          8          9         10
     6  C    0.000000
     7  Cl   3.999910   0.000000
     8  Cl   4.533117   3.204833   0.000000
     9  H    3.429210   4.896435   2.824952   0.000000
    10  H    2.177517   5.618824   4.850629   2.489260   0.000000
    11  H    1.096456   4.838162   5.629310   4.354169   2.546781
                   11
    11  H    0.000000
 Stoichiometry    C6H3Cl2(2)
 Framework group  CS[SG(C6H3Cl2)]
 Deg. of freedom    19
 Full point group                 CS      NOp   2
 Largest Abelian subgroup         CS      NOp   2
 Largest concise Abelian subgroup C1      NOp   1
                         Standard orientation:                         
 ---------------------------------------------------------------------
 Center     Atomic      Atomic             Coordinates (Angstroms)
 Number     Number       Type             X           Y           Z
 ---------------------------------------------------------------------
      1          6           0        1.089186   -1.410028    0.000000
      2          6           0       -0.112352   -0.738705    0.000000
      3          6           0        0.000000    0.675835    0.000000
      4          6           0        1.276186    1.271494    0.000000
      5          6           0        2.444792    0.499201    0.000000
      6          6           0        2.362374   -0.907802    0.000000
      7         17           0       -1.586508   -1.544673    0.000000
      8         17           0       -1.377891    1.653363    0.000000
      9          1           0        1.354651    2.369999    0.000000
     10          1           0        3.427371    0.991504    0.000000
     11          1           0        3.251652   -1.549207    0.000000
 ---------------------------------------------------------------------
 Rotational constants (GHZ):           1.9724450           1.4415004           0.8328429

 **********************************************************************

            Population analysis using the SCF Density.

 **********************************************************************

 Orbital symmetries:
 Alpha Orbitals:
       Occupied  (A') (A') (A') (A') (A') (A') (A') (A') (A') (A')
                 (A') (A") (A') (A') (A") (A") (A') (A') (A') (A")
                 (A")
       Virtual   (A") (A") (A') (A') (A") (A') (A') (A') (A') (A')
                 (A') (A') (A') (A')
 Beta  Orbitals:
       Occupied  (A') (A') (A') (A') (A') (A') (A') (A') (A') (A')
                 (A') (A") (A') (A') (A") (A") (A') (A') (A") (A")
       Virtual   (A') (A") (A") (A') (A') (A") (A') (A') (A') (A')
                 (A') (A') (A') (A') (A')
 The electronic state is 2-A'.
 Alpha  occ. eigenvalues --   -1.47132  -1.39484  -1.38844  -1.16601  -1.15274
 Alpha  occ. eigenvalues --   -0.88450  -0.86192  -0.68176  -0.62966  -0.61955
 Alpha  occ. eigenvalues --   -0.57329  -0.56078  -0.51688  -0.49370  -0.48457
 Alpha  occ. eigenvalues --   -0.46268  -0.45344  -0.44338  -0.39636  -0.38405
 Alpha  occ. eigenvalues --   -0.36352
 Alpha virt. eigenvalues --   -0.00472   0.00332   0.03401   0.04761   0.08001
 Alpha virt. eigenvalues --    0.12337   0.12754   0.13610   0.14225   0.15246
 Alpha virt. eigenvalues --    0.16601   0.17706   0.18089   0.18857
  Beta  occ. eigenvalues --   -1.46467  -1.39454  -1.38544  -1.16450  -1.13900
  Beta  occ. eigenvalues --   -0.88063  -0.83931  -0.67980  -0.61980  -0.60985
  Beta  occ. eigenvalues --   -0.57140  -0.55831  -0.50631  -0.48999  -0.48307
  Beta  occ. eigenvalues --   -0.46100  -0.44685  -0.44106  -0.37652  -0.36485
  Beta virt. eigenvalues --   -0.00679  -0.00548   0.01797   0.03947   0.05039
  Beta virt. eigenvalues --    0.08752   0.12720   0.13086   0.13643   0.14783
  Beta virt. eigenvalues --    0.15612   0.16891   0.17809   0.19036   0.19848
          Condensed to atoms (all electrons):
               1          2          3          4          5          6
     1  C    4.051051   0.000000   0.000000   0.000000   0.000000   0.000000
     2  C    0.000000   4.059228   0.000000   0.000000   0.000000   0.000000
     3  C    0.000000   0.000000   4.062419   0.000000   0.000000   0.000000
     4  C    0.000000   0.000000   0.000000   4.131172   0.000000   0.000000
     5  C    0.000000   0.000000   0.000000   0.000000   4.116374   0.000000
     6  C    0.000000   0.000000   0.000000   0.000000   0.000000   4.113155
     7  Cl   0.000000   0.000000   0.000000   0.000000   0.000000   0.000000
     8  Cl   0.000000   0.000000   0.000000   0.000000   0.000000   0.000000
     9  H    0.000000   0.000000   0.000000   0.000000   0.000000   0.000000
    10  H    0.000000   0.000000   0.000000   0.000000   0.000000   0.000000
    11  H    0.000000   0.000000   0.000000   0.000000   0.000000   0.000000
               7          8          9         10         11
     1  C    0.000000   0.000000   0.000000   0.000000   0.000000
     2  C    0.000000   0.000000   0.000000   0.000000   0.000000
     3  C    0.000000   0.000000   0.000000   0.000000   0.000000
     4  C    0.000000   0.000000   0.000000   0.000000   0.000000
     5  C    0.000000   0.000000   0.000000   0.000000   0.000000
     6  C    0.000000   0.000000   0.000000   0.000000   0.000000
     7  Cl   6.952467   0.000000   0.000000   0.000000   0.000000
     8  Cl   0.000000   6.979096   0.000000   0.000000   0.000000
     9  H    0.000000   0.000000   0.846601   0.000000   0.000000
    10  H    0.000000   0.000000   0.000000   0.852825   0.000000
    11  H    0.000000   0.000000   0.000000   0.000000   0.835612
          Atomic-Atomic Spin Densities.
               1          2          3          4          5          6
     1  C    1.389053   0.000000   0.000000   0.000000   0.000000   0.000000
     2  C    0.000000  -0.484518   0.000000   0.000000   0.000000   0.000000
     3  C    0.000000   0.000000   0.489988   0.000000   0.000000   0.000000
     4  C    0.000000   0.000000   0.000000  -0.461564   0.000000   0.000000
     5  C    0.000000   0.000000   0.000000   0.000000   0.498669   0.000000
     6  C    0.000000   0.000000   0.000000   0.000000   0.000000  -0.487188
     7  Cl   0.000000   0.000000   0.000000   0.000000   0.000000   0.000000
     8  Cl   0.000000   0.000000   0.000000   0.000000   0.000000   0.000000
     9  H    0.000000   0.000000   0.000000   0.000000   0.000000   0.000000
    10  H    0.000000   0.000000   0.000000   0.000000   0.000000   0.000000
    11  H    0.000000   0.000000   0.000000   0.000000   0.000000   0.000000
               7          8          9         10         11
     1  C    0.000000   0.000000   0.000000   0.000000   0.000000
     2  C    0.000000   0.000000   0.000000   0.000000   0.000000
     3  C    0.000000   0.000000   0.000000   0.000000   0.000000
     4  C    0.000000   0.000000   0.000000   0.000000   0.000000
     5  C    0.000000   0.000000   0.000000   0.000000   0.000000
     6  C    0.000000   0.000000   0.000000   0.000000   0.000000
     7  Cl   0.000024   0.000000   0.000000   0.000000   0.000000
     8  Cl   0.000000   0.015212   0.000000   0.000000   0.000000
     9  H    0.000000   0.000000   0.027109   0.000000   0.000000
    10  H    0.000000   0.000000   0.000000  -0.019514   0.000000
    11  H    0.000000   0.000000   0.000000   0.000000   0.032728
 Mulliken charges and spin densities:
               1          2
     1  C   -0.051051   1.389053
     2  C   -0.059228  -0.484518
     3  C   -0.062419   0.489988
     4  C   -0.131172  -0.461564
     5  C   -0.116374   0.498669
     6  C   -0.113155  -0.487188
     7  Cl   0.047533   0.000024
     8  Cl   0.020904   0.015212
     9  H    0.153399   0.027109
    10  H    0.147175  -0.019514
    11  H    0.164388   0.032728
 Sum of Mulliken charges =   0.00000   1.00000
 Mulliken charges and spin densities with hydrogens summed into heavy atoms:
               1          2
     1  C   -0.051051   1.389053
     2  C   -0.059228  -0.484518
     3  C   -0.062419   0.489988
     4  C    0.022227  -0.434454
     5  C    0.030801   0.479155
     6  C    0.051233  -0.454461
     7  Cl   0.047533   0.000024
     8  Cl   0.020904   0.015212
 Charge=              0.0000 electrons
 Dipole moment (field-independent basis, Debye):
    X=              1.7580    Y=              0.8808    Z=              0.0000  Tot=              1.9663
 N-N= 1.980522007854D+02 E-N=-2.752041802118D+02  KE=-9.044485557321D+01
 Symmetry A'   KE=-7.006296477760D+01
 Symmetry A"   KE=-2.038189079561D+01
 Symmetry A'   SP= 1.000000000000D+00
 Symmetry A"   SP= 1.609823385706D-15
 1\1\GINC-SH02-01N23\FOpt\UAM1\ZDO\C6H3Cl2(2)\JLAPIER\28-Sep-2026\0\\# 
 Opt AM1 SCF=XQC\\ClPh_23_rad am1\\0,2\C,0.0135386411,1.3020486721,0.\C
 ,1.2578910176,0.7138695559,0.\C,1.2418571518,-0.7050351614,0.\C,0.0090
 668279,-1.3859813945,0.\C,-1.209286307,-0.6948292513,0.\C,-1.222604878
 4,0.7145223505,0.\Cl,2.6739134425,1.6180834259,0.\Cl,2.6829495729,-1.5
 867367082,0.\H,0.0053800273,-2.4872792832,0.\H,-2.1561655657,-1.252720
 7084,0.\H,-2.1533864101,1.2940585027,0.\\Version=ES64L-G16RevB.01\Stat
 e=2-A'\HF=0.0975555\S2=1.252299\S2-1=0.\S2A=0.968878\RMSD=3.426e-09\RM
 SF=8.193e-05\Dipole=-0.6665061,-0.3927038,0.\PG=CS [SG(C6H3Cl2)]\\@


      LET US REMEMBER, PLEASE, THAT THE SEARCH FOR THE CONSTITUTION
      OF THE WORLD IS ONE OF THE GREATEST AND NOBLEST PROBLEMS PRESENTED 
      BY NATURE.

                                                  -- GALILEO
 Job cpu time:       0 days  0 hours  0 minutes  3.9 seconds.
 Elapsed time:       0 days  0 hours  0 minutes  3.9 seconds.
 File lengths (MBytes):  RWF=      6 Int=      0 D2E=      0 Chk=      3 Scr=      1
 Normal termination of Gaussian 16 at Mon Sep 28 01:22:33 2026.
