 Entering Gaussian System, Link 0=g16
 Initial command:
 /share/software/user/restricted/gaussian/g16.B01/l1.exe "/lscratch/jlapier/g16_45667774_56/Gau-1612.inp" -scrdir="/lscratch/jlapier/g16_45667774_56/"
 Entering Link 1 = /share/software/user/restricted/gaussian/g16.B01/l1.exe PID=      1614.
  
 Copyright (c) 1988-2017, Gaussian, Inc.  All Rights Reserved.
  
 This is part of the Gaussian(R) 16 program.  It is based on
 the Gaussian(R) 09 system (copyright 2009, Gaussian, Inc.),
 the Gaussian(R) 03 system (copyright 2003, Gaussian, Inc.),
 the Gaussian(R) 98 system (copyright 1998, Gaussian, Inc.),
 the Gaussian(R) 94 system (copyright 1995, Gaussian, Inc.),
 the Gaussian 92(TM) system (copyright 1992, Gaussian, Inc.),
 the Gaussian 90(TM) system (copyright 1990, Gaussian, Inc.),
 the Gaussian 88(TM) system (copyright 1988, Gaussian, Inc.),
 the Gaussian 86(TM) system (copyright 1986, Carnegie Mellon
 University), and the Gaussian 82(TM) system (copyright 1983,
 Carnegie Mellon University). Gaussian is a federally registered
 trademark of Gaussian, Inc.
  
 This software contains proprietary and confidential information,
 including trade secrets, belonging to Gaussian, Inc.
  
 This software is provided under written license and may be
 used, copied, transmitted, or stored only in accord with that
 written license.
  
 The following legend is applicable only to US Government
 contracts under FAR:
  
                    RESTRICTED RIGHTS LEGEND
  
 Use, reproduction and disclosure by the US Government is
 subject to restrictions as set forth in subparagraphs (a)
 and (c) of the Commercial Computer Software - Restricted
 Rights clause in FAR 52.227-19.
  
 Gaussian, Inc.
 340 Quinnipiac St., Bldg. 40, Wallingford CT 06492
  
  
 ---------------------------------------------------------------
 Warning -- This program may not be used in any manner that
 competes with the business of Gaussian, Inc. or will provide
 assistance to any competitor of Gaussian, Inc.  The licensee
 of this program is prohibited from giving any competitor of
 Gaussian, Inc. access to this program.  By using this program,
 the user acknowledges that Gaussian, Inc. is engaged in the
 business of creating and licensing software in the field of
 computational chemistry and represents and warrants to the
 licensee that it is not a competitor of Gaussian, Inc. and that
 it will not use this program in any manner prohibited above.
 ---------------------------------------------------------------
  

 Cite this work as:
 Gaussian 16, Revision B.01,
 M. J. Frisch, G. W. Trucks, H. B. Schlegel, G. E. Scuseria, 
 M. A. Robb, J. R. Cheeseman, G. Scalmani, V. Barone, 
 G. A. Petersson, H. Nakatsuji, X. Li, M. Caricato, A. V. Marenich, 
 J. Bloino, B. G. Janesko, R. Gomperts, B. Mennucci, H. P. Hratchian, 
 J. V. Ortiz, A. F. Izmaylov, J. L. Sonnenberg, D. Williams-Young, 
 F. Ding, F. Lipparini, F. Egidi, J. Goings, B. Peng, A. Petrone, 
 T. Henderson, D. Ranasinghe, V. G. Zakrzewski, J. Gao, N. Rega, 
 G. Zheng, W. Liang, M. Hada, M. Ehara, K. Toyota, R. Fukuda, 
 J. Hasegawa, M. Ishida, T. Nakajima, Y. Honda, O. Kitao, H. Nakai, 
 T. Vreven, K. Throssell, J. A. Montgomery, Jr., J. E. Peralta, 
 F. Ogliaro, M. J. Bearpark, J. J. Heyd, E. N. Brothers, K. N. Kudin, 
 V. N. Staroverov, T. A. Keith, R. Kobayashi, J. Normand, 
 K. Raghavachari, A. P. Rendell, J. C. Burant, S. S. Iyengar, 
 J. Tomasi, M. Cossi, J. M. Millam, M. Klene, C. Adamo, R. Cammi, 
 J. W. Ochterski, R. L. Martin, K. Morokuma, O. Farkas, 
 J. B. Foresman, and D. J. Fox, Gaussian, Inc., Wallingford CT, 2016.
 
 ******************************************
 Gaussian 16:  ES64L-G16RevB.01 20-Dec-2017
                28-Sep-2026 
 ******************************************
 %nprocshared=1
 Will use up to    1 processors via shared memory.
 %mem=1GB
 %chk=calcs/am1/chks/ClPh_2345_anion.chk
 -----------------
 # Opt AM1 SCF=XQC
 -----------------
 1/18=20,19=15,26=1,38=1/1,3;
 2/9=110,12=2,17=6,18=5,40=1/2;
 3/5=2,25=1,41=700000,71=1/1,2,3;
 4/35=1/1;
 5/5=2,8=3,13=1,35=1,38=5/2,8;
 6/7=2,8=2,9=2,10=2,28=1/1;
 7//1,2,3,16;
 1/18=20,19=15,26=1/3(2);
 2/9=110/2;
 99//99;
 2/9=110/2;
 3/5=2,25=1,41=700000,71=1,135=20/1,2,3;
 4/5=5,16=3,35=1/1;
 5/5=2,8=3,13=1,35=1,38=5/2,8;
 7//1,2,3,16;
 1/18=20,19=15,26=1/3(-5);
 2/9=110/2;
 6/7=2,8=2,9=2,10=2,19=2,28=1/1;
 99/9=1/99;
 -------------------
 ClPh_2345_anion am1
 -------------------
 Symbolic Z-matrix:
 Charge = -1 Multiplicity = 1
 C                     0.        1.39      0. 
 C                     1.20378   0.695     0. 
 C                     1.20378  -0.695     0. 
 C                     0.       -1.39      0. 
 C                    -1.20378  -0.695     0. 
 C                    -1.20378   0.695     0. 
 Cl                    2.71066   1.565     0. 
 Cl                    2.71066  -1.565     0. 
 Cl                    0.       -3.13      0. 
 Cl                   -2.71066  -1.565     0. 
 H                    -2.13908   1.235     0. 
 

 GradGradGradGradGradGradGradGradGradGradGradGradGradGradGradGradGradGrad
 Berny optimization.
 Initialization pass.
                           ----------------------------
                           !    Initial Parameters    !
                           ! (Angstroms and Degrees)  !
 --------------------------                            --------------------------
 ! Name  Definition              Value          Derivative Info.                !
 --------------------------------------------------------------------------------
 ! R1    R(1,2)                  1.39           estimate D2E/DX2                !
 ! R2    R(1,6)                  1.39           estimate D2E/DX2                !
 ! R3    R(2,3)                  1.39           estimate D2E/DX2                !
 ! R4    R(2,7)                  1.74           estimate D2E/DX2                !
 ! R5    R(3,4)                  1.39           estimate D2E/DX2                !
 ! R6    R(3,8)                  1.74           estimate D2E/DX2                !
 ! R7    R(4,5)                  1.39           estimate D2E/DX2                !
 ! R8    R(4,9)                  1.74           estimate D2E/DX2                !
 ! R9    R(5,6)                  1.39           estimate D2E/DX2                !
 ! R10   R(5,10)                 1.74           estimate D2E/DX2                !
 ! R11   R(6,11)                 1.08           estimate D2E/DX2                !
 ! A1    A(2,1,6)              120.0            estimate D2E/DX2                !
 ! A2    A(1,2,3)              120.0            estimate D2E/DX2                !
 ! A3    A(1,2,7)              120.0            estimate D2E/DX2                !
 ! A4    A(3,2,7)              120.0            estimate D2E/DX2                !
 ! A5    A(2,3,4)              120.0            estimate D2E/DX2                !
 ! A6    A(2,3,8)              120.0            estimate D2E/DX2                !
 ! A7    A(4,3,8)              120.0            estimate D2E/DX2                !
 ! A8    A(3,4,5)              120.0            estimate D2E/DX2                !
 ! A9    A(3,4,9)              120.0            estimate D2E/DX2                !
 ! A10   A(5,4,9)              120.0            estimate D2E/DX2                !
 ! A11   A(4,5,6)              120.0            estimate D2E/DX2                !
 ! A12   A(4,5,10)             120.0            estimate D2E/DX2                !
 ! A13   A(6,5,10)             120.0            estimate D2E/DX2                !
 ! A14   A(1,6,5)              120.0            estimate D2E/DX2                !
 ! A15   A(1,6,11)             120.0            estimate D2E/DX2                !
 ! A16   A(5,6,11)             120.0            estimate D2E/DX2                !
 ! D1    D(6,1,2,3)              0.0            estimate D2E/DX2                !
 ! D2    D(6,1,2,7)            180.0            estimate D2E/DX2                !
 ! D3    D(2,1,6,5)              0.0            estimate D2E/DX2                !
 ! D4    D(2,1,6,11)           180.0            estimate D2E/DX2                !
 ! D5    D(1,2,3,4)              0.0            estimate D2E/DX2                !
 ! D6    D(1,2,3,8)            180.0            estimate D2E/DX2                !
 ! D7    D(7,2,3,4)            180.0            estimate D2E/DX2                !
 ! D8    D(7,2,3,8)              0.0            estimate D2E/DX2                !
 ! D9    D(2,3,4,5)              0.0            estimate D2E/DX2                !
 ! D10   D(2,3,4,9)            180.0            estimate D2E/DX2                !
 ! D11   D(8,3,4,5)            180.0            estimate D2E/DX2                !
 ! D12   D(8,3,4,9)              0.0            estimate D2E/DX2                !
 ! D13   D(3,4,5,6)              0.0            estimate D2E/DX2                !
 ! D14   D(3,4,5,10)           180.0            estimate D2E/DX2                !
 ! D15   D(9,4,5,6)            180.0            estimate D2E/DX2                !
 ! D16   D(9,4,5,10)             0.0            estimate D2E/DX2                !
 ! D17   D(4,5,6,1)              0.0            estimate D2E/DX2                !
 ! D18   D(4,5,6,11)           180.0            estimate D2E/DX2                !
 ! D19   D(10,5,6,1)           180.0            estimate D2E/DX2                !
 ! D20   D(10,5,6,11)            0.0            estimate D2E/DX2                !
 --------------------------------------------------------------------------------
 Trust Radius=3.00D-01 FncErr=1.00D-07 GrdErr=1.00D-07 EigMax=2.50D+02 EigMin=1.00D-04
 Number of steps in this run=     57 maximum allowed number of steps=    100.
 GradGradGradGradGradGradGradGradGradGradGradGradGradGradGradGradGradGrad

                          Input orientation:                          
 ---------------------------------------------------------------------
 Center     Atomic      Atomic             Coordinates (Angstroms)
 Number     Number       Type             X           Y           Z
 ---------------------------------------------------------------------
      1          6           0        0.000000    1.390000    0.000000
      2          6           0        1.203775    0.695000    0.000000
      3          6           0        1.203775   -0.695000    0.000000
      4          6           0        0.000000   -1.390000    0.000000
      5          6           0       -1.203775   -0.695000    0.000000
      6          6           0       -1.203775    0.695000    0.000000
      7         17           0        2.710660    1.565000    0.000000
      8         17           0        2.710660   -1.565000    0.000000
      9         17           0        0.000000   -3.130000    0.000000
     10         17           0       -2.710660   -1.565000    0.000000
     11          1           0       -2.139083    1.235000    0.000000
 ---------------------------------------------------------------------
                    Distance matrix (angstroms):
                    1          2          3          4          5
     1  C    0.000000
     2  C    1.390000   0.000000
     3  C    2.407551   1.390000   0.000000
     4  C    2.780000   2.407551   1.390000   0.000000
     5  C    2.407551   2.780000   2.407551   1.390000   0.000000
     6  C    1.390000   2.407551   2.780000   2.407551   1.390000
     7  Cl   2.716303   1.740000   2.716303   4.009950   4.520000
     8  Cl   4.009950   2.716303   1.740000   2.716303   4.009950
     9  Cl   4.520000   4.009950   2.716303   1.740000   2.716303
    10  Cl   4.009950   4.520000   4.009950   2.716303   1.740000
    11  H    2.144691   3.386193   3.860000   3.386193   2.144691
                    6          7          8          9         10
     6  C    0.000000
     7  Cl   4.009950   0.000000
     8  Cl   4.520000   3.130000   0.000000
     9  Cl   4.009950   5.421319   3.130000   0.000000
    10  Cl   2.716303   6.260000   5.421319   3.130000   0.000000
    11  H    1.080000   4.860957   5.600000   4.860957   2.857744
                   11
    11  H    0.000000
 Stoichiometry    C6HCl4(1-)
 Framework group  CS[SG(C6HCl4)]
 Deg. of freedom    19
 Full point group                 CS      NOp   2
 Largest Abelian subgroup         CS      NOp   2
 Largest concise Abelian subgroup C1      NOp   1
                         Standard orientation:                         
 ---------------------------------------------------------------------
 Center     Atomic      Atomic             Coordinates (Angstroms)
 Number     Number       Type             X           Y           Z
 ---------------------------------------------------------------------
      1          6           0        2.061140    0.706762    0.000000
      2          6           0        0.857365    1.401762    0.000000
      3          6           0       -0.346410    0.706762    0.000000
      4          6           0       -0.346410   -0.683238    0.000000
      5          6           0        0.857365   -1.378238    0.000000
      6          6           0        2.061140   -0.683238    0.000000
      7         17           0        0.857365    3.141762    0.000000
      8         17           0       -1.853294    1.576762    0.000000
      9         17           0       -1.853294   -1.553238    0.000000
     10         17           0        0.857365   -3.118238    0.000000
     11          1           0        2.996448   -1.223238    0.000000
 ---------------------------------------------------------------------
 Rotational constants (GHZ):           1.1947112           0.5448364           0.3741905
 Standard basis: VSTO-6G (5D, 7F)
 There are    31 symmetry adapted cartesian basis functions of A'  symmetry.
 There are    10 symmetry adapted cartesian basis functions of A"  symmetry.
 There are    31 symmetry adapted basis functions of A'  symmetry.
 There are    10 symmetry adapted basis functions of A"  symmetry.
    41 basis functions,   246 primitive gaussians,    41 cartesian basis functions
    27 alpha electrons       27 beta electrons
       nuclear repulsion energy       297.8552890054 Hartrees.
 Integral buffers will be    131072 words long.
 Regular integral format.
 Two-electron integral symmetry is turned off.
 Do NDO integrals.
 One-electron integrals computed using PRISM.
 NBasis=    41 RedAO= T EigKep=  1.00D+00  NBF=    31    10
 NBsUse=    41 1.00D-06 EigRej= -1.00D+00 NBFU=    31    10
 Simple Huckel Guess.
 Initial guess orbital symmetries:
       Occupied  (A') (A') (A') (A') (A') (A') (A') (A') (A') (A')
                 (A") (A') (A') (A') (A") (A') (A") (A') (A") (A")
                 (A') (A') (A') (A') (A") (A") (A')
       Virtual   (A") (A") (A") (A') (A') (A') (A') (A') (A') (A')
                 (A') (A') (A') (A')
 The electronic state of the initial guess is 1-A'.
 Keep J ints in memory in canonical form, NReq=864464.
 Overlap will be assumed to be unity.
 Requested convergence on RMS density matrix=1.00D-08 within  32 cycles.
 Requested convergence on MAX density matrix=1.00D-06.
 Requested convergence on             energy=1.00D-06.
 No special actions if energy rises.
 Fock symm off for IB=2 I1=    1 I=   32 J=    8 Cut=1.00D-07 Err=9.00D-04
 Fock matrix is not symmetric: symmetry in diagonalization turned off.
 SCF Done:  E(RAM1) =  0.149582591076E-01 A.U. after   16 cycles
            NFock= 15  Conv=0.63D-08     -V/T= 1.0001
 QCSCF skips out because SCF is already converged.

 **********************************************************************

            Population analysis using the SCF Density.

 **********************************************************************

 Orbital symmetries:
       Occupied  (A') (A') (A') (A') (A') (A') (A') (A') (A') (A')
                 (A') (A') (A') (A") (A') (A") (A") (A') (A") (A')
                 (A') (A') (A') (A") (A") (A") (A')
       Virtual   (A") (A') (A") (A') (A') (A') (A") (A') (A') (A')
                 (A') (A') (A') (A')
 The electronic state is 1-A'.
 Alpha  occ. eigenvalues --   -1.30622  -1.24480  -1.23585  -1.22252  -1.20149
 Alpha  occ. eigenvalues --   -0.99057  -0.95847  -0.71028  -0.68660  -0.52521
 Alpha  occ. eigenvalues --   -0.46823  -0.46191  -0.41786  -0.41574  -0.38052
 Alpha  occ. eigenvalues --   -0.35643  -0.33574  -0.33227  -0.32085  -0.31629
 Alpha  occ. eigenvalues --   -0.30526  -0.29559  -0.27707  -0.27630  -0.19934
 Alpha  occ. eigenvalues --   -0.18073  -0.12961
 Alpha virt. eigenvalues --    0.15597   0.16563   0.16813   0.18339   0.18987
 Alpha virt. eigenvalues --    0.21418   0.27007   0.29769   0.30795   0.31965
 Alpha virt. eigenvalues --    0.32986   0.33425   0.37170   0.39261
          Condensed to atoms (all electrons):
               1          2          3          4          5          6
     1  C    4.357924   0.000000   0.000000   0.000000   0.000000   0.000000
     2  C    0.000000   4.046664   0.000000   0.000000   0.000000   0.000000
     3  C    0.000000   0.000000   4.042310   0.000000   0.000000   0.000000
     4  C    0.000000   0.000000   0.000000   4.120509   0.000000   0.000000
     5  C    0.000000   0.000000   0.000000   0.000000   4.048833   0.000000
     6  C    0.000000   0.000000   0.000000   0.000000   0.000000   4.130927
     7  Cl   0.000000   0.000000   0.000000   0.000000   0.000000   0.000000
     8  Cl   0.000000   0.000000   0.000000   0.000000   0.000000   0.000000
     9  Cl   0.000000   0.000000   0.000000   0.000000   0.000000   0.000000
    10  Cl   0.000000   0.000000   0.000000   0.000000   0.000000   0.000000
    11  H    0.000000   0.000000   0.000000   0.000000   0.000000   0.000000
               7          8          9         10         11
     1  C    0.000000   0.000000   0.000000   0.000000   0.000000
     2  C    0.000000   0.000000   0.000000   0.000000   0.000000
     3  C    0.000000   0.000000   0.000000   0.000000   0.000000
     4  C    0.000000   0.000000   0.000000   0.000000   0.000000
     5  C    0.000000   0.000000   0.000000   0.000000   0.000000
     6  C    0.000000   0.000000   0.000000   0.000000   0.000000
     7  Cl   7.097569   0.000000   0.000000   0.000000   0.000000
     8  Cl   0.000000   7.089180   0.000000   0.000000   0.000000
     9  Cl   0.000000   0.000000   7.077416   0.000000   0.000000
    10  Cl   0.000000   0.000000   0.000000   7.106139   0.000000
    11  H    0.000000   0.000000   0.000000   0.000000   0.882528
 Mulliken charges:
               1
     1  C   -0.357924
     2  C   -0.046664
     3  C   -0.042310
     4  C   -0.120509
     5  C   -0.048833
     6  C   -0.130927
     7  Cl  -0.097569
     8  Cl  -0.089180
     9  Cl  -0.077416
    10  Cl  -0.106139
    11  H    0.117472
 Sum of Mulliken charges =  -1.00000
 Mulliken charges with hydrogens summed into heavy atoms:
               1
     1  C   -0.357924
     2  C   -0.046664
     3  C   -0.042310
     4  C   -0.120509
     5  C   -0.048833
     6  C   -0.013455
     7  Cl  -0.097569
     8  Cl  -0.089180
     9  Cl  -0.077416
    10  Cl  -0.106139
 Charge=             -1.0000 electrons
 Dipole moment (field-independent basis, Debye):
    X=             -4.5455    Y=             -2.1637    Z=              0.0000  Tot=              5.0342
 N-N= 2.978552890054D+02 E-N=-4.286833005982D+02  KE=-1.358938561136D+02
 Symmetry A'   KE=-1.042247954258D+02
 Symmetry A"   KE=-3.166906068781D+01
 Calling FoFJK, ICntrl=      2127 FMM=F ISym2X=1 I1Cent= 0 IOpClX= 0 NMat=1 NMatS=1 NMatT=0.
 ***** Axes restored to original set *****
 -------------------------------------------------------------------
 Center     Atomic                   Forces (Hartrees/Bohr)
 Number     Number              X              Y              Z
 -------------------------------------------------------------------
      1        6           0.004588726    0.006535059   -0.000000000
      2        6          -0.003427841    0.016861758   -0.000000000
      3        6           0.030020582   -0.011058197   -0.000000000
      4        6           0.000033546   -0.031427338    0.000000000
      5        6          -0.019573599   -0.007701126   -0.000000000
      6        6           0.013647421    0.003002259    0.000000000
      7       17          -0.012960579   -0.006004431    0.000000000
      8       17          -0.010658953    0.003121498    0.000000000
      9       17           0.000492184    0.013735093    0.000000000
     10       17           0.008762828    0.005829919    0.000000000
     11        1          -0.010924315    0.007105507    0.000000000
 -------------------------------------------------------------------
 Cartesian Forces:  Max     0.031427338 RMS     0.010738792

 GradGradGradGradGradGradGradGradGradGradGradGradGradGradGradGradGradGrad
 Berny optimization.
 FormGI is forming the generalized inverse of G from B-inverse, IUseBI=4.
 Internal  Forces:  Max     0.015245505 RMS     0.006258291
 Search for a local minimum.
 Step number   1 out of a maximum of   57
 All quantities printed in internal units (Hartrees-Bohrs-Radians)
 Mixed Optimization -- RFO/linear search
 Second derivative matrix not updated -- first step.
 ITU=  0
     Eigenvalues ---    0.02221   0.02221   0.02221   0.02221   0.02221
     Eigenvalues ---    0.02221   0.02221   0.02221   0.16000   0.23354
     Eigenvalues ---    0.25000   0.25000   0.25000   0.25000   0.25000
     Eigenvalues ---    0.25000   0.31476   0.31476   0.31476   0.31476
     Eigenvalues ---    0.35994   0.43205   0.43763   0.47319   0.47319
     Eigenvalues ---    0.47319   0.47319
 RFO step:  Lambda=-5.10742561D-03 EMin= 2.22103665D-02
 Linear search not attempted -- first point.
 Iteration  1 RMS(Cart)=  0.01964587 RMS(Int)=  0.00015553
 Iteration  2 RMS(Cart)=  0.00024375 RMS(Int)=  0.00004755
 Iteration  3 RMS(Cart)=  0.00000003 RMS(Int)=  0.00004755
 ClnCor:  largest displacement from symmetrization is 1.85D-11 for atom     7.
 Variable       Old X    -DE/DX   Delta X   Delta X   Delta X     New X
                                 (Linear)    (Quad)   (Total)
    R1        2.62672  -0.00395   0.00000  -0.00954  -0.00956   2.61716
    R2        2.62672  -0.00109   0.00000  -0.00371  -0.00378   2.62294
    R3        2.62672   0.01525   0.00000   0.03200   0.03206   2.65878
    R4        3.28812  -0.01423   0.00000  -0.04448  -0.04448   3.24365
    R5        2.62672   0.01237   0.00000   0.02728   0.02736   2.65408
    R6        3.28812  -0.01079   0.00000  -0.03374  -0.03374   3.25439
    R7        2.62672   0.01436   0.00000   0.03132   0.03134   2.65806
    R8        3.28812  -0.01374   0.00000  -0.04294  -0.04294   3.24518
    R9        2.62672   0.01225   0.00000   0.02549   0.02544   2.65216
   R10        3.28812  -0.01050   0.00000  -0.03284  -0.03284   3.25529
   R11        2.04090   0.01301   0.00000   0.03565   0.03565   2.07655
    A1        2.09440  -0.00304   0.00000  -0.01934  -0.01947   2.07493
    A2        2.09440   0.00943   0.00000   0.03497   0.03501   2.12941
    A3        2.09440  -0.00682   0.00000  -0.02574  -0.02576   2.06864
    A4        2.09440  -0.00261   0.00000  -0.00923  -0.00926   2.08514
    A5        2.09440  -0.00538   0.00000  -0.01792  -0.01778   2.07661
    A6        2.09440   0.00701   0.00000   0.02589   0.02582   2.12021
    A7        2.09440  -0.00163   0.00000  -0.00796  -0.00803   2.08636
    A8        2.09440  -0.00531   0.00000  -0.01545  -0.01535   2.07904
    A9        2.09440   0.00185   0.00000   0.00455   0.00450   2.09890
   A10        2.09440   0.00347   0.00000   0.01090   0.01085   2.10524
   A11        2.09440   0.00135   0.00000   0.00774   0.00771   2.10211
   A12        2.09440   0.00042   0.00000   0.00043   0.00045   2.09484
   A13        2.09440  -0.00177   0.00000  -0.00817  -0.00816   2.08624
   A14        2.09440   0.00295   0.00000   0.01000   0.00988   2.10427
   A15        2.09440  -0.00218   0.00000  -0.00927  -0.00921   2.08518
   A16        2.09440  -0.00077   0.00000  -0.00073  -0.00066   2.09373
    D1        0.00000  -0.00000   0.00000  -0.00000  -0.00000   0.00000
    D2        3.14159   0.00000   0.00000   0.00000   0.00000   3.14159
    D3       -0.00000  -0.00000   0.00000  -0.00000   0.00000   0.00000
    D4        3.14159  -0.00000   0.00000  -0.00000   0.00000   3.14159
    D5       -0.00000   0.00000   0.00000   0.00000   0.00000   0.00000
    D6        3.14159   0.00000   0.00000   0.00000   0.00000   3.14159
    D7        3.14159  -0.00000   0.00000  -0.00000   0.00000   3.14159
    D8        0.00000  -0.00000   0.00000  -0.00000  -0.00000   0.00000
    D9        0.00000  -0.00000   0.00000  -0.00000  -0.00000   0.00000
   D10        3.14159  -0.00000   0.00000  -0.00000   0.00000   3.14159
   D11        3.14159  -0.00000   0.00000  -0.00000   0.00000   3.14159
   D12       -0.00000  -0.00000   0.00000  -0.00000   0.00000   0.00000
   D13       -0.00000  -0.00000   0.00000  -0.00000   0.00000   0.00000
   D14        3.14159   0.00000   0.00000   0.00000   0.00000   3.14159
   D15        3.14159  -0.00000   0.00000  -0.00000   0.00000   3.14159
   D16       -0.00000  -0.00000   0.00000  -0.00000   0.00000   0.00000
   D17       -0.00000   0.00000   0.00000   0.00000   0.00000   0.00000
   D18        3.14159   0.00000   0.00000   0.00000   0.00000   3.14159
   D19        3.14159   0.00000   0.00000   0.00000   0.00000   3.14159
   D20       -0.00000   0.00000   0.00000   0.00000   0.00000   0.00000
         Item               Value     Threshold  Converged?
 Maximum Force            0.015246     0.000450     NO 
 RMS     Force            0.006258     0.000300     NO 
 Maximum Displacement     0.079821     0.001800     NO 
 RMS     Displacement     0.019613     0.001200     NO 
 Predicted change in Energy=-2.590936D-03
 GradGradGradGradGradGradGradGradGradGradGradGradGradGradGradGradGradGrad

                          Input orientation:                          
 ---------------------------------------------------------------------
 Center     Atomic      Atomic             Coordinates (Angstroms)
 Number     Number       Type             X           Y           Z
 ---------------------------------------------------------------------
      1          6           0        0.002628    1.403844   -0.000000
      2          6           0        1.192623    0.695345   -0.000000
      3          6           0        1.223007   -0.711291   -0.000000
      4          6           0        0.009381   -1.418164    0.000000
      5          6           0       -1.200562   -0.700866    0.000000
      6          6           0       -1.195193    0.702585    0.000000
      7         17           0        2.668420    1.571857   -0.000000
      8         17           0        2.710784   -1.578649   -0.000000
      9         17           0        0.008197   -3.135441    0.000000
     10         17           0       -2.702611   -1.544240    0.000000
     11          1           0       -2.145097    1.255022    0.000000
 ---------------------------------------------------------------------
                    Distance matrix (angstroms):
                    1          2          3          4          5
     1  C    0.000000
     2  C    1.384940   0.000000
     3  C    2.441950   1.406964   0.000000
     4  C    2.822016   2.422185   1.404477   0.000000
     5  C    2.424349   2.770693   2.423591   1.406584   0.000000
     6  C    1.387999   2.387827   2.801203   2.438970   1.403461
     7  Cl   2.671081   1.716465   2.702218   4.001339   4.487125
     8  Cl   4.028569   2.734202   1.722147   2.706166   4.008632
     9  Cl   4.539289   4.009711   2.711506   1.717277   2.718135
    10  Cl   4.001190   4.493171   4.013014   2.714921   1.722623
    11  H    2.152874   3.384318   3.900065   3.433322   2.172014
                    6          7          8          9         10
     6  C    0.000000
     7  Cl   3.960195   0.000000
     8  Cl   4.523349   3.150790   0.000000
     9  Cl   4.022262   5.406980   3.118906   0.000000
    10  Cl   2.705648   6.209512   5.413504   3.143311   0.000000
    11  H    1.098864   4.823933   5.622212   4.890076   2.854241
                   11
    11  H    0.000000
 Stoichiometry    C6HCl4(1-)
 Framework group  CS[SG(C6HCl4)]
 Deg. of freedom    19
 Full point group                 CS      NOp   2
 Largest Abelian subgroup         CS      NOp   2
 Largest concise Abelian subgroup C1      NOp   1
                         Standard orientation:                         
 ---------------------------------------------------------------------
 Center     Atomic      Atomic             Coordinates (Angstroms)
 Number     Number       Type             X           Y           Z
 ---------------------------------------------------------------------
      1          6           0        1.470528    1.625059    0.000000
      2          6           0        0.085641    1.637136    0.000000
      3          6           0       -0.670441    0.450591    0.000000
      4          6           0        0.000000   -0.783535    0.000000
      5          6           0        1.406505   -0.798445    0.000000
      6          6           0        2.130374    0.403935    0.000000
      7         17           0       -0.720840    3.152339    0.000000
      8         17           0       -2.392311    0.481447    0.000000
      9         17           0       -0.890336   -2.251984    0.000000
     10         17           0        2.252623   -2.298950    0.000000
     11          1           0        3.229040    0.383083    0.000000
 ---------------------------------------------------------------------
 Rotational constants (GHZ):           1.1768597           0.5521911           0.3758429
 Standard basis: VSTO-6G (5D, 7F)
 There are    31 symmetry adapted cartesian basis functions of A'  symmetry.
 There are    10 symmetry adapted cartesian basis functions of A"  symmetry.
 There are    31 symmetry adapted basis functions of A'  symmetry.
 There are    10 symmetry adapted basis functions of A"  symmetry.
    41 basis functions,   246 primitive gaussians,    41 cartesian basis functions
    27 alpha electrons       27 beta electrons
       nuclear repulsion energy       297.9763548241 Hartrees.
 Integral buffers will be    131072 words long.
 Regular integral format.
 Two-electron integral symmetry is turned off.
 Do NDO integrals.
 One-electron integrals computed using PRISM.
 NBasis=    41 RedAO= T EigKep=  1.00D+00  NBF=    31    10
 NBsUse=    41 1.00D-06 EigRej= -1.00D+00 NBFU=    31    10
 Initial guess from the checkpoint file:  "calcs/am1/chks/ClPh_2345_anion.chk"
 B after Tr=    -0.000000    0.000000    0.000000
         Rot=    0.968862    0.000000   -0.000000   -0.247602 Ang= -28.67 deg.
 Initial guess orbital symmetries:
       Occupied  (A') (A') (A') (A') (A') (A') (A') (A') (A') (A')
                 (A') (A') (A') (A") (A') (A") (A") (A') (A") (A')
                 (A') (A') (A') (A") (A") (A") (A')
       Virtual   (A") (A') (A") (A') (A') (A') (A") (A') (A') (A')
                 (A') (A') (A') (A')
 Keep J ints in memory in canonical form, NReq=864464.
 Overlap will be assumed to be unity.
 Requested convergence on RMS density matrix=1.00D-08 within  32 cycles.
 Requested convergence on MAX density matrix=1.00D-06.
 Requested convergence on             energy=1.00D-06.
 No special actions if energy rises.
 Fock symm off for IB=2 I1=    1 I=   32 J=   20 Cut=1.00D-07 Err=9.85D-04
 Fock matrix is not symmetric: symmetry in diagonalization turned off.
 SCF Done:  E(RAM1) =  0.124816591451E-01 A.U. after   13 cycles
            NFock= 12  Conv=0.62D-08     -V/T= 1.0001
 QCSCF skips out because SCF is already converged.
 Calling FoFJK, ICntrl=      2127 FMM=F ISym2X=1 I1Cent= 0 IOpClX= 0 NMat=1 NMatS=1 NMatT=0.
 ***** Axes restored to original set *****
 -------------------------------------------------------------------
 Center     Atomic                   Forces (Hartrees/Bohr)
 Number     Number              X              Y              Z
 -------------------------------------------------------------------
      1        6          -0.001185353    0.000143821    0.000000000
      2        6          -0.000944071   -0.004532592    0.000000000
      3        6           0.003622323    0.001537293   -0.000000000
      4        6          -0.002047749   -0.000481604   -0.000000000
      5        6           0.000518196    0.002720553   -0.000000000
      6        6           0.001612483   -0.006168407   -0.000000000
      7       17           0.000801660   -0.000658453    0.000000000
      8       17          -0.004472825    0.002586011    0.000000000
      9       17          -0.000513311    0.004665674    0.000000000
     10       17           0.002568906    0.001210878    0.000000000
     11        1           0.000039741   -0.001023173    0.000000000
 -------------------------------------------------------------------
 Cartesian Forces:  Max     0.006168407 RMS     0.002132051

 GradGradGradGradGradGradGradGradGradGradGradGradGradGradGradGradGradGrad
 Berny optimization.
 Using GEDIIS/GDIIS optimizer.
 FormGI is forming the generalized inverse of G from B-inverse, IUseBI=4.
 Internal  Forces:  Max     0.006932277 RMS     0.001917972
 Search for a local minimum.
 Step number   2 out of a maximum of   57
 All quantities printed in internal units (Hartrees-Bohrs-Radians)
 Mixed Optimization -- RFO/linear search
 Update second derivatives using D2CorX and points    1    2
 DE= -2.48D-03 DEPred=-2.59D-03 R= 9.56D-01
 TightC=F SS=  1.41D+00  RLast= 1.22D-01 DXNew= 5.0454D-01 3.6625D-01
 Trust test= 9.56D-01 RLast= 1.22D-01 DXMaxT set to 3.66D-01
 ITU=  1  0
 Use linear search instead of GDIIS.
     Eigenvalues ---    0.02221   0.02221   0.02221   0.02221   0.02221
     Eigenvalues ---    0.02221   0.02221   0.02221   0.16017   0.22190
     Eigenvalues ---    0.23697   0.25000   0.25000   0.25000   0.25000
     Eigenvalues ---    0.25443   0.27334   0.31476   0.31476   0.31981
     Eigenvalues ---    0.36163   0.43077   0.44350   0.47278   0.47319
     Eigenvalues ---    0.47319   0.60192
 RFO step:  Lambda=-4.22783832D-04 EMin= 2.22103665D-02
 Quartic linear search produced a step of -0.02755.
 Iteration  1 RMS(Cart)=  0.00764015 RMS(Int)=  0.00001299
 Iteration  2 RMS(Cart)=  0.00001560 RMS(Int)=  0.00000221
 Iteration  3 RMS(Cart)=  0.00000000 RMS(Int)=  0.00000221
 ClnCor:  largest displacement from symmetrization is 9.46D-12 for atom    10.
 Variable       Old X    -DE/DX   Delta X   Delta X   Delta X     New X
                                 (Linear)    (Quad)   (Total)
    R1        2.61716   0.00023   0.00026  -0.00021   0.00005   2.61721
    R2        2.62294  -0.00061   0.00010  -0.00156  -0.00145   2.62148
    R3        2.65878  -0.00529  -0.00088  -0.00707  -0.00796   2.65082
    R4        3.24365   0.00035   0.00123  -0.00380  -0.00257   3.24107
    R5        2.65408  -0.00174  -0.00075  -0.00066  -0.00142   2.65266
    R6        3.25439  -0.00517   0.00093  -0.01965  -0.01872   3.23567
    R7        2.65806  -0.00488  -0.00086  -0.00693  -0.00780   2.65026
    R8        3.24518  -0.00467   0.00118  -0.01911  -0.01793   3.22726
    R9        2.65216  -0.00693  -0.00070  -0.01170  -0.01240   2.63976
   R10        3.25529  -0.00283   0.00090  -0.01235  -0.01144   3.24384
   R11        2.07655  -0.00055  -0.00098   0.00244   0.00145   2.07801
    A1        2.07493  -0.00135   0.00054  -0.00624  -0.00570   2.06923
    A2        2.12941  -0.00031  -0.00096   0.00371   0.00274   2.13215
    A3        2.06864   0.00174   0.00071   0.00338   0.00409   2.07273
    A4        2.08514  -0.00143   0.00026  -0.00709  -0.00683   2.07831
    A5        2.07661  -0.00028   0.00049  -0.00286  -0.00238   2.07424
    A6        2.12021   0.00017  -0.00071   0.00341   0.00270   2.12291
    A7        2.08636   0.00011   0.00022  -0.00055  -0.00032   2.08604
    A8        2.07904   0.00092   0.00042   0.00086   0.00128   2.08032
    A9        2.09890   0.00038  -0.00012   0.00248   0.00235   2.10125
   A10        2.10524  -0.00130  -0.00030  -0.00333  -0.00363   2.10161
   A11        2.10211   0.00019  -0.00021   0.00026   0.00005   2.10215
   A12        2.09484  -0.00042  -0.00001  -0.00093  -0.00095   2.09390
   A13        2.08624   0.00023   0.00022   0.00067   0.00090   2.08714
   A14        2.10427   0.00084  -0.00027   0.00428   0.00401   2.10828
   A15        2.08518   0.00048   0.00025   0.00283   0.00308   2.08827
   A16        2.09373  -0.00132   0.00002  -0.00711  -0.00709   2.08664
    D1        0.00000   0.00000   0.00000   0.00000   0.00000   0.00000
    D2        3.14159   0.00000   0.00000   0.00000   0.00000   3.14159
    D3        0.00000   0.00000   0.00000   0.00000  -0.00000   0.00000
    D4        3.14159  -0.00000   0.00000  -0.00000   0.00000   3.14159
    D5       -0.00000  -0.00000   0.00000  -0.00000   0.00000   0.00000
    D6        3.14159   0.00000   0.00000   0.00000   0.00000   3.14159
    D7        3.14159  -0.00000   0.00000  -0.00000   0.00000   3.14159
    D8       -0.00000   0.00000   0.00000   0.00000   0.00000   0.00000
    D9       -0.00000   0.00000   0.00000   0.00000   0.00000   0.00000
   D10        3.14159   0.00000   0.00000   0.00000   0.00000   3.14159
   D11        3.14159  -0.00000   0.00000  -0.00000   0.00000   3.14159
   D12        0.00000  -0.00000   0.00000  -0.00000   0.00000   0.00000
   D13        0.00000   0.00000   0.00000   0.00000   0.00000   0.00000
   D14        3.14159   0.00000   0.00000   0.00000   0.00000   3.14159
   D15        3.14159  -0.00000   0.00000  -0.00000   0.00000   3.14159
   D16       -0.00000  -0.00000   0.00000  -0.00000   0.00000   0.00000
   D17       -0.00000  -0.00000   0.00000  -0.00000   0.00000   0.00000
   D18        3.14159   0.00000   0.00000   0.00000   0.00000   3.14159
   D19        3.14159  -0.00000   0.00000  -0.00000   0.00000   3.14159
   D20        0.00000  -0.00000   0.00000  -0.00000  -0.00000   0.00000
         Item               Value     Threshold  Converged?
 Maximum Force            0.006932     0.000450     NO 
 RMS     Force            0.001918     0.000300     NO 
 Maximum Displacement     0.025453     0.001800     NO 
 RMS     Displacement     0.007642     0.001200     NO 
 Predicted change in Energy=-2.137534D-04
 GradGradGradGradGradGradGradGradGradGradGradGradGradGradGradGradGradGrad

                          Input orientation:                          
 ---------------------------------------------------------------------
 Center     Atomic      Atomic             Coordinates (Angstroms)
 Number     Number       Type             X           Y           Z
 ---------------------------------------------------------------------
      1          6           0        0.001793    1.403606    0.000000
      2          6           0        1.190920    0.693600   -0.000000
      3          6           0        1.223297   -0.708780   -0.000000
      4          6           0        0.009693   -1.414195    0.000000
      5          6           0       -1.196977   -0.699467    0.000000
      6          6           0       -1.192239    0.697424    0.000000
      7         17           0        2.670209    1.561518   -0.000000
      8         17           0        2.701470   -1.572944   -0.000000
      9         17           0        0.002976   -3.121972    0.000000
     10         17           0       -2.692625   -1.541869    0.000000
     11          1           0       -2.146941    1.243079    0.000000
 ---------------------------------------------------------------------
                    Distance matrix (angstroms):
                    1          2          3          4          5
     1  C    0.000000
     2  C    1.384966   0.000000
     3  C    2.440132   1.402753   0.000000
     4  C    2.817812   2.416215   1.403725   0.000000
     5  C    2.420736   2.764541   2.420292   1.402458   0.000000
     6  C    1.387229   2.383162   2.795035   2.429727   1.396899
     7  Cl   2.673085   1.715103   2.692175   3.991643   4.479641
     8  Cl   4.018470   2.723781   1.712243   2.696453   3.995103
     9  Cl   4.525578   3.996224   2.704197   1.707791   2.703408
    10  Cl   3.991955   4.480987   4.003559   2.705333   1.716568
    11  H    2.154722   3.382786   3.894644   3.422305   2.162387
                    6          7          8          9         10
     6  C    0.000000
     7  Cl   3.957924   0.000000
     8  Cl   4.507276   3.134618   0.000000
     9  Cl   4.002040   5.389732   3.111488   0.000000
    10  Cl   2.695476   6.196047   5.394184   3.124578   0.000000
    11  H    1.099634   4.827664   5.606877   4.865780   2.837905
                   11
    11  H    0.000000
 Stoichiometry    C6HCl4(1-)
 Framework group  CS[SG(C6HCl4)]
 Deg. of freedom    19
 Full point group                 CS      NOp   2
 Largest Abelian subgroup         CS      NOp   2
 Largest concise Abelian subgroup C1      NOp   1
                         Standard orientation:                         
 ---------------------------------------------------------------------
 Center     Atomic      Atomic             Coordinates (Angstroms)
 Number     Number       Type             X           Y           Z
 ---------------------------------------------------------------------
      1          6           0        1.471529    1.621688   -0.000000
      2          6           0        0.086611    1.633297    0.000000
      3          6           0       -0.670047    0.452118    0.000000
      4          6           0        0.000000   -0.781365   -0.000000
      5          6           0        1.402359   -0.798060   -0.000000
      6          6           0        2.124458    0.397724   -0.000000
      7         17           0       -0.725929    3.143713    0.000000
      8         17           0       -2.382024    0.482288    0.000000
      9         17           0       -0.882017   -2.243759    0.000000
     10         17           0        2.242139   -2.295182   -0.000000
     11          1           0        3.223679    0.367576   -0.000000
 ---------------------------------------------------------------------
 Rotational constants (GHZ):           1.1887352           0.5545742           0.3781554
 Standard basis: VSTO-6G (5D, 7F)
 There are    31 symmetry adapted cartesian basis functions of A'  symmetry.
 There are    10 symmetry adapted cartesian basis functions of A"  symmetry.
 There are    31 symmetry adapted basis functions of A'  symmetry.
 There are    10 symmetry adapted basis functions of A"  symmetry.
    41 basis functions,   246 primitive gaussians,    41 cartesian basis functions
    27 alpha electrons       27 beta electrons
       nuclear repulsion energy       298.5354227128 Hartrees.
 Integral buffers will be    131072 words long.
 Regular integral format.
 Two-electron integral symmetry is turned off.
 Do NDO integrals.
 One-electron integrals computed using PRISM.
 NBasis=    41 RedAO= T EigKep=  1.00D+00  NBF=    31    10
 NBsUse=    41 1.00D-06 EigRej= -1.00D+00 NBFU=    31    10
 Initial guess from the checkpoint file:  "calcs/am1/chks/ClPh_2345_anion.chk"
 B after Tr=     0.000000   -0.000000    0.000000
         Rot=    1.000000    0.000000   -0.000000   -0.000001 Ang=  -0.00 deg.
 Initial guess orbital symmetries:
       Occupied  (A') (A') (A') (A') (A') (A') (A') (A') (A') (A')
                 (A') (A') (A') (A") (A') (A") (A") (A') (A") (A')
                 (A') (A') (A') (A") (A") (A") (A')
       Virtual   (A") (A") (A') (A') (A') (A') (A") (A') (A') (A')
                 (A') (A') (A') (A')
 Keep J ints in memory in canonical form, NReq=864464.
 Overlap will be assumed to be unity.
 Requested convergence on RMS density matrix=1.00D-08 within  32 cycles.
 Requested convergence on MAX density matrix=1.00D-06.
 Requested convergence on             energy=1.00D-06.
 No special actions if energy rises.
 Fock symm off for IB=2 I1=    1 I=   32 J=   13 Cut=1.00D-07 Err=3.46D-04
 Fock matrix is not symmetric: symmetry in diagonalization turned off.
 SCF Done:  E(RAM1) =  0.123232056326E-01 A.U. after   12 cycles
            NFock= 11  Conv=0.85D-08     -V/T= 1.0001
 QCSCF skips out because SCF is already converged.
 Calling FoFJK, ICntrl=      2127 FMM=F ISym2X=1 I1Cent= 0 IOpClX= 0 NMat=1 NMatS=1 NMatT=0.
 ***** Axes restored to original set *****
 -------------------------------------------------------------------
 Center     Atomic                   Forces (Hartrees/Bohr)
 Number     Number              X              Y              Z
 -------------------------------------------------------------------
      1        6          -0.000385196    0.001582536    0.000000000
      2        6          -0.000110331   -0.000521319   -0.000000000
      3        6           0.001083216    0.000113096   -0.000000000
      4        6           0.000222314   -0.000641527   -0.000000000
      5        6          -0.001004346    0.000103463   -0.000000000
      6        6          -0.001276196    0.000961241    0.000000000
      7       17           0.001642842    0.001030414    0.000000000
      8       17           0.000473807   -0.000342516    0.000000000
      9       17           0.000120305   -0.001473256    0.000000000
     10       17          -0.001267394   -0.000595415    0.000000000
     11        1           0.000500981   -0.000216718    0.000000000
 -------------------------------------------------------------------
 Cartesian Forces:  Max     0.001642842 RMS     0.000711425

 GradGradGradGradGradGradGradGradGradGradGradGradGradGradGradGradGradGrad
 Berny optimization.
 Using GEDIIS/GDIIS optimizer.
 FormGI is forming the generalized inverse of G from B-inverse, IUseBI=4.
 Internal  Forces:  Max     0.002252102 RMS     0.000749886
 Search for a local minimum.
 Step number   3 out of a maximum of   57
 All quantities printed in internal units (Hartrees-Bohrs-Radians)
 Mixed Optimization -- En-DIIS/RFO-DIIS
 Update second derivatives using D2CorX and points    1    2    3
 DE= -1.58D-04 DEPred=-2.14D-04 R= 7.41D-01
 TightC=F SS=  1.41D+00  RLast= 3.62D-02 DXNew= 6.1595D-01 1.0849D-01
 Trust test= 7.41D-01 RLast= 3.62D-02 DXMaxT set to 3.66D-01
 ITU=  1  1  0
 Use linear search instead of GDIIS.
     Eigenvalues ---    0.02221   0.02221   0.02221   0.02221   0.02221
     Eigenvalues ---    0.02221   0.02221   0.02221   0.15957   0.21471
     Eigenvalues ---    0.24187   0.25000   0.25000   0.25000   0.25046
     Eigenvalues ---    0.25450   0.28153   0.31476   0.31501   0.33371
     Eigenvalues ---    0.36432   0.42922   0.44399   0.47220   0.47319
     Eigenvalues ---    0.47960   0.70628
 RFO step:  Lambda=-2.30649268D-05 EMin= 2.22103665D-02
 Quartic linear search produced a step of -0.20679.
 Iteration  1 RMS(Cart)=  0.00203471 RMS(Int)=  0.00000039
 Iteration  2 RMS(Cart)=  0.00000057 RMS(Int)=  0.00000020
 ClnCor:  largest displacement from symmetrization is 3.05D-12 for atom     7.
 Variable       Old X    -DE/DX   Delta X   Delta X   Delta X     New X
                                 (Linear)    (Quad)   (Total)
    R1        2.61721   0.00164  -0.00001   0.00278   0.00277   2.61998
    R2        2.62148   0.00131   0.00030   0.00179   0.00209   2.62357
    R3        2.65082   0.00130   0.00165  -0.00026   0.00139   2.65221
    R4        3.24107   0.00194   0.00053   0.00466   0.00519   3.24626
    R5        2.65266   0.00197   0.00029   0.00262   0.00291   2.65557
    R6        3.23567   0.00058   0.00387  -0.00297   0.00090   3.23657
    R7        2.65026   0.00225   0.00161   0.00142   0.00303   2.65329
    R8        3.22726   0.00147   0.00371  -0.00045   0.00326   3.23051
    R9        2.63976   0.00154   0.00256  -0.00091   0.00165   2.64141
   R10        3.24384   0.00140   0.00237   0.00091   0.00327   3.24712
   R11        2.07801  -0.00054  -0.00030  -0.00121  -0.00151   2.07649
    A1        2.06923   0.00011   0.00118  -0.00118   0.00000   2.06923
    A2        2.13215  -0.00009  -0.00057  -0.00007  -0.00064   2.13151
    A3        2.07273  -0.00005  -0.00085   0.00124   0.00040   2.07313
    A4        2.07831   0.00014   0.00141  -0.00118   0.00024   2.07854
    A5        2.07424   0.00014   0.00049   0.00009   0.00058   2.07482
    A6        2.12291   0.00002  -0.00056   0.00044  -0.00012   2.12279
    A7        2.08604  -0.00016   0.00007  -0.00053  -0.00046   2.08558
    A8        2.08032  -0.00010  -0.00026   0.00035   0.00008   2.08040
    A9        2.10125  -0.00015  -0.00049  -0.00000  -0.00049   2.10076
   A10        2.10161   0.00025   0.00075  -0.00034   0.00041   2.10202
   A11        2.10215  -0.00034  -0.00001  -0.00104  -0.00105   2.10110
   A12        2.09390   0.00034   0.00020   0.00076   0.00095   2.09485
   A13        2.08714   0.00000  -0.00019   0.00029   0.00010   2.08724
   A14        2.10828   0.00029  -0.00083   0.00185   0.00102   2.10930
   A15        2.08827  -0.00021  -0.00064   0.00014  -0.00050   2.08777
   A16        2.08664  -0.00008   0.00147  -0.00199  -0.00053   2.08611
    D1       -0.00000  -0.00000   0.00000  -0.00000   0.00000   0.00000
    D2        3.14159   0.00000   0.00000   0.00000   0.00000   3.14159
    D3        0.00000  -0.00000   0.00000  -0.00000  -0.00000   0.00000
    D4        3.14159  -0.00000   0.00000  -0.00000   0.00000   3.14159
    D5       -0.00000   0.00000   0.00000   0.00000   0.00000   0.00000
    D6        3.14159   0.00000   0.00000   0.00000   0.00000   3.14159
    D7        3.14159  -0.00000   0.00000  -0.00000   0.00000   3.14159
    D8        0.00000   0.00000   0.00000   0.00000   0.00000   0.00000
    D9        0.00000  -0.00000   0.00000  -0.00000   0.00000   0.00000
   D10        3.14159   0.00000   0.00000   0.00000   0.00000   3.14159
   D11        3.14159  -0.00000   0.00000  -0.00000   0.00000   3.14159
   D12        0.00000   0.00000   0.00000   0.00000  -0.00000   0.00000
   D13        0.00000  -0.00000   0.00000  -0.00000   0.00000   0.00000
   D14        3.14159   0.00000   0.00000   0.00000   0.00000   3.14159
   D15        3.14159  -0.00000   0.00000  -0.00000   0.00000   3.14159
   D16       -0.00000  -0.00000   0.00000  -0.00000   0.00000   0.00000
   D17       -0.00000   0.00000   0.00000   0.00000   0.00000   0.00000
   D18        3.14159   0.00000   0.00000   0.00000   0.00000   3.14159
   D19        3.14159  -0.00000   0.00000  -0.00000   0.00000   3.14159
   D20        0.00000  -0.00000   0.00000  -0.00000   0.00000   0.00000
         Item               Value     Threshold  Converged?
 Maximum Force            0.002252     0.000450     NO 
 RMS     Force            0.000750     0.000300     NO 
 Maximum Displacement     0.007500     0.001800     NO 
 RMS     Displacement     0.002035     0.001200     NO 
 Predicted change in Energy=-2.333832D-05
 GradGradGradGradGradGradGradGradGradGradGradGradGradGradGradGradGradGrad

                          Input orientation:                          
 ---------------------------------------------------------------------
 Center     Atomic      Atomic             Coordinates (Angstroms)
 Number     Number       Type             X           Y           Z
 ---------------------------------------------------------------------
      1          6           0        0.001518    1.404882    0.000000
      2          6           0        1.192140    0.694523   -0.000000
      3          6           0        1.224109   -0.708600   -0.000000
      4          6           0        0.009370   -1.415127    0.000000
      5          6           0       -1.198937   -0.700020    0.000000
      6          6           0       -1.193230    0.697743    0.000000
      7         17           0        2.673854    1.563735   -0.000000
      8         17           0        2.702536   -1.573276   -0.000000
      9         17           0        0.003958   -3.124632    0.000000
     10         17           0       -2.696594   -1.542385    0.000000
     11          1           0       -2.147147    1.243157    0.000000
 ---------------------------------------------------------------------
                    Distance matrix (angstroms):
                    1          2          3          4          5
     1  C    0.000000
     2  C    1.386431   0.000000
     3  C    2.441626   1.403487   0.000000
     4  C    2.820020   2.418588   1.405266   0.000000
     5  C    2.423160   2.768032   2.423062   1.404060   0.000000
     6  C    1.388333   2.385372   2.796664   2.431145   1.397774
     7  Cl   2.677053   1.717849   2.695416   3.996635   4.485878
     8  Cl   4.020562   2.724739   1.712720   2.697805   3.998008
     9  Cl   4.529515   3.999715   2.706655   1.709514   2.706604
    10  Cl   3.995772   4.486202   4.008380   2.708955   1.718300
    11  H    2.154743   3.384056   3.895475   3.423016   2.162184
                    6          7          8          9         10
     6  C    0.000000
     7  Cl   3.962863   0.000000
     8  Cl   4.509381   3.137142   0.000000
     9  Cl   4.005472   5.395288   3.112720   0.000000
    10  Cl   2.697828   6.204006   5.399218   3.129934   0.000000
    11  H    1.098833   4.831648   5.608183   4.868761   2.839214
                   11
    11  H    0.000000
 Stoichiometry    C6HCl4(1-)
 Framework group  CS[SG(C6HCl4)]
 Deg. of freedom    19
 Full point group                 CS      NOp   2
 Largest Abelian subgroup         CS      NOp   2
 Largest concise Abelian subgroup C1      NOp   1
                         Standard orientation:                         
 ---------------------------------------------------------------------
 Center     Atomic      Atomic             Coordinates (Angstroms)
 Number     Number       Type             X           Y           Z
 ---------------------------------------------------------------------
      1          6           0        1.472717    1.622605   -0.000000
      2          6           0        0.086339    1.634736   -0.000000
      3          6           0       -0.670398    0.452736    0.000000
      4          6           0        0.000000   -0.782310    0.000000
      5          6           0        1.403954   -0.799579   -0.000000
      6          6           0        2.125719    0.397429   -0.000000
      7         17           0       -0.727549    3.147545   -0.000000
      8         17           0       -2.382856    0.482660    0.000000
      9         17           0       -0.884080   -2.245471    0.000000
     10         17           0        2.245418   -2.297742    0.000000
     11          1           0        3.224143    0.367447   -0.000000
 ---------------------------------------------------------------------
 Rotational constants (GHZ):           1.1868148           0.5533467           0.3773903
 Standard basis: VSTO-6G (5D, 7F)
 There are    31 symmetry adapted cartesian basis functions of A'  symmetry.
 There are    10 symmetry adapted cartesian basis functions of A"  symmetry.
 There are    31 symmetry adapted basis functions of A'  symmetry.
 There are    10 symmetry adapted basis functions of A"  symmetry.
    41 basis functions,   246 primitive gaussians,    41 cartesian basis functions
    27 alpha electrons       27 beta electrons
       nuclear repulsion energy       298.3631200477 Hartrees.
 Integral buffers will be    131072 words long.
 Regular integral format.
 Two-electron integral symmetry is turned off.
 Do NDO integrals.
 One-electron integrals computed using PRISM.
 NBasis=    41 RedAO= T EigKep=  1.00D+00  NBF=    31    10
 NBsUse=    41 1.00D-06 EigRej= -1.00D+00 NBFU=    31    10
 Initial guess from the checkpoint file:  "calcs/am1/chks/ClPh_2345_anion.chk"
 B after Tr=     0.000000   -0.000000   -0.000000
         Rot=    1.000000   -0.000000   -0.000000    0.000004 Ang=   0.00 deg.
 Initial guess orbital symmetries:
       Occupied  (A') (A') (A') (A') (A') (A') (A') (A') (A') (A')
                 (A') (A') (A') (A") (A') (A") (A") (A') (A") (A')
                 (A') (A') (A') (A") (A") (A") (A')
       Virtual   (A") (A") (A') (A') (A') (A') (A") (A') (A') (A')
                 (A') (A') (A') (A')
 Keep J ints in memory in canonical form, NReq=864464.
 Overlap will be assumed to be unity.
 Requested convergence on RMS density matrix=1.00D-08 within  32 cycles.
 Requested convergence on MAX density matrix=1.00D-06.
 Requested convergence on             energy=1.00D-06.
 No special actions if energy rises.
 Fock symm off for IB=2 I1=    1 I=   32 J=    8 Cut=1.00D-07 Err=6.01D-05
 Fock matrix is not symmetric: symmetry in diagonalization turned off.
 SCF Done:  E(RAM1) =  0.123012933454E-01 A.U. after   11 cycles
            NFock= 10  Conv=0.33D-08     -V/T= 1.0001
 QCSCF skips out because SCF is already converged.
 Calling FoFJK, ICntrl=      2127 FMM=F ISym2X=1 I1Cent= 0 IOpClX= 0 NMat=1 NMatS=1 NMatT=0.
 ***** Axes restored to original set *****
 -------------------------------------------------------------------
 Center     Atomic                   Forces (Hartrees/Bohr)
 Number     Number              X              Y              Z
 -------------------------------------------------------------------
      1        6           0.000186212    0.000184392    0.000000000
      2        6          -0.000796924   -0.000528466   -0.000000000
      3        6          -0.000228644    0.000252791   -0.000000000
      4        6          -0.000025911    0.000428189   -0.000000000
      5        6           0.000431056   -0.000029254   -0.000000000
      6        6           0.000215564   -0.000042243   -0.000000000
      7       17           0.000083545    0.000109265    0.000000000
      8       17           0.000101356   -0.000127348    0.000000000
      9       17           0.000014268   -0.000185272    0.000000000
     10       17          -0.000072210   -0.000105038    0.000000000
     11        1           0.000091687    0.000042984    0.000000000
 -------------------------------------------------------------------
 Cartesian Forces:  Max     0.000796924 RMS     0.000221879

 GradGradGradGradGradGradGradGradGradGradGradGradGradGradGradGradGradGrad
 Berny optimization.
 Using GEDIIS/GDIIS optimizer.
 FormGI is forming the generalized inverse of G from B-inverse, IUseBI=4.
 Internal  Forces:  Max     0.000388039 RMS     0.000146853
 Search for a local minimum.
 Step number   4 out of a maximum of   57
 All quantities printed in internal units (Hartrees-Bohrs-Radians)
 Mixed Optimization -- En-DIIS/RFO-DIIS
 Swapping is turned off.
 Update second derivatives using D2CorX and points    1    2    3    4
 DE= -2.19D-05 DEPred=-2.33D-05 R= 9.39D-01
 TightC=F SS=  1.41D+00  RLast= 9.53D-03 DXNew= 6.1595D-01 2.8596D-02
 Trust test= 9.39D-01 RLast= 9.53D-03 DXMaxT set to 3.66D-01
 ITU=  1  1  1  0
     Eigenvalues ---    0.02221   0.02221   0.02221   0.02221   0.02221
     Eigenvalues ---    0.02221   0.02221   0.02221   0.16042   0.20877
     Eigenvalues ---    0.24281   0.24979   0.25000   0.25000   0.25150
     Eigenvalues ---    0.25548   0.28308   0.31471   0.31498   0.32034
     Eigenvalues ---    0.36229   0.43231   0.44463   0.47237   0.47297
     Eigenvalues ---    0.50478   0.78272
 En-DIIS/RFO-DIIS/Sim-DIIS IScMMF=       -3 using points:     4    3
 RFO step:  Lambda=-2.61127632D-06.
 DidBck=F Rises=F RFO-DIIS coefs:    1.02747   -0.02747
 Iteration  1 RMS(Cart)=  0.00049258 RMS(Int)=  0.00000015
 Iteration  2 RMS(Cart)=  0.00000016 RMS(Int)=  0.00000004
 ClnCor:  largest displacement from symmetrization is 2.56D-12 for atom    10.
 Variable       Old X    -DE/DX   Delta X   Delta X   Delta X     New X
                                 (Linear)    (Quad)   (Total)
    R1        2.61998  -0.00035   0.00008  -0.00058  -0.00051   2.61947
    R2        2.62357  -0.00023   0.00006  -0.00035  -0.00030   2.62327
    R3        2.65221  -0.00028   0.00004  -0.00050  -0.00046   2.65174
    R4        3.24626   0.00013   0.00014   0.00058   0.00072   3.24698
    R5        2.65557  -0.00039   0.00008  -0.00066  -0.00058   2.65499
    R6        3.23657   0.00015   0.00002   0.00050   0.00053   3.23710
    R7        2.65329  -0.00036   0.00008  -0.00056  -0.00048   2.65281
    R8        3.23051   0.00019   0.00009   0.00069   0.00078   3.23130
    R9        2.64141   0.00005   0.00005   0.00021   0.00026   2.64167
   R10        3.24712   0.00011   0.00009   0.00048   0.00057   3.24768
   R11        2.07649  -0.00006  -0.00004  -0.00021  -0.00025   2.07625
    A1        2.06923  -0.00034   0.00000  -0.00123  -0.00123   2.06801
    A2        2.13151   0.00035  -0.00002   0.00123   0.00121   2.13272
    A3        2.07313  -0.00026   0.00001  -0.00093  -0.00092   2.07221
    A4        2.07854  -0.00009   0.00001  -0.00029  -0.00029   2.07826
    A5        2.07482  -0.00005   0.00002  -0.00026  -0.00024   2.07458
    A6        2.12279   0.00012  -0.00000   0.00049   0.00049   2.12328
    A7        2.08558  -0.00007  -0.00001  -0.00023  -0.00024   2.08533
    A8        2.08040  -0.00008   0.00000  -0.00031  -0.00031   2.08009
    A9        2.10076   0.00001  -0.00001   0.00004   0.00003   2.10079
   A10        2.10202   0.00006   0.00001   0.00027   0.00028   2.10230
   A11        2.10110   0.00005  -0.00003   0.00020   0.00017   2.10127
   A12        2.09485  -0.00012   0.00003  -0.00042  -0.00039   2.09446
   A13        2.08724   0.00007   0.00000   0.00022   0.00022   2.08746
   A14        2.10930   0.00006   0.00003   0.00037   0.00040   2.10970
   A15        2.08777  -0.00012  -0.00001  -0.00069  -0.00071   2.08706
   A16        2.08611   0.00005  -0.00001   0.00032   0.00031   2.08642
    D1       -0.00000  -0.00000   0.00000  -0.00000   0.00000   0.00000
    D2        3.14159   0.00000  -0.00000   0.00000   0.00000   3.14159
    D3        0.00000   0.00000   0.00000   0.00000  -0.00000   0.00000
    D4        3.14159  -0.00000  -0.00000  -0.00000   0.00000   3.14159
    D5        0.00000   0.00000   0.00000   0.00000  -0.00000   0.00000
    D6        3.14159   0.00000  -0.00000   0.00000   0.00000   3.14159
    D7        3.14159  -0.00000  -0.00000  -0.00000   0.00000   3.14159
    D8       -0.00000   0.00000   0.00000   0.00000   0.00000   0.00000
    D9       -0.00000   0.00000   0.00000   0.00000   0.00000   0.00000
   D10        3.14159   0.00000  -0.00000   0.00000   0.00000   3.14159
   D11        3.14159  -0.00000  -0.00000  -0.00000   0.00000   3.14159
   D12        0.00000   0.00000   0.00000   0.00000  -0.00000   0.00000
   D13        0.00000  -0.00000   0.00000  -0.00000  -0.00000   0.00000
   D14        3.14159   0.00000  -0.00000   0.00000   0.00000   3.14159
   D15        3.14159  -0.00000  -0.00000  -0.00000   0.00000   3.14159
   D16       -0.00000  -0.00000   0.00000  -0.00000   0.00000   0.00000
   D17       -0.00000   0.00000   0.00000   0.00000   0.00000   0.00000
   D18        3.14159   0.00000  -0.00000   0.00000   0.00000   3.14159
   D19        3.14159  -0.00000  -0.00000  -0.00000   0.00000   3.14159
   D20        0.00000   0.00000   0.00000   0.00000  -0.00000   0.00000
         Item               Value     Threshold  Converged?
 Maximum Force            0.000388     0.000450     YES
 RMS     Force            0.000147     0.000300     YES
 Maximum Displacement     0.001596     0.001800     YES
 RMS     Displacement     0.000493     0.001200     YES
 Predicted change in Energy=-1.305655D-06
 Optimization completed.
    -- Stationary point found.
                           ----------------------------
                           !   Optimized Parameters   !
                           ! (Angstroms and Degrees)  !
 --------------------------                            --------------------------
 ! Name  Definition              Value          Derivative Info.                !
 --------------------------------------------------------------------------------
 ! R1    R(1,2)                  1.3864         -DE/DX =   -0.0003              !
 ! R2    R(1,6)                  1.3883         -DE/DX =   -0.0002              !
 ! R3    R(2,3)                  1.4035         -DE/DX =   -0.0003              !
 ! R4    R(2,7)                  1.7178         -DE/DX =    0.0001              !
 ! R5    R(3,4)                  1.4053         -DE/DX =   -0.0004              !
 ! R6    R(3,8)                  1.7127         -DE/DX =    0.0002              !
 ! R7    R(4,5)                  1.4041         -DE/DX =   -0.0004              !
 ! R8    R(4,9)                  1.7095         -DE/DX =    0.0002              !
 ! R9    R(5,6)                  1.3978         -DE/DX =    0.0001              !
 ! R10   R(5,10)                 1.7183         -DE/DX =    0.0001              !
 ! R11   R(6,11)                 1.0988         -DE/DX =   -0.0001              !
 ! A1    A(2,1,6)              118.5583         -DE/DX =   -0.0003              !
 ! A2    A(1,2,3)              122.1267         -DE/DX =    0.0004              !
 ! A3    A(1,2,7)              118.7815         -DE/DX =   -0.0003              !
 ! A4    A(3,2,7)              119.0918         -DE/DX =   -0.0001              !
 ! A5    A(2,3,4)              118.8783         -DE/DX =   -0.0001              !
 ! A6    A(2,3,8)              121.627          -DE/DX =    0.0001              !
 ! A7    A(4,3,8)              119.4947         -DE/DX =   -0.0001              !
 ! A8    A(3,4,5)              119.1983         -DE/DX =   -0.0001              !
 ! A9    A(3,4,9)              120.3649         -DE/DX =    0.0                 !
 ! A10   A(5,4,9)              120.4368         -DE/DX =    0.0001              !
 ! A11   A(4,5,6)              120.3842         -DE/DX =    0.0001              !
 ! A12   A(4,5,10)             120.026          -DE/DX =   -0.0001              !
 ! A13   A(6,5,10)             119.5898         -DE/DX =    0.0001              !
 ! A14   A(1,6,5)              120.8541         -DE/DX =    0.0001              !
 ! A15   A(1,6,11)             119.6205         -DE/DX =   -0.0001              !
 ! A16   A(5,6,11)             119.5254         -DE/DX =    0.0001              !
 ! D1    D(6,1,2,3)              0.0            -DE/DX =    0.0                 !
 ! D2    D(6,1,2,7)            180.0            -DE/DX =    0.0                 !
 ! D3    D(2,1,6,5)              0.0            -DE/DX =    0.0                 !
 ! D4    D(2,1,6,11)           180.0            -DE/DX =    0.0                 !
 ! D5    D(1,2,3,4)              0.0            -DE/DX =    0.0                 !
 ! D6    D(1,2,3,8)            180.0            -DE/DX =    0.0                 !
 ! D7    D(7,2,3,4)            180.0            -DE/DX =    0.0                 !
 ! D8    D(7,2,3,8)              0.0            -DE/DX =    0.0                 !
 ! D9    D(2,3,4,5)              0.0            -DE/DX =    0.0                 !
 ! D10   D(2,3,4,9)            180.0            -DE/DX =    0.0                 !
 ! D11   D(8,3,4,5)            180.0            -DE/DX =    0.0                 !
 ! D12   D(8,3,4,9)              0.0            -DE/DX =    0.0                 !
 ! D13   D(3,4,5,6)              0.0            -DE/DX =    0.0                 !
 ! D14   D(3,4,5,10)           180.0            -DE/DX =    0.0                 !
 ! D15   D(9,4,5,6)            180.0            -DE/DX =    0.0                 !
 ! D16   D(9,4,5,10)             0.0            -DE/DX =    0.0                 !
 ! D17   D(4,5,6,1)              0.0            -DE/DX =    0.0                 !
 ! D18   D(4,5,6,11)           180.0            -DE/DX =    0.0                 !
 ! D19   D(10,5,6,1)           180.0            -DE/DX =    0.0                 !
 ! D20   D(10,5,6,11)            0.0            -DE/DX =    0.0                 !
 --------------------------------------------------------------------------------
 GradGradGradGradGradGradGradGradGradGradGradGradGradGradGradGradGradGrad

                          Input orientation:                          
 ---------------------------------------------------------------------
 Center     Atomic      Atomic             Coordinates (Angstroms)
 Number     Number       Type             X           Y           Z
 ---------------------------------------------------------------------
      1          6           0        0.001518    1.404882    0.000000
      2          6           0        1.192140    0.694523   -0.000000
      3          6           0        1.224109   -0.708600   -0.000000
      4          6           0        0.009370   -1.415127    0.000000
      5          6           0       -1.198937   -0.700020    0.000000
      6          6           0       -1.193230    0.697743    0.000000
      7         17           0        2.673854    1.563735   -0.000000
      8         17           0        2.702536   -1.573276   -0.000000
      9         17           0        0.003958   -3.124632    0.000000
     10         17           0       -2.696594   -1.542385    0.000000
     11          1           0       -2.147147    1.243157    0.000000
 ---------------------------------------------------------------------
                    Distance matrix (angstroms):
                    1          2          3          4          5
     1  C    0.000000
     2  C    1.386431   0.000000
     3  C    2.441626   1.403487   0.000000
     4  C    2.820020   2.418588   1.405266   0.000000
     5  C    2.423160   2.768032   2.423062   1.404060   0.000000
     6  C    1.388333   2.385372   2.796664   2.431145   1.397774
     7  Cl   2.677053   1.717849   2.695416   3.996635   4.485878
     8  Cl   4.020562   2.724739   1.712720   2.697805   3.998008
     9  Cl   4.529515   3.999715   2.706655   1.709514   2.706604
    10  Cl   3.995772   4.486202   4.008380   2.708955   1.718300
    11  H    2.154743   3.384056   3.895475   3.423016   2.162184
                    6          7          8          9         10
     6  C    0.000000
     7  Cl   3.962863   0.000000
     8  Cl   4.509381   3.137142   0.000000
     9  Cl   4.005472   5.395288   3.112720   0.000000
    10  Cl   2.697828   6.204006   5.399218   3.129934   0.000000
    11  H    1.098833   4.831648   5.608183   4.868761   2.839214
                   11
    11  H    0.000000
 Stoichiometry    C6HCl4(1-)
 Framework group  CS[SG(C6HCl4)]
 Deg. of freedom    19
 Full point group                 CS      NOp   2
 Largest Abelian subgroup         CS      NOp   2
 Largest concise Abelian subgroup C1      NOp   1
                         Standard orientation:                         
 ---------------------------------------------------------------------
 Center     Atomic      Atomic             Coordinates (Angstroms)
 Number     Number       Type             X           Y           Z
 ---------------------------------------------------------------------
      1          6           0        1.472717    1.622605    0.000000
      2          6           0        0.086339    1.634736   -0.000000
      3          6           0       -0.670398    0.452736   -0.000000
      4          6           0        0.000000   -0.782310    0.000000
      5          6           0        1.403954   -0.799579    0.000000
      6          6           0        2.125719    0.397429    0.000000
      7         17           0       -0.727549    3.147545   -0.000000
      8         17           0       -2.382856    0.482660   -0.000000
      9         17           0       -0.884080   -2.245471    0.000000
     10         17           0        2.245418   -2.297742    0.000000
     11          1           0        3.224143    0.367447    0.000000
 ---------------------------------------------------------------------
 Rotational constants (GHZ):           1.1868148           0.5533467           0.3773903

 **********************************************************************

            Population analysis using the SCF Density.

 **********************************************************************

 Orbital symmetries:
       Occupied  (A') (A') (A') (A') (A') (A') (A') (A') (A') (A')
                 (A') (A') (A') (A") (A') (A") (A") (A') (A") (A')
                 (A') (A') (A') (A") (A") (A") (A')
       Virtual   (A") (A") (A') (A') (A') (A') (A") (A') (A') (A')
                 (A') (A') (A') (A')
 The electronic state is 1-A'.
 Alpha  occ. eigenvalues --   -1.30261  -1.24968  -1.24107  -1.22576  -1.19789
 Alpha  occ. eigenvalues --   -0.98267  -0.95682  -0.70995  -0.68828  -0.52613
 Alpha  occ. eigenvalues --   -0.46976  -0.46543  -0.41767  -0.41580  -0.38125
 Alpha  occ. eigenvalues --   -0.35857  -0.33809  -0.33147  -0.32258  -0.31646
 Alpha  occ. eigenvalues --   -0.30091  -0.29607  -0.27389  -0.27152  -0.19372
 Alpha  occ. eigenvalues --   -0.17669  -0.12952
 Alpha virt. eigenvalues --    0.15750   0.16861   0.17282   0.18882   0.19431
 Alpha virt. eigenvalues --    0.21994   0.27244   0.29728   0.30907   0.32007
 Alpha virt. eigenvalues --    0.32944   0.33661   0.37553   0.39449
          Condensed to atoms (all electrons):
               1          2          3          4          5          6
     1  C    4.349751   0.000000   0.000000   0.000000   0.000000   0.000000
     2  C    0.000000   4.054032   0.000000   0.000000   0.000000   0.000000
     3  C    0.000000   0.000000   4.058713   0.000000   0.000000   0.000000
     4  C    0.000000   0.000000   0.000000   4.130531   0.000000   0.000000
     5  C    0.000000   0.000000   0.000000   0.000000   4.060778   0.000000
     6  C    0.000000   0.000000   0.000000   0.000000   0.000000   4.134226
     7  Cl   0.000000   0.000000   0.000000   0.000000   0.000000   0.000000
     8  Cl   0.000000   0.000000   0.000000   0.000000   0.000000   0.000000
     9  Cl   0.000000   0.000000   0.000000   0.000000   0.000000   0.000000
    10  Cl   0.000000   0.000000   0.000000   0.000000   0.000000   0.000000
    11  H    0.000000   0.000000   0.000000   0.000000   0.000000   0.000000
               7          8          9         10         11
     1  C    0.000000   0.000000   0.000000   0.000000   0.000000
     2  C    0.000000   0.000000   0.000000   0.000000   0.000000
     3  C    0.000000   0.000000   0.000000   0.000000   0.000000
     4  C    0.000000   0.000000   0.000000   0.000000   0.000000
     5  C    0.000000   0.000000   0.000000   0.000000   0.000000
     6  C    0.000000   0.000000   0.000000   0.000000   0.000000
     7  Cl   7.094052   0.000000   0.000000   0.000000   0.000000
     8  Cl   0.000000   7.072614   0.000000   0.000000   0.000000
     9  Cl   0.000000   0.000000   7.063206   0.000000   0.000000
    10  Cl   0.000000   0.000000   0.000000   7.096943   0.000000
    11  H    0.000000   0.000000   0.000000   0.000000   0.885155
 Mulliken charges:
               1
     1  C   -0.349751
     2  C   -0.054032
     3  C   -0.058713
     4  C   -0.130531
     5  C   -0.060778
     6  C   -0.134226
     7  Cl  -0.094052
     8  Cl  -0.072614
     9  Cl  -0.063206
    10  Cl  -0.096943
    11  H    0.114845
 Sum of Mulliken charges =  -1.00000
 Mulliken charges with hydrogens summed into heavy atoms:
               1
     1  C   -0.349751
     2  C   -0.054032
     3  C   -0.058713
     4  C   -0.130531
     5  C   -0.060778
     6  C   -0.019381
     7  Cl  -0.094052
     8  Cl  -0.072614
     9  Cl  -0.063206
    10  Cl  -0.096943
 Charge=             -1.0000 electrons
 Dipole moment (field-independent basis, Debye):
    X=             -3.1189    Y=             -4.2328    Z=              0.0000  Tot=              5.2578
 N-N= 2.983631200477D+02 E-N=-4.297733670222D+02  KE=-1.358477179229D+02
 Symmetry A'   KE=-1.041947102633D+02
 Symmetry A"   KE=-3.165300765965D+01
 1\1\GINC-SH02-01N31\FOpt\RAM1\ZDO\C6H1Cl4(1-)\JLAPIER\28-Sep-2026\0\\#
  Opt AM1 SCF=XQC\\ClPh_2345_anion am1\\-1,1\C,0.0015179607,1.404882270
 6,0.\C,1.1921401477,0.6945228456,0.\C,1.2241090737,-0.7086001291,0.\C,
 0.0093700713,-1.4151272187,0.\C,-1.1989374094,-0.7000196919,0.\C,-1.19
 32299435,0.6977425572,0.\Cl,2.6738538564,1.5637348913,0.\Cl,2.70253569
 82,-1.5732757527,0.\Cl,0.0039581689,-3.124632239,0.\Cl,-2.6965939714,-
 1.5423847212,0.\H,-2.1471468925,1.2431571878,0.\\Version=ES64L-G16RevB
 .01\State=1-A'\HF=0.0123013\RMSD=3.311e-09\RMSF=2.219e-04\Dipole=0.182
 5055,-2.0605055,0.\PG=CS [SG(C6H1Cl4)]\\@


 DESK:  A WASTEBASKET WITH DRAWERS.
 Job cpu time:       0 days  0 hours  0 minutes  2.6 seconds.
 Elapsed time:       0 days  0 hours  0 minutes  2.8 seconds.
 File lengths (MBytes):  RWF=      6 Int=      0 D2E=      0 Chk=      3 Scr=      1
 Normal termination of Gaussian 16 at Mon Sep 28 01:24:02 2026.
