 Entering Gaussian System, Link 0=g16
 Initial command:
 /share/software/user/restricted/gaussian/g16.B01/l1.exe "/lscratch/jlapier/g16_45667671_51/Gau-15682.inp" -scrdir="/lscratch/jlapier/g16_45667671_51/"
 Entering Link 1 = /share/software/user/restricted/gaussian/g16.B01/l1.exe PID=     15683.
  
 Copyright (c) 1988-2017, Gaussian, Inc.  All Rights Reserved.
  
 This is part of the Gaussian(R) 16 program.  It is based on
 the Gaussian(R) 09 system (copyright 2009, Gaussian, Inc.),
 the Gaussian(R) 03 system (copyright 2003, Gaussian, Inc.),
 the Gaussian(R) 98 system (copyright 1998, Gaussian, Inc.),
 the Gaussian(R) 94 system (copyright 1995, Gaussian, Inc.),
 the Gaussian 92(TM) system (copyright 1992, Gaussian, Inc.),
 the Gaussian 90(TM) system (copyright 1990, Gaussian, Inc.),
 the Gaussian 88(TM) system (copyright 1988, Gaussian, Inc.),
 the Gaussian 86(TM) system (copyright 1986, Carnegie Mellon
 University), and the Gaussian 82(TM) system (copyright 1983,
 Carnegie Mellon University). Gaussian is a federally registered
 trademark of Gaussian, Inc.
  
 This software contains proprietary and confidential information,
 including trade secrets, belonging to Gaussian, Inc.
  
 This software is provided under written license and may be
 used, copied, transmitted, or stored only in accord with that
 written license.
  
 The following legend is applicable only to US Government
 contracts under FAR:
  
                    RESTRICTED RIGHTS LEGEND
  
 Use, reproduction and disclosure by the US Government is
 subject to restrictions as set forth in subparagraphs (a)
 and (c) of the Commercial Computer Software - Restricted
 Rights clause in FAR 52.227-19.
  
 Gaussian, Inc.
 340 Quinnipiac St., Bldg. 40, Wallingford CT 06492
  
  
 ---------------------------------------------------------------
 Warning -- This program may not be used in any manner that
 competes with the business of Gaussian, Inc. or will provide
 assistance to any competitor of Gaussian, Inc.  The licensee
 of this program is prohibited from giving any competitor of
 Gaussian, Inc. access to this program.  By using this program,
 the user acknowledges that Gaussian, Inc. is engaged in the
 business of creating and licensing software in the field of
 computational chemistry and represents and warrants to the
 licensee that it is not a competitor of Gaussian, Inc. and that
 it will not use this program in any manner prohibited above.
 ---------------------------------------------------------------
  

 Cite this work as:
 Gaussian 16, Revision B.01,
 M. J. Frisch, G. W. Trucks, H. B. Schlegel, G. E. Scuseria, 
 M. A. Robb, J. R. Cheeseman, G. Scalmani, V. Barone, 
 G. A. Petersson, H. Nakatsuji, X. Li, M. Caricato, A. V. Marenich, 
 J. Bloino, B. G. Janesko, R. Gomperts, B. Mennucci, H. P. Hratchian, 
 J. V. Ortiz, A. F. Izmaylov, J. L. Sonnenberg, D. Williams-Young, 
 F. Ding, F. Lipparini, F. Egidi, J. Goings, B. Peng, A. Petrone, 
 T. Henderson, D. Ranasinghe, V. G. Zakrzewski, J. Gao, N. Rega, 
 G. Zheng, W. Liang, M. Hada, M. Ehara, K. Toyota, R. Fukuda, 
 J. Hasegawa, M. Ishida, T. Nakajima, Y. Honda, O. Kitao, H. Nakai, 
 T. Vreven, K. Throssell, J. A. Montgomery, Jr., J. E. Peralta, 
 F. Ogliaro, M. J. Bearpark, J. J. Heyd, E. N. Brothers, K. N. Kudin, 
 V. N. Staroverov, T. A. Keith, R. Kobayashi, J. Normand, 
 K. Raghavachari, A. P. Rendell, J. C. Burant, S. S. Iyengar, 
 J. Tomasi, M. Cossi, J. M. Millam, M. Klene, C. Adamo, R. Cammi, 
 J. W. Ochterski, R. L. Martin, K. Morokuma, O. Farkas, 
 J. B. Foresman, and D. J. Fox, Gaussian, Inc., Wallingford CT, 2016.
 
 ******************************************
 Gaussian 16:  ES64L-G16RevB.01 20-Dec-2017
                28-Sep-2026 
 ******************************************
 %nprocshared=1
 Will use up to    1 processors via shared memory.
 %mem=1GB
 %chk=calcs/am1/chks/ClPh_245_rad.chk
 -----------------
 # Opt AM1 SCF=XQC
 -----------------
 1/18=20,19=15,26=1,38=1/1,3;
 2/9=110,12=2,17=6,18=5,40=1/2;
 3/5=2,25=1,41=700000,71=1/1,2,3;
 4/35=1/1;
 5/5=2,8=3,13=1,35=1,38=5/2,8;
 6/7=2,8=2,9=2,10=2,28=1/1;
 7//1,2,3,16;
 1/18=20,19=15,26=1/3(2);
 2/9=110/2;
 99//99;
 2/9=110/2;
 3/5=2,25=1,41=700000,71=1,135=20/1,2,3;
 4/5=5,16=3,35=1/1;
 5/5=2,8=3,13=1,35=1,38=5/2,8;
 7//1,2,3,16;
 1/18=20,19=15,26=1/3(-5);
 2/9=110/2;
 6/7=2,8=2,9=2,10=2,19=2,28=1/1;
 99/9=1/99;
 ----------------
 ClPh_245_rad am1
 ----------------
 Symbolic Z-matrix:
 Charge =  0 Multiplicity = 2
 C                     0.        1.39      0. 
 C                     1.20378   0.695     0. 
 C                     1.20378  -0.695     0. 
 C                     0.       -1.39      0. 
 C                    -1.20378  -0.695     0. 
 C                    -1.20378   0.695     0. 
 Cl                    2.71066   1.565     0. 
 H                     2.13908  -1.235     0. 
 Cl                    0.       -3.13      0. 
 Cl                   -2.71066  -1.565     0. 
 H                    -2.13908   1.235     0. 
 

 GradGradGradGradGradGradGradGradGradGradGradGradGradGradGradGradGradGrad
 Berny optimization.
 Initialization pass.
                           ----------------------------
                           !    Initial Parameters    !
                           ! (Angstroms and Degrees)  !
 --------------------------                            --------------------------
 ! Name  Definition              Value          Derivative Info.                !
 --------------------------------------------------------------------------------
 ! R1    R(1,2)                  1.39           estimate D2E/DX2                !
 ! R2    R(1,6)                  1.39           estimate D2E/DX2                !
 ! R3    R(2,3)                  1.39           estimate D2E/DX2                !
 ! R4    R(2,7)                  1.74           estimate D2E/DX2                !
 ! R5    R(3,4)                  1.39           estimate D2E/DX2                !
 ! R6    R(3,8)                  1.08           estimate D2E/DX2                !
 ! R7    R(4,5)                  1.39           estimate D2E/DX2                !
 ! R8    R(4,9)                  1.74           estimate D2E/DX2                !
 ! R9    R(5,6)                  1.39           estimate D2E/DX2                !
 ! R10   R(5,10)                 1.74           estimate D2E/DX2                !
 ! R11   R(6,11)                 1.08           estimate D2E/DX2                !
 ! A1    A(2,1,6)              120.0            estimate D2E/DX2                !
 ! A2    A(1,2,3)              120.0            estimate D2E/DX2                !
 ! A3    A(1,2,7)              120.0            estimate D2E/DX2                !
 ! A4    A(3,2,7)              120.0            estimate D2E/DX2                !
 ! A5    A(2,3,4)              120.0            estimate D2E/DX2                !
 ! A6    A(2,3,8)              120.0            estimate D2E/DX2                !
 ! A7    A(4,3,8)              120.0            estimate D2E/DX2                !
 ! A8    A(3,4,5)              120.0            estimate D2E/DX2                !
 ! A9    A(3,4,9)              120.0            estimate D2E/DX2                !
 ! A10   A(5,4,9)              120.0            estimate D2E/DX2                !
 ! A11   A(4,5,6)              120.0            estimate D2E/DX2                !
 ! A12   A(4,5,10)             120.0            estimate D2E/DX2                !
 ! A13   A(6,5,10)             120.0            estimate D2E/DX2                !
 ! A14   A(1,6,5)              120.0            estimate D2E/DX2                !
 ! A15   A(1,6,11)             120.0            estimate D2E/DX2                !
 ! A16   A(5,6,11)             120.0            estimate D2E/DX2                !
 ! D1    D(6,1,2,3)              0.0            estimate D2E/DX2                !
 ! D2    D(6,1,2,7)            180.0            estimate D2E/DX2                !
 ! D3    D(2,1,6,5)              0.0            estimate D2E/DX2                !
 ! D4    D(2,1,6,11)           180.0            estimate D2E/DX2                !
 ! D5    D(1,2,3,4)              0.0            estimate D2E/DX2                !
 ! D6    D(1,2,3,8)            180.0            estimate D2E/DX2                !
 ! D7    D(7,2,3,4)            180.0            estimate D2E/DX2                !
 ! D8    D(7,2,3,8)              0.0            estimate D2E/DX2                !
 ! D9    D(2,3,4,5)              0.0            estimate D2E/DX2                !
 ! D10   D(2,3,4,9)            180.0            estimate D2E/DX2                !
 ! D11   D(8,3,4,5)            180.0            estimate D2E/DX2                !
 ! D12   D(8,3,4,9)              0.0            estimate D2E/DX2                !
 ! D13   D(3,4,5,6)              0.0            estimate D2E/DX2                !
 ! D14   D(3,4,5,10)           180.0            estimate D2E/DX2                !
 ! D15   D(9,4,5,6)            180.0            estimate D2E/DX2                !
 ! D16   D(9,4,5,10)             0.0            estimate D2E/DX2                !
 ! D17   D(4,5,6,1)              0.0            estimate D2E/DX2                !
 ! D18   D(4,5,6,11)           180.0            estimate D2E/DX2                !
 ! D19   D(10,5,6,1)           180.0            estimate D2E/DX2                !
 ! D20   D(10,5,6,11)            0.0            estimate D2E/DX2                !
 --------------------------------------------------------------------------------
 Trust Radius=3.00D-01 FncErr=1.00D-07 GrdErr=1.00D-07 EigMax=2.50D+02 EigMin=1.00D-04
 Number of steps in this run=     57 maximum allowed number of steps=    100.
 GradGradGradGradGradGradGradGradGradGradGradGradGradGradGradGradGradGrad

                          Input orientation:                          
 ---------------------------------------------------------------------
 Center     Atomic      Atomic             Coordinates (Angstroms)
 Number     Number       Type             X           Y           Z
 ---------------------------------------------------------------------
      1          6           0        0.000000    1.390000    0.000000
      2          6           0        1.203775    0.695000    0.000000
      3          6           0        1.203775   -0.695000    0.000000
      4          6           0        0.000000   -1.390000    0.000000
      5          6           0       -1.203775   -0.695000    0.000000
      6          6           0       -1.203775    0.695000    0.000000
      7         17           0        2.710660    1.565000    0.000000
      8          1           0        2.139083   -1.235000    0.000000
      9         17           0        0.000000   -3.130000    0.000000
     10         17           0       -2.710660   -1.565000    0.000000
     11          1           0       -2.139083    1.235000    0.000000
 ---------------------------------------------------------------------
                    Distance matrix (angstroms):
                    1          2          3          4          5
     1  C    0.000000
     2  C    1.390000   0.000000
     3  C    2.407551   1.390000   0.000000
     4  C    2.780000   2.407551   1.390000   0.000000
     5  C    2.407551   2.780000   2.407551   1.390000   0.000000
     6  C    1.390000   2.407551   2.780000   2.407551   1.390000
     7  Cl   2.716303   1.740000   2.716303   4.009950   4.520000
     8  H    3.386193   2.144691   1.080000   2.144691   3.386193
     9  Cl   4.520000   4.009950   2.716303   1.740000   2.716303
    10  Cl   4.009950   4.520000   4.009950   2.716303   1.740000
    11  H    2.144691   3.386193   3.860000   3.386193   2.144691
                    6          7          8          9         10
     6  C    0.000000
     7  Cl   4.009950   0.000000
     8  H    3.860000   2.857744   0.000000
     9  Cl   4.009950   5.421319   2.857744   0.000000
    10  Cl   2.716303   6.260000   4.860957   3.130000   0.000000
    11  H    1.080000   4.860957   4.940000   4.860957   2.857744
                   11
    11  H    0.000000
 Stoichiometry    C6H2Cl3(2)
 Framework group  CS[SG(C6H2Cl3)]
 Deg. of freedom    19
 Full point group                 CS      NOp   2
 Largest Abelian subgroup         CS      NOp   2
 Largest concise Abelian subgroup C1      NOp   1
                         Standard orientation:                         
 ---------------------------------------------------------------------
 Center     Atomic      Atomic             Coordinates (Angstroms)
 Number     Number       Type             X           Y           Z
 ---------------------------------------------------------------------
      1          6           0        1.721542    0.993933   -0.000000
      2          6           0        0.517766    1.688933   -0.000000
      3          6           0       -0.686009    0.993933   -0.000000
      4          6           0       -0.686009   -0.396067    0.000000
      5          6           0        0.517766   -1.091067    0.000000
      6          6           0        1.721542   -0.396067    0.000000
      7         17           0        0.517766    3.428933   -0.000000
      8          1           0       -1.621316    1.533933   -0.000000
      9         17           0       -2.192893   -1.266067    0.000000
     10         17           0        0.517766   -2.831067    0.000000
     11          1           0        2.656849   -0.936067    0.000000
 ---------------------------------------------------------------------
 Rotational constants (GHZ):           1.9255576           0.5947361           0.4543909
 Standard basis: VSTO-6G (5D, 7F)
 There are    29 symmetry adapted cartesian basis functions of A'  symmetry.
 There are     9 symmetry adapted cartesian basis functions of A"  symmetry.
 There are    29 symmetry adapted basis functions of A'  symmetry.
 There are     9 symmetry adapted basis functions of A"  symmetry.
    38 basis functions,   228 primitive gaussians,    38 cartesian basis functions
    24 alpha electrons       23 beta electrons
       nuclear repulsion energy       243.7311992384 Hartrees.
 Integral buffers will be    131072 words long.
 Regular integral format.
 Two-electron integral symmetry is turned off.
 Do NDO integrals.
 One-electron integrals computed using PRISM.
 NBasis=    38 RedAO= T EigKep=  1.00D+00  NBF=    29     9
 NBsUse=    38 1.00D-06 EigRej= -1.00D+00 NBFU=    29     9
 Simple Huckel Guess.
 Initial guess orbital symmetries:
 Alpha Orbitals:
       Occupied  (A') (A') (A') (A') (A') (A') (A') (A') (A') (A')
                 (A") (A') (A') (A") (A') (A') (A") (A") (A') (A')
                 (A') (A") (A") (A')
       Virtual   (A") (A") (A") (A') (A') (A') (A') (A') (A') (A')
                 (A') (A') (A') (A')
 Beta  Orbitals:
       Occupied  (A') (A') (A') (A') (A') (A') (A') (A') (A') (A')
                 (A") (A') (A') (A") (A') (A') (A") (A") (A') (A')
                 (A') (A") (A")
       Virtual   (A') (A") (A") (A") (A') (A') (A') (A') (A') (A')
                 (A') (A') (A') (A') (A')
 The electronic state of the initial guess is 2-A'.
 Initial guess <Sx>= 0.0000 <Sy>= 0.0000 <Sz>= 0.5000 <S**2>= 0.7500 S= 0.5000
 Keep J ints in memory in canonical form, NReq=863588.
 Overlap will be assumed to be unity.
 Requested convergence on RMS density matrix=1.00D-08 within  32 cycles.
 Requested convergence on MAX density matrix=1.00D-06.
 Requested convergence on             energy=1.00D-06.
 No special actions if energy rises.
 Fock symm off for IB=2 I1=    1 I=   30 J=   13 Cut=1.00D-07 Err=2.87D-03
 Fock matrix is not symmetric: symmetry in diagonalization turned off.
 Rare condition: small coef for last iteration:  0.000D+00
 Rare condition: small coef for last iteration:  0.000D+00
 SCF Done:  E(UAM1) =  0.991611833351E-01 A.U. after   30 cycles
            NFock= 29  Conv=0.41D-08     -V/T= 1.0009
 <Sx>= 0.0000 <Sy>= 0.0000 <Sz>= 0.5000 <S**2>= 1.2246 S= 0.7143
 <L.S>=  0.00000000000    
 Annihilation of the first spin contaminant:
 S**2 before annihilation     1.2246,   after     0.9394
 QCSCF skips out because SCF is already converged.

 **********************************************************************

            Population analysis using the SCF Density.

 **********************************************************************

 Orbital symmetries:
 Alpha Orbitals:
       Occupied  (A') (A') (A') (A') (A') (A') (A') (A') (A') (A')
                 (A') (A') (A") (A') (A") (A') (A") (A') (A') (A')
                 (A") (A') (A") (A")
       Virtual   (A") (A") (A') (A') (A') (A") (A') (A') (A') (A')
                 (A') (A') (A') (A')
 Beta  Orbitals:
       Occupied  (A') (A') (A') (A') (A') (A') (A') (A') (A') (A')
                 (A') (A") (A') (A') (A") (A') (A") (A') (A') (A')
                 (A") (A") (A")
       Virtual   (A') (A") (A") (A') (A') (A') (A") (A') (A') (A')
                 (A') (A') (A') (A') (A')
 The electronic state is 2-A'.
 Alpha  occ. eigenvalues --   -1.49029  -1.40092  -1.39022  -1.37506  -1.18868
 Alpha  occ. eigenvalues --   -1.15696  -0.89776  -0.87623  -0.69472  -0.64320
 Alpha  occ. eigenvalues --   -0.63254  -0.57722  -0.57419  -0.55559  -0.50788
 Alpha  occ. eigenvalues --   -0.50436  -0.48201  -0.46654  -0.45141  -0.44998
 Alpha  occ. eigenvalues --   -0.44806  -0.42428  -0.39579  -0.37628
 Alpha virt. eigenvalues --   -0.01959  -0.01258   0.01462   0.02172   0.04104
 Alpha virt. eigenvalues --    0.06389   0.10998   0.12279   0.12503   0.14390
 Alpha virt. eigenvalues --    0.14782   0.15306   0.16029   0.17253
  Beta  occ. eigenvalues --   -1.48500  -1.40056  -1.38987  -1.37296  -1.18438
  Beta  occ. eigenvalues --   -1.14283  -0.89401  -0.85557  -0.69272  -0.63770
  Beta  occ. eigenvalues --   -0.62023  -0.57303  -0.57217  -0.54569  -0.51132
  Beta  occ. eigenvalues --   -0.50087  -0.48355  -0.45837  -0.44951  -0.44729
  Beta  occ. eigenvalues --   -0.44463  -0.39044  -0.37099
  Beta virt. eigenvalues --   -0.02821  -0.01702  -0.00011   0.01094   0.02143
  Beta virt. eigenvalues --    0.04246   0.07446   0.11374   0.12772   0.12947
  Beta virt. eigenvalues --    0.14966   0.15147   0.15568   0.17129   0.18185
          Condensed to atoms (all electrons):
               1          2          3          4          5          6
     1  C    3.998165   0.000000   0.000000   0.000000   0.000000   0.000000
     2  C    0.000000   4.052813   0.000000   0.000000   0.000000   0.000000
     3  C    0.000000   0.000000   4.100472   0.000000   0.000000   0.000000
     4  C    0.000000   0.000000   0.000000   4.053213   0.000000   0.000000
     5  C    0.000000   0.000000   0.000000   0.000000   4.041027   0.000000
     6  C    0.000000   0.000000   0.000000   0.000000   0.000000   4.116652
     7  Cl   0.000000   0.000000   0.000000   0.000000   0.000000   0.000000
     8  H    0.000000   0.000000   0.000000   0.000000   0.000000   0.000000
     9  Cl   0.000000   0.000000   0.000000   0.000000   0.000000   0.000000
    10  Cl   0.000000   0.000000   0.000000   0.000000   0.000000   0.000000
    11  H    0.000000   0.000000   0.000000   0.000000   0.000000   0.000000
               7          8          9         10         11
     1  C    0.000000   0.000000   0.000000   0.000000   0.000000
     2  C    0.000000   0.000000   0.000000   0.000000   0.000000
     3  C    0.000000   0.000000   0.000000   0.000000   0.000000
     4  C    0.000000   0.000000   0.000000   0.000000   0.000000
     5  C    0.000000   0.000000   0.000000   0.000000   0.000000
     6  C    0.000000   0.000000   0.000000   0.000000   0.000000
     7  Cl   6.996025   0.000000   0.000000   0.000000   0.000000
     8  H    0.000000   0.830006   0.000000   0.000000   0.000000
     9  Cl   0.000000   0.000000   6.989826   0.000000   0.000000
    10  Cl   0.000000   0.000000   0.000000   6.989931   0.000000
    11  H    0.000000   0.000000   0.000000   0.000000   0.831872
          Atomic-Atomic Spin Densities.
               1          2          3          4          5          6
     1  C    1.400984   0.000000   0.000000   0.000000   0.000000   0.000000
     2  C    0.000000  -0.448125   0.000000   0.000000   0.000000   0.000000
     3  C    0.000000   0.000000   0.460561   0.000000   0.000000   0.000000
     4  C    0.000000   0.000000   0.000000  -0.434343   0.000000   0.000000
     5  C    0.000000   0.000000   0.000000   0.000000   0.459170   0.000000
     6  C    0.000000   0.000000   0.000000   0.000000   0.000000  -0.466973
     7  Cl   0.000000   0.000000   0.000000   0.000000   0.000000   0.000000
     8  H    0.000000   0.000000   0.000000   0.000000   0.000000   0.000000
     9  Cl   0.000000   0.000000   0.000000   0.000000   0.000000   0.000000
    10  Cl   0.000000   0.000000   0.000000   0.000000   0.000000   0.000000
    11  H    0.000000   0.000000   0.000000   0.000000   0.000000   0.000000
               7          8          9         10         11
     1  C    0.000000   0.000000   0.000000   0.000000   0.000000
     2  C    0.000000   0.000000   0.000000   0.000000   0.000000
     3  C    0.000000   0.000000   0.000000   0.000000   0.000000
     4  C    0.000000   0.000000   0.000000   0.000000   0.000000
     5  C    0.000000   0.000000   0.000000   0.000000   0.000000
     6  C    0.000000   0.000000   0.000000   0.000000   0.000000
     7  Cl   0.006090   0.000000   0.000000   0.000000   0.000000
     8  H    0.000000  -0.017752   0.000000   0.000000   0.000000
     9  Cl   0.000000   0.000000   0.005166   0.000000   0.000000
    10  Cl   0.000000   0.000000   0.000000   0.005525   0.000000
    11  H    0.000000   0.000000   0.000000   0.000000   0.029695
 Mulliken charges and spin densities:
               1          2
     1  C    0.001835   1.400984
     2  C   -0.052813  -0.448125
     3  C   -0.100472   0.460561
     4  C   -0.053213  -0.434343
     5  C   -0.041027   0.459170
     6  C   -0.116652  -0.466973
     7  Cl   0.003975   0.006090
     8  H    0.169994  -0.017752
     9  Cl   0.010174   0.005166
    10  Cl   0.010069   0.005525
    11  H    0.168128   0.029695
 Sum of Mulliken charges =   0.00000   1.00000
 Mulliken charges and spin densities with hydrogens summed into heavy atoms:
               1          2
     1  C    0.001835   1.400984
     2  C   -0.052813  -0.448125
     3  C    0.069522   0.442810
     4  C   -0.053213  -0.434343
     5  C   -0.041027   0.459170
     6  C    0.051476  -0.437278
     7  Cl   0.003975   0.006090
     9  Cl   0.010174   0.005166
    10  Cl   0.010069   0.005525
 Charge=              0.0000 electrons
 Dipole moment (field-independent basis, Debye):
    X=              0.0378    Y=             -0.0236    Z=              0.0000  Tot=              0.0446
 N-N= 2.437311992384D+02 E-N=-3.396520922016D+02  KE=-1.122281469136D+02
 Symmetry A'   KE=-8.622504696582D+01
 Symmetry A"   KE=-2.600309994778D+01
 Symmetry A'   SP= 1.000000000000D+00
 Symmetry A"   SP=-1.498801083244D-15
 Calling FoFJK, ICntrl=      2127 FMM=F ISym2X=1 I1Cent= 0 IOpClX= 1 NMat=1 NMatS=1 NMatT=0.
 ***** Axes restored to original set *****
 -------------------------------------------------------------------
 Center     Atomic                   Forces (Hartrees/Bohr)
 Number     Number              X              Y              Z
 -------------------------------------------------------------------
      1        6          -0.002565560   -0.047223631   -0.000000000
      2        6           0.026211206    0.048439919   -0.000000000
      3        6           0.004108061   -0.003312855   -0.000000000
      4        6           0.000679309   -0.039723339   -0.000000000
      5        6          -0.033404067   -0.019084805   -0.000000000
      6        6           0.002803293    0.032161420    0.000000000
      7       17          -0.022221869   -0.013199040    0.000000000
      8        1           0.014663542   -0.007989955    0.000000000
      9       17           0.003235353    0.025358490    0.000000000
     10       17           0.020298015    0.015681503    0.000000000
     11        1          -0.013807283    0.008892294    0.000000000
 -------------------------------------------------------------------
 Cartesian Forces:  Max     0.048439919 RMS     0.019010904

 GradGradGradGradGradGradGradGradGradGradGradGradGradGradGradGradGradGrad
 Berny optimization.
 FormGI is forming the generalized inverse of G from B-inverse, IUseBI=4.
 Internal  Forces:  Max     0.034263177 RMS     0.011556022
 Search for a local minimum.
 Step number   1 out of a maximum of   57
 All quantities printed in internal units (Hartrees-Bohrs-Radians)
 Mixed Optimization -- RFO/linear search
 Second derivative matrix not updated -- first step.
 ITU=  0
     Eigenvalues ---    0.02221   0.02221   0.02221   0.02221   0.02221
     Eigenvalues ---    0.02221   0.02221   0.02221   0.16000   0.16000
     Eigenvalues ---    0.22929   0.23919   0.25000   0.25000   0.25000
     Eigenvalues ---    0.25000   0.31476   0.31476   0.31476   0.35994
     Eigenvalues ---    0.35994   0.43055   0.43739   0.47319   0.47319
     Eigenvalues ---    0.47319   0.47319
 RFO step:  Lambda=-1.84683239D-02 EMin= 2.22103665D-02
 Linear search not attempted -- first point.
 Iteration  1 RMS(Cart)=  0.04205067 RMS(Int)=  0.00106219
 Iteration  2 RMS(Cart)=  0.00149174 RMS(Int)=  0.00032290
 Iteration  3 RMS(Cart)=  0.00000053 RMS(Int)=  0.00032290
 ClnCor:  largest displacement from symmetrization is 1.02D-12 for atom    10.
 Variable       Old X    -DE/DX   Delta X   Delta X   Delta X     New X
                                 (Linear)    (Quad)   (Total)
    R1        2.62672  -0.00859   0.00000  -0.02030  -0.01984   2.60688
    R2        2.62672  -0.01344   0.00000  -0.02962  -0.02917   2.59755
    R3        2.62672   0.01426   0.00000   0.02845   0.02848   2.65520
    R4        3.28812  -0.02584   0.00000  -0.07756  -0.07756   3.21057
    R5        2.62672   0.01929   0.00000   0.04151   0.04108   2.66780
    R6        2.04090   0.01669   0.00000   0.04412   0.04412   2.08502
    R7        2.62672   0.02690   0.00000   0.05756   0.05710   2.68382
    R8        3.28812  -0.02536   0.00000  -0.07610  -0.07610   3.21203
    R9        2.62672   0.01481   0.00000   0.03068   0.03065   2.65737
   R10        3.28812  -0.02542   0.00000  -0.07628  -0.07628   3.21184
   R11        2.04090   0.01640   0.00000   0.04335   0.04335   2.08425
    A1        2.09440   0.03426   0.00000   0.11702   0.11821   2.21261
    A2        2.09440  -0.01055   0.00000  -0.04316  -0.04273   2.05166
    A3        2.09440   0.00580   0.00000   0.02354   0.02332   2.11772
    A4        2.09440   0.00475   0.00000   0.01962   0.01941   2.11380
    A5        2.09440  -0.00734   0.00000  -0.02446  -0.02494   2.06945
    A6        2.09440   0.00325   0.00000   0.00987   0.01011   2.10451
    A7        2.09440   0.00409   0.00000   0.01459   0.01483   2.10922
    A8        2.09440   0.00236   0.00000   0.02066   0.01970   2.11409
    A9        2.09440  -0.00650   0.00000  -0.03014  -0.02966   2.06473
   A10        2.09440   0.00414   0.00000   0.00948   0.00997   2.10436
   A11        2.09440  -0.00156   0.00000   0.00286   0.00232   2.09671
   A12        2.09440   0.00642   0.00000   0.01959   0.01986   2.11425
   A13        2.09440  -0.00486   0.00000  -0.02244  -0.02217   2.07222
   A14        2.09440  -0.01717   0.00000  -0.07292  -0.07255   2.02184
   A15        2.09440   0.00777   0.00000   0.03190   0.03172   2.12611
   A16        2.09440   0.00940   0.00000   0.04102   0.04084   2.13523
    D1        0.00000   0.00000   0.00000   0.00000  -0.00000   0.00000
    D2        3.14159   0.00000   0.00000   0.00000   0.00000   3.14159
    D3        0.00000  -0.00000   0.00000  -0.00000   0.00000   0.00000
    D4        3.14159  -0.00000   0.00000  -0.00000   0.00000   3.14159
    D5       -0.00000   0.00000   0.00000   0.00000   0.00000   0.00000
    D6        3.14159   0.00000   0.00000   0.00000   0.00000   3.14159
    D7        3.14159  -0.00000   0.00000  -0.00000   0.00000   3.14159
    D8        0.00000  -0.00000   0.00000  -0.00000  -0.00000   0.00000
    D9        0.00000  -0.00000   0.00000  -0.00000  -0.00000   0.00000
   D10        3.14159   0.00000   0.00000   0.00000   0.00000   3.14159
   D11        3.14159  -0.00000   0.00000  -0.00000   0.00000   3.14159
   D12       -0.00000  -0.00000   0.00000  -0.00000   0.00000   0.00000
   D13       -0.00000  -0.00000   0.00000  -0.00000   0.00000   0.00000
   D14        3.14159   0.00000   0.00000   0.00000   0.00000   3.14159
   D15        3.14159  -0.00000   0.00000  -0.00000   0.00000   3.14159
   D16        0.00000  -0.00000   0.00000  -0.00000   0.00000   0.00000
   D17        0.00000   0.00000   0.00000   0.00000   0.00000   0.00000
   D18        3.14159   0.00000   0.00000   0.00000   0.00000   3.14159
   D19        3.14159  -0.00000   0.00000  -0.00000   0.00000   3.14159
   D20       -0.00000   0.00000   0.00000   0.00000   0.00000   0.00000
         Item               Value     Threshold  Converged?
 Maximum Force            0.034263     0.000450     NO 
 RMS     Force            0.011556     0.000300     NO 
 Maximum Displacement     0.141373     0.001800     NO 
 RMS     Displacement     0.042041     0.001200     NO 
 Predicted change in Energy=-9.776167D-03
 GradGradGradGradGradGradGradGradGradGradGradGradGradGradGradGradGradGrad

                          Input orientation:                          
 ---------------------------------------------------------------------
 Center     Atomic      Atomic             Coordinates (Angstroms)
 Number     Number       Type             X           Y           Z
 ---------------------------------------------------------------------
      1          6           0       -0.005315    1.315189   -0.000000
      2          6           0        1.223987    0.689212   -0.000000
      3          6           0        1.237863   -0.715790   -0.000000
      4          6           0        0.004770   -1.403162    0.000000
      5          6           0       -1.228448   -0.698759    0.000000
      6          6           0       -1.238219    0.707427    0.000000
      7         17           0        2.669825    1.581408   -0.000000
      8          1           0        2.193258   -1.267688   -0.000000
      9         17           0        0.029580   -3.102711    0.000000
     10         17           0       -2.713141   -1.526068    0.000000
     11          1           0       -2.174159    1.290943    0.000000
 ---------------------------------------------------------------------
                    Distance matrix (angstroms):
                    1          2          3          4          5
     1  C    0.000000
     2  C    1.379503   0.000000
     3  C    2.381253   1.405071   0.000000
     4  C    2.718369   2.421677   1.411737   0.000000
     5  C    2.356276   2.817960   2.466371   1.420215   0.000000
     6  C    1.374563   2.462272   2.855964   2.449410   1.406220
     7  Cl   2.688354   1.698959   2.706960   4.001272   4.516159
     8  H    3.391899   2.183792   1.103345   2.192677   3.468682
     9  Cl   4.418038   3.975587   2.675321   1.699730   2.713231
    10  Cl   3.924929   4.517571   4.033236   2.720689   1.699634
    11  H    2.168979   3.451010   3.958393   3.464958   2.203016
                    6          7          8          9         10
     6  C    0.000000
     7  Cl   4.004578   0.000000
     8  H    3.959307   2.888679   0.000000
     9  Cl   4.015529   5.376976   2.837043   0.000000
    10  Cl   2.676546   6.215524   4.913198   3.163593   0.000000
    11  H    1.102939   4.852685   5.061711   4.915350   2.868110
                   11
    11  H    0.000000
 Stoichiometry    C6H2Cl3(2)
 Framework group  CS[SG(C6H2Cl3)]
 Deg. of freedom    19
 Full point group                 CS      NOp   2
 Largest Abelian subgroup         CS      NOp   2
 Largest concise Abelian subgroup C1      NOp   1
                         Standard orientation:                         
 ---------------------------------------------------------------------
 Center     Atomic      Atomic             Coordinates (Angstroms)
 Number     Number       Type             X           Y           Z
 ---------------------------------------------------------------------
      1          6           0       -0.015090    1.904090   -0.000000
      2          6           0       -1.238542    1.266755   -0.000000
      3          6           0       -1.239406   -0.138315   -0.000000
      4          6           0        0.000000   -0.814238    0.000000
      5          6           0        1.226642   -0.098444    0.000000
      6          6           0        1.223389    1.307772    0.000000
      7         17           0       -2.692581    2.145523   -0.000000
      8          1           0       -2.189649   -0.699038   -0.000000
      9         17           0       -0.009069   -2.513944    0.000000
     10         17           0        2.718933   -0.911968    0.000000
     11          1           0        2.153885    1.899931    0.000000
 ---------------------------------------------------------------------
 Rotational constants (GHZ):           1.9030800           0.6048199           0.4589580
 Standard basis: VSTO-6G (5D, 7F)
 There are    29 symmetry adapted cartesian basis functions of A'  symmetry.
 There are     9 symmetry adapted cartesian basis functions of A"  symmetry.
 There are    29 symmetry adapted basis functions of A'  symmetry.
 There are     9 symmetry adapted basis functions of A"  symmetry.
    38 basis functions,   228 primitive gaussians,    38 cartesian basis functions
    24 alpha electrons       23 beta electrons
       nuclear repulsion energy       244.0398797060 Hartrees.
 Integral buffers will be    131072 words long.
 Regular integral format.
 Two-electron integral symmetry is turned off.
 Do NDO integrals.
 One-electron integrals computed using PRISM.
 NBasis=    38 RedAO= T EigKep=  1.00D+00  NBF=    29     9
 NBsUse=    38 1.00D-06 EigRej= -1.00D+00 NBFU=    29     9
 Initial guess from the checkpoint file:  "calcs/am1/chks/ClPh_245_rad.chk"
 B after Tr=    -0.000000   -0.000000    0.000000
         Rot=    0.864415    0.000000   -0.000000   -0.502779 Ang= -60.37 deg.
 Initial guess orbital symmetries:
 Alpha Orbitals:
       Occupied  (A') (A') (A') (A') (A') (A') (A') (A') (A') (A')
                 (A') (A') (A") (A') (A") (A') (A") (A') (A') (A')
                 (A") (A') (A") (A")
       Virtual   (A") (A") (A') (A') (A') (A") (A') (A') (A') (A')
                 (A') (A') (A') (A')
 Beta  Orbitals:
       Occupied  (A') (A') (A') (A') (A') (A') (A') (A') (A') (A')
                 (A') (A") (A') (A') (A") (A') (A") (A') (A') (A')
                 (A") (A") (A")
       Virtual   (A') (A") (A") (A') (A') (A') (A") (A') (A') (A')
                 (A') (A') (A') (A') (A')
 Initial guess <Sx>= 0.0000 <Sy>= 0.0000 <Sz>= 0.5000 <S**2>= 1.2246 S= 0.7143
 Keep J ints in memory in canonical form, NReq=863588.
 Overlap will be assumed to be unity.
 Requested convergence on RMS density matrix=1.00D-08 within  32 cycles.
 Requested convergence on MAX density matrix=1.00D-06.
 Requested convergence on             energy=1.00D-06.
 No special actions if energy rises.
 Fock symm off for IB=2 I1=    1 I=   30 J=   23 Cut=1.00D-07 Err=1.49D-03
 Fock matrix is not symmetric: symmetry in diagonalization turned off.
 SCF Done:  E(UAM1) =  0.888235830527E-01 A.U. after   17 cycles
            NFock= 16  Conv=0.48D-08     -V/T= 1.0008
 <Sx>= 0.0000 <Sy>= 0.0000 <Sz>= 0.5000 <S**2>= 1.3016 S= 0.7456
 <L.S>=  0.00000000000    
 Annihilation of the first spin contaminant:
 S**2 before annihilation     1.3016,   after     1.0176
 QCSCF skips out because SCF is already converged.
 Calling FoFJK, ICntrl=      2127 FMM=F ISym2X=1 I1Cent= 0 IOpClX= 1 NMat=1 NMatS=1 NMatT=0.
 ***** Axes restored to original set *****
 -------------------------------------------------------------------
 Center     Atomic                   Forces (Hartrees/Bohr)
 Number     Number              X              Y              Z
 -------------------------------------------------------------------
      1        6          -0.002276891   -0.013094313   -0.000000000
      2        6           0.010496114    0.014169505    0.000000000
      3        6          -0.006912641   -0.004502553   -0.000000000
      4        6          -0.000752974    0.000454914   -0.000000000
      5        6          -0.000628510   -0.011139868   -0.000000000
      6        6           0.001016952    0.011644627   -0.000000000
      7       17          -0.006148380   -0.004231536    0.000000000
      8        1          -0.002363841    0.000774213    0.000000000
      9       17          -0.000330919    0.005484695    0.000000000
     10       17           0.005869985    0.002497709    0.000000000
     11        1           0.002031104   -0.002057393    0.000000000
 -------------------------------------------------------------------
 Cartesian Forces:  Max     0.014169505 RMS     0.005389900

 GradGradGradGradGradGradGradGradGradGradGradGradGradGradGradGradGradGrad
 Berny optimization.
 Using GEDIIS/GDIIS optimizer.
 FormGI is forming the generalized inverse of G from B-inverse, IUseBI=4.
 Internal  Forces:  Max     0.007454519 RMS     0.002932554
 Search for a local minimum.
 Step number   2 out of a maximum of   57
 All quantities printed in internal units (Hartrees-Bohrs-Radians)
 Mixed Optimization -- RFO/linear search
 Update second derivatives using D2CorX and points    1    2
 DE= -1.03D-02 DEPred=-9.78D-03 R= 1.06D+00
 TightC=F SS=  1.41D+00  RLast= 2.39D-01 DXNew= 5.0454D-01 7.1783D-01
 Trust test= 1.06D+00 RLast= 2.39D-01 DXMaxT set to 5.05D-01
 ITU=  1  0
 Use linear search instead of GDIIS.
     Eigenvalues ---    0.02221   0.02221   0.02221   0.02221   0.02221
     Eigenvalues ---    0.02221   0.02221   0.02221   0.15998   0.16002
     Eigenvalues ---    0.20451   0.23641   0.24433   0.25000   0.25000
     Eigenvalues ---    0.25385   0.29231   0.31476   0.31497   0.35994
     Eigenvalues ---    0.37106   0.43353   0.44096   0.46808   0.47319
     Eigenvalues ---    0.47319   0.52491
 RFO step:  Lambda=-1.24156933D-03 EMin= 2.22103665D-02
 Quartic linear search produced a step of  0.14697.
 Iteration  1 RMS(Cart)=  0.01143502 RMS(Int)=  0.00012747
 Iteration  2 RMS(Cart)=  0.00015069 RMS(Int)=  0.00008140
 Iteration  3 RMS(Cart)=  0.00000001 RMS(Int)=  0.00008140
 ClnCor:  largest displacement from symmetrization is 4.28D-10 for atom     9.
 Variable       Old X    -DE/DX   Delta X   Delta X   Delta X     New X
                                 (Linear)    (Quad)   (Total)
    R1        2.60688  -0.00383  -0.00292  -0.00739  -0.01018   2.59670
    R2        2.59755  -0.00502  -0.00429  -0.00930  -0.01348   2.58407
    R3        2.65520   0.00247   0.00419   0.00339   0.00760   2.66280
    R4        3.21057  -0.00745  -0.01140  -0.02034  -0.03174   3.17883
    R5        2.66780  -0.00444   0.00604  -0.01455  -0.00861   2.65918
    R6        2.08502  -0.00243   0.00648  -0.01151  -0.00503   2.07999
    R7        2.68382  -0.00712   0.00839  -0.02219  -0.01392   2.66989
    R8        3.21203  -0.00549  -0.01118  -0.01333  -0.02452   3.18751
    R9        2.65737   0.00391   0.00450   0.00702   0.01150   2.66887
   R10        3.21184  -0.00634  -0.01121  -0.01642  -0.02763   3.18421
   R11        2.08425  -0.00281   0.00637  -0.01265  -0.00627   2.07798
    A1        2.21261   0.00606   0.01737   0.01817   0.03584   2.24845
    A2        2.05166  -0.00664  -0.00628  -0.02677  -0.03291   2.01875
    A3        2.11772   0.00392   0.00343   0.01594   0.01930   2.13702
    A4        2.11380   0.00272   0.00285   0.01083   0.01361   2.12741
    A5        2.06945   0.00277  -0.00367   0.01538   0.01162   2.08108
    A6        2.10451  -0.00085   0.00149  -0.00368  -0.00215   2.10236
    A7        2.10922  -0.00192   0.00218  -0.01170  -0.00948   2.09975
    A8        2.11409   0.00145   0.00289   0.00397   0.00663   2.12072
    A9        2.06473  -0.00032  -0.00436   0.00159  -0.00265   2.06209
   A10        2.10436  -0.00113   0.00146  -0.00557  -0.00398   2.10038
   A11        2.09671  -0.00148   0.00034  -0.00692  -0.00674   2.08997
   A12        2.11425  -0.00035   0.00292  -0.00333  -0.00033   2.11392
   A13        2.07222   0.00182  -0.00326   0.01025   0.00708   2.07930
   A14        2.02184  -0.00217  -0.01066  -0.00384  -0.01444   2.00740
   A15        2.12611   0.00178   0.00466   0.00731   0.01194   2.13805
   A16        2.13523   0.00039   0.00600  -0.00347   0.00250   2.13773
    D1       -0.00000   0.00000   0.00000   0.00000   0.00000   0.00000
    D2        3.14159   0.00000   0.00000   0.00000   0.00000   3.14159
    D3        0.00000  -0.00000   0.00000  -0.00000  -0.00000   0.00000
    D4        3.14159  -0.00000   0.00000  -0.00000   0.00000   3.14159
    D5        0.00000   0.00000   0.00000   0.00000  -0.00000   0.00000
    D6        3.14159   0.00000   0.00000   0.00000   0.00000   3.14159
    D7        3.14159  -0.00000   0.00000  -0.00000   0.00000   3.14159
    D8        0.00000   0.00000   0.00000   0.00000   0.00000   0.00000
    D9       -0.00000  -0.00000   0.00000  -0.00000   0.00000   0.00000
   D10        3.14159   0.00000   0.00000   0.00000   0.00000   3.14159
   D11        3.14159  -0.00000   0.00000  -0.00000   0.00000   3.14159
   D12        0.00000  -0.00000   0.00000  -0.00000  -0.00000   0.00000
   D13        0.00000   0.00000   0.00000   0.00000  -0.00000   0.00000
   D14        3.14159   0.00000   0.00000   0.00000   0.00000   3.14159
   D15        3.14159  -0.00000   0.00000  -0.00000   0.00000   3.14159
   D16        0.00000  -0.00000   0.00000  -0.00000   0.00000   0.00000
   D17       -0.00000   0.00000   0.00000   0.00000   0.00000   0.00000
   D18        3.14159   0.00000   0.00000   0.00000   0.00000   3.14159
   D19        3.14159  -0.00000   0.00000  -0.00000   0.00000   3.14159
   D20       -0.00000   0.00000   0.00000   0.00000   0.00000   0.00000
         Item               Value     Threshold  Converged?
 Maximum Force            0.007455     0.000450     NO 
 RMS     Force            0.002933     0.000300     NO 
 Maximum Displacement     0.039340     0.001800     NO 
 RMS     Displacement     0.011442     0.001200     NO 
 Predicted change in Energy=-7.842132D-04
 GradGradGradGradGradGradGradGradGradGradGradGradGradGradGradGradGradGrad

                          Input orientation:                          
 ---------------------------------------------------------------------
 Center     Atomic      Atomic             Coordinates (Angstroms)
 Number     Number       Type             X           Y           Z
 ---------------------------------------------------------------------
      1          6           0       -0.002782    1.294371   -0.000000
      2          6           0        1.234236    0.696057   -0.000000
      3          6           0        1.230652   -0.713030   -0.000000
      4          6           0        0.000992   -1.397203    0.000000
      5          6           0       -1.229895   -0.703621    0.000000
      6          6           0       -1.238420    0.708659    0.000000
      7         17           0        2.664730    1.581138   -0.000000
      8          1           0        2.178036   -1.273359   -0.000000
      9         17           0        0.028735   -3.083731    0.000000
     10         17           0       -2.696731   -1.532876    0.000000
     11          1           0       -2.169554    1.293596    0.000000
 ---------------------------------------------------------------------
                    Distance matrix (angstroms):
                    1          2          3          4          5
     1  C    0.000000
     2  C    1.374115   0.000000
     3  C    2.356059   1.409091   0.000000
     4  C    2.691576   2.429532   1.407180   0.000000
     5  C    2.344734   2.833909   2.460564   1.412847   0.000000
     6  C    1.367428   2.472688   2.849125   2.443521   1.412307
     7  Cl   2.682881   1.682165   2.705510   3.995749   4.515332
     8  H    3.368858   2.183886   1.100684   2.180564   3.455227
     9  Cl   4.378215   3.967371   2.657975   1.686757   2.692410
    10  Cl   3.905213   4.518921   4.012042   2.701132   1.685014
    11  H    2.166773   3.455842   3.948157   3.457118   2.207224
                    6          7          8          9         10
     6  C    0.000000
     7  Cl   3.999475   0.000000
     8  H    3.949756   2.895691   0.000000
     9  Cl   3.998488   5.358122   2.810150   0.000000
    10  Cl   2.674164   6.200189   4.881670   3.135812   0.000000
    11  H    1.099619   4.842828   5.048841   4.898313   2.875215
                   11
    11  H    0.000000
 Stoichiometry    C6H2Cl3(2)
 Framework group  CS[SG(C6H2Cl3)]
 Deg. of freedom    19
 Full point group                 CS      NOp   2
 Largest Abelian subgroup         CS      NOp   2
 Largest concise Abelian subgroup C1      NOp   1
                         Standard orientation:                         
 ---------------------------------------------------------------------
 Center     Atomic      Atomic             Coordinates (Angstroms)
 Number     Number       Type             X           Y           Z
 ---------------------------------------------------------------------
      1          6           0       -0.002448    1.881689   -0.000000
      2          6           0       -1.238080    1.280517   -0.000000
      3          6           0       -1.231238   -0.128558   -0.000000
      4          6           0        0.000000   -0.809886    0.000000
      5          6           0        1.229280   -0.113462    0.000000
      6          6           0        1.234541    1.298835    0.000000
      7         17           0       -2.670615    2.162289   -0.000000
      8          1           0       -2.177324   -0.691076   -0.000000
      9         17           0       -0.023844   -2.496475    0.000000
     10         17           0        2.698029   -0.939323    0.000000
     11          1           0        2.164320    1.885923    0.000000
 ---------------------------------------------------------------------
 Rotational constants (GHZ):           1.9327741           0.6074560           0.4621925
 Standard basis: VSTO-6G (5D, 7F)
 There are    29 symmetry adapted cartesian basis functions of A'  symmetry.
 There are     9 symmetry adapted cartesian basis functions of A"  symmetry.
 There are    29 symmetry adapted basis functions of A'  symmetry.
 There are     9 symmetry adapted basis functions of A"  symmetry.
    38 basis functions,   228 primitive gaussians,    38 cartesian basis functions
    24 alpha electrons       23 beta electrons
       nuclear repulsion energy       244.6173017250 Hartrees.
 Integral buffers will be    131072 words long.
 Regular integral format.
 Two-electron integral symmetry is turned off.
 Do NDO integrals.
 One-electron integrals computed using PRISM.
 NBasis=    38 RedAO= T EigKep=  1.00D+00  NBF=    29     9
 NBsUse=    38 1.00D-06 EigRej= -1.00D+00 NBFU=    29     9
 Initial guess from the checkpoint file:  "calcs/am1/chks/ClPh_245_rad.chk"
 B after Tr=     0.000000    0.000000   -0.000000
         Rot=    0.999992    0.000000    0.000000    0.004079 Ang=   0.47 deg.
 Initial guess orbital symmetries:
 Alpha Orbitals:
       Occupied  (A') (A') (A') (A') (A') (A') (A') (A') (A') (A')
                 (A') (A') (A") (A') (A") (A') (A") (A') (A') (A')
                 (A") (A') (A") (A")
       Virtual   (A") (A") (A') (A') (A') (A") (A') (A') (A') (A')
                 (A') (A') (A') (A')
 Beta  Orbitals:
       Occupied  (A') (A') (A') (A') (A') (A') (A') (A') (A') (A')
                 (A') (A') (A") (A') (A") (A') (A") (A') (A') (A')
                 (A") (A") (A")
       Virtual   (A') (A") (A") (A') (A') (A') (A") (A') (A') (A')
                 (A') (A') (A') (A') (A')
 Initial guess <Sx>= 0.0000 <Sy>= 0.0000 <Sz>= 0.5000 <S**2>= 1.3016 S= 0.7456
 Keep J ints in memory in canonical form, NReq=863588.
 Overlap will be assumed to be unity.
 Requested convergence on RMS density matrix=1.00D-08 within  32 cycles.
 Requested convergence on MAX density matrix=1.00D-06.
 Requested convergence on             energy=1.00D-06.
 No special actions if energy rises.
 Fock symm off for IB=2 I1=    1 I=   30 J=   15 Cut=1.00D-07 Err=5.92D-04
 Fock matrix is not symmetric: symmetry in diagonalization turned off.
 SCF Done:  E(UAM1) =  0.881052861330E-01 A.U. after   16 cycles
            NFock= 15  Conv=0.30D-08     -V/T= 1.0008
 <Sx>= 0.0000 <Sy>= 0.0000 <Sz>= 0.5000 <S**2>= 1.2933 S= 0.7423
 <L.S>=  0.00000000000    
 Annihilation of the first spin contaminant:
 S**2 before annihilation     1.2933,   after     1.0098
 QCSCF skips out because SCF is already converged.
 Calling FoFJK, ICntrl=      2127 FMM=F ISym2X=1 I1Cent= 0 IOpClX= 1 NMat=1 NMatS=1 NMatT=0.
 ***** Axes restored to original set *****
 -------------------------------------------------------------------
 Center     Atomic                   Forces (Hartrees/Bohr)
 Number     Number              X              Y              Z
 -------------------------------------------------------------------
      1        6          -0.002641737    0.000905901   -0.000000000
      2        6           0.004126724    0.001975202   -0.000000000
      3        6           0.000103789   -0.001217499   -0.000000000
      4        6           0.001835542    0.001799495   -0.000000000
      5        6          -0.001946934   -0.000485357   -0.000000000
      6        6          -0.000472999    0.003026186    0.000000000
      7       17           0.000465849   -0.000149797    0.000000000
      8        1          -0.000048775    0.000255493    0.000000000
      9       17           0.000313520   -0.004303447    0.000000000
     10       17          -0.002375985   -0.000781488    0.000000000
     11        1           0.000641006   -0.001024689    0.000000000
 -------------------------------------------------------------------
 Cartesian Forces:  Max     0.004303447 RMS     0.001526342

 GradGradGradGradGradGradGradGradGradGradGradGradGradGradGradGradGradGrad
 Berny optimization.
 Using GEDIIS/GDIIS optimizer.
 FormGI is forming the generalized inverse of G from B-inverse, IUseBI=4.
 Internal  Forces:  Max     0.004308021 RMS     0.001253680
 Search for a local minimum.
 Step number   3 out of a maximum of   57
 All quantities printed in internal units (Hartrees-Bohrs-Radians)
 Mixed Optimization -- RFO/linear search
 Update second derivatives using D2CorX and points    1    2    3
 DE= -7.18D-04 DEPred=-7.84D-04 R= 9.16D-01
 TightC=F SS=  1.41D+00  RLast= 8.28D-02 DXNew= 8.4853D-01 2.4836D-01
 Trust test= 9.16D-01 RLast= 8.28D-02 DXMaxT set to 5.05D-01
 ITU=  1  1  0
 Use linear search instead of GDIIS.
     Eigenvalues ---    0.02221   0.02221   0.02221   0.02221   0.02221
     Eigenvalues ---    0.02221   0.02221   0.02221   0.15490   0.16021
     Eigenvalues ---    0.17548   0.23924   0.24357   0.25000   0.25050
     Eigenvalues ---    0.25415   0.30447   0.31476   0.34379   0.36066
     Eigenvalues ---    0.37680   0.43380   0.44169   0.46636   0.47319
     Eigenvalues ---    0.47440   0.58149
 RFO step:  Lambda=-1.60957089D-04 EMin= 2.22103665D-02
 Quartic linear search produced a step of -0.08664.
 Iteration  1 RMS(Cart)=  0.00445924 RMS(Int)=  0.00000719
 Iteration  2 RMS(Cart)=  0.00000964 RMS(Int)=  0.00000253
 Iteration  3 RMS(Cart)=  0.00000000 RMS(Int)=  0.00000253
 ClnCor:  largest displacement from symmetrization is 1.78D-10 for atom     9.
 Variable       Old X    -DE/DX   Delta X   Delta X   Delta X     New X
                                 (Linear)    (Quad)   (Total)
    R1        2.59670   0.00325   0.00088   0.00447   0.00535   2.60205
    R2        2.58407   0.00090   0.00117  -0.00064   0.00053   2.58459
    R3        2.66280   0.00225  -0.00066   0.00568   0.00502   2.66782
    R4        3.17883   0.00032   0.00275  -0.00464  -0.00189   3.17694
    R5        2.65918   0.00171   0.00075   0.00202   0.00277   2.66196
    R6        2.07999  -0.00017   0.00044  -0.00112  -0.00069   2.07930
    R7        2.66989   0.00355   0.00121   0.00476   0.00597   2.67587
    R8        3.18751   0.00431   0.00212   0.00813   0.01026   3.19777
    R9        2.66887   0.00248  -0.00100   0.00681   0.00582   2.67469
   R10        3.18421   0.00245   0.00239   0.00224   0.00463   3.18884
   R11        2.07798  -0.00109   0.00054  -0.00366  -0.00311   2.07487
    A1        2.24845   0.00043  -0.00311   0.00766   0.00455   2.25299
    A2        2.01875  -0.00123   0.00285  -0.01037  -0.00752   2.01124
    A3        2.13702   0.00120  -0.00167   0.00783   0.00616   2.14317
    A4        2.12741   0.00002  -0.00118   0.00254   0.00136   2.12878
    A5        2.08108   0.00113  -0.00101   0.00639   0.00538   2.08646
    A6        2.10236  -0.00077   0.00019  -0.00374  -0.00356   2.09880
    A7        2.09975  -0.00036   0.00082  -0.00265  -0.00183   2.09792
    A8        2.12072  -0.00019  -0.00057   0.00047  -0.00010   2.12062
    A9        2.06209  -0.00029   0.00023  -0.00160  -0.00138   2.06071
   A10        2.10038   0.00048   0.00034   0.00114   0.00148   2.10186
   A11        2.08997  -0.00100   0.00058  -0.00480  -0.00421   2.08576
   A12        2.11392   0.00128   0.00003   0.00470   0.00472   2.11864
   A13        2.07930  -0.00028  -0.00061   0.00011  -0.00051   2.07879
   A14        2.00740   0.00084   0.00125   0.00065   0.00190   2.00930
   A15        2.13805   0.00013  -0.00103   0.00357   0.00254   2.14059
   A16        2.13773  -0.00097  -0.00022  -0.00422  -0.00444   2.13329
    D1        0.00000   0.00000   0.00000   0.00000   0.00000   0.00000
    D2        3.14159   0.00000   0.00000   0.00000   0.00000   3.14159
    D3       -0.00000  -0.00000   0.00000  -0.00000   0.00000   0.00000
    D4        3.14159  -0.00000   0.00000  -0.00000   0.00000   3.14159
    D5       -0.00000   0.00000   0.00000   0.00000   0.00000   0.00000
    D6        3.14159   0.00000   0.00000   0.00000   0.00000   3.14159
    D7        3.14159  -0.00000   0.00000  -0.00000   0.00000   3.14159
    D8        0.00000   0.00000   0.00000   0.00000   0.00000   0.00000
    D9        0.00000  -0.00000   0.00000  -0.00000  -0.00000   0.00000
   D10        3.14159   0.00000   0.00000   0.00000   0.00000   3.14159
   D11        3.14159  -0.00000   0.00000  -0.00000   0.00000   3.14159
   D12       -0.00000  -0.00000   0.00000  -0.00000   0.00000   0.00000
   D13        0.00000   0.00000   0.00000   0.00000   0.00000   0.00000
   D14        3.14159   0.00000   0.00000   0.00000   0.00000   3.14159
   D15        3.14159  -0.00000   0.00000  -0.00000   0.00000   3.14159
   D16       -0.00000  -0.00000   0.00000  -0.00000   0.00000   0.00000
   D17       -0.00000   0.00000   0.00000   0.00000   0.00000   0.00000
   D18        3.14159   0.00000   0.00000   0.00000   0.00000   3.14159
   D19        3.14159  -0.00000   0.00000  -0.00000   0.00000   3.14159
   D20        0.00000   0.00000   0.00000   0.00000   0.00000   0.00000
         Item               Value     Threshold  Converged?
 Maximum Force            0.004308     0.000450     NO 
 RMS     Force            0.001254     0.000300     NO 
 Maximum Displacement     0.016787     0.001800     NO 
 RMS     Displacement     0.004461     0.001200     NO 
 Predicted change in Energy=-8.688320D-05
 GradGradGradGradGradGradGradGradGradGradGradGradGradGradGradGradGradGrad

                          Input orientation:                          
 ---------------------------------------------------------------------
 Center     Atomic      Atomic             Coordinates (Angstroms)
 Number     Number       Type             X           Y           Z
 ---------------------------------------------------------------------
      1          6           0       -0.002942    1.294956   -0.000000
      2          6           0        1.238985    0.700321   -0.000000
      3          6           0        1.230367   -0.711401   -0.000000
      4          6           0        0.000675   -1.398530    0.000000
      5          6           0       -1.234160   -0.705523    0.000000
      6          6           0       -1.239180    0.709854    0.000000
      7         17           0        2.670567    1.581730   -0.000000
      8          1           0        2.177435   -1.271548   -0.000000
      9         17           0        0.033921   -3.090388    0.000000
     10         17           0       -2.705614   -1.531572    0.000000
     11          1           0       -2.170055    1.292102    0.000000
 ---------------------------------------------------------------------
                    Distance matrix (angstroms):
                    1          2          3          4          5
     1  C    0.000000
     2  C    1.376944   0.000000
     3  C    2.355105   1.411748   0.000000
     4  C    2.693489   2.436923   1.408648   0.000000
     5  C    2.349002   2.844792   2.464534   1.416007   0.000000
     6  C    1.367709   2.478183   2.849320   2.445920   1.415385
     7  Cl   2.688846   1.681163   2.707883   4.001285   4.525309
     8  H    3.367638   2.183794   1.100320   2.180461   3.458231
     9  Cl   4.385499   3.977645   2.662905   1.692185   2.701040
    10  Cl   3.910715   4.532241   4.020525   2.709557   1.687464
    11  H    2.167114   3.460023   3.946757   3.457104   2.205992
                    6          7          8          9         10
     6  C    0.000000
     7  Cl   4.005782   0.000000
     8  H    3.949583   2.895579   0.000000
     9  Cl   4.007821   5.364755   2.811197   0.000000
    10  Cl   2.678510   6.212566   4.889967   3.151978   0.000000
    11  H    1.097971   4.849279   5.047075   4.905479   2.874014
                   11
    11  H    0.000000
 Stoichiometry    C6H2Cl3(2)
 Framework group  CS[SG(C6H2Cl3)]
 Deg. of freedom    19
 Full point group                 CS      NOp   2
 Largest Abelian subgroup         CS      NOp   2
 Largest concise Abelian subgroup C1      NOp   1
                         Standard orientation:                         
 ---------------------------------------------------------------------
 Center     Atomic      Atomic             Coordinates (Angstroms)
 Number     Number       Type             X           Y           Z
 ---------------------------------------------------------------------
      1          6           0       -0.000465    1.882882   -0.000000
      2          6           0       -1.241490    1.286366   -0.000000
      3          6           0       -1.230732   -0.125342   -0.000000
      4          6           0        0.000000   -0.810607    0.000000
      5          6           0        1.233783   -0.115728    0.000000
      6          6           0        1.236658    1.299654    0.000000
      7         17           0       -2.674406    2.165604   -0.000000
      8          1           0       -2.176950   -0.686924   -0.000000
      9         17           0       -0.030683   -2.502513   -0.000000
     10         17           0        2.706487   -0.939546    0.000000
     11          1           0        2.166649    1.883312    0.000000
 ---------------------------------------------------------------------
 Rotational constants (GHZ):           1.9200884           0.6054840           0.4603245
 Standard basis: VSTO-6G (5D, 7F)
 There are    29 symmetry adapted cartesian basis functions of A'  symmetry.
 There are     9 symmetry adapted cartesian basis functions of A"  symmetry.
 There are    29 symmetry adapted basis functions of A'  symmetry.
 There are     9 symmetry adapted basis functions of A"  symmetry.
    38 basis functions,   228 primitive gaussians,    38 cartesian basis functions
    24 alpha electrons       23 beta electrons
       nuclear repulsion energy       244.3526765210 Hartrees.
 Integral buffers will be    131072 words long.
 Regular integral format.
 Two-electron integral symmetry is turned off.
 Do NDO integrals.
 One-electron integrals computed using PRISM.
 NBasis=    38 RedAO= T EigKep=  1.00D+00  NBF=    29     9
 NBsUse=    38 1.00D-06 EigRej= -1.00D+00 NBFU=    29     9
 Initial guess from the checkpoint file:  "calcs/am1/chks/ClPh_245_rad.chk"
 B after Tr=    -0.000000   -0.000000    0.000000
         Rot=    1.000000    0.000000    0.000000    0.000258 Ang=   0.03 deg.
 Initial guess orbital symmetries:
 Alpha Orbitals:
       Occupied  (A') (A') (A') (A') (A') (A') (A') (A') (A') (A')
                 (A') (A') (A") (A') (A") (A') (A") (A') (A') (A')
                 (A") (A') (A") (A")
       Virtual   (A") (A") (A') (A') (A') (A") (A') (A') (A') (A')
                 (A') (A') (A') (A')
 Beta  Orbitals:
       Occupied  (A') (A') (A') (A') (A') (A') (A') (A') (A') (A')
                 (A') (A") (A') (A') (A") (A') (A") (A') (A') (A')
                 (A") (A") (A")
       Virtual   (A') (A") (A") (A') (A') (A') (A") (A') (A') (A')
                 (A') (A') (A') (A') (A')
 Initial guess <Sx>= 0.0000 <Sy>= 0.0000 <Sz>= 0.5000 <S**2>= 1.2933 S= 0.7423
 Keep J ints in memory in canonical form, NReq=863588.
 Overlap will be assumed to be unity.
 Requested convergence on RMS density matrix=1.00D-08 within  32 cycles.
 Requested convergence on MAX density matrix=1.00D-06.
 Requested convergence on             energy=1.00D-06.
 No special actions if energy rises.
 Fock symm off for IB=2 I1=    1 I=   30 J=   13 Cut=1.00D-07 Err=1.74D-04
 Fock matrix is not symmetric: symmetry in diagonalization turned off.
 SCF Done:  E(UAM1) =  0.880288188776E-01 A.U. after   15 cycles
            NFock= 14  Conv=0.43D-08     -V/T= 1.0008
 <Sx>= 0.0000 <Sy>= 0.0000 <Sz>= 0.5000 <S**2>= 1.3070 S= 0.7478
 <L.S>=  0.00000000000    
 Annihilation of the first spin contaminant:
 S**2 before annihilation     1.3070,   after     1.0246
 QCSCF skips out because SCF is already converged.
 Calling FoFJK, ICntrl=      2127 FMM=F ISym2X=1 I1Cent= 0 IOpClX= 1 NMat=1 NMatS=1 NMatT=0.
 ***** Axes restored to original set *****
 -------------------------------------------------------------------
 Center     Atomic                   Forces (Hartrees/Bohr)
 Number     Number              X              Y              Z
 -------------------------------------------------------------------
      1        6          -0.000430787   -0.000157781   -0.000000000
      2        6          -0.000490717   -0.000464729   -0.000000000
      3        6          -0.000973016   -0.000204711   -0.000000000
      4        6           0.000159784    0.002170610    0.000000000
      5        6           0.000740890    0.000036791   -0.000000000
      6        6           0.001085084   -0.000564476   -0.000000000
      7       17          -0.000048390   -0.000209441    0.000000000
      8        1           0.000122105    0.000037256    0.000000000
      9       17          -0.000148640   -0.000410506    0.000000000
     10       17           0.000061435   -0.000011007    0.000000000
     11        1          -0.000077748   -0.000222007    0.000000000
 -------------------------------------------------------------------
 Cartesian Forces:  Max     0.002170610 RMS     0.000514977

 GradGradGradGradGradGradGradGradGradGradGradGradGradGradGradGradGradGrad
 Berny optimization.
 Using GEDIIS/GDIIS optimizer.
 FormGI is forming the generalized inverse of G from B-inverse, IUseBI=4.
 Internal  Forces:  Max     0.001355695 RMS     0.000377803
 Search for a local minimum.
 Step number   4 out of a maximum of   57
 All quantities printed in internal units (Hartrees-Bohrs-Radians)
 Mixed Optimization -- En-DIIS/RFO-DIIS
 Update second derivatives using D2CorX and points    1    2    3    4
 DE= -7.65D-05 DEPred=-8.69D-05 R= 8.80D-01
 TightC=F SS=  1.41D+00  RLast= 2.25D-02 DXNew= 8.4853D-01 6.7602D-02
 Trust test= 8.80D-01 RLast= 2.25D-02 DXMaxT set to 5.05D-01
 ITU=  1  1  1  0
 Use linear search instead of GDIIS.
     Eigenvalues ---    0.02221   0.02221   0.02221   0.02221   0.02221
     Eigenvalues ---    0.02221   0.02221   0.02221   0.14736   0.16019
     Eigenvalues ---    0.18484   0.23743   0.24375   0.25000   0.25033
     Eigenvalues ---    0.25435   0.30276   0.31470   0.32587   0.35950
     Eigenvalues ---    0.37459   0.43366   0.44256   0.45791   0.47312
     Eigenvalues ---    0.47851   0.71533
 RFO step:  Lambda=-1.03982376D-05 EMin= 2.22103665D-02
 Quartic linear search produced a step of -0.10505.
 Iteration  1 RMS(Cart)=  0.00107118 RMS(Int)=  0.00000066
 Iteration  2 RMS(Cart)=  0.00000072 RMS(Int)=  0.00000014
 ClnCor:  largest displacement from symmetrization is 1.36D-12 for atom    10.
 Variable       Old X    -DE/DX   Delta X   Delta X   Delta X     New X
                                 (Linear)    (Quad)   (Total)
    R1        2.60205  -0.00031  -0.00056   0.00047  -0.00009   2.60195
    R2        2.58459  -0.00076  -0.00006  -0.00114  -0.00119   2.58340
    R3        2.66782  -0.00068  -0.00053  -0.00048  -0.00101   2.66681
    R4        3.17694  -0.00015   0.00020  -0.00041  -0.00022   3.17672
    R5        2.66196  -0.00133  -0.00029  -0.00184  -0.00213   2.65983
    R6        2.07930   0.00009   0.00007   0.00029   0.00036   2.07966
    R7        2.67587  -0.00136  -0.00063  -0.00129  -0.00191   2.67395
    R8        3.19777   0.00041  -0.00108   0.00295   0.00188   3.19964
    R9        2.67469  -0.00094  -0.00061  -0.00097  -0.00158   2.67311
   R10        3.18884  -0.00005  -0.00049   0.00084   0.00036   3.18920
   R11        2.07487  -0.00005   0.00033  -0.00041  -0.00009   2.07478
    A1        2.25299  -0.00045  -0.00048  -0.00083  -0.00130   2.25169
    A2        2.01124   0.00010   0.00079  -0.00021   0.00058   2.01181
    A3        2.14317   0.00019  -0.00065   0.00130   0.00065   2.14382
    A4        2.12878  -0.00029  -0.00014  -0.00108  -0.00123   2.12755
    A5        2.08646  -0.00015  -0.00057  -0.00003  -0.00060   2.08586
    A6        2.09880  -0.00002   0.00037  -0.00072  -0.00035   2.09845
    A7        2.09792   0.00017   0.00019   0.00076   0.00095   2.09887
    A8        2.12062   0.00035   0.00001   0.00093   0.00094   2.12156
    A9        2.06071   0.00008   0.00014   0.00012   0.00027   2.06097
   A10        2.10186  -0.00043  -0.00016  -0.00105  -0.00121   2.10065
   A11        2.08576  -0.00004   0.00044  -0.00090  -0.00046   2.08529
   A12        2.11864  -0.00005  -0.00050   0.00076   0.00026   2.11890
   A13        2.07879   0.00008   0.00005   0.00014   0.00020   2.07899
   A14        2.00930   0.00019  -0.00020   0.00104   0.00084   2.01015
   A15        2.14059   0.00014  -0.00027   0.00124   0.00097   2.14156
   A16        2.13329  -0.00033   0.00047  -0.00228  -0.00182   2.13147
    D1        0.00000  -0.00000   0.00000  -0.00000  -0.00000   0.00000
    D2        3.14159   0.00000   0.00000   0.00000   0.00000   3.14159
    D3        0.00000  -0.00000   0.00000  -0.00000  -0.00000   0.00000
    D4        3.14159  -0.00000   0.00000  -0.00000   0.00000   3.14159
    D5       -0.00000   0.00000   0.00000   0.00000   0.00000   0.00000
    D6        3.14159   0.00000   0.00000   0.00000   0.00000   3.14159
    D7        3.14159  -0.00000   0.00000  -0.00000   0.00000   3.14159
    D8        0.00000  -0.00000   0.00000   0.00000  -0.00000   0.00000
    D9        0.00000  -0.00000   0.00000  -0.00000  -0.00000   0.00000
   D10        3.14159  -0.00000   0.00000  -0.00000   0.00000   3.14159
   D11        3.14159  -0.00000   0.00000  -0.00000   0.00000   3.14159
   D12       -0.00000  -0.00000   0.00000  -0.00000   0.00000   0.00000
   D13       -0.00000  -0.00000   0.00000  -0.00000   0.00000   0.00000
   D14        3.14159   0.00000   0.00000   0.00000   0.00000   3.14159
   D15        3.14159  -0.00000   0.00000  -0.00000   0.00000   3.14159
   D16       -0.00000   0.00000   0.00000   0.00000   0.00000   0.00000
   D17        0.00000   0.00000   0.00000   0.00000   0.00000   0.00000
   D18        3.14159   0.00000   0.00000   0.00000   0.00000   3.14159
   D19        3.14159   0.00000   0.00000   0.00000   0.00000   3.14159
   D20       -0.00000   0.00000   0.00000   0.00000   0.00000   0.00000
         Item               Value     Threshold  Converged?
 Maximum Force            0.001356     0.000450     NO 
 RMS     Force            0.000378     0.000300     NO 
 Maximum Displacement     0.003905     0.001800     NO 
 RMS     Displacement     0.001071     0.001200     YES
 Predicted change in Energy=-6.265739D-06
 GradGradGradGradGradGradGradGradGradGradGradGradGradGradGradGradGradGrad

                          Input orientation:                          
 ---------------------------------------------------------------------
 Center     Atomic      Atomic             Coordinates (Angstroms)
 Number     Number       Type             X           Y           Z
 ---------------------------------------------------------------------
      1          6           0       -0.003251    1.295385   -0.000000
      2          6           0        1.238360    0.700205   -0.000000
      3          6           0        1.229911   -0.710984   -0.000000
      4          6           0        0.000872   -1.396974    0.000000
      5          6           0       -1.233401   -0.705035    0.000000
      6          6           0       -1.238422    0.709506    0.000000
      7         17           0        2.670820    1.579966   -0.000000
      8          1           0        2.177405   -1.270785   -0.000000
      9         17           0        0.032876   -3.089849    0.000000
     10         17           0       -2.704853   -1.531471    0.000000
     11          1           0       -2.170317    1.290035    0.000000
 ---------------------------------------------------------------------
                    Distance matrix (angstroms):
                    1          2          3          4          5
     1  C    0.000000
     2  C    1.376894   0.000000
     3  C    2.355038   1.411214   0.000000
     4  C    2.692363   2.435064   1.407522   0.000000
     5  C    2.348393   2.843290   2.463318   1.414995   0.000000
     6  C    1.367077   2.476799   2.847886   2.443995   1.414550
     7  Cl   2.689172   1.681049   2.706413   3.998850   4.523734
     8  H    3.367565   2.183256   1.100511   2.180188   3.457408
     9  Cl   4.385383   3.977147   2.663061   1.693177   2.700147
    10  Cl   3.910213   4.530927   4.019399   2.709066   1.687652
    11  H    2.167072   3.459331   3.945329   3.454574   2.204113
                    6          7          8          9         10
     6  C    0.000000
     7  Cl   4.004981   0.000000
     8  H    3.948345   2.893137   0.000000
     9  Cl   4.006407   5.363387   2.812117   0.000000
    10  Cl   2.678134   6.211192   4.889213   3.150191   0.000000
    11  H    1.097926   4.849811   5.045839   4.902799   2.871693
                   11
    11  H    0.000000
 Stoichiometry    C6H2Cl3(2)
 Framework group  CS[SG(C6H2Cl3)]
 Deg. of freedom    19
 Full point group                 CS      NOp   2
 Largest Abelian subgroup         CS      NOp   2
 Largest concise Abelian subgroup C1      NOp   1
                         Standard orientation:                         
 ---------------------------------------------------------------------
 Center     Atomic      Atomic             Coordinates (Angstroms)
 Number     Number       Type             X           Y           Z
 ---------------------------------------------------------------------
      1          6           0       -0.000580    1.883378   -0.000000
      2          6           0       -1.241150    1.286028   -0.000000
      3          6           0       -1.230235   -0.125143   -0.000000
      4          6           0        0.000000   -0.808985    0.000000
      5          6           0        1.233062   -0.114891    0.000000
      6          6           0        1.235612    1.299657    0.000000
      7         17           0       -2.675145    2.163286   -0.000000
      8          1           0       -2.176750   -0.686599   -0.000000
      9         17           0       -0.029046   -2.501913    0.000000
     10         17           0        2.705956   -0.938754    0.000000
     11          1           0        2.166491    1.881813    0.000000
 ---------------------------------------------------------------------
 Rotational constants (GHZ):           1.9216948           0.6057458           0.4605681
 Standard basis: VSTO-6G (5D, 7F)
 There are    29 symmetry adapted cartesian basis functions of A'  symmetry.
 There are     9 symmetry adapted cartesian basis functions of A"  symmetry.
 There are    29 symmetry adapted basis functions of A'  symmetry.
 There are     9 symmetry adapted basis functions of A"  symmetry.
    38 basis functions,   228 primitive gaussians,    38 cartesian basis functions
    24 alpha electrons       23 beta electrons
       nuclear repulsion energy       244.3925063108 Hartrees.
 Integral buffers will be    131072 words long.
 Regular integral format.
 Two-electron integral symmetry is turned off.
 Do NDO integrals.
 One-electron integrals computed using PRISM.
 NBasis=    38 RedAO= T EigKep=  1.00D+00  NBF=    29     9
 NBsUse=    38 1.00D-06 EigRej= -1.00D+00 NBFU=    29     9
 Initial guess from the checkpoint file:  "calcs/am1/chks/ClPh_245_rad.chk"
 B after Tr=     0.000000    0.000000   -0.000000
         Rot=    1.000000    0.000000   -0.000000   -0.000221 Ang=  -0.03 deg.
 Initial guess orbital symmetries:
 Alpha Orbitals:
       Occupied  (A') (A') (A') (A') (A') (A') (A') (A') (A') (A')
                 (A') (A') (A") (A') (A") (A') (A") (A') (A') (A')
                 (A") (A') (A") (A")
       Virtual   (A") (A") (A') (A') (A') (A") (A') (A') (A') (A')
                 (A') (A') (A') (A')
 Beta  Orbitals:
       Occupied  (A') (A') (A') (A') (A') (A') (A') (A') (A') (A')
                 (A') (A") (A') (A') (A") (A') (A") (A') (A') (A')
                 (A") (A") (A")
       Virtual   (A') (A") (A") (A') (A') (A') (A") (A') (A') (A')
                 (A') (A') (A') (A') (A')
 Initial guess <Sx>= 0.0000 <Sy>= 0.0000 <Sz>= 0.5000 <S**2>= 1.3070 S= 0.7478
 Keep J ints in memory in canonical form, NReq=863588.
 Overlap will be assumed to be unity.
 Requested convergence on RMS density matrix=1.00D-08 within  32 cycles.
 Requested convergence on MAX density matrix=1.00D-06.
 Requested convergence on             energy=1.00D-06.
 No special actions if energy rises.
 Fock symm off for IB=2 I1=    1 I=   30 J=   13 Cut=1.00D-07 Err=4.19D-05
 Fock matrix is not symmetric: symmetry in diagonalization turned off.
 SCF Done:  E(UAM1) =  0.880220051480E-01 A.U. after   13 cycles
            NFock= 12  Conv=0.41D-08     -V/T= 1.0008
 <Sx>= 0.0000 <Sy>= 0.0000 <Sz>= 0.5000 <S**2>= 1.3022 S= 0.7459
 <L.S>=  0.00000000000    
 Annihilation of the first spin contaminant:
 S**2 before annihilation     1.3022,   after     1.0194
 QCSCF skips out because SCF is already converged.
 Calling FoFJK, ICntrl=      2127 FMM=F ISym2X=1 I1Cent= 0 IOpClX= 1 NMat=1 NMatS=1 NMatT=0.
 ***** Axes restored to original set *****
 -------------------------------------------------------------------
 Center     Atomic                   Forces (Hartrees/Bohr)
 Number     Number              X              Y              Z
 -------------------------------------------------------------------
      1        6           0.000162496    0.000151920   -0.000000000
      2        6          -0.000131439    0.000135026   -0.000000000
      3        6          -0.000098763   -0.000293631   -0.000000000
      4        6           0.000038028    0.000353291   -0.000000000
      5        6          -0.000050901   -0.000350307   -0.000000000
      6        6           0.000099586    0.000047838    0.000000000
      7       17           0.000040757   -0.000014756    0.000000000
      8        1           0.000027896    0.000028986    0.000000000
      9       17          -0.000040067   -0.000063437    0.000000000
     10       17           0.000054555    0.000018333    0.000000000
     11        1          -0.000102148   -0.000013262    0.000000000
 -------------------------------------------------------------------
 Cartesian Forces:  Max     0.000353291 RMS     0.000119060

 GradGradGradGradGradGradGradGradGradGradGradGradGradGradGradGradGradGrad
 Berny optimization.
 Using GEDIIS/GDIIS optimizer.
 FormGI is forming the generalized inverse of G from B-inverse, IUseBI=4.
 Internal  Forces:  Max     0.000176729 RMS     0.000066716
 Search for a local minimum.
 Step number   5 out of a maximum of   57
 All quantities printed in internal units (Hartrees-Bohrs-Radians)
 Mixed Optimization -- En-DIIS/RFO-DIIS
 Swapping is turned off.
 Update second derivatives using D2CorX and points    1    2    3    4    5
 DE= -6.81D-06 DEPred=-6.27D-06 R= 1.09D+00
 TightC=F SS=  1.41D+00  RLast= 5.48D-03 DXNew= 8.4853D-01 1.6434D-02
 Trust test= 1.09D+00 RLast= 5.48D-03 DXMaxT set to 5.05D-01
 ITU=  1  1  1  1  0
     Eigenvalues ---    0.02221   0.02221   0.02221   0.02221   0.02221
     Eigenvalues ---    0.02221   0.02221   0.02221   0.14161   0.15962
     Eigenvalues ---    0.18259   0.22097   0.24154   0.24818   0.25005
     Eigenvalues ---    0.25461   0.30173   0.31167   0.32754   0.36086
     Eigenvalues ---    0.37914   0.43453   0.43797   0.45239   0.47418
     Eigenvalues ---    0.50546   0.73136
 En-DIIS/RFO-DIIS/Sim-DIIS IScMMF=       -3 using points:     5    4
 RFO step:  Lambda=-7.25304543D-07.
 DidBck=F Rises=F RFO-DIIS coefs:    1.21369   -0.21369
 Iteration  1 RMS(Cart)=  0.00033328 RMS(Int)=  0.00000009
 Iteration  2 RMS(Cart)=  0.00000011 RMS(Int)=  0.00000001
 ClnCor:  largest displacement from symmetrization is 9.87D-14 for atom     7.
 Variable       Old X    -DE/DX   Delta X   Delta X   Delta X     New X
                                 (Linear)    (Quad)   (Total)
    R1        2.60195  -0.00004  -0.00002  -0.00002  -0.00004   2.60191
    R2        2.58340   0.00014  -0.00025   0.00055   0.00030   2.58370
    R3        2.66681   0.00015  -0.00022   0.00056   0.00035   2.66715
    R4        3.17672   0.00003  -0.00005   0.00011   0.00006   3.17679
    R5        2.65983  -0.00014  -0.00045   0.00004  -0.00041   2.65942
    R6        2.07966   0.00001   0.00008  -0.00001   0.00007   2.07973
    R7        2.67395  -0.00018  -0.00041  -0.00003  -0.00044   2.67351
    R8        3.19964   0.00006   0.00040  -0.00002   0.00038   3.20002
    R9        2.67311   0.00015  -0.00034   0.00066   0.00032   2.67344
   R10        3.18920  -0.00006   0.00008  -0.00023  -0.00015   3.18905
   R11        2.07478   0.00008  -0.00002   0.00026   0.00025   2.07503
    A1        2.25169  -0.00014  -0.00028  -0.00025  -0.00053   2.25116
    A2        2.01181   0.00004   0.00012   0.00007   0.00019   2.01200
    A3        2.14382   0.00003   0.00014   0.00007   0.00021   2.14403
    A4        2.12755  -0.00007  -0.00026  -0.00014  -0.00040   2.12715
    A5        2.08586  -0.00001  -0.00013   0.00002  -0.00010   2.08576
    A6        2.09845  -0.00004  -0.00007  -0.00020  -0.00028   2.09818
    A7        2.09887   0.00004   0.00020   0.00018   0.00038   2.09925
    A8        2.12156   0.00010   0.00020   0.00020   0.00040   2.12196
    A9        2.06097   0.00002   0.00006   0.00005   0.00011   2.06108
   A10        2.10065  -0.00011  -0.00026  -0.00025  -0.00051   2.10014
   A11        2.08529  -0.00006  -0.00010  -0.00025  -0.00035   2.08495
   A12        2.11890   0.00001   0.00006   0.00008   0.00013   2.11904
   A13        2.07899   0.00005   0.00004   0.00017   0.00021   2.07920
   A14        2.01015   0.00006   0.00018   0.00021   0.00039   2.01054
   A15        2.14156   0.00004   0.00021   0.00016   0.00037   2.14193
   A16        2.13147  -0.00010  -0.00039  -0.00036  -0.00075   2.13072
    D1       -0.00000   0.00000   0.00000   0.00000   0.00000   0.00000
    D2        3.14159   0.00000   0.00000   0.00000   0.00000   3.14159
    D3        0.00000  -0.00000   0.00000  -0.00000  -0.00000   0.00000
    D4        3.14159  -0.00000   0.00000  -0.00000   0.00000   3.14159
    D5       -0.00000   0.00000   0.00000  -0.00000   0.00000   0.00000
    D6        3.14159   0.00000   0.00000   0.00000   0.00000   3.14159
    D7        3.14159  -0.00000   0.00000  -0.00000   0.00000   3.14159
    D8        0.00000  -0.00000   0.00000  -0.00000   0.00000   0.00000
    D9        0.00000  -0.00000   0.00000  -0.00000   0.00000   0.00000
   D10        3.14159   0.00000   0.00000   0.00000   0.00000   3.14159
   D11        3.14159  -0.00000   0.00000  -0.00000   0.00000   3.14159
   D12       -0.00000  -0.00000   0.00000  -0.00000   0.00000   0.00000
   D13       -0.00000  -0.00000   0.00000   0.00000   0.00000   0.00000
   D14        3.14159   0.00000   0.00000   0.00000   0.00000   3.14159
   D15        3.14159  -0.00000   0.00000  -0.00000   0.00000   3.14159
   D16        0.00000  -0.00000   0.00000  -0.00000   0.00000   0.00000
   D17        0.00000   0.00000   0.00000   0.00000   0.00000   0.00000
   D18        3.14159   0.00000   0.00000   0.00000   0.00000   3.14159
   D19        3.14159  -0.00000   0.00000  -0.00000   0.00000   3.14159
   D20        0.00000   0.00000   0.00000  -0.00000  -0.00000   0.00000
         Item               Value     Threshold  Converged?
 Maximum Force            0.000177     0.000450     YES
 RMS     Force            0.000067     0.000300     YES
 Maximum Displacement     0.000947     0.001800     YES
 RMS     Displacement     0.000333     0.001200     YES
 Predicted change in Energy=-3.626534D-07
 Optimization completed.
    -- Stationary point found.
                           ----------------------------
                           !   Optimized Parameters   !
                           ! (Angstroms and Degrees)  !
 --------------------------                            --------------------------
 ! Name  Definition              Value          Derivative Info.                !
 --------------------------------------------------------------------------------
 ! R1    R(1,2)                  1.3769         -DE/DX =    0.0                 !
 ! R2    R(1,6)                  1.3671         -DE/DX =    0.0001              !
 ! R3    R(2,3)                  1.4112         -DE/DX =    0.0002              !
 ! R4    R(2,7)                  1.681          -DE/DX =    0.0                 !
 ! R5    R(3,4)                  1.4075         -DE/DX =   -0.0001              !
 ! R6    R(3,8)                  1.1005         -DE/DX =    0.0                 !
 ! R7    R(4,5)                  1.415          -DE/DX =   -0.0002              !
 ! R8    R(4,9)                  1.6932         -DE/DX =    0.0001              !
 ! R9    R(5,6)                  1.4146         -DE/DX =    0.0002              !
 ! R10   R(5,10)                 1.6877         -DE/DX =   -0.0001              !
 ! R11   R(6,11)                 1.0979         -DE/DX =    0.0001              !
 ! A1    A(2,1,6)              129.0123         -DE/DX =   -0.0001              !
 ! A2    A(1,2,3)              115.2682         -DE/DX =    0.0                 !
 ! A3    A(1,2,7)              122.8321         -DE/DX =    0.0                 !
 ! A4    A(3,2,7)              121.8997         -DE/DX =   -0.0001              !
 ! A5    A(2,3,4)              119.5112         -DE/DX =    0.0                 !
 ! A6    A(2,3,8)              120.2325         -DE/DX =    0.0                 !
 ! A7    A(4,3,8)              120.2563         -DE/DX =    0.0                 !
 ! A8    A(3,4,5)              121.5566         -DE/DX =    0.0001              !
 ! A9    A(3,4,9)              118.0851         -DE/DX =    0.0                 !
 ! A10   A(5,4,9)              120.3582         -DE/DX =   -0.0001              !
 ! A11   A(4,5,6)              119.4786         -DE/DX =   -0.0001              !
 ! A12   A(4,5,10)             121.4042         -DE/DX =    0.0                 !
 ! A13   A(6,5,10)             119.1172         -DE/DX =    0.0                 !
 ! A14   A(1,6,5)              115.173          -DE/DX =    0.0001              !
 ! A15   A(1,6,11)             122.7025         -DE/DX =    0.0                 !
 ! A16   A(5,6,11)             122.1244         -DE/DX =   -0.0001              !
 ! D1    D(6,1,2,3)              0.0            -DE/DX =    0.0                 !
 ! D2    D(6,1,2,7)            180.0            -DE/DX =    0.0                 !
 ! D3    D(2,1,6,5)              0.0            -DE/DX =    0.0                 !
 ! D4    D(2,1,6,11)           180.0            -DE/DX =    0.0                 !
 ! D5    D(1,2,3,4)              0.0            -DE/DX =    0.0                 !
 ! D6    D(1,2,3,8)            180.0            -DE/DX =    0.0                 !
 ! D7    D(7,2,3,4)            180.0            -DE/DX =    0.0                 !
 ! D8    D(7,2,3,8)              0.0            -DE/DX =    0.0                 !
 ! D9    D(2,3,4,5)              0.0            -DE/DX =    0.0                 !
 ! D10   D(2,3,4,9)            180.0            -DE/DX =    0.0                 !
 ! D11   D(8,3,4,5)            180.0            -DE/DX =    0.0                 !
 ! D12   D(8,3,4,9)              0.0            -DE/DX =    0.0                 !
 ! D13   D(3,4,5,6)              0.0            -DE/DX =    0.0                 !
 ! D14   D(3,4,5,10)           180.0            -DE/DX =    0.0                 !
 ! D15   D(9,4,5,6)            180.0            -DE/DX =    0.0                 !
 ! D16   D(9,4,5,10)             0.0            -DE/DX =    0.0                 !
 ! D17   D(4,5,6,1)              0.0            -DE/DX =    0.0                 !
 ! D18   D(4,5,6,11)           180.0            -DE/DX =    0.0                 !
 ! D19   D(10,5,6,1)           180.0            -DE/DX =    0.0                 !
 ! D20   D(10,5,6,11)            0.0            -DE/DX =    0.0                 !
 --------------------------------------------------------------------------------
 GradGradGradGradGradGradGradGradGradGradGradGradGradGradGradGradGradGrad

                          Input orientation:                          
 ---------------------------------------------------------------------
 Center     Atomic      Atomic             Coordinates (Angstroms)
 Number     Number       Type             X           Y           Z
 ---------------------------------------------------------------------
      1          6           0       -0.003251    1.295385   -0.000000
      2          6           0        1.238360    0.700205   -0.000000
      3          6           0        1.229911   -0.710984   -0.000000
      4          6           0        0.000872   -1.396974    0.000000
      5          6           0       -1.233401   -0.705035    0.000000
      6          6           0       -1.238422    0.709506    0.000000
      7         17           0        2.670820    1.579966   -0.000000
      8          1           0        2.177405   -1.270785   -0.000000
      9         17           0        0.032876   -3.089849    0.000000
     10         17           0       -2.704853   -1.531471    0.000000
     11          1           0       -2.170317    1.290035    0.000000
 ---------------------------------------------------------------------
                    Distance matrix (angstroms):
                    1          2          3          4          5
     1  C    0.000000
     2  C    1.376894   0.000000
     3  C    2.355038   1.411214   0.000000
     4  C    2.692363   2.435064   1.407522   0.000000
     5  C    2.348393   2.843290   2.463318   1.414995   0.000000
     6  C    1.367077   2.476799   2.847886   2.443995   1.414550
     7  Cl   2.689172   1.681049   2.706413   3.998850   4.523734
     8  H    3.367565   2.183256   1.100511   2.180188   3.457408
     9  Cl   4.385383   3.977147   2.663061   1.693177   2.700147
    10  Cl   3.910213   4.530927   4.019399   2.709066   1.687652
    11  H    2.167072   3.459331   3.945329   3.454574   2.204113
                    6          7          8          9         10
     6  C    0.000000
     7  Cl   4.004981   0.000000
     8  H    3.948345   2.893137   0.000000
     9  Cl   4.006407   5.363387   2.812117   0.000000
    10  Cl   2.678134   6.211192   4.889213   3.150191   0.000000
    11  H    1.097926   4.849811   5.045839   4.902799   2.871693
                   11
    11  H    0.000000
 Stoichiometry    C6H2Cl3(2)
 Framework group  CS[SG(C6H2Cl3)]
 Deg. of freedom    19
 Full point group                 CS      NOp   2
 Largest Abelian subgroup         CS      NOp   2
 Largest concise Abelian subgroup C1      NOp   1
                         Standard orientation:                         
 ---------------------------------------------------------------------
 Center     Atomic      Atomic             Coordinates (Angstroms)
 Number     Number       Type             X           Y           Z
 ---------------------------------------------------------------------
      1          6           0       -0.000580    1.883378    0.000000
      2          6           0       -1.241150    1.286028    0.000000
      3          6           0       -1.230235   -0.125143    0.000000
      4          6           0        0.000000   -0.808985   -0.000000
      5          6           0        1.233062   -0.114891   -0.000000
      6          6           0        1.235612    1.299657   -0.000000
      7         17           0       -2.675145    2.163286    0.000000
      8          1           0       -2.176750   -0.686599    0.000000
      9         17           0       -0.029046   -2.501913   -0.000000
     10         17           0        2.705956   -0.938754   -0.000000
     11          1           0        2.166491    1.881813   -0.000000
 ---------------------------------------------------------------------
 Rotational constants (GHZ):           1.9216948           0.6057458           0.4605681

 **********************************************************************

            Population analysis using the SCF Density.

 **********************************************************************

 Orbital symmetries:
 Alpha Orbitals:
       Occupied  (A') (A') (A') (A') (A') (A') (A') (A') (A') (A')
                 (A') (A') (A") (A') (A") (A') (A") (A') (A') (A')
                 (A") (A') (A") (A")
       Virtual   (A") (A") (A') (A') (A') (A") (A') (A') (A') (A')
                 (A') (A') (A') (A')
 Beta  Orbitals:
       Occupied  (A') (A') (A') (A') (A') (A') (A') (A') (A') (A')
                 (A') (A") (A') (A') (A") (A') (A") (A') (A') (A')
                 (A") (A") (A")
       Virtual   (A') (A") (A") (A') (A') (A') (A") (A') (A') (A')
                 (A') (A') (A') (A') (A')
 The electronic state is 2-A'.
 Alpha  occ. eigenvalues --   -1.48278  -1.41398  -1.39966  -1.37914  -1.18201
 Alpha  occ. eigenvalues --   -1.14562  -0.89909  -0.87298  -0.69749  -0.64538
 Alpha  occ. eigenvalues --   -0.63877  -0.57740  -0.57391  -0.55567  -0.51470
 Alpha  occ. eigenvalues --   -0.51158  -0.48658  -0.46413  -0.45278  -0.44768
 Alpha  occ. eigenvalues --   -0.44580  -0.40536  -0.38962  -0.36783
 Alpha virt. eigenvalues --   -0.01481  -0.00738   0.02563   0.03250   0.04990
 Alpha virt. eigenvalues --    0.06786   0.11105   0.12344   0.12670   0.14474
 Alpha virt. eigenvalues --    0.15069   0.15476   0.16766   0.17574
  Beta  occ. eigenvalues --   -1.47700  -1.41412  -1.39945  -1.37541  -1.17862
  Beta  occ. eigenvalues --   -1.13203  -0.89576  -0.85095  -0.69767  -0.63937
  Beta  occ. eigenvalues --   -0.62617  -0.57269  -0.57173  -0.54773  -0.51924
  Beta  occ. eigenvalues --   -0.50809  -0.48822  -0.45532  -0.45112  -0.44583
  Beta  occ. eigenvalues --   -0.44193  -0.38383  -0.36348
  Beta virt. eigenvalues --   -0.01391  -0.01311   0.00603   0.02113   0.03296
  Beta virt. eigenvalues --    0.05181   0.07750   0.11385   0.12794   0.13461
  Beta virt. eigenvalues --    0.15071   0.15369   0.15734   0.17578   0.18944
          Condensed to atoms (all electrons):
               1          2          3          4          5          6
     1  C    4.047529   0.000000   0.000000   0.000000   0.000000   0.000000
     2  C    0.000000   4.055771   0.000000   0.000000   0.000000   0.000000
     3  C    0.000000   0.000000   4.109188   0.000000   0.000000   0.000000
     4  C    0.000000   0.000000   0.000000   4.070494   0.000000   0.000000
     5  C    0.000000   0.000000   0.000000   0.000000   4.062929   0.000000
     6  C    0.000000   0.000000   0.000000   0.000000   0.000000   4.099953
     7  Cl   0.000000   0.000000   0.000000   0.000000   0.000000   0.000000
     8  H    0.000000   0.000000   0.000000   0.000000   0.000000   0.000000
     9  Cl   0.000000   0.000000   0.000000   0.000000   0.000000   0.000000
    10  Cl   0.000000   0.000000   0.000000   0.000000   0.000000   0.000000
    11  H    0.000000   0.000000   0.000000   0.000000   0.000000   0.000000
               7          8          9         10         11
     1  C    0.000000   0.000000   0.000000   0.000000   0.000000
     2  C    0.000000   0.000000   0.000000   0.000000   0.000000
     3  C    0.000000   0.000000   0.000000   0.000000   0.000000
     4  C    0.000000   0.000000   0.000000   0.000000   0.000000
     5  C    0.000000   0.000000   0.000000   0.000000   0.000000
     6  C    0.000000   0.000000   0.000000   0.000000   0.000000
     7  Cl   6.958244   0.000000   0.000000   0.000000   0.000000
     8  H    0.000000   0.830155   0.000000   0.000000   0.000000
     9  Cl   0.000000   0.000000   6.975648   0.000000   0.000000
    10  Cl   0.000000   0.000000   0.000000   6.968544   0.000000
    11  H    0.000000   0.000000   0.000000   0.000000   0.821544
          Atomic-Atomic Spin Densities.
               1          2          3          4          5          6
     1  C    1.405073   0.000000   0.000000   0.000000   0.000000   0.000000
     2  C    0.000000  -0.488864   0.000000   0.000000   0.000000   0.000000
     3  C    0.000000   0.000000   0.518003   0.000000   0.000000   0.000000
     4  C    0.000000   0.000000   0.000000  -0.473570   0.000000   0.000000
     5  C    0.000000   0.000000   0.000000   0.000000   0.522635   0.000000
     6  C    0.000000   0.000000   0.000000   0.000000   0.000000  -0.508105
     7  Cl   0.000000   0.000000   0.000000   0.000000   0.000000   0.000000
     8  H    0.000000   0.000000   0.000000   0.000000   0.000000   0.000000
     9  Cl   0.000000   0.000000   0.000000   0.000000   0.000000   0.000000
    10  Cl   0.000000   0.000000   0.000000   0.000000   0.000000   0.000000
    11  H    0.000000   0.000000   0.000000   0.000000   0.000000   0.000000
               7          8          9         10         11
     1  C    0.000000   0.000000   0.000000   0.000000   0.000000
     2  C    0.000000   0.000000   0.000000   0.000000   0.000000
     3  C    0.000000   0.000000   0.000000   0.000000   0.000000
     4  C    0.000000   0.000000   0.000000   0.000000   0.000000
     5  C    0.000000   0.000000   0.000000   0.000000   0.000000
     6  C    0.000000   0.000000   0.000000   0.000000   0.000000
     7  Cl  -0.000963   0.000000   0.000000   0.000000   0.000000
     8  H    0.000000  -0.020508   0.000000   0.000000   0.000000
     9  Cl   0.000000   0.000000  -0.002777   0.000000   0.000000
    10  Cl   0.000000   0.000000   0.000000   0.014904   0.000000
    11  H    0.000000   0.000000   0.000000   0.000000   0.034175
 Mulliken charges and spin densities:
               1          2
     1  C   -0.047529   1.405073
     2  C   -0.055771  -0.488864
     3  C   -0.109188   0.518003
     4  C   -0.070494  -0.473570
     5  C   -0.062929   0.522635
     6  C   -0.099953  -0.508105
     7  Cl   0.041756  -0.000963
     8  H    0.169845  -0.020508
     9  Cl   0.024352  -0.002777
    10  Cl   0.031456   0.014904
    11  H    0.178456   0.034175
 Sum of Mulliken charges =   0.00000   1.00000
 Mulliken charges and spin densities with hydrogens summed into heavy atoms:
               1          2
     1  C   -0.047529   1.405073
     2  C   -0.055771  -0.488864
     3  C    0.060657   0.497494
     4  C   -0.070494  -0.473570
     5  C   -0.062929   0.522635
     6  C    0.078503  -0.473931
     7  Cl   0.041756  -0.000963
     9  Cl   0.024352  -0.002777
    10  Cl   0.031456   0.014904
 Charge=              0.0000 electrons
 Dipole moment (field-independent basis, Debye):
    X=             -0.0343    Y=             -0.0558    Z=              0.0000  Tot=              0.0655
 N-N= 2.443925063108D+02 E-N=-3.410502347699D+02  KE=-1.121730305226D+02
 Symmetry A'   KE=-8.620705019406D+01
 Symmetry A"   KE=-2.596598032858D+01
 Symmetry A'   SP= 1.000000000000D+00
 Symmetry A"   SP=-8.326672684689D-16
 1\1\GINC-SH02-02N46\FOpt\UAM1\ZDO\C6H2Cl3(2)\JLAPIER\28-Sep-2026\0\\# 
 Opt AM1 SCF=XQC\\ClPh_245_rad am1\\0,2\C,-0.003251392,1.2953854382,0.\
 C,1.2383595418,0.7002046313,0.\C,1.2299105321,-0.7109835927,0.\C,0.000
 8721406,-1.3969744113,0.\C,-1.2334006675,-0.7050349272,0.\C,-1.2384217
 819,0.7095062939,0.\Cl,2.6708204248,1.5799663794,0.\H,2.1774054443,-1.
 2707851595,0.\Cl,0.0328757036,-3.0898487238,0.\Cl,-2.7048533089,-1.531
 4707664,0.\H,-2.1703166367,1.2900348379,0.\\Version=ES64L-G16RevB.01\S
 tate=2-A'\HF=0.088022\S2=1.302223\S2-1=0.\S2A=1.019362\RMSD=4.059e-09\
 RMSF=1.191e-04\Dipole=0.0135483,-0.0219154,0.\PG=CS [SG(C6H2Cl3)]\\@


 TO ERR IS HUMAN - AND TO BLAME IT ON A COMPUTER IS EVEN MORE SO.
 Job cpu time:       0 days  0 hours  0 minutes  3.3 seconds.
 Elapsed time:       0 days  0 hours  0 minutes  3.1 seconds.
 File lengths (MBytes):  RWF=      6 Int=      0 D2E=      0 Chk=      3 Scr=      1
 Normal termination of Gaussian 16 at Mon Sep 28 01:24:01 2026.
