 Entering Gaussian System, Link 0=g16
 Initial command:
 /share/software/user/restricted/gaussian/g16.B01/l1.exe "/lscratch/jlapier/g16_45675884_64/Gau-27207.inp" -scrdir="/lscratch/jlapier/g16_45675884_64/"
 Entering Link 1 = /share/software/user/restricted/gaussian/g16.B01/l1.exe PID=     27208.
  
 Copyright (c) 1988-2017, Gaussian, Inc.  All Rights Reserved.
  
 This is part of the Gaussian(R) 16 program.  It is based on
 the Gaussian(R) 09 system (copyright 2009, Gaussian, Inc.),
 the Gaussian(R) 03 system (copyright 2003, Gaussian, Inc.),
 the Gaussian(R) 98 system (copyright 1998, Gaussian, Inc.),
 the Gaussian(R) 94 system (copyright 1995, Gaussian, Inc.),
 the Gaussian 92(TM) system (copyright 1992, Gaussian, Inc.),
 the Gaussian 90(TM) system (copyright 1990, Gaussian, Inc.),
 the Gaussian 88(TM) system (copyright 1988, Gaussian, Inc.),
 the Gaussian 86(TM) system (copyright 1986, Carnegie Mellon
 University), and the Gaussian 82(TM) system (copyright 1983,
 Carnegie Mellon University). Gaussian is a federally registered
 trademark of Gaussian, Inc.
  
 This software contains proprietary and confidential information,
 including trade secrets, belonging to Gaussian, Inc.
  
 This software is provided under written license and may be
 used, copied, transmitted, or stored only in accord with that
 written license.
  
 The following legend is applicable only to US Government
 contracts under FAR:
  
                    RESTRICTED RIGHTS LEGEND
  
 Use, reproduction and disclosure by the US Government is
 subject to restrictions as set forth in subparagraphs (a)
 and (c) of the Commercial Computer Software - Restricted
 Rights clause in FAR 52.227-19.
  
 Gaussian, Inc.
 340 Quinnipiac St., Bldg. 40, Wallingford CT 06492
  
  
 ---------------------------------------------------------------
 Warning -- This program may not be used in any manner that
 competes with the business of Gaussian, Inc. or will provide
 assistance to any competitor of Gaussian, Inc.  The licensee
 of this program is prohibited from giving any competitor of
 Gaussian, Inc. access to this program.  By using this program,
 the user acknowledges that Gaussian, Inc. is engaged in the
 business of creating and licensing software in the field of
 computational chemistry and represents and warrants to the
 licensee that it is not a competitor of Gaussian, Inc. and that
 it will not use this program in any manner prohibited above.
 ---------------------------------------------------------------
  

 Cite this work as:
 Gaussian 16, Revision B.01,
 M. J. Frisch, G. W. Trucks, H. B. Schlegel, G. E. Scuseria, 
 M. A. Robb, J. R. Cheeseman, G. Scalmani, V. Barone, 
 G. A. Petersson, H. Nakatsuji, X. Li, M. Caricato, A. V. Marenich, 
 J. Bloino, B. G. Janesko, R. Gomperts, B. Mennucci, H. P. Hratchian, 
 J. V. Ortiz, A. F. Izmaylov, J. L. Sonnenberg, D. Williams-Young, 
 F. Ding, F. Lipparini, F. Egidi, J. Goings, B. Peng, A. Petrone, 
 T. Henderson, D. Ranasinghe, V. G. Zakrzewski, J. Gao, N. Rega, 
 G. Zheng, W. Liang, M. Hada, M. Ehara, K. Toyota, R. Fukuda, 
 J. Hasegawa, M. Ishida, T. Nakajima, Y. Honda, O. Kitao, H. Nakai, 
 T. Vreven, K. Throssell, J. A. Montgomery, Jr., J. E. Peralta, 
 F. Ogliaro, M. J. Bearpark, J. J. Heyd, E. N. Brothers, K. N. Kudin, 
 V. N. Staroverov, T. A. Keith, R. Kobayashi, J. Normand, 
 K. Raghavachari, A. P. Rendell, J. C. Burant, S. S. Iyengar, 
 J. Tomasi, M. Cossi, J. M. Millam, M. Klene, C. Adamo, R. Cammi, 
 J. W. Ochterski, R. L. Martin, K. Morokuma, O. Farkas, 
 J. B. Foresman, and D. J. Fox, Gaussian, Inc., Wallingford CT, 2016.
 
 ******************************************
 Gaussian 16:  ES64L-G16RevB.01 20-Dec-2017
                28-Sep-2026 
 ******************************************
 %nprocshared=8
 Will use up to    8 processors via shared memory.
 %mem=12GB
 %oldchk=calcs/am1/chks/ClBz_123456_RA.chk
 %chk=calcs/b3lyp_smd/chks/ClBz_123456_RA.chk
 Copying data from "calcs/am1/chks/ClBz_123456_RA.chk" to current chk file "calcs/b3lyp_smd/chks/ClBz_123456_RA.chk"
 IOpt=  2 FromEx=T IUOpen= 4 IOptOp= 5 NList=   0 IFRang= 0 IUIn= 4 IUOut= 2.
 ----------------------------------------------------------------------
 #p Opt Freq B3LYP/6-311++G(d) SCRF=(SMD,Solvent=Water) Int=UltraFine G
 eom=Check
 ----------------------------------------------------------------------
 1/18=20,19=15,26=6,29=2,38=1/1,3;
 2/9=110,12=2,40=1/2;
 3/5=4,6=6,7=1011,11=2,14=-4,25=1,30=1,70=32201,71=1,72=1,74=-5,75=-5/1,2,3;
 4//1;
 5/5=2,38=5,53=1/2;
 6/7=2,8=2,9=2,10=2,28=1/1;
 7//1,2,3,16;
 1/18=20,19=15,26=6/3(2);
 2/9=110/2;
 99//99;
 2/9=110/2;
 3/5=4,6=6,7=1011,11=2,14=-2,25=1,30=1,70=32205,71=1,72=1,74=-5,75=-5/1,2,3;
 4/5=5,16=3,69=1/1;
 5/5=2,38=5,53=1/2;
 7//1,2,3,16;
 1/18=20,19=15,26=6/3(-5);
 2/9=110/2;
 6/7=2,8=2,9=2,10=2,19=2,28=1/1;
 99/9=1/99;
 Leave Link    1 at Mon Sep 28 02:46:22 2026, MaxMem=  1610612736 cpu:               0.6 elap:               0.1
 (Enter /share/software/user/restricted/gaussian/g16.B01/l101.exe)
 ------------------------
 ClBz_123456_RA b3lyp_smd
 ------------------------
 Structure from the checkpoint file:  "calcs/b3lyp_smd/chks/ClBz_123456_RA.chk"
 Charge = -1 Multiplicity = 2
 Redundant internal coordinates found in file.  (old form).
 C,0,0.,1.4124986902,0.
 C,0,1.2210033479,0.6895168439,0.
 C,0,1.2210033479,-0.6895168439,0.
 C,0,0.,-1.4124986902,0.
 C,0,-1.2210033479,-0.6895168439,0.
 C,0,-1.2210033479,0.6895168439,0.
 Cl,0,0.,3.1121226644,0.
 Cl,0,2.6966613055,1.5564279163,0.
 Cl,0,2.6966613055,-1.5564279163,0.
 Cl,0,0.,-3.1121226644,0.
 Cl,0,-2.6966613055,-1.5564279163,0.
 Cl,0,-2.6966613055,1.5564279163,0.
 Recover connectivity data from disk.
 ITRead=  0  0  0  0  0  0  0  0  0  0  0  0
 MicOpt= -1 -1 -1 -1 -1 -1 -1 -1 -1 -1 -1 -1
 NAtoms=     12 NQM=       12 NQMF=       0 NMMI=      0 NMMIF=      0
                NMic=       0 NMicF=      0.
                    Isotopes and Nuclear Properties:
 (Nuclear quadrupole moments (NQMom) in fm**2, nuclear magnetic moments (NMagM)
  in nuclear magnetons)

  Atom         1           2           3           4           5           6           7           8           9          10
 IAtWgt=          12          12          12          12          12          12          35          35          35          35
 AtmWgt=  12.0000000  12.0000000  12.0000000  12.0000000  12.0000000  12.0000000  34.9688527  34.9688527  34.9688527  34.9688527
 NucSpn=           0           0           0           0           0           0           3           3           3           3
 AtZEff=   3.9000000   3.9000000   3.9000000   3.9000000   3.9000000   3.9000000 204.0000000 204.0000000 204.0000000 204.0000000
 NQMom=    0.0000000   0.0000000   0.0000000   0.0000000   0.0000000   0.0000000  -8.1650000  -8.1650000  -8.1650000  -8.1650000
 NMagM=    0.0000000   0.0000000   0.0000000   0.0000000   0.0000000   0.0000000   0.8218740   0.8218740   0.8218740   0.8218740
 AtZNuc=   6.0000000   6.0000000   6.0000000   6.0000000   6.0000000   6.0000000  17.0000000  17.0000000  17.0000000  17.0000000

  Atom        11          12
 IAtWgt=          35          35
 AtmWgt=  34.9688527  34.9688527
 NucSpn=           3           3
 AtZEff= 204.0000000 204.0000000
 NQMom=   -8.1650000  -8.1650000
 NMagM=    0.8218740   0.8218740
 AtZNuc=  17.0000000  17.0000000
 Leave Link  101 at Mon Sep 28 02:46:22 2026, MaxMem=  1610612736 cpu:               2.1 elap:               0.3
 (Enter /share/software/user/restricted/gaussian/g16.B01/l103.exe)

 GradGradGradGradGradGradGradGradGradGradGradGradGradGradGradGradGradGrad
 Berny optimization.
 Initialization pass.
                           ----------------------------
                           !    Initial Parameters    !
                           ! (Angstroms and Degrees)  !
 --------------------------                            --------------------------
 ! Name  Definition              Value          Derivative Info.                !
 --------------------------------------------------------------------------------
 ! R1    R(1,2)                  1.419          estimate D2E/DX2                !
 ! R2    R(1,6)                  1.419          estimate D2E/DX2                !
 ! R3    R(1,7)                  1.6996         estimate D2E/DX2                !
 ! R4    R(2,3)                  1.379          estimate D2E/DX2                !
 ! R5    R(2,8)                  1.7115         estimate D2E/DX2                !
 ! R6    R(3,4)                  1.419          estimate D2E/DX2                !
 ! R7    R(3,9)                  1.7115         estimate D2E/DX2                !
 ! R8    R(4,5)                  1.419          estimate D2E/DX2                !
 ! R9    R(4,10)                 1.6996         estimate D2E/DX2                !
 ! R10   R(5,6)                  1.379          estimate D2E/DX2                !
 ! R11   R(5,11)                 1.7115         estimate D2E/DX2                !
 ! R12   R(6,12)                 1.7115         estimate D2E/DX2                !
 ! A1    A(2,1,6)              118.7387         estimate D2E/DX2                !
 ! A2    A(2,1,7)              120.6307         estimate D2E/DX2                !
 ! A3    A(6,1,7)              120.6307         estimate D2E/DX2                !
 ! A4    A(1,2,3)              120.6307         estimate D2E/DX2                !
 ! A5    A(1,2,8)              118.9362         estimate D2E/DX2                !
 ! A6    A(3,2,8)              120.4331         estimate D2E/DX2                !
 ! A7    A(2,3,4)              120.6307         estimate D2E/DX2                !
 ! A8    A(2,3,9)              120.4331         estimate D2E/DX2                !
 ! A9    A(4,3,9)              118.9362         estimate D2E/DX2                !
 ! A10   A(3,4,5)              118.7387         estimate D2E/DX2                !
 ! A11   A(3,4,10)             120.6307         estimate D2E/DX2                !
 ! A12   A(5,4,10)             120.6307         estimate D2E/DX2                !
 ! A13   A(4,5,6)              120.6307         estimate D2E/DX2                !
 ! A14   A(4,5,11)             118.9362         estimate D2E/DX2                !
 ! A15   A(6,5,11)             120.4331         estimate D2E/DX2                !
 ! A16   A(1,6,5)              120.6307         estimate D2E/DX2                !
 ! A17   A(1,6,12)             118.9362         estimate D2E/DX2                !
 ! A18   A(5,6,12)             120.4331         estimate D2E/DX2                !
 ! D1    D(6,1,2,3)              0.0            estimate D2E/DX2                !
 ! D2    D(6,1,2,8)            180.0            estimate D2E/DX2                !
 ! D3    D(7,1,2,3)            180.0            estimate D2E/DX2                !
 ! D4    D(7,1,2,8)              0.0            estimate D2E/DX2                !
 ! D5    D(2,1,6,5)              0.0            estimate D2E/DX2                !
 ! D6    D(2,1,6,12)           180.0            estimate D2E/DX2                !
 ! D7    D(7,1,6,5)            180.0            estimate D2E/DX2                !
 ! D8    D(7,1,6,12)             0.0            estimate D2E/DX2                !
 ! D9    D(1,2,3,4)              0.0            estimate D2E/DX2                !
 ! D10   D(1,2,3,9)            180.0            estimate D2E/DX2                !
 ! D11   D(8,2,3,4)            180.0            estimate D2E/DX2                !
 ! D12   D(8,2,3,9)              0.0            estimate D2E/DX2                !
 ! D13   D(2,3,4,5)              0.0            estimate D2E/DX2                !
 ! D14   D(2,3,4,10)           180.0            estimate D2E/DX2                !
 ! D15   D(9,3,4,5)            180.0            estimate D2E/DX2                !
 ! D16   D(9,3,4,10)             0.0            estimate D2E/DX2                !
 ! D17   D(3,4,5,6)              0.0            estimate D2E/DX2                !
 ! D18   D(3,4,5,11)           180.0            estimate D2E/DX2                !
 ! D19   D(10,4,5,6)           180.0            estimate D2E/DX2                !
 ! D20   D(10,4,5,11)            0.0            estimate D2E/DX2                !
 ! D21   D(4,5,6,1)              0.0            estimate D2E/DX2                !
 ! D22   D(4,5,6,12)           180.0            estimate D2E/DX2                !
 ! D23   D(11,5,6,1)           180.0            estimate D2E/DX2                !
 ! D24   D(11,5,6,12)            0.0            estimate D2E/DX2                !
 --------------------------------------------------------------------------------
 Trust Radius=3.00D-01 FncErr=5.00D-06 GrdErr=5.00D-06 EigMax=2.50D+02 EigMin=1.00D-04
 Number of steps in this run=     64 maximum allowed number of steps=    100.
 GradGradGradGradGradGradGradGradGradGradGradGradGradGradGradGradGradGrad

 Leave Link  103 at Mon Sep 28 02:46:22 2026, MaxMem=  1610612736 cpu:               0.2 elap:               0.0
 (Enter /share/software/user/restricted/gaussian/g16.B01/l202.exe)
                          Input orientation:                          
 ---------------------------------------------------------------------
 Center     Atomic      Atomic             Coordinates (Angstroms)
 Number     Number       Type             X           Y           Z
 ---------------------------------------------------------------------
      1          6           0       -0.000000    1.412499   -0.000000
      2          6           0        1.221003    0.689517   -0.000000
      3          6           0        1.221003   -0.689517   -0.000000
      4          6           0        0.000000   -1.412499   -0.000000
      5          6           0       -1.221003   -0.689517   -0.000000
      6          6           0       -1.221003    0.689517   -0.000000
      7         17           0       -0.000000    3.112123   -0.000000
      8         17           0        2.696661    1.556428   -0.000000
      9         17           0        2.696661   -1.556428   -0.000000
     10         17           0        0.000000   -3.112123   -0.000000
     11         17           0       -2.696661   -1.556428   -0.000000
     12         17           0       -2.696661    1.556428   -0.000000
 ---------------------------------------------------------------------
                    Distance matrix (angstroms):
                    1          2          3          4          5
     1  C    0.000000
     2  C    1.418997   0.000000
     3  C    2.430909   1.379034   0.000000
     4  C    2.824997   2.430909   1.418997   0.000000
     5  C    2.430909   2.804484   2.442007   1.418997   0.000000
     6  C    1.418997   2.442007   2.804484   2.430909   1.379034
     7  Cl   1.699624   2.712908   3.992908   4.524621   3.992908
     8  Cl   2.700500   1.711462   2.687347   4.010799   4.515791
     9  Cl   4.010799   2.687347   1.711462   2.700500   4.012435
    10  Cl   4.524621   3.992908   2.712908   1.699624   2.712908
    11  Cl   4.010799   4.515791   4.012435   2.700500   1.711462
    12  Cl   2.700500   4.012435   4.515791   4.010799   2.687347
                    6          7          8          9         10
     6  C    0.000000
     7  Cl   2.712908   0.000000
     8  Cl   4.012435   3.113225   0.000000
     9  Cl   4.515791   5.391414   3.112856   0.000000
    10  Cl   3.992908   6.224245   5.391414   3.113225   0.000000
    11  Cl   2.687347   5.391414   6.227182   5.393323   3.113225
    12  Cl   1.711462   3.113225   5.393323   6.227182   5.391414
                   11         12
    11  Cl   0.000000
    12  Cl   3.112856   0.000000
 Stoichiometry    C6Cl6(1-,2)
 Framework group  D2H[C2"(ClC.CCl),SG(C4Cl4)]
 Deg. of freedom     6
 Full point group                 D2H     NOp   8
 RotChk:  IX=0 Diff= 1.28D-13
 Largest Abelian subgroup         D2H     NOp   8
 Largest concise Abelian subgroup D2      NOp   4
                         Standard orientation:                         
 ---------------------------------------------------------------------
 Center     Atomic      Atomic             Coordinates (Angstroms)
 Number     Number       Type             X           Y           Z
 ---------------------------------------------------------------------
      1          6           0        0.000000   -0.000000    1.412499
      2          6           0        0.000000    1.221003    0.689517
      3          6           0        0.000000    1.221003   -0.689517
      4          6           0        0.000000   -0.000000   -1.412499
      5          6           0       -0.000000   -1.221003   -0.689517
      6          6           0       -0.000000   -1.221003    0.689517
      7         17           0        0.000000   -0.000000    3.112123
      8         17           0        0.000000    2.696661    1.556428
      9         17           0        0.000000    2.696661   -1.556428
     10         17           0        0.000000   -0.000000   -3.112123
     11         17           0       -0.000000   -2.696661   -1.556428
     12         17           0       -0.000000   -2.696661    1.556428
 ---------------------------------------------------------------------
 Rotational constants (GHZ):           0.4649659           0.4641904           0.2322889
 Leave Link  202 at Mon Sep 28 02:46:22 2026, MaxMem=  1610612736 cpu:               0.5 elap:               0.1
 (Enter /share/software/user/restricted/gaussian/g16.B01/l301.exe)
 Standard basis: 6-311++G(d) (5D, 7F)
 Ernie: Thresh=  0.10000D-02 Tol=  0.10000D-05 Strict=F.
 There are    68 symmetry adapted cartesian basis functions of AG  symmetry.
 There are    16 symmetry adapted cartesian basis functions of B1G symmetry.
 There are    26 symmetry adapted cartesian basis functions of B2G symmetry.
 There are    52 symmetry adapted cartesian basis functions of B3G symmetry.
 There are    16 symmetry adapted cartesian basis functions of AU  symmetry.
 There are    68 symmetry adapted cartesian basis functions of B1U symmetry.
 There are    52 symmetry adapted cartesian basis functions of B2U symmetry.
 There are    26 symmetry adapted cartesian basis functions of B3U symmetry.
 There are    64 symmetry adapted basis functions of AG  symmetry.
 There are    16 symmetry adapted basis functions of B1G symmetry.
 There are    26 symmetry adapted basis functions of B2G symmetry.
 There are    50 symmetry adapted basis functions of B3G symmetry.
 There are    16 symmetry adapted basis functions of AU  symmetry.
 There are    64 symmetry adapted basis functions of B1U symmetry.
 There are    50 symmetry adapted basis functions of B2U symmetry.
 There are    26 symmetry adapted basis functions of B3U symmetry.
   312 basis functions,   534 primitive gaussians,   324 cartesian basis functions
    70 alpha electrons       69 beta electrons
       nuclear repulsion energy      1350.1467431070 Hartrees.
 IExCor=  402 DFT=T Ex+Corr=B3LYP ExCW=0 ScaHFX=  0.200000
 ScaDFX=  0.800000  0.720000  1.000000  0.810000 ScalE2=  1.000000  1.000000
 IRadAn=      5 IRanWt=     -1 IRanGd=            0 ICorTp=0 IEmpDi=  4
 NAtoms=   12 NActive=   12 NUniq=    4 SFac= 4.00D+00 NAtFMM=   60 NAOKFM=F Big=F
 Integral buffers will be    131072 words long.
 Raffenetti 2 integral format.
 Two-electron integral symmetry is turned on.
 ------------------------------------------------------------------------------
 Polarizable Continuum Model (PCM)
 =================================
 Model                : PCM.
 Atomic radii         : SMD-Coulomb.
 Polarization charges : Total charges.
 Charge compensation  : None.
 Solution method      : On-the-fly selection.
 Cavity type          : VdW (van der Waals Surface) (Alpha=1.000).
 Cavity algorithm     : GePol (No added spheres)
                        Default sphere list used, NSphG=   12.
                        Lebedev-Laikov grids with approx.  5.0 points / Ang**2.
                        Smoothing algorithm: York/Karplus (Gamma=1.0000).
                        Polarization charges: spherical gaussians, with
                                              point-specific exponents (IZeta= 3).
                        Self-potential: point-specific (ISelfS= 7).
                        Self-field    : sphere-specific E.n sum rule (ISelfD= 2).
 1st derivatives      : Analytical E(r).r(x)/FMM algorithm (CHGder, D1EAlg=3).
                        Cavity 1st derivative terms included.
 Solvent              : Water, Eps=  78.355300 Eps(inf)=   1.777849
 ------------------------------------------------------------------------------
 Spheres list:
 ISph  on   Nord     Re0    Alpha      Xe            Ye            Ze
    1   C      1    1.8500  1.000     -0.000000      0.000000      1.412499
    2   C      2    1.8500  1.000      0.000000      1.221003      0.689517
    3   C      3    1.8500  1.000      0.000000      1.221003     -0.689517
    4   C      4    1.8500  1.000      0.000000     -0.000000     -1.412499
    5   C      5    1.8500  1.000     -0.000000     -1.221003     -0.689517
    6   C      6    1.8500  1.000     -0.000000     -1.221003      0.689517
    7  Cl      7    2.3800  1.000     -0.000000      0.000000      3.112123
    8  Cl      8    2.3800  1.000     -0.000000      2.696661      1.556428
    9  Cl      9    2.3800  1.000      0.000000      2.696661     -1.556428
   10  Cl     10    2.3800  1.000      0.000000     -0.000000     -3.112123
   11  Cl     11    2.3800  1.000     -0.000000     -2.696661     -1.556428
   12  Cl     12    2.3800  1.000     -0.000000     -2.696661      1.556428
 ------------------------------------------------------------------------------
 GePol: Number of generator spheres                  =      12
 GePol: Total number of spheres                      =      12
 GePol: Number of exposed spheres                    =      12 (100.00%)
 GePol: Number of points                             =    1862
 GePol: Average weight of points                     =       0.14
 GePol: Minimum weight of points                     =   0.15D-05
 GePol: Maximum weight of points                     =    0.18138
 GePol: Number of points with low weight             =      56
 GePol: Fraction of low-weight points (<1% of avg)   =       3.01%
 GePol: Cavity surface area                          =    267.157 Ang**2
 GePol: Cavity volume                                =    297.705 Ang**3
 ------------------------------------------------------------------------------
 Atomic radii for non-electrostatic terms: SMD-CDS.
 ------------------------------------------------------------------------------
 PCM non-electrostatic energy =         0.0050539666 Hartrees.
 Nuclear repulsion after PCM non-electrostatic terms =     1350.1517970736 Hartrees.
 Leave Link  301 at Mon Sep 28 02:46:22 2026, MaxMem=  1610612736 cpu:               0.3 elap:               0.0
 (Enter /share/software/user/restricted/gaussian/g16.B01/l302.exe)
 NPDir=0 NMtPBC=     1 NCelOv=     1 NCel=       1 NClECP=     1 NCelD=      1
         NCelK=      1 NCelE2=     1 NClLst=     1 CellRange=     0.0.
 One-electron integrals computed using PRISM.
 One-electron integral symmetry used in STVInt
 NBasis=   312 RedAO= T EigKep=  1.63D-06  NBF=    64    16    26    50    16    64    50    26
 NBsUse=   310 1.00D-06 EigRej=  2.41D-07 NBFU=    64    16    26    49    16    63    50    26
 Precomputing XC quadrature grid using
 IXCGrd= 4 IRadAn=           5 IRanWt=          -1 IRanGd=           0 AccXCQ= 0.00D+00.
 Generated NRdTot=       0 NPtTot=           0 NUsed=           0 NTot=          32
 NSgBfM=   314   314   314   314   314 MxSgAt=    12 MxSgA2=    12.
 Leave Link  302 at Mon Sep 28 02:46:22 2026, MaxMem=  1610612736 cpu:               1.1 elap:               0.1
 (Enter /share/software/user/restricted/gaussian/g16.B01/l303.exe)
 DipDrv:  MaxL=1.
 Leave Link  303 at Mon Sep 28 02:46:22 2026, MaxMem=  1610612736 cpu:               0.3 elap:               0.0
 (Enter /share/software/user/restricted/gaussian/g16.B01/l401.exe)
 ExpMin= 4.38D-02 ExpMax= 1.06D+05 ExpMxC= 3.62D+03 IAcc=3 IRadAn=         5 AccDes= 0.00D+00
 Harris functional with IExCor=  402 and IRadAn=       5 diagonalized for initial guess.
 HarFok:  IExCor=  402 AccDes= 0.00D+00 IRadAn=         5 IDoV= 1 UseB2=F ITyADJ=14
 ICtDFT=  3500011 ScaDFX=  1.000000  1.000000  1.000000  1.000000
 FoFCou: FMM=F IPFlag=           0 FMFlag=      100000 FMFlg1=           0
         NFxFlg=           0 DoJE=T BraDBF=F KetDBF=T FulRan=T
         wScrn=  0.000000 ICntrl=       500 IOpCl=  0 I1Cent=   200000004 NGrid=           0
         NMat0=    1 NMatS0=      1 NMatT0=    0 NMatD0=    1 NMtDS0=    0 NMtDT0=    0
 Petite list used in FoFCou.
 Harris En= -2989.67623272569    
 JPrj=0 DoOrth=F DoCkMO=F.
 Initial guess orbital symmetries:
 Alpha Orbitals:
       Occupied  (B1U) (AG) (B3G) (B1U) (B2U) (AG) (B2U) (AG) (B1U)
                 (B3G) (B1U) (AG) (B1U) (AG) (B3G) (B1U) (B2U)
                 (AG) (B1U) (AG) (B1U) (B3G) (B2U) (AG) (B2G) (B3U)
                 (B3G) (B2U) (B2G) (AU) (B1G) (B3U) (B3G) (B1U)
                 (AG) (B2U) (AG) (B2U) (B1U) (AG) (B3G) (AG) (B1U)
                 (B2U) (B1U) (AG) (B3G) (B2U) (AG) (B3U) (B1U)
                 (B2U) (B1U) (AG) (B3G) (B1G) (B2G) (B3U) (AU)
                 (B2U) (AG) (B3G) (B2G) (B3U) (B2U) (B1U) (B3G)
                 (B1G) (B2G) (B3U)
       Virtual   (AU) (AG) (B2U) (B1U) (AG) (B1U) (AG) (B3G) (B2U)
                 (B1U) (B2G) (B3U) (AG) (B2G) (B1G) (AG) (B3G)
                 (B2U) (B2U) (B1U) (B3U) (AU) (B1U) (AG) (B3G)
                 (B3U) (B2G) (AG) (B3G) (AG) (B2U) (B1U) (B1G)
                 (B2G) (AG) (B2U) (B1U) (AG) (B3U) (AU) (B1U) (B3G)
                 (B2U) (B3G) (B1U) (B2U) (AG) (B3G) (B2U) (B1U)
                 (B2G) (AG) (B3G) (AG) (B3G) (B1U) (B2U) (B1U)
                 (B3G) (AG) (B2U) (B1U) (B3U) (B2U) (B1G) (B2G)
                 (B1U) (AG) (B3G) (AG) (B3G) (B3U) (AU) (B2U) (B2U)
                 (B3U) (B2G) (B1U) (AG) (B1G) (B2G) (B1U) (AG)
                 (B3U) (AU) (B3G) (B3G) (B2U) (B1U) (B2G) (B3U)
                 (AG) (B1U) (B2G) (B1G) (B2U) (B1G) (B1U) (B3U)
                 (AU) (AU) (AG) (B1G) (B2G) (B3G) (AG) (B1U) (B2U)
                 (B3G) (B3U) (AU) (AG) (B3G) (B2U) (B1U) (B1U)
                 (B1G) (AG) (B3G) (AG) (B2U) (B1U) (AG) (B1U) (AG)
                 (B3G) (B2U) (B2G) (B2U) (B1U) (B3G) (AG) (B3U)
                 (B3U) (AU) (B1U) (B1G) (AG) (B2G) (B3G) (B1U)
                 (B2U) (B1U) (AG) (B2U) (B3G) (AG) (B2U) (B1U)
                 (B3U) (AG) (AU) (B3G) (B1G) (B1U) (B2U) (B2G)
                 (B2G) (AG) (B3G) (B2U) (B1U) (B3U) (B1G) (B2G)
                 (AU) (B3U) (AU) (AG) (B3G) (B2G) (B1U) (B3G) (B2U)
                 (B2U) (B1U) (AG) (B3G) (AG) (B3G) (B3U) (B2U)
                 (B1U) (B1U) (AG) (B3G) (B1G) (B2G) (B3U) (AU)
                 (B2U) (B2G) (B1U) (AG) (B1U) (B2U) (B3G) (AG)
                 (B3G) (AG) (B1U) (B1U) (B2U) (B3G) (AG) (B2U)
                 (B1U) (B3G) (AG) (B1U) (AG) (B2U) (B1U) (AG) (B3G)
                 (B1U) (B3U) (B1G) (B2G) (AU) (B3U) (B2G) (B2U)
                 (B1U) (B2U) (AG) (B3G) (AG) (B3G) (B2U) (B1U)
                 (AG) (B3G) (B1U) (AG) (B2U) (B1U) (B3G) (AG) (B1U)
 Beta  Orbitals:
       Occupied  (B1U) (AG) (B3G) (B1U) (B2U) (AG) (B2U) (AG) (B1U)
                 (B3G) (B1U) (AG) (B1U) (AG) (B3G) (B1U) (B2U)
                 (AG) (B1U) (AG) (B1U) (B3G) (B2U) (AG) (B2G) (B3U)
                 (B3G) (B2U) (B2G) (AU) (B1G) (B3U) (B3G) (B1U)
                 (AG) (B2U) (AG) (B2U) (B1U) (AG) (B3G) (AG) (B1U)
                 (B2U) (B1U) (AG) (B3G) (B2U) (AG) (B3U) (B1U)
                 (B2U) (B1U) (AG) (B3G) (B1G) (B2G) (B3U) (AU)
                 (B2U) (AG) (B3G) (B2G) (B3U) (B2U) (B1U) (B3G)
                 (B1G) (B2G)
       Virtual   (B3U) (AU) (AG) (B2U) (B1U) (AG) (B1U) (AG) (B3G)
                 (B2U) (B1U) (B2G) (B3U) (AG) (B2G) (B1G) (AG)
                 (B3G) (B2U) (B2U) (B1U) (B3U) (AU) (B1U) (AG)
                 (B3G) (B3U) (B2G) (AG) (B3G) (AG) (B2U) (B1U)
                 (B1G) (B2G) (AG) (B2U) (B1U) (AG) (B3U) (AU) (B1U)
                 (B3G) (B2U) (B3G) (B1U) (B2U) (AG) (B3G) (B2U)
                 (B1U) (B2G) (AG) (B3G) (AG) (B3G) (B1U) (B2U)
                 (B1U) (B3G) (AG) (B2U) (B1U) (B3U) (B2U) (B1G)
                 (B2G) (B1U) (AG) (B3G) (AG) (B3G) (B3U) (AU) (B2U)
                 (B2U) (B3U) (B2G) (B1U) (AG) (B1G) (B2G) (B1U)
                 (AG) (B3U) (AU) (B3G) (B3G) (B2U) (B1U) (B2G)
                 (B3U) (AG) (B1U) (B2G) (B1G) (B2U) (B1G) (B1U)
                 (B3U) (AU) (AU) (AG) (B1G) (B2G) (B3G) (AG) (B1U)
                 (B2U) (B3G) (B3U) (AU) (AG) (B3G) (B2U) (B1U)
                 (B1U) (B1G) (AG) (B3G) (AG) (B2U) (B1U) (AG) (B1U)
                 (AG) (B3G) (B2U) (B2G) (B2U) (B1U) (B3G) (AG)
                 (B3U) (B3U) (AU) (B1U) (B1G) (AG) (B2G) (B3G)
                 (B1U) (B2U) (B1U) (AG) (B2U) (B3G) (AG) (B2U)
                 (B1U) (B3U) (AG) (AU) (B3G) (B1G) (B1U) (B2U)
                 (B2G) (B2G) (AG) (B3G) (B2U) (B1U) (B3U) (B1G)
                 (B2G) (AU) (B3U) (AU) (AG) (B3G) (B2G) (B1U) (B3G)
                 (B2U) (B2U) (B1U) (AG) (B3G) (AG) (B3G) (B3U)
                 (B2U) (B1U) (B1U) (AG) (B3G) (B1G) (B2G) (B3U)
                 (AU) (B2U) (B2G) (B1U) (AG) (B1U) (B2U) (B3G)
                 (AG) (B3G) (AG) (B1U) (B1U) (B2U) (B3G) (AG) (B2U)
                 (B1U) (B3G) (AG) (B1U) (AG) (B2U) (B1U) (AG) (B3G)
                 (B1U) (B3U) (B1G) (B2G) (AU) (B3U) (B2G) (B2U)
                 (B1U) (B2U) (AG) (B3G) (AG) (B3G) (B2U) (B1U)
                 (AG) (B3G) (B1U) (AG) (B2U) (B1U) (B3G) (AG) (B1U)
 The electronic state of the initial guess is 2-B3U.
 Initial guess <Sx>= 0.0000 <Sy>= 0.0000 <Sz>= 0.5000 <S**2>= 0.7500 S= 0.5000
 Leave Link  401 at Mon Sep 28 02:46:23 2026, MaxMem=  1610612736 cpu:               2.3 elap:               0.3
 (Enter /share/software/user/restricted/gaussian/g16.B01/l502.exe)
 Keep R1 and R2 ints in memory in symmetry-blocked form, NReq=1348300735.
 FoFCou: FMM=F IPFlag=           0 FMFlag=           0 FMFlg1=           0
         NFxFlg=           0 DoJE=F BraDBF=F KetDBF=F FulRan=T
         wScrn=  0.000000 ICntrl=       600 IOpCl=  0 I1Cent=           0 NGrid=           0
         NMat0=    1 NMatS0=  48828 NMatT0=    0 NMatD0=    1 NMtDS0=    0 NMtDT0=    0
 Petite list used in FoFCou.
 UHF open shell SCF:
 Using DIIS extrapolation, IDIIS=  1040.
 NGot=  1610612736 LenX=  1298136914 LenY=  1298031497
 Requested convergence on RMS density matrix=1.00D-08 within 128 cycles.
 Requested convergence on MAX density matrix=1.00D-06.
 Requested convergence on             energy=1.00D-06.
 No special actions if energy rises.

 Cycle   1  Pass 1  IDiag  1:
 Inv3:  Mode=1 IEnd=    10401132.
 Iteration    1 A*A^-1 deviation from unit magnitude is 5.33D-15 for   1861.
 Iteration    1 A*A^-1 deviation from orthogonality  is 1.66D-15 for   1848   1766.
 Iteration    1 A^-1*A deviation from unit magnitude is 5.33D-15 for   1861.
 Iteration    1 A^-1*A deviation from orthogonality  is 1.91D-15 for   1824    205.
 E= -2989.82318628802    
 DIIS: error= 4.07D-02 at cycle   1 NSaved=   1.
 NSaved= 1 IEnMin= 1 EnMin= -2989.82318628802     IErMin= 1 ErrMin= 4.07D-02
 ErrMax= 4.07D-02  0.00D+00 EMaxC= 1.00D-01 BMatC= 1.65D+00 BMatP= 1.65D+00
 IDIUse=3 WtCom= 5.93D-01 WtEn= 4.07D-01
 Coeff-Com:  0.100D+01
 Coeff-En:   0.100D+01
 Coeff:      0.100D+01
 Gap=     0.001 Goal=   None    Shift=    0.000
 Gap=     0.187 Goal=   None    Shift=    0.000
 GapD=    0.001 DampG=0.250 DampE=0.500 DampFc=0.2500 IDamp=-1.
 Damping current iteration by 2.50D-01
 RMSDP=1.95D-01 MaxDP=8.75D+00              OVMax= 7.95D-01

 Cycle   2  Pass 1  IDiag  1:
 E= -2989.91118555024     Delta-E=       -0.087999262219 Rises=F Damp=T
 DIIS: error= 1.61D-02 at cycle   2 NSaved=   2.
 NSaved= 2 IEnMin= 2 EnMin= -2989.91118555024     IErMin= 2 ErrMin= 1.61D-02
 ErrMax= 1.61D-02  0.00D+00 EMaxC= 1.00D-01 BMatC= 4.75D-01 BMatP= 1.65D+00
 IDIUse=3 WtCom= 8.39D-01 WtEn= 1.61D-01
 Coeff-Com: -0.685D+00 0.168D+01
 Coeff-En:   0.000D+00 0.100D+01
 Coeff:     -0.575D+00 0.157D+01
 Gap=     0.043 Goal=   None    Shift=    0.000
 Gap=     0.225 Goal=   None    Shift=    0.000
 RMSDP=4.92D-02 MaxDP=2.28D+00 DE=-8.80D-02 OVMax= 2.50D-01

 Cycle   3  Pass 1  IDiag  1:
 E= -2990.04582923092     Delta-E=       -0.134643680675 Rises=F Damp=F
 DIIS: error= 1.25D-02 at cycle   3 NSaved=   3.
 NSaved= 3 IEnMin= 3 EnMin= -2990.04582923092     IErMin= 3 ErrMin= 1.25D-02
 ErrMax= 1.25D-02  0.00D+00 EMaxC= 1.00D-01 BMatC= 9.56D-02 BMatP= 4.75D-01
 IDIUse=3 WtCom= 8.75D-01 WtEn= 1.25D-01
 Coeff-Com: -0.436D+00 0.670D+00 0.767D+00
 Coeff-En:   0.000D+00 0.000D+00 0.100D+01
 Coeff:     -0.382D+00 0.586D+00 0.796D+00
 Gap=     0.034 Goal=   None    Shift=    0.000
 Gap=     0.181 Goal=   None    Shift=    0.000
 RMSDP=8.77D-03 MaxDP=4.01D-01 DE=-1.35D-01 OVMax= 4.57D-02

 Cycle   4  Pass 1  IDiag  1:
 E= -2990.07126593869     Delta-E=       -0.025436707775 Rises=F Damp=F
 DIIS: error= 3.99D-03 at cycle   4 NSaved=   4.
 NSaved= 4 IEnMin= 4 EnMin= -2990.07126593869     IErMin= 4 ErrMin= 3.99D-03
 ErrMax= 3.99D-03  0.00D+00 EMaxC= 1.00D-01 BMatC= 8.92D-03 BMatP= 9.56D-02
 IDIUse=3 WtCom= 9.60D-01 WtEn= 3.99D-02
 Coeff-Com: -0.156D+00 0.219D+00 0.375D+00 0.561D+00
 Coeff-En:   0.000D+00 0.000D+00 0.000D+00 0.100D+01
 Coeff:     -0.150D+00 0.211D+00 0.360D+00 0.579D+00
 Gap=     0.046 Goal=   None    Shift=    0.000
 Gap=     0.182 Goal=   None    Shift=    0.000
 RMSDP=3.56D-03 MaxDP=2.87D-01 DE=-2.54D-02 OVMax= 1.64D-02

 Cycle   5  Pass 1  IDiag  1:
 E= -2990.07334045928     Delta-E=       -0.002074520587 Rises=F Damp=F
 DIIS: error= 1.37D-03 at cycle   5 NSaved=   5.
 NSaved= 5 IEnMin= 5 EnMin= -2990.07334045928     IErMin= 5 ErrMin= 1.37D-03
 ErrMax= 1.37D-03  0.00D+00 EMaxC= 1.00D-01 BMatC= 6.70D-04 BMatP= 8.92D-03
 IDIUse=3 WtCom= 9.86D-01 WtEn= 1.37D-02
 Coeff-Com: -0.524D-01 0.702D-01 0.123D+00 0.278D+00 0.581D+00
 Coeff-En:   0.000D+00 0.000D+00 0.000D+00 0.000D+00 0.100D+01
 Coeff:     -0.517D-01 0.693D-01 0.121D+00 0.274D+00 0.587D+00
 Gap=     0.048 Goal=   None    Shift=    0.000
 Gap=     0.180 Goal=   None    Shift=    0.000
 RMSDP=5.13D-04 MaxDP=3.81D-02 DE=-2.07D-03 OVMax= 6.10D-03

 Cycle   6  Pass 1  IDiag  1:
 E= -2990.07350784872     Delta-E=       -0.000167389436 Rises=F Damp=F
 DIIS: error= 4.95D-04 at cycle   6 NSaved=   6.
 NSaved= 6 IEnMin= 6 EnMin= -2990.07350784872     IErMin= 6 ErrMin= 4.95D-04
 ErrMax= 4.95D-04  0.00D+00 EMaxC= 1.00D-01 BMatC= 7.69D-05 BMatP= 6.70D-04
 IDIUse=3 WtCom= 9.95D-01 WtEn= 4.95D-03
 Coeff-Com:  0.916D-02-0.140D-01-0.377D-01-0.317D-01 0.232D+00 0.842D+00
 Coeff-En:   0.000D+00 0.000D+00 0.000D+00 0.000D+00 0.000D+00 0.100D+01
 Coeff:      0.912D-02-0.139D-01-0.375D-01-0.315D-01 0.231D+00 0.843D+00
 Gap=     0.050 Goal=   None    Shift=    0.000
 Gap=     0.180 Goal=   None    Shift=    0.000
 RMSDP=1.93D-04 MaxDP=2.04D-02 DE=-1.67D-04 OVMax= 3.39D-03

 Cycle   7  Pass 1  IDiag  1:
 E= -2990.07354045659     Delta-E=       -0.000032607879 Rises=F Damp=F
 DIIS: error= 9.37D-05 at cycle   7 NSaved=   7.
 NSaved= 7 IEnMin= 7 EnMin= -2990.07354045659     IErMin= 7 ErrMin= 9.37D-05
 ErrMax= 9.37D-05  0.00D+00 EMaxC= 1.00D-01 BMatC= 3.38D-06 BMatP= 7.69D-05
 IDIUse=1 WtCom= 1.00D+00 WtEn= 0.00D+00
 Coeff-Com:  0.170D-02-0.176D-02-0.486D-02-0.271D-01-0.654D-01-0.469D-01
 Coeff-Com:  0.114D+01
 Coeff:      0.170D-02-0.176D-02-0.486D-02-0.271D-01-0.654D-01-0.469D-01
 Coeff:      0.114D+01
 Gap=     0.050 Goal=   None    Shift=    0.000
 Gap=     0.180 Goal=   None    Shift=    0.000
 RMSDP=7.55D-05 MaxDP=6.49D-03 DE=-3.26D-05 OVMax= 1.12D-03

 Cycle   8  Pass 1  IDiag  1:
 E= -2990.07354332982     Delta-E=       -0.000002873227 Rises=F Damp=F
 DIIS: error= 2.13D-05 at cycle   8 NSaved=   8.
 NSaved= 8 IEnMin= 8 EnMin= -2990.07354332982     IErMin= 8 ErrMin= 2.13D-05
 ErrMax= 2.13D-05  0.00D+00 EMaxC= 1.00D-01 BMatC= 3.36D-07 BMatP= 3.38D-06
 IDIUse=1 WtCom= 1.00D+00 WtEn= 0.00D+00
 Coeff-Com:  0.128D-02-0.169D-02-0.200D-02-0.444D-02-0.143D-01-0.448D-01
 Coeff-Com:  0.143D+00 0.923D+00
 Coeff:      0.128D-02-0.169D-02-0.200D-02-0.444D-02-0.143D-01-0.448D-01
 Coeff:      0.143D+00 0.923D+00
 Gap=     0.050 Goal=   None    Shift=    0.000
 Gap=     0.180 Goal=   None    Shift=    0.000
 RMSDP=2.19D-05 MaxDP=2.40D-03 DE=-2.87D-06 OVMax= 2.82D-04

 Cycle   9  Pass 1  IDiag  1:
 E= -2990.07354349326     Delta-E=       -0.000000163438 Rises=F Damp=F
 DIIS: error= 7.77D-06 at cycle   9 NSaved=   9.
 NSaved= 9 IEnMin= 9 EnMin= -2990.07354349326     IErMin= 9 ErrMin= 7.77D-06
 ErrMax= 7.77D-06  0.00D+00 EMaxC= 1.00D-01 BMatC= 6.77D-08 BMatP= 3.36D-07
 IDIUse=1 WtCom= 1.00D+00 WtEn= 0.00D+00
 Coeff-Com: -0.254D-03 0.320D-03 0.137D-02 0.309D-02 0.127D-02-0.206D-01
 Coeff-Com: -0.633D-01 0.290D+00 0.788D+00
 Coeff:     -0.254D-03 0.320D-03 0.137D-02 0.309D-02 0.127D-02-0.206D-01
 Coeff:     -0.633D-01 0.290D+00 0.788D+00
 Gap=     0.050 Goal=   None    Shift=    0.000
 Gap=     0.180 Goal=   None    Shift=    0.000
 RMSDP=1.08D-05 MaxDP=6.39D-04 DE=-1.63D-07 OVMax= 8.84D-05

 Cycle  10  Pass 1  IDiag  1:
 E= -2990.07354351442     Delta-E=       -0.000000021165 Rises=F Damp=F
 DIIS: error= 1.40D-06 at cycle  10 NSaved=  10.
 NSaved=10 IEnMin=10 EnMin= -2990.07354351442     IErMin=10 ErrMin= 1.40D-06
 ErrMax= 1.40D-06  0.00D+00 EMaxC= 1.00D-01 BMatC= 2.80D-09 BMatP= 6.77D-08
 IDIUse=1 WtCom= 1.00D+00 WtEn= 0.00D+00
 Coeff-Com: -0.805D-04 0.101D-03 0.287D-03 0.786D-03 0.103D-02-0.755D-03
 Coeff-Com: -0.241D-01 0.798D-02 0.163D+00 0.852D+00
 Coeff:     -0.805D-04 0.101D-03 0.287D-03 0.786D-03 0.103D-02-0.755D-03
 Coeff:     -0.241D-01 0.798D-02 0.163D+00 0.852D+00
 Gap=     0.050 Goal=   None    Shift=    0.000
 Gap=     0.180 Goal=   None    Shift=    0.000
 RMSDP=2.42D-06 MaxDP=1.85D-04 DE=-2.12D-08 OVMax= 2.18D-05

 Cycle  11  Pass 1  IDiag  1:
 E= -2990.07354351539     Delta-E=       -0.000000000964 Rises=F Damp=F
 DIIS: error= 6.85D-07 at cycle  11 NSaved=  11.
 NSaved=11 IEnMin=11 EnMin= -2990.07354351539     IErMin=11 ErrMin= 6.85D-07
 ErrMax= 6.85D-07  0.00D+00 EMaxC= 1.00D-01 BMatC= 5.62D-10 BMatP= 2.80D-09
 IDIUse=1 WtCom= 1.00D+00 WtEn= 0.00D+00
 Coeff-Com:  0.767D-05-0.108D-04-0.719D-04-0.768D-04 0.203D-03 0.209D-02
 Coeff-Com: -0.310D-02-0.244D-01-0.234D-01 0.310D+00 0.739D+00
 Coeff:      0.767D-05-0.108D-04-0.719D-04-0.768D-04 0.203D-03 0.209D-02
 Coeff:     -0.310D-02-0.244D-01-0.234D-01 0.310D+00 0.739D+00
 Gap=     0.050 Goal=   None    Shift=    0.000
 Gap=     0.180 Goal=   None    Shift=    0.000
 RMSDP=7.98D-07 MaxDP=6.65D-05 DE=-9.64D-10 OVMax= 5.04D-06

 Cycle  12  Pass 1  IDiag  1:
 E= -2990.07354351553     Delta-E=       -0.000000000141 Rises=F Damp=F
 DIIS: error= 1.62D-07 at cycle  12 NSaved=  12.
 NSaved=12 IEnMin=12 EnMin= -2990.07354351553     IErMin=12 ErrMin= 1.62D-07
 ErrMax= 1.62D-07  0.00D+00 EMaxC= 1.00D-01 BMatC= 3.45D-11 BMatP= 5.62D-10
 IDIUse=1 WtCom= 1.00D+00 WtEn= 0.00D+00
 Coeff-Com:  0.512D-06 0.222D-06-0.218D-04-0.684D-04-0.945D-04 0.422D-03
 Coeff-Com:  0.170D-02-0.526D-02-0.213D-01-0.200D-01 0.173D+00 0.871D+00
 Coeff:      0.512D-06 0.222D-06-0.218D-04-0.684D-04-0.945D-04 0.422D-03
 Coeff:      0.170D-02-0.526D-02-0.213D-01-0.200D-01 0.173D+00 0.871D+00
 Gap=     0.050 Goal=   None    Shift=    0.000
 Gap=     0.180 Goal=   None    Shift=    0.000
 RMSDP=1.87D-07 MaxDP=1.33D-05 DE=-1.41D-10 OVMax= 1.09D-06

 Cycle  13  Pass 1  IDiag  1:
 E= -2990.07354351553     Delta-E=       -0.000000000005 Rises=F Damp=F
 DIIS: error= 4.28D-08 at cycle  13 NSaved=  13.
 NSaved=13 IEnMin=13 EnMin= -2990.07354351553     IErMin=13 ErrMin= 4.28D-08
 ErrMax= 4.28D-08  0.00D+00 EMaxC= 1.00D-01 BMatC= 1.72D-12 BMatP= 3.45D-11
 IDIUse=1 WtCom= 1.00D+00 WtEn= 0.00D+00
 Coeff-Com:  0.140D-05-0.199D-05-0.158D-05-0.207D-05-0.113D-04-0.904D-04
 Coeff-Com:  0.310D-03 0.137D-02 0.111D-02-0.271D-01-0.510D-01 0.753D-01
 Coeff-Com:  0.100D+01
 Coeff:      0.140D-05-0.199D-05-0.158D-05-0.207D-05-0.113D-04-0.904D-04
 Coeff:      0.310D-03 0.137D-02 0.111D-02-0.271D-01-0.510D-01 0.753D-01
 Coeff:      0.100D+01
 Gap=     0.050 Goal=   None    Shift=    0.000
 Gap=     0.180 Goal=   None    Shift=    0.000
 RMSDP=3.83D-08 MaxDP=3.63D-06 DE=-5.46D-12 OVMax= 3.65D-07

 Cycle  14  Pass 1  IDiag  1:
 E= -2990.07354351553     Delta-E=        0.000000000009 Rises=F Damp=F
 DIIS: error= 1.21D-08 at cycle  14 NSaved=  14.
 NSaved=14 IEnMin=13 EnMin= -2990.07354351553     IErMin=14 ErrMin= 1.21D-08
 ErrMax= 1.21D-08  0.00D+00 EMaxC= 1.00D-01 BMatC= 5.97D-14 BMatP= 1.72D-12
 IDIUse=1 WtCom= 1.00D+00 WtEn= 0.00D+00
 Coeff-Com: -0.272D-06 0.375D-06 0.191D-05 0.346D-05 0.416D-05-0.198D-04
 Coeff-Com: -0.570D-04 0.133D-03 0.557D-03 0.252D-02-0.435D-02-0.387D-01
 Coeff-Com: -0.567D-01 0.110D+01
 Coeff:     -0.272D-06 0.375D-06 0.191D-05 0.346D-05 0.416D-05-0.198D-04
 Coeff:     -0.570D-04 0.133D-03 0.557D-03 0.252D-02-0.435D-02-0.387D-01
 Coeff:     -0.567D-01 0.110D+01
 Gap=     0.050 Goal=   None    Shift=    0.000
 Gap=     0.180 Goal=   None    Shift=    0.000
 RMSDP=9.66D-09 MaxDP=7.07D-07 DE= 9.09D-12 OVMax= 1.21D-07

 Error on total polarization charges =  0.01425
 SCF Done:  E(UB3LYP) =  -2990.07354352     A.U. after   14 cycles
            NFock= 14  Conv=0.97D-08     -V/T= 2.0022
 <Sx>= 0.0000 <Sy>= 0.0000 <Sz>= 0.5000 <S**2>= 0.7588 S= 0.5044
 <L.S>=  0.00000000000    
 KE= 2.983365327969D+03 PE=-9.817143398405D+03 EE= 2.493552729846D+03
 SMD-CDS (non-electrostatic) energy       (kcal/mol) =       3.17
 (included in total energy above)
 Annihilation of the first spin contaminant:
 S**2 before annihilation     0.7588,   after     0.7500
 Leave Link  502 at Mon Sep 28 02:46:39 2026, MaxMem=  1610612736 cpu:             125.8 elap:              16.3
 (Enter /share/software/user/restricted/gaussian/g16.B01/l601.exe)
 Copying SCF densities to generalized density rwf, IOpCl= 1 IROHF=0.

 **********************************************************************

            Population analysis using the SCF Density.

 **********************************************************************

 Orbital symmetries:
 Alpha Orbitals:
       Occupied  (B3G) (B1U) (B2U) (AG) (B1U) (AG) (B2U) (AG) (B1U)
                 (B3G) (B1U) (AG) (B3G) (B1U) (B2U) (AG) (B1U)
                 (AG) (B1U) (B3G) (B2U) (AG) (B1U) (AG) (B2G) (AU)
                 (B1G) (B3U) (B3G) (B1U) (B2U) (AG) (B3U) (B2G)
                 (B3G) (B2U) (AG) (B2U) (B1U) (B3G) (AG) (B1U)
                 (AG) (B2U) (B1U) (AG) (B3G) (B2U) (AG) (B1U) (B2U)
                 (B3U) (B1U) (AG) (B3G) (B1G) (B2G) (AU) (B3U)
                 (AG) (B2G) (B2U) (B3G) (B1U) (B2U) (B3U) (B3G)
                 (B1G) (B2G) (B3U)
       Virtual   (AG) (AU) (B2U) (AG) (B1U) (AG) (B3G) (B1U) (B2U)
                 (B3U) (B1U) (AG) (B2G) (B1G) (B2U) (B2G) (B3U)
                 (B2U) (AU) (AG) (B3G) (B1U) (B3G) (AG) (B3U) (B1U)
                 (B2G) (AG) (AG) (B3G) (B2U) (B1U) (B1G) (B2G)
                 (AG) (B2U) (B1U) (B3U) (AU) (B3G) (B1U) (B2U)
                 (B1U) (B2U) (AG) (B3G) (AG) (B3G) (B2G) (B2U)
                 (AG) (B1U) (B3G) (AG) (B1U) (B2U) (B3G) (B1U)
                 (AG) (B3G) (B3U) (B2U) (B1G) (B2G) (B2U) (B1U)
                 (B1U) (AG) (B3G) (AU) (B3U) (B2U) (AG) (B2G) (B3G)
                 (B2U) (B1U) (B3U) (AG) (B1G) (B2G) (B3U) (AU)
                 (AG) (B3G) (B1U) (B3G) (B2U) (B2G) (B1U) (B3U)
                 (AG) (B1U) (B1G) (B2G) (B1G) (B3U) (AU) (AU) (B2U)
                 (AG) (B2G) (B1G) (B3G) (B1U) (B2U) (AG) (B1U)
                 (B3U) (AU) (B3G) (B2U) (AG) (B1U) (B3G) (B1U)
                 (B3G) (AG) (AG) (B2U) (B1U) (B1G) (AG) (B1U) (AG)
                 (B3G) (B2G) (B2U) (B2U) (B1U) (B3G) (AG) (B3U)
                 (B1U) (B3G) (AG) (B3U) (AU) (B1U) (B2U) (B1G)
                 (B2G) (B1U) (AG) (B2U) (B3G) (AG) (B2U) (B1U)
                 (B3U) (AU) (AG) (B3G) (B1U) (B1G) (B2U) (B2G)
                 (B2G) (AG) (B3G) (B2U) (B1U) (B3U) (B1G) (B2G)
                 (AU) (B3U) (AU) (AG) (B3G) (B2G) (B3G) (B2U) (B1U)
                 (B2U) (B1U) (AG) (AG) (B3G) (B3G) (B2U) (B1U)
                 (B3U) (B1U) (AG) (B3G) (B1G) (B2G) (B3U) (AU)
                 (B1U) (B2G) (B2U) (B1U) (AG) (B2U) (B3G) (AG)
                 (B3G) (AG) (B1U) (B1U) (B2U) (B3G) (AG) (B2U)
                 (B1U) (B3G) (AG) (B1U) (AG) (B2U) (B1U) (AG) (B3G)
                 (B1U) (B3U) (B1G) (B2G) (AU) (B3U) (B2G) (B2U)
                 (B1U) (B2U) (AG) (B3G) (AG) (B3G) (B2U) (B1U)
                 (B3G) (AG) (B1U) (AG) (B2U) (B1U) (B3G) (AG) (B1U)
 Beta  Orbitals:
       Occupied  (B3G) (B1U) (B2U) (AG) (B1U) (AG) (B2U) (AG) (B1U)
                 (B3G) (B1U) (AG) (B3G) (B1U) (B2U) (AG) (B1U)
                 (AG) (B1U) (B3G) (B2U) (AG) (B1U) (AG) (B2G) (AU)
                 (B1G) (B3U) (B3G) (B1U) (B2U) (AG) (B3G) (B2U)
                 (B2G) (B3U) (AG) (B2U) (B1U) (B3G) (AG) (B1U)
                 (AG) (B2U) (B1U) (AG) (B3G) (B2U) (AG) (B1U) (B2U)
                 (B1U) (B3U) (AG) (B3G) (B1G) (B2G) (AU) (B3U)
                 (AG) (B2U) (B3G) (B2G) (B1U) (B2U) (B3U) (B3G)
                 (B1G) (B2G)
       Virtual   (AG) (AU) (B3U) (B2U) (AG) (B1U) (B3G) (AG) (B1U)
                 (B2U) (B3U) (B1U) (AG) (B2G) (B1G) (B2U) (B3U)
                 (AU) (B2U) (B3G) (AG) (B1U) (B2G) (B3G) (AG) (B3U)
                 (B1U) (AG) (B2U) (B3G) (B1U) (B2G) (AG) (B1G)
                 (B2G) (AG) (B2U) (B1U) (AU) (B3U) (B3G) (B1U)
                 (B2U) (B1U) (B2U) (AG) (B3G) (AG) (B3G) (B2G)
                 (B2U) (AG) (B1U) (B3G) (B1U) (AG) (B2U) (B3G)
                 (B1U) (AG) (B3G) (B3U) (B2U) (B1G) (B2G) (B2U)
                 (B1U) (B1U) (B3G) (AG) (AU) (B3U) (B2U) (AG) (B2G)
                 (B3G) (B2U) (B1U) (B3U) (AG) (B1G) (B2G) (AU)
                 (AG) (B3U) (B3G) (B1U) (B3G) (B2U) (B1U) (B2G)
                 (B3U) (AG) (B1U) (B1G) (B2G) (B1G) (B3U) (AU)
                 (AU) (B2U) (B2G) (AG) (B1G) (B3G) (B1U) (B2U)
                 (AG) (B1U) (AU) (B3U) (B3G) (B2U) (B1U) (B3G)
                 (AG) (B1U) (B3G) (AG) (AG) (B2U) (B1U) (B1G) (AG)
                 (B1U) (B3G) (AG) (B2G) (B2U) (B2U) (B1U) (B3G)
                 (AG) (B3U) (B1U) (B3G) (AG) (B3U) (AU) (B1U) (B2U)
                 (B1G) (B2G) (B1U) (AG) (B2U) (B3G) (AG) (B2U)
                 (B1U) (B3U) (AU) (AG) (B3G) (B2U) (B1U) (B1G)
                 (B2G) (B2G) (B3G) (AG) (B2U) (B1U) (B3U) (B1G)
                 (B2G) (AU) (B3U) (AU) (AG) (B3G) (B2G) (B3G) (B2U)
                 (B1U) (B2U) (B1U) (AG) (B3G) (AG) (B3G) (B2U)
                 (B1U) (B3U) (B1U) (AG) (B3G) (B1G) (B2G) (AU)
                 (B3U) (B1U) (B2U) (B2G) (B1U) (AG) (B2U) (B3G)
                 (AG) (B3G) (AG) (B1U) (B1U) (B2U) (B3G) (AG) (B2U)
                 (B1U) (B3G) (AG) (B1U) (AG) (B2U) (B1U) (AG) (B3G)
                 (B1U) (B3U) (B1G) (B2G) (AU) (B3U) (B2G) (B2U)
                 (B1U) (B2U) (AG) (B3G) (AG) (B3G) (B2U) (B1U)
                 (B3G) (AG) (B1U) (AG) (B2U) (B1U) (B3G) (AG) (B1U)
 The electronic state is 2-B3U.
 Alpha  occ. eigenvalues -- -101.55336-101.55336-101.55336-101.55336-101.54498
 Alpha  occ. eigenvalues -- -101.54498 -10.22681 -10.22678 -10.22620 -10.22619
 Alpha  occ. eigenvalues --  -10.20135 -10.20134  -9.46903  -9.46903  -9.46902
 Alpha  occ. eigenvalues --   -9.46900  -9.46052  -9.46052  -7.23340  -7.23340
 Alpha  occ. eigenvalues --   -7.23340  -7.23340  -7.22467  -7.22467  -7.22403
 Alpha  occ. eigenvalues --   -7.22403  -7.22403  -7.22403  -7.22329  -7.22329
 Alpha  occ. eigenvalues --   -7.22329  -7.22329  -7.21564  -7.21564  -7.21509
 Alpha  occ. eigenvalues --   -7.21509  -0.93641  -0.90152  -0.89524  -0.85780
 Alpha  occ. eigenvalues --   -0.85476  -0.83682  -0.79287  -0.70625  -0.69445
 Alpha  occ. eigenvalues --   -0.59739  -0.58699  -0.51906  -0.50173  -0.46921
 Alpha  occ. eigenvalues --   -0.44468  -0.44168  -0.43591  -0.41152  -0.40707
 Alpha  occ. eigenvalues --   -0.38942  -0.38524  -0.34273  -0.34205  -0.33469
 Alpha  occ. eigenvalues --   -0.32916  -0.32812  -0.32730  -0.31185  -0.30790
 Alpha  occ. eigenvalues --   -0.29388  -0.28223  -0.23731  -0.23098  -0.07807
 Alpha virt. eigenvalues --   -0.02771  -0.01578   0.01089   0.01107   0.01352
 Alpha virt. eigenvalues --    0.03460   0.03483   0.04292   0.04722   0.04884
 Alpha virt. eigenvalues --    0.05475   0.05754   0.06849   0.06870   0.08227
 Alpha virt. eigenvalues --    0.09470   0.09613   0.09672   0.09714   0.09960
 Alpha virt. eigenvalues --    0.09960   0.10105   0.11263   0.11269   0.11495
 Alpha virt. eigenvalues --    0.12089   0.14371   0.15318   0.15488   0.15556
 Alpha virt. eigenvalues --    0.15593   0.15669   0.16083   0.16084   0.19017
 Alpha virt. eigenvalues --    0.19121   0.19275   0.19373   0.19826   0.20109
 Alpha virt. eigenvalues --    0.20352   0.22905   0.23143   0.23354   0.24786
 Alpha virt. eigenvalues --    0.24899   0.26303   0.26857   0.27543   0.28208
 Alpha virt. eigenvalues --    0.28551   0.28889   0.29081   0.29357   0.29539
 Alpha virt. eigenvalues --    0.29816   0.29999   0.30114   0.38995   0.39866
 Alpha virt. eigenvalues --    0.42328   0.43188   0.44744   0.44928   0.46079
 Alpha virt. eigenvalues --    0.46323   0.46808   0.47946   0.48166   0.48402
 Alpha virt. eigenvalues --    0.48575   0.49353   0.49839   0.49915   0.50349
 Alpha virt. eigenvalues --    0.50753   0.51046   0.53759   0.59152   0.59255
 Alpha virt. eigenvalues --    0.59821   0.61756   0.62315   0.62528   0.63676
 Alpha virt. eigenvalues --    0.65057   0.65921   0.66669   0.67824   0.67988
 Alpha virt. eigenvalues --    0.72459   0.76731   0.79595   0.81374   0.81388
 Alpha virt. eigenvalues --    0.84599   0.85325   0.85493   0.86294   0.86411
 Alpha virt. eigenvalues --    0.86599   0.86617   0.87044   0.87308   0.87391
 Alpha virt. eigenvalues --    0.87967   0.88012   0.88158   0.91571   0.91781
 Alpha virt. eigenvalues --    0.92647   0.93790   0.93978   0.94219   0.94450
 Alpha virt. eigenvalues --    0.94859   0.96422   0.96450   0.97760   0.98165
 Alpha virt. eigenvalues --    0.98971   0.99688   1.02872   1.03542   1.09793
 Alpha virt. eigenvalues --    1.09828   1.11503   1.11907   1.20804   1.21095
 Alpha virt. eigenvalues --    1.21355   1.21359   1.27640   1.30685   1.31845
 Alpha virt. eigenvalues --    1.31908   1.31931   1.32347   1.33583   1.33878
 Alpha virt. eigenvalues --    1.34806   1.35733   1.41160   1.48544   1.49555
 Alpha virt. eigenvalues --    1.55945   1.66267   1.72012   1.73113   1.79040
 Alpha virt. eigenvalues --    1.80347   1.81921   1.83120   1.86719   1.87198
 Alpha virt. eigenvalues --    1.87321   1.90399   1.98284   2.14566   2.15453
 Alpha virt. eigenvalues --    2.22121   2.23390   2.23889   2.25063   2.25510
 Alpha virt. eigenvalues --    2.28892   2.29606   2.29680   2.34077   2.34970
 Alpha virt. eigenvalues --    2.34972   2.39927   2.40052   2.40263   2.41906
 Alpha virt. eigenvalues --    2.42468   2.47828   2.49905   2.49923   2.54284
 Alpha virt. eigenvalues --    2.55927   2.56475   2.62632   2.67073   2.69107
 Alpha virt. eigenvalues --    2.69320   2.77825   2.78678   2.88967   2.89001
 Alpha virt. eigenvalues --    3.05103   3.09582   3.10375   3.18357   3.18578
 Alpha virt. eigenvalues --    3.18786   3.26018   3.28628   3.54765   3.58666
 Alpha virt. eigenvalues --    3.75526   3.91666   3.95263   4.83424   9.68684
 Alpha virt. eigenvalues --    9.80942   9.81651   9.84379   9.85217   9.85299
 Alpha virt. eigenvalues --   23.26109  23.76636  23.85559  23.92217  24.01321
 Alpha virt. eigenvalues --   24.04147  25.76878  25.80796  25.81416  25.86736
 Alpha virt. eigenvalues --   25.87333  25.96452  26.06029  26.06321  26.19481
 Alpha virt. eigenvalues --   26.20564  26.21036  26.31707  26.33173  26.57459
 Alpha virt. eigenvalues --   26.58094  26.82751  26.83257  27.09372 215.66774
 Alpha virt. eigenvalues --  215.80475 215.81166 215.84533 215.85376 215.85429
  Beta  occ. eigenvalues -- -101.55336-101.55336-101.55335-101.55335-101.54481
  Beta  occ. eigenvalues -- -101.54481 -10.22618 -10.22615 -10.22558 -10.22557
  Beta  occ. eigenvalues --  -10.19458 -10.19456  -9.46902  -9.46902  -9.46901
  Beta  occ. eigenvalues --   -9.46900  -9.46036  -9.46035  -7.23344  -7.23344
  Beta  occ. eigenvalues --   -7.23344  -7.23344  -7.22484  -7.22484  -7.22394
  Beta  occ. eigenvalues --   -7.22394  -7.22394  -7.22394  -7.22330  -7.22329
  Beta  occ. eigenvalues --   -7.22329  -7.22329  -7.21500  -7.21499  -7.21482
  Beta  occ. eigenvalues --   -7.21482  -0.93210  -0.89989  -0.89110  -0.85746
  Beta  occ. eigenvalues --   -0.85165  -0.83550  -0.79029  -0.70299  -0.68723
  Beta  occ. eigenvalues --   -0.58845  -0.58553  -0.51632  -0.49964  -0.46589
  Beta  occ. eigenvalues --   -0.44402  -0.43306  -0.42932  -0.40964  -0.40557
  Beta  occ. eigenvalues --   -0.38503  -0.37368  -0.34196  -0.33520  -0.33343
  Beta  occ. eigenvalues --   -0.32726  -0.32685  -0.32599  -0.31171  -0.30760
  Beta  occ. eigenvalues --   -0.28705  -0.28204  -0.22865  -0.20585
  Beta virt. eigenvalues --   -0.02592  -0.01253  -0.00090   0.01105   0.01146
  Beta virt. eigenvalues --    0.01411   0.03497   0.03561   0.04443   0.04749
  Beta virt. eigenvalues --    0.04915   0.05654   0.05811   0.06839   0.06850
  Beta virt. eigenvalues --    0.08196   0.09641   0.09682   0.09716   0.09972
  Beta virt. eigenvalues --    0.10062   0.10202   0.10716   0.11246   0.11350
  Beta virt. eigenvalues --    0.11563   0.12491   0.15296   0.15587   0.15678
  Beta virt. eigenvalues --    0.15713   0.15731   0.15997   0.16142   0.16369
  Beta virt. eigenvalues --    0.19010   0.19135   0.19273   0.19799   0.19811
  Beta virt. eigenvalues --    0.20094   0.20409   0.23033   0.23332   0.23338
  Beta virt. eigenvalues --    0.24836   0.24847   0.26635   0.26865   0.27524
  Beta virt. eigenvalues --    0.28399   0.28731   0.28994   0.29054   0.29537
  Beta virt. eigenvalues --    0.29748   0.29850   0.30001   0.30151   0.39017
  Beta virt. eigenvalues --    0.39957   0.42395   0.43259   0.44760   0.45012
  Beta virt. eigenvalues --    0.46139   0.46670   0.47131   0.48194   0.48241
  Beta virt. eigenvalues --    0.48388   0.48642   0.49369   0.49940   0.50116
  Beta virt. eigenvalues --    0.50348   0.50827   0.51145   0.54488   0.59227
  Beta virt. eigenvalues --    0.59582   0.60913   0.62525   0.62832   0.63540
  Beta virt. eigenvalues --    0.63906   0.65529   0.66127   0.66918   0.68054
  Beta virt. eigenvalues --    0.68674   0.72819   0.77035   0.79736   0.81565
  Beta virt. eigenvalues --    0.81987   0.84781   0.85545   0.85644   0.86463
  Beta virt. eigenvalues --    0.86627   0.86679   0.86735   0.87232   0.87344
  Beta virt. eigenvalues --    0.87767   0.88042   0.88246   0.88441   0.91996
  Beta virt. eigenvalues --    0.92034   0.92754   0.93823   0.94289   0.94464
  Beta virt. eigenvalues --    0.94717   0.95021   0.96431   0.96731   0.97843
  Beta virt. eigenvalues --    0.98228   0.99259   1.00730   1.03135   1.03827
  Beta virt. eigenvalues --    1.09857   1.10174   1.11778   1.11973   1.20850
  Beta virt. eigenvalues --    1.21324   1.21464   1.21557   1.28337   1.30856
  Beta virt. eigenvalues --    1.31867   1.32143   1.32663   1.33449   1.33791
  Beta virt. eigenvalues --    1.33971   1.35133   1.37004   1.41582   1.49639
  Beta virt. eigenvalues --    1.49703   1.55972   1.66409   1.72112   1.73501
  Beta virt. eigenvalues --    1.80685   1.80750   1.82144   1.83413   1.87699
  Beta virt. eigenvalues --    1.88288   1.89064   1.90998   1.99269   2.15708
  Beta virt. eigenvalues --    2.16177   2.22376   2.23435   2.23984   2.25105
  Beta virt. eigenvalues --    2.25710   2.29242   2.29861   2.30647   2.34345
  Beta virt. eigenvalues --    2.35012   2.35196   2.39983   2.40068   2.41177
  Beta virt. eigenvalues --    2.42060   2.42638   2.47862   2.50009   2.50171
  Beta virt. eigenvalues --    2.54462   2.55956   2.56525   2.63911   2.67183
  Beta virt. eigenvalues --    2.69246   2.69319   2.78323   2.80807   2.89491
  Beta virt. eigenvalues --    2.91268   3.05376   3.10611   3.10967   3.18732
  Beta virt. eigenvalues --    3.18824   3.18901   3.26196   3.28887   3.55005
  Beta virt. eigenvalues --    3.59217   3.75871   3.92010   3.95981   4.84128
  Beta virt. eigenvalues --    9.68701   9.80948   9.81676   9.84383   9.85252
  Beta virt. eigenvalues --    9.85325  23.26386  23.76716  23.86241  23.92749
  Beta virt. eigenvalues --   24.01406  24.04298  25.76920  25.80810  25.81492
  Beta virt. eigenvalues --   25.86748  25.87416  25.96501  26.06037  26.06322
  Beta virt. eigenvalues --   26.19487  26.20565  26.21044  26.31705  26.33179
  Beta virt. eigenvalues --   26.57461  26.58094  26.82750  26.83261  27.09376
  Beta virt. eigenvalues --  215.66779 215.80476 215.81174 215.84534 215.85388
  Beta virt. eigenvalues --  215.85437
          Condensed to atoms (all electrons):
               1          2          3          4          5          6
     1  C   16.402972  -1.937284  -3.869245   2.682117  -3.869245  -1.937284
     2  C   -1.937284  15.493720  -2.451316  -3.869245   3.949791  -3.976028
     3  C   -3.869245  -2.451316  15.493720  -1.937284  -3.976028   3.949791
     4  C    2.682117  -3.869245  -1.937284  16.402972  -1.937284  -3.869245
     5  C   -3.869245   3.949791  -3.976028  -1.937284  15.493720  -2.451316
     6  C   -1.937284  -3.976028   3.949791  -3.869245  -2.451316  15.493720
     7  Cl  -0.474329   0.063106  -0.440720   0.460712  -0.440720   0.063106
     8  Cl  -0.007380  -0.116117  -0.038783  -0.380518   0.504112  -0.570594
     9  Cl  -0.380518  -0.038783  -0.116117  -0.007380  -0.570594   0.504112
    10  Cl   0.460712  -0.440720   0.063106  -0.474329   0.063106  -0.440720
    11  Cl  -0.380518   0.504112  -0.570594  -0.007380  -0.116117  -0.038783
    12  Cl  -0.007380  -0.570594   0.504112  -0.380518  -0.038783  -0.116117
               7          8          9         10         11         12
     1  C   -0.474329  -0.007380  -0.380518   0.460712  -0.380518  -0.007380
     2  C    0.063106  -0.116117  -0.038783  -0.440720   0.504112  -0.570594
     3  C   -0.440720  -0.038783  -0.116117   0.063106  -0.570594   0.504112
     4  C    0.460712  -0.380518  -0.007380  -0.474329  -0.007380  -0.380518
     5  C   -0.440720   0.504112  -0.570594   0.063106  -0.116117  -0.038783
     6  C    0.063106  -0.570594   0.504112  -0.440720  -0.038783  -0.116117
     7  Cl  17.897559  -0.273994  -0.026294   0.023161  -0.026294  -0.273994
     8  Cl  -0.273994  17.690588  -0.256042  -0.026294   0.019308  -0.021887
     9  Cl  -0.026294  -0.256042  17.690588  -0.273994  -0.021887   0.019308
    10  Cl   0.023161  -0.026294  -0.273994  17.897559  -0.273994  -0.026294
    11  Cl  -0.026294   0.019308  -0.021887  -0.273994  17.690588  -0.256042
    12  Cl  -0.273994  -0.021887   0.019308  -0.026294  -0.256042  17.690588
          Atomic-Atomic Spin Densities.
               1          2          3          4          5          6
     1  C    1.030805  -0.171743  -0.066498  -0.043687  -0.066498  -0.171743
     2  C   -0.171743   0.105004   0.164801  -0.066498  -0.041341   0.044711
     3  C   -0.066498   0.164801   0.105004  -0.171743   0.044711  -0.041341
     4  C   -0.043687  -0.066498  -0.171743   1.030805  -0.171743  -0.066498
     5  C   -0.066498  -0.041341   0.044711  -0.171743   0.105004   0.164801
     6  C   -0.171743   0.044711  -0.041341  -0.066498   0.164801   0.105004
     7  Cl  -0.249035   0.075141   0.018354  -0.046182   0.018354   0.075141
     8  Cl   0.079027  -0.041422  -0.038472   0.019378  -0.011926  -0.011650
     9  Cl   0.019378  -0.038472  -0.041422   0.079027  -0.011650  -0.011926
    10  Cl  -0.046182   0.018354   0.075141  -0.249035   0.075141   0.018354
    11  Cl   0.019378  -0.011926  -0.011650   0.079027  -0.041422  -0.038472
    12  Cl   0.079027  -0.011650  -0.011926   0.019378  -0.038472  -0.041422
               7          8          9         10         11         12
     1  C   -0.249035   0.079027   0.019378  -0.046182   0.019378   0.079027
     2  C    0.075141  -0.041422  -0.038472   0.018354  -0.011926  -0.011650
     3  C    0.018354  -0.038472  -0.041422   0.075141  -0.011650  -0.011926
     4  C   -0.046182   0.019378   0.079027  -0.249035   0.079027   0.019378
     5  C    0.018354  -0.011926  -0.011650   0.075141  -0.041422  -0.038472
     6  C    0.075141  -0.011650  -0.011926   0.018354  -0.038472  -0.041422
     7  Cl   0.176418  -0.018918  -0.000992   0.001205  -0.000992  -0.018918
     8  Cl  -0.018918   0.019939   0.008475  -0.000992   0.000545   0.000151
     9  Cl  -0.000992   0.008475   0.019939  -0.018918   0.000151   0.000545
    10  Cl   0.001205  -0.000992  -0.018918   0.176418  -0.018918  -0.000992
    11  Cl  -0.000992   0.000545   0.000151  -0.018918   0.019939   0.008475
    12  Cl  -0.018918   0.000151   0.000545  -0.000992   0.008475   0.019939
 Mulliken charges and spin densities:
               1          2
     1  C   -0.682618   0.412230
     2  C   -0.610642   0.024961
     3  C   -0.610642   0.024961
     4  C   -0.682618   0.412230
     5  C   -0.610642   0.024961
     6  C   -0.610642   0.024961
     7  Cl   0.448699   0.029577
     8  Cl   0.477601   0.004136
     9  Cl   0.477601   0.004136
    10  Cl   0.448699   0.029577
    11  Cl   0.477601   0.004136
    12  Cl   0.477601   0.004136
 Sum of Mulliken charges =  -1.00000   1.00000
 Mulliken charges and spin densities with hydrogens summed into heavy atoms:
               1          2
     1  C   -0.682618   0.412230
     2  C   -0.610642   0.024961
     3  C   -0.610642   0.024961
     4  C   -0.682618   0.412230
     5  C   -0.610642   0.024961
     6  C   -0.610642   0.024961
     7  Cl   0.448699   0.029577
     8  Cl   0.477601   0.004136
     9  Cl   0.477601   0.004136
    10  Cl   0.448699   0.029577
    11  Cl   0.477601   0.004136
    12  Cl   0.477601   0.004136
 Electronic spatial extent (au):  <R**2>=           4064.8424
 Charge=             -1.0000 electrons
 Dipole moment (field-independent basis, Debye):
    X=             -0.0000    Y=              0.0000    Z=              0.0000  Tot=              0.0000
 Quadrupole moment (field-independent basis, Debye-Ang):
   XX=           -115.0981   YY=           -128.5463   ZZ=           -133.9649
   XY=             -0.0000   XZ=              0.0000   YZ=              0.0000
 Traceless Quadrupole moment (field-independent basis, Debye-Ang):
   XX=             10.7716   YY=             -2.6765   ZZ=             -8.0951
   XY=             -0.0000   XZ=              0.0000   YZ=              0.0000
 Octapole moment (field-independent basis, Debye-Ang**2):
  XXX=              0.0000  YYY=              0.0000  ZZZ=             -0.0000  XYY=              0.0000
  XXY=             -0.0000  XXZ=             -0.0000  XZZ=             -0.0000  YZZ=              0.0000
  YYZ=              0.0000  XYZ=              0.0000
 Hexadecapole moment (field-independent basis, Debye-Ang**3):
 XXXX=           -140.7223 YYYY=          -2632.4147 ZZZZ=          -2705.8089 XXXY=             -0.0000
 XXXZ=              0.0000 YYYX=             -0.0000 YYYZ=              0.0000 ZZZX=              0.0000
 ZZZY=              0.0000 XXYY=           -468.8001 XXZZ=           -475.6846 YYZZ=           -876.5902
 XXYZ=             -0.0000 YYXZ=              0.0000 ZZXY=             -0.0000
 N-N= 1.350151797074D+03 E-N=-9.817143401609D+03  KE= 2.983365327969D+03
 Symmetry AG   KE= 8.532520296678D+02
 Symmetry B1G  KE= 4.819831083088D+01
 Symmetry B2G  KE= 9.404469254387D+01
 Symmetry B3G  KE= 4.969165807191D+02
 Symmetry AU   KE= 4.562131543534D+01
 Symmetry B1U  KE= 8.516562073000D+02
 Symmetry B2U  KE= 4.987837477083D+02
 Symmetry B3U  KE= 9.489244376388D+01
 Symmetry AG   SP= 4.557625097094D-14
 Symmetry B1G  SP= 3.507853119848D-15
 Symmetry B2G  SP=-1.348654498354D-14
 Symmetry B3G  SP=-2.859754859981D-15
 Symmetry AU   SP= 1.372154490446D-15
 Symmetry B1U  SP=-2.645063506890D-15
 Symmetry B2U  SP= 2.138422946764D-14
 Symmetry B3U  SP= 1.000000000000D+00
                          Isotropic Fermi Contact Couplings
        Atom                 a.u.       MegaHertz       Gauss      10(-4) cm-1
     1  C(13)              0.03184      35.79203      12.77149      11.93894
     2  C(13)             -0.01207     -13.57028      -4.84221      -4.52656
     3  C(13)             -0.01207     -13.57028      -4.84221      -4.52656
     4  C(13)              0.03184      35.79203      12.77149      11.93894
     5  C(13)             -0.01207     -13.57028      -4.84221      -4.52656
     6  C(13)             -0.01207     -13.57028      -4.84221      -4.52656
     7  Cl(35)            -0.00013      -0.05575      -0.01989      -0.01860
     8  Cl(35)            -0.00101      -0.44211      -0.15776      -0.14747
     9  Cl(35)            -0.00101      -0.44211      -0.15776      -0.14747
    10  Cl(35)            -0.00013      -0.05575      -0.01989      -0.01860
    11  Cl(35)            -0.00101      -0.44211      -0.15776      -0.14747
    12  Cl(35)            -0.00101      -0.44211      -0.15776      -0.14747
 --------------------------------------------------------
       Center         ----  Spin Dipole Couplings  ----
                      3XX-RR        3YY-RR        3ZZ-RR
 --------------------------------------------------------
     1   Atom        0.561897     -0.285530     -0.276367
     2   Atom        0.074937     -0.035852     -0.039084
     3   Atom        0.074937     -0.035852     -0.039084
     4   Atom        0.561897     -0.285530     -0.276367
     5   Atom        0.074937     -0.035852     -0.039084
     6   Atom        0.074937     -0.035852     -0.039084
     7   Atom        0.280293     -0.086841     -0.193452
     8   Atom        0.033949     -0.016934     -0.017015
     9   Atom        0.033949     -0.016934     -0.017015
    10   Atom        0.280293     -0.086841     -0.193452
    11   Atom        0.033949     -0.016934     -0.017015
    12   Atom        0.033949     -0.016934     -0.017015
 --------------------------------------------------------
                        XY            XZ            YZ
 --------------------------------------------------------
     1   Atom        0.000000      0.000000      0.000000
     2   Atom       -0.000000     -0.000000     -0.005613
     3   Atom       -0.000000      0.000000      0.005613
     4   Atom        0.000000     -0.000000      0.000000
     5   Atom        0.000000     -0.000000     -0.005613
     6   Atom        0.000000     -0.000000      0.005613
     7   Atom        0.000000     -0.000000      0.000000
     8   Atom        0.000000     -0.000000     -0.005396
     9   Atom       -0.000000      0.000000      0.005396
    10   Atom        0.000000      0.000000     -0.000000
    11   Atom        0.000000      0.000000     -0.005396
    12   Atom        0.000000     -0.000000      0.005396
 --------------------------------------------------------


 ---------------------------------------------------------------------------------
              Anisotropic Spin Dipole Couplings in Principal Axis System
 ---------------------------------------------------------------------------------

       Atom             a.u.   MegaHertz   Gauss  10(-4) cm-1        Axes

              Baa    -0.2855   -38.315   -13.672   -12.781  0.0000  1.0000 -0.0000
     1 C(13)  Bbb    -0.2764   -37.086   -13.233   -12.370  0.0000  0.0000  1.0000
              Bcc     0.5619    75.401    26.905    25.151  1.0000 -0.0000 -0.0000
 
              Baa    -0.0433    -5.812    -2.074    -1.939  0.0000  0.6014  0.7990
     2 C(13)  Bbb    -0.0316    -4.244    -1.514    -1.416  0.0000  0.7990 -0.6014
              Bcc     0.0749    10.056     3.588     3.354  1.0000 -0.0000  0.0000
 
              Baa    -0.0433    -5.812    -2.074    -1.939 -0.0000 -0.6014  0.7990
     3 C(13)  Bbb    -0.0316    -4.244    -1.514    -1.416  0.0000  0.7990  0.6014
              Bcc     0.0749    10.056     3.588     3.354  1.0000 -0.0000  0.0000
 
              Baa    -0.2855   -38.315   -13.672   -12.781 -0.0000  1.0000 -0.0000
     4 C(13)  Bbb    -0.2764   -37.086   -13.233   -12.370  0.0000  0.0000  1.0000
              Bcc     0.5619    75.401    26.905    25.151  1.0000  0.0000 -0.0000
 
              Baa    -0.0433    -5.812    -2.074    -1.939 -0.0000  0.6014  0.7990
     5 C(13)  Bbb    -0.0316    -4.244    -1.514    -1.416 -0.0000  0.7990 -0.6014
              Bcc     0.0749    10.056     3.588     3.354  1.0000  0.0000  0.0000
 
              Baa    -0.0433    -5.812    -2.074    -1.939  0.0000 -0.6014  0.7990
     6 C(13)  Bbb    -0.0316    -4.244    -1.514    -1.416 -0.0000  0.7990  0.6014
              Bcc     0.0749    10.056     3.588     3.354  1.0000  0.0000  0.0000
 
              Baa    -0.1935   -10.125    -3.613    -3.377  0.0000  0.0000  1.0000
     7 Cl(35) Bbb    -0.0868    -4.545    -1.622    -1.516  0.0000  1.0000  0.0000
              Bcc     0.2803    14.670     5.235     4.893  1.0000 -0.0000  0.0000
 
              Baa    -0.0224    -1.171    -0.418    -0.391  0.0000  0.7045  0.7097
     8 Cl(35) Bbb    -0.0116    -0.606    -0.216    -0.202  0.0000  0.7097 -0.7045
              Bcc     0.0339     1.777     0.634     0.593  1.0000 -0.0000  0.0000
 
              Baa    -0.0224    -1.171    -0.418    -0.391 -0.0000 -0.7045  0.7097
     9 Cl(35) Bbb    -0.0116    -0.606    -0.216    -0.202  0.0000  0.7097  0.7045
              Bcc     0.0339     1.777     0.634     0.593  1.0000 -0.0000  0.0000
 
              Baa    -0.1935   -10.125    -3.613    -3.377 -0.0000  0.0000  1.0000
    10 Cl(35) Bbb    -0.0868    -4.545    -1.622    -1.516 -0.0000  1.0000 -0.0000
              Bcc     0.2803    14.670     5.235     4.893  1.0000  0.0000  0.0000
 
              Baa    -0.0224    -1.171    -0.418    -0.391 -0.0000  0.7045  0.7097
    11 Cl(35) Bbb    -0.0116    -0.606    -0.216    -0.202 -0.0000  0.7097 -0.7045
              Bcc     0.0339     1.777     0.634     0.593  1.0000  0.0000  0.0000
 
              Baa    -0.0224    -1.171    -0.418    -0.391  0.0000 -0.7045  0.7097
    12 Cl(35) Bbb    -0.0116    -0.606    -0.216    -0.202 -0.0000  0.7097  0.7045
              Bcc     0.0339     1.777     0.634     0.593  1.0000  0.0000  0.0000
 

 ---------------------------------------------------------------------------------

 No NMR shielding tensors so no spin-rotation constants.
 Leave Link  601 at Mon Sep 28 02:46:40 2026, MaxMem=  1610612736 cpu:               2.2 elap:               0.3
 (Enter /share/software/user/restricted/gaussian/g16.B01/l701.exe)
 ... and contract with generalized density number  0.
 Compute integral first derivatives.
 D1PCM: PCM CHGder 1st derivatives, ID1Alg=3 FixD1E=F DoIter=F DoCFld=F I1PDM=0.
 GePol: Maximum number of non-zero 1st derivatives   =     314
 Leave Link  701 at Mon Sep 28 02:46:41 2026, MaxMem=  1610612736 cpu:               7.2 elap:               0.9
 (Enter /share/software/user/restricted/gaussian/g16.B01/l702.exe)
 L702 exits ... SP integral derivatives will be done elsewhere.
 Leave Link  702 at Mon Sep 28 02:46:41 2026, MaxMem=  1610612736 cpu:               0.2 elap:               0.0
 (Enter /share/software/user/restricted/gaussian/g16.B01/l703.exe)
 Integral derivatives from FoFJK, PRISM(SPDF).
 Compute integral first derivatives, UseDBF=F ICtDFT=           0.
 Calling FoFJK, ICntrl=      2127 FMM=F ISym2X=1 I1Cent= 0 IOpClX= 1 NMat=1 NMatS=1 NMatT=0.
 FoFJK:  IHMeth= 1 ICntrl=    2127 DoSepK=F KAlg= 0 I1Cent=           0 FoldK=F
 IRaf=         0 NMat=       1 IRICut=       1 DoRegI=T DoRafI=F ISym2E= 1 IDoP0=0 IntGTp=1.
 FoFCou: FMM=F IPFlag=           0 FMFlag=      100000 FMFlg1=         800
         NFxFlg=           0 DoJE=F BraDBF=F KetDBF=F FulRan=T
         wScrn=  0.000000 ICntrl=      2127 IOpCl=  1 I1Cent=           0 NGrid=           0
         NMat0=    1 NMatS0=      1 NMatT0=    0 NMatD0=    1 NMtDS0=    0 NMtDT0=    0
 Petite list used in FoFCou.
 Leave Link  703 at Mon Sep 28 02:46:43 2026, MaxMem=  1610612736 cpu:              16.7 elap:               2.1
 (Enter /share/software/user/restricted/gaussian/g16.B01/l716.exe)
 Dipole        =-4.34373102D-17 1.42108547D-14 1.42108547D-14
 ***** Axes restored to original set *****
 -------------------------------------------------------------------
 Center     Atomic                   Forces (Hartrees/Bohr)
 Number     Number              X              Y              Z
 -------------------------------------------------------------------
      1        6           0.000000000   -0.005756045   -0.000000000
      2        6          -0.004143300   -0.020633829   -0.000000000
      3        6          -0.004143300    0.020633829    0.000000000
      4        6           0.000000000    0.005756045   -0.000000000
      5        6           0.004143300    0.020633829   -0.000000000
      6        6           0.004143300   -0.020633829   -0.000000000
      7       17           0.000000000    0.029624912   -0.000000000
      8       17           0.019034076    0.010677167    0.000000000
      9       17           0.019034076   -0.010677167    0.000000000
     10       17           0.000000000   -0.029624912   -0.000000000
     11       17          -0.019034076   -0.010677167    0.000000000
     12       17          -0.019034076    0.010677167    0.000000000
 -------------------------------------------------------------------
 Cartesian Forces:  Max     0.029624912 RMS     0.012358549
 Leave Link  716 at Mon Sep 28 02:46:43 2026, MaxMem=  1610612736 cpu:               0.2 elap:               0.0
 (Enter /share/software/user/restricted/gaussian/g16.B01/l103.exe)

 GradGradGradGradGradGradGradGradGradGradGradGradGradGradGradGradGradGrad
 Berny optimization.
 FormGI is forming the generalized inverse of G from B-inverse, IUseBI=4.
 Internal  Forces:  Max     0.029624912 RMS     0.009770329
 Search for a local minimum.
 Step number   1 out of a maximum of   64
 All quantities printed in internal units (Hartrees-Bohrs-Radians)
 RMS Force = .97703D-02 SwitMx=.10000D-02 MixMth= 1
 Mixed Optimization -- RFO/linear search
 Second derivative matrix not updated -- first step.
 ITU=  0
     Eigenvalues ---    0.01837   0.01837   0.01837   0.02017   0.02018
     Eigenvalues ---    0.02106   0.02106   0.02189   0.02193   0.25000
     Eigenvalues ---    0.25000   0.25000   0.25000   0.25000   0.25000
     Eigenvalues ---    0.25000   0.25000   0.25000   0.34545   0.34545
     Eigenvalues ---    0.34545   0.34545   0.35936   0.35936   0.39542
     Eigenvalues ---    0.41003   0.42612   0.42612   0.47010   0.49279
 RFO step:  Lambda=-1.35019404D-02 EMin= 1.83746453D-02
 Linear search not attempted -- first point.
 Iteration  1 RMS(Cart)=  0.03544476 RMS(Int)=  0.00006800
 Iteration  2 RMS(Cart)=  0.00012467 RMS(Int)=  0.00000001
 Iteration  3 RMS(Cart)=  0.00000001 RMS(Int)=  0.00000000
 ITry= 1 IFail=0 DXMaxC= 1.19D-01 DCOld= 1.00D+10 DXMaxT= 3.00D-01 DXLimC= 3.00D+00 Rises=F
 ClnCor:  largest displacement from symmetrization is 3.17D-12 for atom    12.
 Variable       Old X    -DE/DX   Delta X   Delta X   Delta X     New X
                                 (Linear)    (Quad)   (Total)
    R1        2.68152   0.01889   0.00000   0.04298   0.04298   2.72449
    R2        2.68152   0.01889   0.00000   0.04298   0.04298   2.72449
    R3        3.21182   0.02962   0.00000   0.07945   0.07945   3.29128
    R4        2.60600   0.00198   0.00000   0.00391   0.00391   2.60990
    R5        3.23419   0.02182   0.00000   0.06079   0.06079   3.29498
    R6        2.68152   0.01889   0.00000   0.04298   0.04298   2.72449
    R7        3.23419   0.02182   0.00000   0.06079   0.06079   3.29498
    R8        2.68152   0.01889   0.00000   0.04298   0.04298   2.72449
    R9        3.21182   0.02962   0.00000   0.07945   0.07945   3.29128
   R10        2.60600   0.00198   0.00000   0.00391   0.00391   2.60990
   R11        3.23419   0.02182   0.00000   0.06079   0.06079   3.29498
   R12        3.23419   0.02182   0.00000   0.06079   0.06079   3.29498
    A1        2.07238  -0.00351   0.00000  -0.01332  -0.01332   2.05906
    A2        2.10540   0.00175   0.00000   0.00666   0.00666   2.11206
    A3        2.10540   0.00175   0.00000   0.00666   0.00666   2.11206
    A4        2.10540   0.00175   0.00000   0.00666   0.00666   2.11206
    A5        2.07583  -0.00017   0.00000  -0.00066  -0.00066   2.07517
    A6        2.10195  -0.00158   0.00000  -0.00600  -0.00600   2.09595
    A7        2.10540   0.00175   0.00000   0.00666   0.00666   2.11206
    A8        2.10195  -0.00158   0.00000  -0.00600  -0.00600   2.09595
    A9        2.07583  -0.00017   0.00000  -0.00066  -0.00066   2.07517
   A10        2.07238  -0.00351   0.00000  -0.01332  -0.01332   2.05906
   A11        2.10540   0.00175   0.00000   0.00666   0.00666   2.11206
   A12        2.10540   0.00175   0.00000   0.00666   0.00666   2.11206
   A13        2.10540   0.00175   0.00000   0.00666   0.00666   2.11206
   A14        2.07583  -0.00017   0.00000  -0.00066  -0.00066   2.07517
   A15        2.10195  -0.00158   0.00000  -0.00600  -0.00600   2.09595
   A16        2.10540   0.00175   0.00000   0.00666   0.00666   2.11206
   A17        2.07583  -0.00017   0.00000  -0.00066  -0.00066   2.07517
   A18        2.10195  -0.00158   0.00000  -0.00600  -0.00600   2.09595
    D1       -0.00000   0.00000   0.00000   0.00000   0.00000   0.00000
    D2        3.14159   0.00000   0.00000   0.00000   0.00000   3.14159
    D3        3.14159   0.00000   0.00000   0.00000   0.00000   3.14159
    D4       -0.00000   0.00000   0.00000   0.00000   0.00000   0.00000
    D5        0.00000  -0.00000   0.00000  -0.00000   0.00000   0.00000
    D6        3.14159  -0.00000   0.00000  -0.00000   0.00000   3.14159
    D7        3.14159  -0.00000   0.00000  -0.00000   0.00000   3.14159
    D8        0.00000  -0.00000   0.00000  -0.00000   0.00000   0.00000
    D9        0.00000   0.00000   0.00000   0.00000  -0.00000   0.00000
   D10        3.14159  -0.00000   0.00000  -0.00000   0.00000   3.14159
   D11        3.14159  -0.00000   0.00000  -0.00000   0.00000   3.14159
   D12       -0.00000  -0.00000   0.00000  -0.00000   0.00000   0.00000
   D13        0.00000  -0.00000   0.00000  -0.00000   0.00000   0.00000
   D14        3.14159  -0.00000   0.00000  -0.00000   0.00000   3.14159
   D15        3.14159  -0.00000   0.00000  -0.00000   0.00000   3.14159
   D16        0.00000  -0.00000   0.00000  -0.00000  -0.00000   0.00000
   D17       -0.00000   0.00000   0.00000   0.00000   0.00000   0.00000
   D18        3.14159   0.00000   0.00000   0.00000   0.00000   3.14159
   D19        3.14159   0.00000   0.00000   0.00000   0.00000   3.14159
   D20       -0.00000   0.00000   0.00000   0.00000   0.00000   0.00000
   D21        0.00000  -0.00000   0.00000  -0.00000   0.00000   0.00000
   D22        3.14159   0.00000   0.00000   0.00000   0.00000   3.14159
   D23        3.14159  -0.00000   0.00000  -0.00000   0.00000   3.14159
   D24        0.00000  -0.00000   0.00000  -0.00000   0.00000   0.00000
         Item               Value     Threshold  Converged?
 Maximum Force            0.029625     0.000450     NO 
 RMS     Force            0.009770     0.000300     NO 
 Maximum Displacement     0.118885     0.001800     NO 
 RMS     Displacement     0.035456     0.001200     NO 
 Predicted change in Energy=-6.991846D-03
 Lowest energy point so far.  Saving SCF results.
 GradGradGradGradGradGradGradGradGradGradGradGradGradGradGradGradGradGrad

 Leave Link  103 at Mon Sep 28 02:46:43 2026, MaxMem=  1610612736 cpu:               0.2 elap:               0.0
 (Enter /share/software/user/restricted/gaussian/g16.B01/l202.exe)
                          Input orientation:                          
 ---------------------------------------------------------------------
 Center     Atomic      Atomic             Coordinates (Angstroms)
 Number     Number       Type             X           Y           Z
 ---------------------------------------------------------------------
      1          6           0        0.000000    1.433365   -0.000000
      2          6           0        1.235653    0.690550   -0.000000
      3          6           0        1.235653   -0.690550   -0.000000
      4          6           0       -0.000000   -1.433365   -0.000000
      5          6           0       -1.235653   -0.690550   -0.000000
      6          6           0       -1.235653    0.690550   -0.000000
      7         17           0        0.000000    3.175034   -0.000000
      8         17           0        2.744320    1.564717   -0.000000
      9         17           0        2.744320   -1.564717   -0.000000
     10         17           0       -0.000000   -3.175034   -0.000000
     11         17           0       -2.744320   -1.564717   -0.000000
     12         17           0       -2.744320    1.564717   -0.000000
 ---------------------------------------------------------------------
                    Distance matrix (angstroms):
                    1          2          3          4          5
     1  C    0.000000
     2  C    1.441739   0.000000
     3  C    2.457205   1.381101   0.000000
     4  C    2.866730   2.457205   1.441739   0.000000
     5  C    2.457205   2.831041   2.471307   1.441739   0.000000
     6  C    1.441739   2.471307   2.831041   2.457205   1.381101
     7  Cl   1.741669   2.774797   4.058273   4.608399   4.058273
     8  Cl   2.747461   1.743629   2.713357   4.064454   4.574540
     9  Cl   4.064454   2.713357   1.743629   2.747461   4.074844
    10  Cl   4.608399   4.058273   2.774797   1.741669   2.774797
    11  Cl   4.064454   4.574540   4.074844   2.747461   1.743629
    12  Cl   2.747461   4.074844   4.574540   4.064454   2.713357
                    6          7          8          9         10
     6  C    0.000000
     7  Cl   2.774797   0.000000
     8  Cl   4.074844   3.181888   0.000000
     9  Cl   4.574540   5.476909   3.129434   0.000000
    10  Cl   4.058273   6.350068   5.476909   3.181888   0.000000
    11  Cl   2.713357   5.476909   6.318111   5.488639   3.181888
    12  Cl   1.743629   3.181888   5.488639   6.318111   5.476909
                   11         12
    11  Cl   0.000000
    12  Cl   3.129434   0.000000
 Stoichiometry    C6Cl6(1-,2)
 Framework group  D2H[C2"(ClC.CCl),SG(C4Cl4)]
 Deg. of freedom     6
 Full point group                 D2H     NOp   8
 RotChk:  IX=0 Diff= 2.67D-15
 Largest Abelian subgroup         D2H     NOp   8
 Largest concise Abelian subgroup D2      NOp   4
                         Standard orientation:                         
 ---------------------------------------------------------------------
 Center     Atomic      Atomic             Coordinates (Angstroms)
 Number     Number       Type             X           Y           Z
 ---------------------------------------------------------------------
      1          6           0        0.000000   -0.000000    1.433365
      2          6           0        0.000000    1.235653    0.690550
      3          6           0        0.000000    1.235653   -0.690550
      4          6           0        0.000000   -0.000000   -1.433365
      5          6           0       -0.000000   -1.235653   -0.690550
      6          6           0       -0.000000   -1.235653    0.690550
      7         17           0        0.000000   -0.000000    3.175034
      8         17           0        0.000000    2.744320    1.564717
      9         17           0        0.000000    2.744320   -1.564717
     10         17           0        0.000000   -0.000000   -3.175034
     11         17           0       -0.000000   -2.744320   -1.564717
     12         17           0       -0.000000   -2.744320    1.564717
 ---------------------------------------------------------------------
 Rotational constants (GHZ):           0.4513556           0.4485358           0.2249706
 Leave Link  202 at Mon Sep 28 02:46:43 2026, MaxMem=  1610612736 cpu:               0.0 elap:               0.0
 (Enter /share/software/user/restricted/gaussian/g16.B01/l301.exe)
 Standard basis: 6-311++G(d) (5D, 7F)
 Ernie: Thresh=  0.10000D-02 Tol=  0.10000D-05 Strict=F.
 There are    68 symmetry adapted cartesian basis functions of AG  symmetry.
 There are    16 symmetry adapted cartesian basis functions of B1G symmetry.
 There are    26 symmetry adapted cartesian basis functions of B2G symmetry.
 There are    52 symmetry adapted cartesian basis functions of B3G symmetry.
 There are    16 symmetry adapted cartesian basis functions of AU  symmetry.
 There are    68 symmetry adapted cartesian basis functions of B1U symmetry.
 There are    52 symmetry adapted cartesian basis functions of B2U symmetry.
 There are    26 symmetry adapted cartesian basis functions of B3U symmetry.
 There are    64 symmetry adapted basis functions of AG  symmetry.
 There are    16 symmetry adapted basis functions of B1G symmetry.
 There are    26 symmetry adapted basis functions of B2G symmetry.
 There are    50 symmetry adapted basis functions of B3G symmetry.
 There are    16 symmetry adapted basis functions of AU  symmetry.
 There are    64 symmetry adapted basis functions of B1U symmetry.
 There are    50 symmetry adapted basis functions of B2U symmetry.
 There are    26 symmetry adapted basis functions of B3U symmetry.
   312 basis functions,   534 primitive gaussians,   324 cartesian basis functions
    70 alpha electrons       69 beta electrons
       nuclear repulsion energy      1328.5759342370 Hartrees.
 IExCor=  402 DFT=T Ex+Corr=B3LYP ExCW=0 ScaHFX=  0.200000
 ScaDFX=  0.800000  0.720000  1.000000  0.810000 ScalE2=  1.000000  1.000000
 IRadAn=      5 IRanWt=     -1 IRanGd=            0 ICorTp=0 IEmpDi=  4
 NAtoms=   12 NActive=   12 NUniq=    4 SFac= 4.00D+00 NAtFMM=   60 NAOKFM=F Big=F
 Integral buffers will be    131072 words long.
 Raffenetti 2 integral format.
 Two-electron integral symmetry is turned on.
 ------------------------------------------------------------------------------
 Polarizable Continuum Model (PCM)
 =================================
 Model                : PCM.
 Atomic radii         : SMD-Coulomb.
 Polarization charges : Total charges.
 Charge compensation  : None.
 Solution method      : On-the-fly selection.
 Cavity type          : VdW (van der Waals Surface) (Alpha=1.000).
 Cavity algorithm     : GePol (No added spheres)
                        Default sphere list used, NSphG=   12.
                        Lebedev-Laikov grids with approx.  5.0 points / Ang**2.
                        Smoothing algorithm: York/Karplus (Gamma=1.0000).
                        Polarization charges: spherical gaussians, with
                                              point-specific exponents (IZeta= 3).
                        Self-potential: point-specific (ISelfS= 7).
                        Self-field    : sphere-specific E.n sum rule (ISelfD= 2).
 1st derivatives      : Analytical E(r).r(x)/FMM algorithm (CHGder, D1EAlg=3).
                        Cavity 1st derivative terms included.
 Solvent              : Water, Eps=  78.355300 Eps(inf)=   1.777849
 ------------------------------------------------------------------------------
 Spheres list:
 ISph  on   Nord     Re0    Alpha      Xe            Ye            Ze
    1   C      1    1.8500  1.000     -0.000000      0.000000      1.433365
    2   C      2    1.8500  1.000      0.000000      1.235653      0.690550
    3   C      3    1.8500  1.000      0.000000      1.235653     -0.690550
    4   C      4    1.8500  1.000      0.000000     -0.000000     -1.433365
    5   C      5    1.8500  1.000     -0.000000     -1.235653     -0.690550
    6   C      6    1.8500  1.000     -0.000000     -1.235653      0.690550
    7  Cl      7    2.3800  1.000     -0.000000      0.000000      3.175034
    8  Cl      8    2.3800  1.000     -0.000000      2.744320      1.564717
    9  Cl      9    2.3800  1.000      0.000000      2.744320     -1.564717
   10  Cl     10    2.3800  1.000      0.000000     -0.000000     -3.175034
   11  Cl     11    2.3800  1.000     -0.000000     -2.744320     -1.564717
   12  Cl     12    2.3800  1.000     -0.000000     -2.744320      1.564717
 ------------------------------------------------------------------------------
 GePol: Number of generator spheres                  =      12
 GePol: Total number of spheres                      =      12
 GePol: Number of exposed spheres                    =      12 (100.00%)
 GePol: Number of points                             =    1894
 GePol: Average weight of points                     =       0.14
 GePol: Minimum weight of points                     =   0.71D-06
 GePol: Maximum weight of points                     =    0.18138
 GePol: Number of points with low weight             =      56
 GePol: Fraction of low-weight points (<1% of avg)   =       2.96%
 GePol: Cavity surface area                          =    272.201 Ang**2
 GePol: Cavity volume                                =    302.966 Ang**3
 ------------------------------------------------------------------------------
 Atomic radii for non-electrostatic terms: SMD-CDS.
 ------------------------------------------------------------------------------
 PCM non-electrostatic energy =         0.0052178590 Hartrees.
 Nuclear repulsion after PCM non-electrostatic terms =     1328.5811520961 Hartrees.
 Leave Link  301 at Mon Sep 28 02:46:44 2026, MaxMem=  1610612736 cpu:               0.4 elap:               0.1
 (Enter /share/software/user/restricted/gaussian/g16.B01/l302.exe)
 NPDir=0 NMtPBC=     1 NCelOv=     1 NCel=       1 NClECP=     1 NCelD=      1
         NCelK=      1 NCelE2=     1 NClLst=     1 CellRange=     0.0.
 One-electron integrals computed using PRISM.
 One-electron integral symmetry used in STVInt
 NBasis=   312 RedAO= T EigKep=  1.93D-06  NBF=    64    16    26    50    16    64    50    26
 NBsUse=   310 1.00D-06 EigRej=  2.75D-07 NBFU=    64    16    26    49    16    63    50    26
 Precomputing XC quadrature grid using
 IXCGrd= 4 IRadAn=           5 IRanWt=          -1 IRanGd=           0 AccXCQ= 0.00D+00.
 Generated NRdTot=       0 NPtTot=           0 NUsed=           0 NTot=          32
 NSgBfM=   314   314   314   314   314 MxSgAt=    12 MxSgA2=    12.
 Leave Link  302 at Mon Sep 28 02:46:44 2026, MaxMem=  1610612736 cpu:               1.1 elap:               0.1
 (Enter /share/software/user/restricted/gaussian/g16.B01/l303.exe)
 DipDrv:  MaxL=1.
 Leave Link  303 at Mon Sep 28 02:46:44 2026, MaxMem=  1610612736 cpu:               0.2 elap:               0.0
 (Enter /share/software/user/restricted/gaussian/g16.B01/l401.exe)
 Initial guess from the checkpoint file:  "calcs/b3lyp_smd/chks/ClBz_123456_RA.chk"
 B after Tr=    -0.000000    0.000000   -0.000000
         Rot=    1.000000   -0.000000    0.000000   -0.000000 Ang=   0.00 deg.
 Guess basis will be translated and rotated to current coordinates.
 JPrj=2 DoOrth=T DoCkMO=T.
 Initial guess orbital symmetries:
 Alpha Orbitals:
       Occupied  (B3G) (B1U) (B2U) (AG) (B1U) (AG) (B2U) (AG) (B1U)
                 (B3G) (B1U) (AG) (B3G) (B1U) (B2U) (AG) (B1U)
                 (AG) (B1U) (B3G) (B2U) (AG) (B1U) (AG) (B2G) (AU)
                 (B1G) (B3U) (B3G) (B1U) (B2U) (AG) (B3U) (B2G)
                 (B3G) (B2U) (AG) (B2U) (B1U) (B3G) (AG) (B1U)
                 (AG) (B2U) (B1U) (AG) (B3G) (B2U) (AG) (B1U) (B2U)
                 (B3U) (B1U) (AG) (B3G) (B1G) (B2G) (AU) (B3U)
                 (AG) (B2G) (B2U) (B3G) (B1U) (B2U) (B3U) (B3G)
                 (B1G) (B2G) (B3U)
       Virtual   (AG) (AU) (B2U) (AG) (B1U) (AG) (B3G) (B1U) (B2U)
                 (B3U) (B1U) (AG) (B2G) (B1G) (B2U) (B2G) (B3U)
                 (B2U) (AU) (AG) (B3G) (B1U) (B3G) (AG) (B3U) (B1U)
                 (B2G) (AG) (AG) (B3G) (B2U) (B1U) (B1G) (B2G)
                 (AG) (B2U) (B1U) (B3U) (AU) (B3G) (B1U) (B2U)
                 (B1U) (B2U) (AG) (B3G) (AG) (B3G) (B2G) (B2U)
                 (AG) (B1U) (B3G) (AG) (B1U) (B2U) (B3G) (B1U)
                 (AG) (B3G) (B3U) (B2U) (B1G) (B2G) (B2U) (B1U)
                 (B1U) (AG) (B3G) (AU) (B3U) (B2U) (AG) (B2G) (B3G)
                 (B2U) (B1U) (B3U) (AG) (B1G) (B2G) (B3U) (AU)
                 (AG) (B3G) (B1U) (B3G) (B2U) (B2G) (B1U) (B3U)
                 (AG) (B1U) (B1G) (B2G) (B1G) (B3U) (AU) (AU) (B2U)
                 (AG) (B2G) (B1G) (B3G) (B1U) (B2U) (AG) (B1U)
                 (B3U) (AU) (B3G) (B2U) (AG) (B1U) (B3G) (B1U)
                 (B3G) (AG) (AG) (B2U) (B1U) (B1G) (AG) (B1U) (AG)
                 (B3G) (B2G) (B2U) (B2U) (B1U) (B3G) (AG) (B3U)
                 (B1U) (B3G) (AG) (B3U) (AU) (B1U) (B2U) (B1G)
                 (B2G) (B1U) (AG) (B2U) (B3G) (AG) (B2U) (B1U)
                 (B3U) (AU) (AG) (B3G) (B1U) (B1G) (B2U) (B2G)
                 (B2G) (AG) (B3G) (B2U) (B1U) (B3U) (B1G) (B2G)
                 (AU) (B3U) (AU) (AG) (B3G) (B2G) (B3G) (B2U) (B1U)
                 (B2U) (B1U) (AG) (AG) (B3G) (B3G) (B2U) (B1U)
                 (B3U) (B1U) (AG) (B3G) (B1G) (B2G) (B3U) (AU)
                 (B1U) (B2G) (B2U) (B1U) (AG) (B2U) (B3G) (AG)
                 (B3G) (AG) (B1U) (B1U) (B2U) (B3G) (AG) (B2U)
                 (B1U) (B3G) (AG) (B1U) (AG) (B2U) (B1U) (AG) (B3G)
                 (B1U) (B3U) (B1G) (B2G) (AU) (B3U) (B2G) (B2U)
                 (B1U) (B2U) (AG) (B3G) (AG) (B3G) (B2U) (B1U)
                 (B3G) (AG) (B1U) (AG) (B2U) (B1U) (B3G) (AG) (B1U)
 Beta  Orbitals:
       Occupied  (B3G) (B1U) (B2U) (AG) (B1U) (AG) (B2U) (AG) (B1U)
                 (B3G) (B1U) (AG) (B3G) (B1U) (B2U) (AG) (B1U)
                 (AG) (B1U) (B3G) (B2U) (AG) (B1U) (AG) (B2G) (AU)
                 (B1G) (B3U) (B3G) (B1U) (B2U) (AG) (B3G) (B2U)
                 (B2G) (B3U) (AG) (B2U) (B1U) (B3G) (AG) (B1U)
                 (AG) (B2U) (B1U) (AG) (B3G) (B2U) (AG) (B1U) (B2U)
                 (B1U) (B3U) (AG) (B3G) (B1G) (B2G) (AU) (B3U)
                 (AG) (B2U) (B3G) (B2G) (B1U) (B2U) (B3U) (B3G)
                 (B1G) (B2G)
       Virtual   (AG) (AU) (B3U) (B2U) (AG) (B1U) (B3G) (AG) (B1U)
                 (B2U) (B3U) (B1U) (AG) (B2G) (B1G) (B2U) (B3U)
                 (AU) (B2U) (B3G) (AG) (B1U) (B2G) (B3G) (AG) (B3U)
                 (B1U) (AG) (B2U) (B3G) (B1U) (B2G) (AG) (B1G)
                 (B2G) (AG) (B2U) (B1U) (AU) (B3U) (B3G) (B1U)
                 (B2U) (B1U) (B2U) (AG) (B3G) (AG) (B3G) (B2G)
                 (B2U) (AG) (B1U) (B3G) (B1U) (AG) (B2U) (B3G)
                 (B1U) (AG) (B3G) (B3U) (B2U) (B1G) (B2G) (B2U)
                 (B1U) (B1U) (B3G) (AG) (AU) (B3U) (B2U) (AG) (B2G)
                 (B3G) (B2U) (B1U) (B3U) (AG) (B1G) (B2G) (AU)
                 (AG) (B3U) (B3G) (B1U) (B3G) (B2U) (B1U) (B2G)
                 (B3U) (AG) (B1U) (B1G) (B2G) (B1G) (B3U) (AU)
                 (AU) (B2U) (B2G) (AG) (B1G) (B3G) (B1U) (B2U)
                 (AG) (B1U) (AU) (B3U) (B3G) (B2U) (B1U) (B3G)
                 (AG) (B1U) (B3G) (AG) (AG) (B2U) (B1U) (B1G) (AG)
                 (B1U) (B3G) (AG) (B2G) (B2U) (B2U) (B1U) (B3G)
                 (AG) (B3U) (B1U) (B3G) (AG) (B3U) (AU) (B1U) (B2U)
                 (B1G) (B2G) (B1U) (AG) (B2U) (B3G) (AG) (B2U)
                 (B1U) (B3U) (AU) (AG) (B3G) (B2U) (B1U) (B1G)
                 (B2G) (B2G) (B3G) (AG) (B2U) (B1U) (B3U) (B1G)
                 (B2G) (AU) (B3U) (AU) (AG) (B3G) (B2G) (B3G) (B2U)
                 (B1U) (B2U) (B1U) (AG) (B3G) (AG) (B3G) (B2U)
                 (B1U) (B3U) (B1U) (AG) (B3G) (B1G) (B2G) (AU)
                 (B3U) (B1U) (B2U) (B2G) (B1U) (AG) (B2U) (B3G)
                 (AG) (B3G) (AG) (B1U) (B1U) (B2U) (B3G) (AG) (B2U)
                 (B1U) (B3G) (AG) (B1U) (AG) (B2U) (B1U) (AG) (B3G)
                 (B1U) (B3U) (B1G) (B2G) (AU) (B3U) (B2G) (B2U)
                 (B1U) (B2U) (AG) (B3G) (AG) (B3G) (B2U) (B1U)
                 (B3G) (AG) (B1U) (AG) (B2U) (B1U) (B3G) (AG) (B1U)
 The electronic state of the initial guess is 2-B3U.
 Initial guess <Sx>= 0.0000 <Sy>= 0.0000 <Sz>= 0.5000 <S**2>= 0.7590 S= 0.5045
 Generating alternative initial guess.
 ExpMin= 4.38D-02 ExpMax= 1.06D+05 ExpMxC= 3.62D+03 IAcc=3 IRadAn=         5 AccDes= 0.00D+00
 Harris functional with IExCor=  402 and IRadAn=       5 diagonalized for initial guess.
 HarFok:  IExCor=  402 AccDes= 0.00D+00 IRadAn=         5 IDoV= 1 UseB2=F ITyADJ=14
 ICtDFT=  3500011 ScaDFX=  1.000000  1.000000  1.000000  1.000000
 FoFCou: FMM=F IPFlag=           0 FMFlag=      100000 FMFlg1=           0
         NFxFlg=           0 DoJE=T BraDBF=F KetDBF=T FulRan=T
         wScrn=  0.000000 ICntrl=       500 IOpCl=  0 I1Cent=   200000004 NGrid=           0
         NMat0=    1 NMatS0=      1 NMatT0=    0 NMatD0=    1 NMtDS0=    0 NMtDT0=    0
 Petite list used in FoFCou.
 Harris En= -2989.67589638475    
 Leave Link  401 at Mon Sep 28 02:46:44 2026, MaxMem=  1610612736 cpu:               3.9 elap:               0.5
 (Enter /share/software/user/restricted/gaussian/g16.B01/l502.exe)
 Keep R1 and R2 ints in memory in symmetry-blocked form, NReq=1348300735.
 FoFCou: FMM=F IPFlag=           0 FMFlag=           0 FMFlg1=           0
         NFxFlg=           0 DoJE=F BraDBF=F KetDBF=F FulRan=T
         wScrn=  0.000000 ICntrl=       600 IOpCl=  0 I1Cent=           0 NGrid=           0
         NMat0=    1 NMatS0=  48828 NMatT0=    0 NMatD0=    1 NMtDS0=    0 NMtDT0=    0
 Petite list used in FoFCou.
 UHF open shell SCF:
 Using DIIS extrapolation, IDIIS=  1040.
 NGot=  1610612736 LenX=  1298136914 LenY=  1298031497
 Requested convergence on RMS density matrix=1.00D-08 within 128 cycles.
 Requested convergence on MAX density matrix=1.00D-06.
 Requested convergence on             energy=1.00D-06.
 No special actions if energy rises.

 Cycle   1  Pass 1  IDiag  1:
 Inv3:  Mode=1 IEnd=    10761708.
 Iteration    1 A*A^-1 deviation from unit magnitude is 3.55D-15 for   1872.
 Iteration    1 A*A^-1 deviation from orthogonality  is 1.15D-15 for   1892   1757.
 Iteration    1 A^-1*A deviation from unit magnitude is 3.33D-15 for   1872.
 Iteration    1 A^-1*A deviation from orthogonality  is 1.77D-15 for   1158    885.
 E= -2990.07642197822    
 DIIS: error= 4.92D-03 at cycle   1 NSaved=   1.
 NSaved= 1 IEnMin= 1 EnMin= -2990.07642197822     IErMin= 1 ErrMin= 4.92D-03
 ErrMax= 4.92D-03  0.00D+00 EMaxC= 1.00D-01 BMatC= 1.81D-02 BMatP= 1.81D-02
 IDIUse=3 WtCom= 9.51D-01 WtEn= 4.92D-02
 Coeff-Com:  0.100D+01
 Coeff-En:   0.100D+01
 Coeff:      0.100D+01
 Gap=     0.052 Goal=   None    Shift=    0.000
 Gap=     0.177 Goal=   None    Shift=    0.000
 GapD=    0.052 DampG=0.500 DampE=1.000 DampFc=0.5000 IDamp=-1.
 Damping current iteration by 5.00D-01
 RMSDP=3.28D-03 MaxDP=1.38D-01              OVMax= 1.61D-02

 Cycle   2  Pass 1  IDiag  1:
 E= -2990.07859221361     Delta-E=       -0.002170235395 Rises=F Damp=T
 DIIS: error= 2.48D-03 at cycle   2 NSaved=   2.
 NSaved= 2 IEnMin= 2 EnMin= -2990.07859221361     IErMin= 2 ErrMin= 2.48D-03
 ErrMax= 2.48D-03  0.00D+00 EMaxC= 1.00D-01 BMatC= 4.54D-03 BMatP= 1.81D-02
 IDIUse=3 WtCom= 9.75D-01 WtEn= 2.48D-02
 Coeff-Com: -0.766D+00 0.177D+01
 Coeff-En:   0.000D+00 0.100D+01
 Coeff:     -0.747D+00 0.175D+01
 Gap=     0.051 Goal=   None    Shift=    0.000
 Gap=     0.173 Goal=   None    Shift=    0.000
 RMSDP=2.38D-03 MaxDP=1.16D-01 DE=-2.17D-03 OVMax= 1.11D-02

 Cycle   3  Pass 1  IDiag  1:
 E= -2990.08023980842     Delta-E=       -0.001647594800 Rises=F Damp=F
 DIIS: error= 2.11D-03 at cycle   3 NSaved=   3.
 NSaved= 3 IEnMin= 3 EnMin= -2990.08023980842     IErMin= 3 ErrMin= 2.11D-03
 ErrMax= 2.11D-03  0.00D+00 EMaxC= 1.00D-01 BMatC= 2.60D-03 BMatP= 4.54D-03
 IDIUse=3 WtCom= 9.79D-01 WtEn= 2.11D-02
 Coeff-Com: -0.563D+00 0.111D+01 0.449D+00
 Coeff-En:   0.000D+00 0.000D+00 0.100D+01
 Coeff:     -0.551D+00 0.109D+01 0.460D+00
 Gap=     0.048 Goal=   None    Shift=    0.000
 Gap=     0.171 Goal=   None    Shift=    0.000
 RMSDP=9.01D-04 MaxDP=3.03D-02 DE=-1.65D-03 OVMax= 6.01D-03

 Cycle   4  Pass 1  IDiag  1:
 E= -2990.08094853372     Delta-E=       -0.000708725307 Rises=F Damp=F
 DIIS: error= 2.81D-04 at cycle   4 NSaved=   4.
 NSaved= 4 IEnMin= 4 EnMin= -2990.08094853372     IErMin= 4 ErrMin= 2.81D-04
 ErrMax= 2.81D-04  0.00D+00 EMaxC= 1.00D-01 BMatC= 4.43D-05 BMatP= 2.60D-03
 IDIUse=3 WtCom= 9.97D-01 WtEn= 2.81D-03
 Coeff-Com: -0.224D+00 0.434D+00 0.218D+00 0.572D+00
 Coeff-En:   0.000D+00 0.000D+00 0.000D+00 0.100D+01
 Coeff:     -0.224D+00 0.433D+00 0.218D+00 0.573D+00
 Gap=     0.048 Goal=   None    Shift=    0.000
 Gap=     0.171 Goal=   None    Shift=    0.000
 RMSDP=6.67D-05 MaxDP=3.15D-03 DE=-7.09D-04 OVMax= 5.69D-04

 Cycle   5  Pass 1  IDiag  1:
 E= -2990.08095836341     Delta-E=       -0.000009829690 Rises=F Damp=F
 DIIS: error= 3.84D-05 at cycle   5 NSaved=   5.
 NSaved= 5 IEnMin= 5 EnMin= -2990.08095836341     IErMin= 5 ErrMin= 3.84D-05
 ErrMax= 3.84D-05  0.00D+00 EMaxC= 1.00D-01 BMatC= 8.10D-07 BMatP= 4.43D-05
 IDIUse=1 WtCom= 1.00D+00 WtEn= 0.00D+00
 Coeff-Com: -0.108D-01 0.197D-01 0.223D-01 0.133D+00 0.836D+00
 Coeff:     -0.108D-01 0.197D-01 0.223D-01 0.133D+00 0.836D+00
 Gap=     0.048 Goal=   None    Shift=    0.000
 Gap=     0.171 Goal=   None    Shift=    0.000
 RMSDP=3.27D-05 MaxDP=2.48D-03 DE=-9.83D-06 OVMax= 2.81D-04

 Cycle   6  Pass 1  IDiag  1:
 E= -2990.08095855378     Delta-E=       -0.000000190364 Rises=F Damp=F
 DIIS: error= 2.55D-05 at cycle   6 NSaved=   6.
 NSaved= 6 IEnMin= 6 EnMin= -2990.08095855378     IErMin= 6 ErrMin= 2.55D-05
 ErrMax= 2.55D-05  0.00D+00 EMaxC= 1.00D-01 BMatC= 2.71D-07 BMatP= 8.10D-07
 IDIUse=1 WtCom= 1.00D+00 WtEn= 0.00D+00
 Coeff-Com:  0.123D-01-0.245D-01-0.574D-02 0.216D-01 0.433D+00 0.564D+00
 Coeff:      0.123D-01-0.245D-01-0.574D-02 0.216D-01 0.433D+00 0.564D+00
 Gap=     0.048 Goal=   None    Shift=    0.000
 Gap=     0.171 Goal=   None    Shift=    0.000
 RMSDP=5.97D-06 MaxDP=2.88D-04 DE=-1.90D-07 OVMax= 1.25D-04

 Cycle   7  Pass 1  IDiag  1:
 E= -2990.08095862304     Delta-E=       -0.000000069263 Rises=F Damp=F
 DIIS: error= 9.31D-06 at cycle   7 NSaved=   7.
 NSaved= 7 IEnMin= 7 EnMin= -2990.08095862304     IErMin= 7 ErrMin= 9.31D-06
 ErrMax= 9.31D-06  0.00D+00 EMaxC= 1.00D-01 BMatC= 3.06D-08 BMatP= 2.71D-07
 IDIUse=1 WtCom= 1.00D+00 WtEn= 0.00D+00
 Coeff-Com:  0.604D-02-0.117D-01-0.596D-02-0.164D-01 0.407D-02 0.241D+00
 Coeff-Com:  0.783D+00
 Coeff:      0.604D-02-0.117D-01-0.596D-02-0.164D-01 0.407D-02 0.241D+00
 Coeff:      0.783D+00
 Gap=     0.048 Goal=   None    Shift=    0.000
 Gap=     0.171 Goal=   None    Shift=    0.000
 RMSDP=4.13D-06 MaxDP=2.14D-04 DE=-6.93D-08 OVMax= 5.80D-05

 Cycle   8  Pass 1  IDiag  1:
 E= -2990.08095863468     Delta-E=       -0.000000011644 Rises=F Damp=F
 DIIS: error= 2.07D-06 at cycle   8 NSaved=   8.
 NSaved= 8 IEnMin= 8 EnMin= -2990.08095863468     IErMin= 8 ErrMin= 2.07D-06
 ErrMax= 2.07D-06  0.00D+00 EMaxC= 1.00D-01 BMatC= 1.23D-09 BMatP= 3.06D-08
 IDIUse=1 WtCom= 1.00D+00 WtEn= 0.00D+00
 Coeff-Com: -0.160D-02 0.319D-02 0.530D-03-0.426D-02-0.675D-01-0.816D-01
 Coeff-Com: -0.192D-01 0.117D+01
 Coeff:     -0.160D-02 0.319D-02 0.530D-03-0.426D-02-0.675D-01-0.816D-01
 Coeff:     -0.192D-01 0.117D+01
 Gap=     0.048 Goal=   None    Shift=    0.000
 Gap=     0.171 Goal=   None    Shift=    0.000
 RMSDP=1.30D-06 MaxDP=1.04D-04 DE=-1.16D-08 OVMax= 2.73D-05

 Cycle   9  Pass 1  IDiag  1:
 E= -2990.08095863588     Delta-E=       -0.000000001195 Rises=F Damp=F
 DIIS: error= 2.50D-07 at cycle   9 NSaved=   9.
 NSaved= 9 IEnMin= 9 EnMin= -2990.08095863588     IErMin= 9 ErrMin= 2.50D-07
 ErrMax= 2.50D-07  0.00D+00 EMaxC= 1.00D-01 BMatC= 5.61D-11 BMatP= 1.23D-09
 IDIUse=1 WtCom= 1.00D+00 WtEn= 0.00D+00
 Coeff-Com: -0.383D-03 0.755D-03 0.261D-03 0.925D-04-0.904D-02-0.189D-01
 Coeff-Com: -0.278D-01 0.157D+00 0.898D+00
 Coeff:     -0.383D-03 0.755D-03 0.261D-03 0.925D-04-0.904D-02-0.189D-01
 Coeff:     -0.278D-01 0.157D+00 0.898D+00
 Gap=     0.048 Goal=   None    Shift=    0.000
 Gap=     0.171 Goal=   None    Shift=    0.000
 RMSDP=5.86D-07 MaxDP=3.49D-05 DE=-1.20D-09 OVMax= 4.14D-06

 Cycle  10  Pass 1  IDiag  1:
 E= -2990.08095863591     Delta-E=       -0.000000000029 Rises=F Damp=F
 DIIS: error= 1.19D-07 at cycle  10 NSaved=  10.
 NSaved=10 IEnMin=10 EnMin= -2990.08095863591     IErMin=10 ErrMin= 1.19D-07
 ErrMax= 1.19D-07  0.00D+00 EMaxC= 1.00D-01 BMatC= 1.93D-11 BMatP= 5.61D-11
 IDIUse=1 WtCom= 1.00D+00 WtEn= 0.00D+00
 Coeff-Com:  0.469D-04-0.985D-04 0.524D-04 0.680D-03 0.567D-02 0.316D-02
 Coeff-Com: -0.873D-02-0.996D-01 0.381D+00 0.718D+00
 Coeff:      0.469D-04-0.985D-04 0.524D-04 0.680D-03 0.567D-02 0.316D-02
 Coeff:     -0.873D-02-0.996D-01 0.381D+00 0.718D+00
 Gap=     0.048 Goal=   None    Shift=    0.000
 Gap=     0.171 Goal=   None    Shift=    0.000
 RMSDP=2.39D-07 MaxDP=1.80D-05 DE=-2.91D-11 OVMax= 1.58D-06

 Cycle  11  Pass 1  IDiag  1:
 E= -2990.08095863593     Delta-E=       -0.000000000021 Rises=F Damp=F
 DIIS: error= 2.99D-08 at cycle  11 NSaved=  11.
 NSaved=11 IEnMin=11 EnMin= -2990.08095863593     IErMin=11 ErrMin= 2.99D-08
 ErrMax= 2.99D-08  0.00D+00 EMaxC= 1.00D-01 BMatC= 7.48D-13 BMatP= 1.93D-11
 IDIUse=1 WtCom= 1.00D+00 WtEn= 0.00D+00
 Coeff-Com:  0.426D-04-0.856D-04-0.800D-05 0.164D-03 0.227D-02 0.239D-02
 Coeff-Com:  0.257D-03-0.396D-01 0.231D-01 0.172D+00 0.839D+00
 Coeff:      0.426D-04-0.856D-04-0.800D-05 0.164D-03 0.227D-02 0.239D-02
 Coeff:      0.257D-03-0.396D-01 0.231D-01 0.172D+00 0.839D+00
 Gap=     0.048 Goal=   None    Shift=    0.000
 Gap=     0.171 Goal=   None    Shift=    0.000
 RMSDP=3.14D-08 MaxDP=1.85D-06 DE=-2.09D-11 OVMax= 2.99D-07

 Cycle  12  Pass 1  IDiag  1:
 E= -2990.08095863593     Delta-E=        0.000000000002 Rises=F Damp=F
 DIIS: error= 7.91D-09 at cycle  12 NSaved=  12.
 NSaved=12 IEnMin=11 EnMin= -2990.08095863593     IErMin=12 ErrMin= 7.91D-09
 ErrMax= 7.91D-09  0.00D+00 EMaxC= 1.00D-01 BMatC= 6.24D-14 BMatP= 7.48D-13
 IDIUse=1 WtCom= 1.00D+00 WtEn= 0.00D+00
 Coeff-Com:  0.585D-05-0.113D-04-0.928D-05-0.398D-04-0.941D-04 0.160D-03
 Coeff-Com:  0.995D-03 0.157D-02-0.301D-01-0.305D-01 0.174D+00 0.884D+00
 Coeff:      0.585D-05-0.113D-04-0.928D-05-0.398D-04-0.941D-04 0.160D-03
 Coeff:      0.995D-03 0.157D-02-0.301D-01-0.305D-01 0.174D+00 0.884D+00
 Gap=     0.048 Goal=   None    Shift=    0.000
 Gap=     0.171 Goal=   None    Shift=    0.000
 RMSDP=1.61D-08 MaxDP=1.03D-06 DE= 2.27D-12 OVMax= 5.22D-08

 Cycle  13  Pass 1  IDiag  1:
 E= -2990.08095863591     Delta-E=        0.000000000015 Rises=F Damp=F
 DIIS: error= 2.14D-09 at cycle  13 NSaved=  13.
 NSaved=13 IEnMin=11 EnMin= -2990.08095863593     IErMin=13 ErrMin= 2.14D-09
 ErrMax= 2.14D-09  0.00D+00 EMaxC= 1.00D-01 BMatC= 3.54D-15 BMatP= 6.24D-14
 IDIUse=1 WtCom= 1.00D+00 WtEn= 0.00D+00
 Coeff-Com: -0.329D-05 0.664D-05 0.208D-06-0.164D-04-0.189D-03-0.178D-03
 Coeff-Com:  0.105D-03 0.335D-02-0.564D-02-0.171D-01-0.461D-01 0.116D+00
 Coeff-Com:  0.949D+00
 Coeff:     -0.329D-05 0.664D-05 0.208D-06-0.164D-04-0.189D-03-0.178D-03
 Coeff:      0.105D-03 0.335D-02-0.564D-02-0.171D-01-0.461D-01 0.116D+00
 Coeff:      0.949D+00
 Gap=     0.048 Goal=   None    Shift=    0.000
 Gap=     0.171 Goal=   None    Shift=    0.000
 RMSDP=3.86D-09 MaxDP=2.42D-07 DE= 1.55D-11 OVMax= 1.98D-08

 Error on total polarization charges =  0.01421
 SCF Done:  E(UB3LYP) =  -2990.08095864     A.U. after   13 cycles
            NFock= 13  Conv=0.39D-08     -V/T= 2.0025
 <Sx>= 0.0000 <Sy>= 0.0000 <Sz>= 0.5000 <S**2>= 0.7599 S= 0.5049
 <L.S>=  0.00000000000    
 KE= 2.982748767129D+03 PE=-9.773255797583D+03 EE= 2.471844919722D+03
 SMD-CDS (non-electrostatic) energy       (kcal/mol) =       3.27
 (included in total energy above)
 Annihilation of the first spin contaminant:
 S**2 before annihilation     0.7599,   after     0.7500
 Leave Link  502 at Mon Sep 28 02:47:00 2026, MaxMem=  1610612736 cpu:             121.1 elap:              15.7
 (Enter /share/software/user/restricted/gaussian/g16.B01/l701.exe)
 ... and contract with generalized density number  0.
 Compute integral first derivatives.
 D1PCM: PCM CHGder 1st derivatives, ID1Alg=3 FixD1E=F DoIter=F DoCFld=F I1PDM=0.
 GePol: Maximum number of non-zero 1st derivatives   =     318
 Leave Link  701 at Mon Sep 28 02:47:02 2026, MaxMem=  1610612736 cpu:               7.2 elap:               0.9
 (Enter /share/software/user/restricted/gaussian/g16.B01/l702.exe)
 L702 exits ... SP integral derivatives will be done elsewhere.
 Leave Link  702 at Mon Sep 28 02:47:02 2026, MaxMem=  1610612736 cpu:               0.1 elap:               0.0
 (Enter /share/software/user/restricted/gaussian/g16.B01/l703.exe)
 Integral derivatives from FoFJK, PRISM(SPDF).
 Compute integral first derivatives, UseDBF=F ICtDFT=           0.
 Calling FoFJK, ICntrl=      2127 FMM=F ISym2X=1 I1Cent= 0 IOpClX= 1 NMat=1 NMatS=1 NMatT=0.
 FoFJK:  IHMeth= 1 ICntrl=    2127 DoSepK=F KAlg= 0 I1Cent=           0 FoldK=F
 IRaf=         0 NMat=       1 IRICut=       1 DoRegI=T DoRafI=F ISym2E= 1 IDoP0=0 IntGTp=1.
 FoFCou: FMM=F IPFlag=           0 FMFlag=      100000 FMFlg1=         800
         NFxFlg=           0 DoJE=F BraDBF=F KetDBF=F FulRan=T
         wScrn=  0.000000 ICntrl=      2127 IOpCl=  1 I1Cent=           0 NGrid=           0
         NMat0=    1 NMatS0=      1 NMatT0=    0 NMatD0=    1 NMtDS0=    0 NMtDT0=    0
 Petite list used in FoFCou.
 Leave Link  703 at Mon Sep 28 02:47:04 2026, MaxMem=  1610612736 cpu:              16.3 elap:               2.0
 (Enter /share/software/user/restricted/gaussian/g16.B01/l716.exe)
 Dipole        =-2.87796911D-17 4.26325641D-14-3.55271368D-14
 ***** Axes restored to original set *****
 -------------------------------------------------------------------
 Center     Atomic                   Forces (Hartrees/Bohr)
 Number     Number              X              Y              Z
 -------------------------------------------------------------------
      1        6          -0.000000000   -0.006261005   -0.000000000
      2        6          -0.006472386   -0.007644301   -0.000000000
      3        6          -0.006472386    0.007644301    0.000000000
      4        6          -0.000000000    0.006261005   -0.000000000
      5        6           0.006472386    0.007644301   -0.000000000
      6        6           0.006472386   -0.007644301   -0.000000000
      7       17           0.000000000    0.005296006   -0.000000000
      8       17           0.003969012    0.003777002    0.000000000
      9       17           0.003969012   -0.003777002    0.000000000
     10       17           0.000000000   -0.005296006   -0.000000000
     11       17          -0.003969012   -0.003777002    0.000000000
     12       17          -0.003969012    0.003777002    0.000000000
 -------------------------------------------------------------------
 Cartesian Forces:  Max     0.007644301 RMS     0.004268357
 Leave Link  716 at Mon Sep 28 02:47:04 2026, MaxMem=  1610612736 cpu:               0.3 elap:               0.1
 (Enter /share/software/user/restricted/gaussian/g16.B01/l103.exe)

 GradGradGradGradGradGradGradGradGradGradGradGradGradGradGradGradGradGrad
 Berny optimization.
 Using GEDIIS/GDIIS optimizer.
 FormGI is forming the generalized inverse of G from B-inverse, IUseBI=4.
 Internal  Forces:  Max     0.005327765 RMS     0.002219232
 Search for a local minimum.
 Step number   2 out of a maximum of   64
 All quantities printed in internal units (Hartrees-Bohrs-Radians)
 RMS Force = .22192D-02 SwitMx=.10000D-02 MixMth= 1
 Mixed Optimization -- RFO/linear search
 Update second derivatives using D2CorX and points    1    2
 DE= -7.42D-03 DEPred=-6.99D-03 R= 1.06D+00
 TightC=F SS=  1.41D+00  RLast= 1.89D-01 DXNew= 5.0454D-01 5.6668D-01
 Trust test= 1.06D+00 RLast= 1.89D-01 DXMaxT set to 5.05D-01
 ITU=  1  0
 Use linear search instead of GDIIS.
     Eigenvalues ---    0.01837   0.01837   0.01837   0.02016   0.02021
     Eigenvalues ---    0.02105   0.02105   0.02189   0.02193   0.23821
     Eigenvalues ---    0.25000   0.25000   0.25000   0.25000   0.25000
     Eigenvalues ---    0.25000   0.25000   0.25185   0.28988   0.34545
     Eigenvalues ---    0.34545   0.34545   0.35544   0.35936   0.39614
     Eigenvalues ---    0.41017   0.42612   0.46219   0.47053   0.51891
 RFO step:  Lambda=-7.29730384D-04 EMin= 1.83746453D-02
 Quartic linear search produced a step of  0.15399.
 Iteration  1 RMS(Cart)=  0.00945806 RMS(Int)=  0.00004052
 Iteration  2 RMS(Cart)=  0.00007467 RMS(Int)=  0.00000000
 Iteration  3 RMS(Cart)=  0.00000000 RMS(Int)=  0.00000000
 ITry= 1 IFail=0 DXMaxC= 3.20D-02 DCOld= 1.00D+10 DXMaxT= 5.05D-01 DXLimC= 3.00D+00 Rises=F
 ClnCor:  largest displacement from symmetrization is 5.67D-12 for atom     9.
 Variable       Old X    -DE/DX   Delta X   Delta X   Delta X     New X
                                 (Linear)    (Quad)   (Total)
    R1        2.72449  -0.00239   0.00662  -0.01054  -0.00392   2.72057
    R2        2.72449  -0.00239   0.00662  -0.01054  -0.00392   2.72057
    R3        3.29128   0.00530   0.01223   0.00954   0.02178   3.31305
    R4        2.60990  -0.00435   0.00060  -0.01054  -0.00994   2.59996
    R5        3.29498   0.00533   0.00936   0.01209   0.02145   3.31644
    R6        2.72449  -0.00239   0.00662  -0.01054  -0.00392   2.72057
    R7        3.29498   0.00533   0.00936   0.01209   0.02145   3.31644
    R8        2.72449  -0.00239   0.00662  -0.01054  -0.00392   2.72057
    R9        3.29128   0.00530   0.01223   0.00954   0.02178   3.31305
   R10        2.60990  -0.00435   0.00060  -0.01054  -0.00994   2.59996
   R11        3.29498   0.00533   0.00936   0.01209   0.02145   3.31644
   R12        3.29498   0.00533   0.00936   0.01209   0.02145   3.31644
    A1        2.05906  -0.00013  -0.00205   0.00062  -0.00143   2.05763
    A2        2.11206   0.00006   0.00103  -0.00031   0.00071   2.11278
    A3        2.11206   0.00006   0.00103  -0.00031   0.00071   2.11278
    A4        2.11206   0.00006   0.00103  -0.00031   0.00071   2.11278
    A5        2.07517  -0.00214  -0.00010  -0.00978  -0.00988   2.06529
    A6        2.09595   0.00207  -0.00092   0.01009   0.00916   2.10512
    A7        2.11206   0.00006   0.00103  -0.00031   0.00071   2.11278
    A8        2.09595   0.00207  -0.00092   0.01009   0.00916   2.10512
    A9        2.07517  -0.00214  -0.00010  -0.00978  -0.00988   2.06529
   A10        2.05906  -0.00013  -0.00205   0.00062  -0.00143   2.05763
   A11        2.11206   0.00006   0.00103  -0.00031   0.00071   2.11278
   A12        2.11206   0.00006   0.00103  -0.00031   0.00071   2.11278
   A13        2.11206   0.00006   0.00103  -0.00031   0.00071   2.11278
   A14        2.07517  -0.00214  -0.00010  -0.00978  -0.00988   2.06529
   A15        2.09595   0.00207  -0.00092   0.01009   0.00916   2.10512
   A16        2.11206   0.00006   0.00103  -0.00031   0.00071   2.11278
   A17        2.07517  -0.00214  -0.00010  -0.00978  -0.00988   2.06529
   A18        2.09595   0.00207  -0.00092   0.01009   0.00916   2.10512
    D1       -0.00000   0.00000   0.00000   0.00000   0.00000   0.00000
    D2        3.14159   0.00000   0.00000   0.00000   0.00000   3.14159
    D3        3.14159   0.00000   0.00000   0.00000   0.00000   3.14159
    D4       -0.00000   0.00000   0.00000   0.00000   0.00000   0.00000
    D5        0.00000  -0.00000   0.00000  -0.00000   0.00000   0.00000
    D6        3.14159  -0.00000   0.00000  -0.00000   0.00000   3.14159
    D7        3.14159  -0.00000   0.00000  -0.00000   0.00000   3.14159
    D8        0.00000  -0.00000   0.00000  -0.00000  -0.00000   0.00000
    D9       -0.00000   0.00000   0.00000   0.00000   0.00000   0.00000
   D10        3.14159  -0.00000   0.00000  -0.00000   0.00000   3.14159
   D11        3.14159  -0.00000   0.00000  -0.00000   0.00000   3.14159
   D12        0.00000  -0.00000   0.00000  -0.00000  -0.00000   0.00000
   D13        0.00000  -0.00000   0.00000  -0.00000   0.00000   0.00000
   D14        3.14159  -0.00000   0.00000  -0.00000   0.00000   3.14159
   D15        3.14159  -0.00000   0.00000  -0.00000   0.00000   3.14159
   D16       -0.00000  -0.00000   0.00000  -0.00000   0.00000   0.00000
   D17       -0.00000   0.00000   0.00000   0.00000   0.00000   0.00000
   D18        3.14159   0.00000   0.00000   0.00000   0.00000   3.14159
   D19        3.14159   0.00000   0.00000   0.00000   0.00000   3.14159
   D20       -0.00000   0.00000   0.00000   0.00000   0.00000   0.00000
   D21        0.00000  -0.00000   0.00000  -0.00000   0.00000   0.00000
   D22        3.14159   0.00000   0.00000   0.00000   0.00000   3.14159
   D23        3.14159  -0.00000   0.00000  -0.00000   0.00000   3.14159
   D24       -0.00000  -0.00000   0.00000  -0.00000   0.00000   0.00000
         Item               Value     Threshold  Converged?
 Maximum Force            0.005328     0.000450     NO 
 RMS     Force            0.002219     0.000300     NO 
 Maximum Displacement     0.032010     0.001800     NO 
 RMS     Displacement     0.009503     0.001200     NO 
 Predicted change in Energy=-4.688465D-04
 Lowest energy point so far.  Saving SCF results.
 GradGradGradGradGradGradGradGradGradGradGradGradGradGradGradGradGradGrad

 Leave Link  103 at Mon Sep 28 02:47:04 2026, MaxMem=  1610612736 cpu:               0.2 elap:               0.0
 (Enter /share/software/user/restricted/gaussian/g16.B01/l202.exe)
                          Input orientation:                          
 ---------------------------------------------------------------------
 Center     Atomic      Atomic             Coordinates (Angstroms)
 Number     Number       Type             X           Y           Z
 ---------------------------------------------------------------------
      1          6           0        0.000000    1.430545   -0.000000
      2          6           0        1.233344    0.687920   -0.000000
      3          6           0        1.233344   -0.687920   -0.000000
      4          6           0       -0.000000   -1.430545   -0.000000
      5          6           0       -1.233344   -0.687920   -0.000000
      6          6           0       -1.233344    0.687920   -0.000000
      7         17           0        0.000000    3.183738   -0.000000
      8         17           0        2.743708    1.581656   -0.000000
      9         17           0        2.743708   -1.581656   -0.000000
     10         17           0       -0.000000   -3.183738   -0.000000
     11         17           0       -2.743708   -1.581656   -0.000000
     12         17           0       -2.743708    1.581656   -0.000000
 ---------------------------------------------------------------------
                    Distance matrix (angstroms):
                    1          2          3          4          5
     1  C    0.000000
     2  C    1.439663   0.000000
     3  C    2.451333   1.375840   0.000000
     4  C    2.861089   2.451333   1.439663   0.000000
     5  C    2.451333   2.824445   2.466689   1.439663   0.000000
     6  C    1.439663   2.466689   2.824445   2.451333   1.375840
     7  Cl   1.753193   2.783926   4.063357   4.614282   4.063357
     8  Cl   2.747866   1.754982   2.726201   4.074468   4.579074
     9  Cl   4.074468   2.726201   1.754982   2.747866   4.076237
    10  Cl   4.614282   4.063357   2.783926   1.753193   2.783926
    11  Cl   4.074468   4.579074   4.076237   2.747866   1.754982
    12  Cl   2.747866   4.076237   4.579074   4.074468   2.726201
                    6          7          8          9         10
     6  C    0.000000
     7  Cl   2.783926   0.000000
     8  Cl   4.076237   3.177200   0.000000
     9  Cl   4.579074   5.498810   3.163312   0.000000
    10  Cl   4.063357   6.367475   5.498810   3.177200   0.000000
    11  Cl   2.726201   5.498810   6.333899   5.487415   3.177200
    12  Cl   1.754982   3.177200   5.487415   6.333899   5.498810
                   11         12
    11  Cl   0.000000
    12  Cl   3.163312   0.000000
 Stoichiometry    C6Cl6(1-,2)
 Framework group  D2H[C2"(ClC.CCl),SG(C4Cl4)]
 Deg. of freedom     6
 Full point group                 D2H     NOp   8
 RotChk:  IX=0 Diff= 1.57D-14
 Largest Abelian subgroup         D2H     NOp   8
 Largest concise Abelian subgroup D2      NOp   4
                         Standard orientation:                         
 ---------------------------------------------------------------------
 Center     Atomic      Atomic             Coordinates (Angstroms)
 Number     Number       Type             X           Y           Z
 ---------------------------------------------------------------------
      1          6           0       -0.000000    0.000000    1.430545
      2          6           0        0.000000    1.233344    0.687920
      3          6           0        0.000000    1.233344   -0.687920
      4          6           0        0.000000    0.000000   -1.430545
      5          6           0       -0.000000   -1.233344   -0.687920
      6          6           0       -0.000000   -1.233344    0.687920
      7         17           0       -0.000000   -0.000000    3.183738
      8         17           0        0.000000    2.743708    1.581656
      9         17           0        0.000000    2.743708   -1.581656
     10         17           0        0.000000   -0.000000   -3.183738
     11         17           0       -0.000000   -2.743708   -1.581656
     12         17           0       -0.000000   -2.743708    1.581656
 ---------------------------------------------------------------------
 Rotational constants (GHZ):           0.4488319           0.4469813           0.2239523
 Leave Link  202 at Mon Sep 28 02:47:04 2026, MaxMem=  1610612736 cpu:               0.0 elap:               0.0
 (Enter /share/software/user/restricted/gaussian/g16.B01/l301.exe)
 Standard basis: 6-311++G(d) (5D, 7F)
 Ernie: Thresh=  0.10000D-02 Tol=  0.10000D-05 Strict=F.
 There are    68 symmetry adapted cartesian basis functions of AG  symmetry.
 There are    16 symmetry adapted cartesian basis functions of B1G symmetry.
 There are    26 symmetry adapted cartesian basis functions of B2G symmetry.
 There are    52 symmetry adapted cartesian basis functions of B3G symmetry.
 There are    16 symmetry adapted cartesian basis functions of AU  symmetry.
 There are    68 symmetry adapted cartesian basis functions of B1U symmetry.
 There are    52 symmetry adapted cartesian basis functions of B2U symmetry.
 There are    26 symmetry adapted cartesian basis functions of B3U symmetry.
 There are    64 symmetry adapted basis functions of AG  symmetry.
 There are    16 symmetry adapted basis functions of B1G symmetry.
 There are    26 symmetry adapted basis functions of B2G symmetry.
 There are    50 symmetry adapted basis functions of B3G symmetry.
 There are    16 symmetry adapted basis functions of AU  symmetry.
 There are    64 symmetry adapted basis functions of B1U symmetry.
 There are    50 symmetry adapted basis functions of B2U symmetry.
 There are    26 symmetry adapted basis functions of B3U symmetry.
   312 basis functions,   534 primitive gaussians,   324 cartesian basis functions
    70 alpha electrons       69 beta electrons
       nuclear repulsion energy      1325.3814770665 Hartrees.
 IExCor=  402 DFT=T Ex+Corr=B3LYP ExCW=0 ScaHFX=  0.200000
 ScaDFX=  0.800000  0.720000  1.000000  0.810000 ScalE2=  1.000000  1.000000
 IRadAn=      5 IRanWt=     -1 IRanGd=            0 ICorTp=0 IEmpDi=  4
 NAtoms=   12 NActive=   12 NUniq=    4 SFac= 4.00D+00 NAtFMM=   60 NAOKFM=F Big=F
 Integral buffers will be    131072 words long.
 Raffenetti 2 integral format.
 Two-electron integral symmetry is turned on.
 ------------------------------------------------------------------------------
 Polarizable Continuum Model (PCM)
 =================================
 Model                : PCM.
 Atomic radii         : SMD-Coulomb.
 Polarization charges : Total charges.
 Charge compensation  : None.
 Solution method      : On-the-fly selection.
 Cavity type          : VdW (van der Waals Surface) (Alpha=1.000).
 Cavity algorithm     : GePol (No added spheres)
                        Default sphere list used, NSphG=   12.
                        Lebedev-Laikov grids with approx.  5.0 points / Ang**2.
                        Smoothing algorithm: York/Karplus (Gamma=1.0000).
                        Polarization charges: spherical gaussians, with
                                              point-specific exponents (IZeta= 3).
                        Self-potential: point-specific (ISelfS= 7).
                        Self-field    : sphere-specific E.n sum rule (ISelfD= 2).
 1st derivatives      : Analytical E(r).r(x)/FMM algorithm (CHGder, D1EAlg=3).
                        Cavity 1st derivative terms included.
 Solvent              : Water, Eps=  78.355300 Eps(inf)=   1.777849
 ------------------------------------------------------------------------------
 Spheres list:
 ISph  on   Nord     Re0    Alpha      Xe            Ye            Ze
    1   C      1    1.8500  1.000      0.000000      0.000000      1.430545
    2   C      2    1.8500  1.000     -0.000000      1.233344      0.687920
    3   C      3    1.8500  1.000      0.000000      1.233344     -0.687920
    4   C      4    1.8500  1.000      0.000000     -0.000000     -1.430545
    5   C      5    1.8500  1.000     -0.000000     -1.233344     -0.687920
    6   C      6    1.8500  1.000     -0.000000     -1.233344      0.687920
    7  Cl      7    2.3800  1.000     -0.000000      0.000000      3.183738
    8  Cl      8    2.3800  1.000      0.000000      2.743708      1.581656
    9  Cl      9    2.3800  1.000      0.000000      2.743708     -1.581656
   10  Cl     10    2.3800  1.000      0.000000      0.000000     -3.183738
   11  Cl     11    2.3800  1.000     -0.000000     -2.743708     -1.581656
   12  Cl     12    2.3800  1.000     -0.000000     -2.743708      1.581656
 ------------------------------------------------------------------------------
 GePol: Number of generator spheres                  =      12
 GePol: Total number of spheres                      =      12
 GePol: Number of exposed spheres                    =      12 (100.00%)
 GePol: Number of points                             =    1914
 GePol: Average weight of points                     =       0.14
 GePol: Minimum weight of points                     =   0.55D-06
 GePol: Maximum weight of points                     =    0.18138
 GePol: Number of points with low weight             =      76
 GePol: Fraction of low-weight points (<1% of avg)   =       3.97%
 GePol: Cavity surface area                          =    272.859 Ang**2
 GePol: Cavity volume                                =    303.694 Ang**3
 ------------------------------------------------------------------------------
 Atomic radii for non-electrostatic terms: SMD-CDS.
 ------------------------------------------------------------------------------
 PCM non-electrostatic energy =         0.0052221949 Hartrees.
 Nuclear repulsion after PCM non-electrostatic terms =     1325.3866992614 Hartrees.
 Leave Link  301 at Mon Sep 28 02:47:04 2026, MaxMem=  1610612736 cpu:               0.4 elap:               0.1
 (Enter /share/software/user/restricted/gaussian/g16.B01/l302.exe)
 NPDir=0 NMtPBC=     1 NCelOv=     1 NCel=       1 NClECP=     1 NCelD=      1
         NCelK=      1 NCelE2=     1 NClLst=     1 CellRange=     0.0.
 One-electron integrals computed using PRISM.
 One-electron integral symmetry used in STVInt
 NBasis=   312 RedAO= T EigKep=  1.85D-06  NBF=    64    16    26    50    16    64    50    26
 NBsUse=   310 1.00D-06 EigRej=  2.69D-07 NBFU=    64    16    26    49    16    63    50    26
 Precomputing XC quadrature grid using
 IXCGrd= 4 IRadAn=           5 IRanWt=          -1 IRanGd=           0 AccXCQ= 0.00D+00.
 Generated NRdTot=       0 NPtTot=           0 NUsed=           0 NTot=          32
 NSgBfM=   314   314   314   314   314 MxSgAt=    12 MxSgA2=    12.
 Leave Link  302 at Mon Sep 28 02:47:04 2026, MaxMem=  1610612736 cpu:               1.1 elap:               0.2
 (Enter /share/software/user/restricted/gaussian/g16.B01/l303.exe)
 DipDrv:  MaxL=1.
 Leave Link  303 at Mon Sep 28 02:47:04 2026, MaxMem=  1610612736 cpu:               0.2 elap:               0.0
 (Enter /share/software/user/restricted/gaussian/g16.B01/l401.exe)
 Initial guess from the checkpoint file:  "calcs/b3lyp_smd/chks/ClBz_123456_RA.chk"
 B after Tr=     0.000000   -0.000000    0.000000
         Rot=    1.000000   -0.000000    0.000000    0.000000 Ang=   0.00 deg.
 Guess basis will be translated and rotated to current coordinates.
 JPrj=2 DoOrth=T DoCkMO=T.
 Initial guess orbital symmetries:
 Alpha Orbitals:
       Occupied  (B3G) (B1U) (B2U) (AG) (B1U) (AG) (B2U) (AG) (B1U)
                 (B3G) (B1U) (AG) (B3G) (B1U) (B2U) (AG) (B1U)
                 (AG) (B1U) (B3G) (B2U) (AG) (B1U) (AG) (B2G) (AU)
                 (B1G) (B3U) (B3G) (B1U) (B2U) (AG) (B3U) (B2G)
                 (B3G) (B2U) (AG) (B2U) (B1U) (B3G) (AG) (B1U)
                 (AG) (B2U) (B1U) (AG) (B3G) (B2U) (AG) (B1U) (B2U)
                 (B3U) (B1U) (AG) (B3G) (B1G) (B2G) (B3U) (AU)
                 (AG) (B2U) (B2G) (B3G) (B1U) (B2U) (B3U) (B3G)
                 (B1G) (B2G) (B3U)
       Virtual   (AG) (AU) (B2U) (AG) (B1U) (AG) (B3G) (B1U) (B2U)
                 (B1U) (B3U) (AG) (B2G) (B1G) (B2U) (B2G) (AG)
                 (B2U) (B3G) (B1U) (B3U) (AU) (B1U) (AG) (B3G)
                 (B3U) (B2G) (AG) (B3G) (AG) (B2U) (B1U) (B2G)
                 (B1G) (B2U) (B1U) (B3U) (AG) (AU) (B3G) (B1U)
                 (B2U) (B1U) (B2U) (AG) (B3G) (AG) (B3G) (B2G)
                 (B2U) (AG) (B1U) (B3G) (AG) (B1U) (B2U) (B3G)
                 (B1U) (AG) (B3G) (B3U) (B2U) (B1G) (B2G) (B1U)
                 (B2U) (B1U) (AG) (B3G) (B2U) (AU) (B3U) (AG) (B2G)
                 (B3G) (B2U) (B1U) (B3U) (AG) (B1G) (B2G) (B3U)
                 (AG) (AU) (B3G) (B1U) (B3G) (B2U) (B2G) (B1U)
                 (B3U) (AG) (B1U) (B2G) (B1G) (B1G) (B3U) (AU)
                 (B2U) (AU) (AG) (B2G) (B1G) (B3G) (B1U) (AG) (B2U)
                 (B1U) (B3G) (AU) (B3U) (B2U) (B1U) (AG) (B1U)
                 (B3G) (B3G) (AG) (B2U) (B1U) (AG) (B1G) (AG) (B1U)
                 (AG) (B3G) (B2U) (B2G) (B2U) (B1U) (B3G) (AG)
                 (B3U) (B1U) (B3U) (AG) (B3G) (AU) (B1U) (B1G)
                 (B2U) (B2G) (B1U) (AG) (B2U) (B3G) (AG) (B2U)
                 (B1U) (B3U) (AU) (AG) (B3G) (B1G) (B1U) (B2U)
                 (B2G) (B2G) (AG) (B3G) (B2U) (B1U) (B3U) (B1G)
                 (B2G) (AU) (AU) (B3U) (AG) (B3G) (B2G) (B1U) (B2U)
                 (B2U) (B3G) (B1U) (B3G) (AG) (AG) (B3G) (B2U)
                 (B1U) (B3U) (B1U) (AG) (B3G) (B1G) (B2G) (B3U)
                 (AU) (B1U) (B2U) (B2G) (B1U) (AG) (B2U) (B3G)
                 (AG) (B3G) (AG) (B1U) (B1U) (B2U) (B3G) (AG) (B2U)
                 (B1U) (AG) (B3G) (B1U) (AG) (B2U) (B1U) (AG) (B3G)
                 (B1U) (B3U) (B1G) (B2G) (AU) (B3U) (B2G) (B1U)
                 (B2U) (B2U) (B3G) (AG) (B3G) (AG) (B1U) (B2U)
                 (B3G) (AG) (B1U) (AG) (B2U) (B1U) (AG) (B1U) (B3G)
 Beta  Orbitals:
       Occupied  (B3G) (B1U) (B2U) (AG) (B1U) (AG) (B2U) (AG) (B1U)
                 (B3G) (B1U) (AG) (B3G) (B1U) (B2U) (AG) (B1U)
                 (AG) (B1U) (B3G) (B2U) (AG) (B1U) (AG) (B2G) (AU)
                 (B1G) (B3U) (B3G) (B1U) (B2U) (AG) (B3G) (B2U)
                 (B2G) (B3U) (AG) (B2U) (B1U) (B3G) (AG) (B1U)
                 (AG) (B2U) (B1U) (AG) (B3G) (B2U) (AG) (B1U) (B2U)
                 (B1U) (B3U) (AG) (B3G) (B1G) (B2G) (AU) (AG) (B3U)
                 (B2U) (B3G) (B2G) (B1U) (B2U) (B3U) (B3G) (B1G)
                 (B2G)
       Virtual   (AG) (AU) (B3U) (B2U) (AG) (B1U) (AG) (B3G) (B1U)
                 (B2U) (B3U) (B1U) (AG) (B2G) (B1G) (B2U) (B2U)
                 (AG) (B3G) (B3U) (AU) (B1U) (B2G) (AG) (B3G) (B1U)
                 (B3U) (AG) (B3G) (AG) (B2G) (B2U) (B1U) (B1G)
                 (B2G) (B2U) (B1U) (AG) (AU) (B3U) (B3G) (B1U)
                 (B2U) (B2U) (B1U) (B3G) (AG) (AG) (B3G) (B2G)
                 (B2U) (AG) (B1U) (B3G) (AG) (B1U) (B2U) (B3G)
                 (B1U) (AG) (B3G) (B3U) (B2U) (B1G) (B2G) (B2U)
                 (B1U) (B1U) (AG) (B3G) (B2U) (AU) (B3U) (AG) (B3G)
                 (B2G) (B2U) (B1U) (B3U) (AG) (B1G) (B2G) (AG)
                 (AU) (B3G) (B3U) (B1U) (B3G) (B2U) (B2G) (B1U)
                 (B3U) (AG) (B1U) (B1G) (B2G) (B1G) (B3U) (AU)
                 (B2U) (AU) (AG) (B2G) (B3G) (B1G) (B1U) (AG) (B2U)
                 (B1U) (B3G) (AU) (B3U) (B2U) (B1U) (B1U) (B3G)
                 (AG) (B3G) (AG) (B2U) (AG) (B1U) (B1G) (AG) (B1U)
                 (AG) (B3G) (B2U) (B2G) (B2U) (B3G) (B1U) (AG)
                 (B3U) (B1U) (AG) (B3U) (B3G) (AU) (B1U) (B1G)
                 (B2U) (B2G) (B1U) (AG) (B2U) (B3G) (AG) (B2U)
                 (B1U) (B3U) (AU) (AG) (B3G) (B2U) (B1U) (B1G)
                 (B2G) (B2G) (AG) (B3G) (B2U) (B1U) (B3U) (B1G)
                 (B2G) (AU) (AU) (B3U) (AG) (B3G) (B2G) (B1U) (B2U)
                 (B2U) (B3G) (B1U) (B3G) (AG) (AG) (B3G) (B2U)
                 (B1U) (B3U) (B1U) (AG) (B3G) (B1G) (B2G) (AU)
                 (B3U) (B1U) (B2U) (B2G) (AG) (B1U) (B2U) (B3G)
                 (AG) (B3G) (AG) (B1U) (B1U) (B2U) (B3G) (AG) (B2U)
                 (B1U) (AG) (B3G) (B1U) (AG) (B2U) (B1U) (AG) (B3G)
                 (B1U) (B3U) (B1G) (B2G) (AU) (B3U) (B2G) (B1U)
                 (B2U) (B2U) (B3G) (AG) (B3G) (AG) (B1U) (B2U)
                 (B3G) (AG) (B1U) (AG) (B2U) (B1U) (AG) (B1U) (B3G)
 The electronic state of the initial guess is 2-B3U.
 Initial guess <Sx>= 0.0000 <Sy>= 0.0000 <Sz>= 0.5000 <S**2>= 0.7598 S= 0.5049
 Generating alternative initial guess.
 ExpMin= 4.38D-02 ExpMax= 1.06D+05 ExpMxC= 3.62D+03 IAcc=3 IRadAn=         5 AccDes= 0.00D+00
 Harris functional with IExCor=  402 and IRadAn=       5 diagonalized for initial guess.
 HarFok:  IExCor=  402 AccDes= 0.00D+00 IRadAn=         5 IDoV= 1 UseB2=F ITyADJ=14
 ICtDFT=  3500011 ScaDFX=  1.000000  1.000000  1.000000  1.000000
 FoFCou: FMM=F IPFlag=           0 FMFlag=      100000 FMFlg1=           0
         NFxFlg=           0 DoJE=T BraDBF=F KetDBF=T FulRan=T
         wScrn=  0.000000 ICntrl=       500 IOpCl=  0 I1Cent=   200000004 NGrid=           0
         NMat0=    1 NMatS0=      1 NMatT0=    0 NMatD0=    1 NMtDS0=    0 NMtDT0=    0
 Petite list used in FoFCou.
 Harris En= -2989.67774384276    
 Leave Link  401 at Mon Sep 28 02:47:05 2026, MaxMem=  1610612736 cpu:               3.9 elap:               0.5
 (Enter /share/software/user/restricted/gaussian/g16.B01/l502.exe)
 Keep R1 and R2 ints in memory in symmetry-blocked form, NReq=1348300735.
 FoFCou: FMM=F IPFlag=           0 FMFlag=           0 FMFlg1=           0
         NFxFlg=           0 DoJE=F BraDBF=F KetDBF=F FulRan=T
         wScrn=  0.000000 ICntrl=       600 IOpCl=  0 I1Cent=           0 NGrid=           0
         NMat0=    1 NMatS0=  48828 NMatT0=    0 NMatD0=    1 NMtDS0=    0 NMtDT0=    0
 Petite list used in FoFCou.
 UHF open shell SCF:
 Using DIIS extrapolation, IDIIS=  1040.
 NGot=  1610612736 LenX=  1298136914 LenY=  1298031497
 Requested convergence on RMS density matrix=1.00D-08 within 128 cycles.
 Requested convergence on MAX density matrix=1.00D-06.
 Requested convergence on             energy=1.00D-06.
 No special actions if energy rises.

 Cycle   1  Pass 1  IDiag  1:
 Inv3:  Mode=1 IEnd=    10990188.
 Iteration    1 A*A^-1 deviation from unit magnitude is 3.33D-15 for   1892.
 Iteration    1 A*A^-1 deviation from orthogonality  is 1.61D-15 for   1914   1794.
 Iteration    1 A^-1*A deviation from unit magnitude is 3.77D-15 for   1892.
 Iteration    1 A^-1*A deviation from orthogonality  is 1.54D-15 for   1876    219.
 E= -2990.08099275061    
 DIIS: error= 1.02D-03 at cycle   1 NSaved=   1.
 NSaved= 1 IEnMin= 1 EnMin= -2990.08099275061     IErMin= 1 ErrMin= 1.02D-03
 ErrMax= 1.02D-03  0.00D+00 EMaxC= 1.00D-01 BMatC= 1.44D-03 BMatP= 1.44D-03
 IDIUse=3 WtCom= 9.90D-01 WtEn= 1.02D-02
 Coeff-Com:  0.100D+01
 Coeff-En:   0.100D+01
 Coeff:      0.100D+01
 Gap=     0.045 Goal=   None    Shift=    0.000
 Gap=     0.169 Goal=   None    Shift=    0.000
 GapD=    0.045 DampG=0.250 DampE=1.000 DampFc=0.2500 IDamp=-1.
 Damping current iteration by 2.50D-01
 RMSDP=4.73D-03 MaxDP=4.10D-01              OVMax= 4.79D-03

 Cycle   2  Pass 1  IDiag  1:
 E= -2990.08110428425     Delta-E=       -0.000111533640 Rises=F Damp=T
 DIIS: error= 7.72D-04 at cycle   2 NSaved=   2.
 NSaved= 2 IEnMin= 2 EnMin= -2990.08110428425     IErMin= 2 ErrMin= 7.72D-04
 ErrMax= 7.72D-04  0.00D+00 EMaxC= 1.00D-01 BMatC= 8.17D-04 BMatP= 1.44D-03
 IDIUse=3 WtCom= 9.92D-01 WtEn= 7.72D-03
 Coeff-Com: -0.293D+01 0.393D+01
 Coeff-En:   0.000D+00 0.100D+01
 Coeff:     -0.291D+01 0.391D+01
 Gap=     0.045 Goal=   None    Shift=    0.000
 Gap=     0.168 Goal=   None    Shift=    0.000
 RMSDP=3.98D-03 MaxDP=3.42D-01 DE=-1.12D-04 OVMax= 8.18D-04

 Cycle   3  Pass 1  IDiag  1:
 E= -2990.08145200197     Delta-E=       -0.000347717718 Rises=F Damp=F
 DIIS: error= 1.34D-04 at cycle   3 NSaved=   3.
 NSaved= 3 IEnMin= 3 EnMin= -2990.08145200197     IErMin= 3 ErrMin= 1.34D-04
 ErrMax= 1.34D-04  0.00D+00 EMaxC= 1.00D-01 BMatC= 1.49D-05 BMatP= 8.17D-04
 IDIUse=3 WtCom= 9.99D-01 WtEn= 1.34D-03
 Coeff-Com: -0.117D+01 0.154D+01 0.628D+00
 Coeff-En:   0.000D+00 0.000D+00 0.100D+01
 Coeff:     -0.117D+01 0.154D+01 0.628D+00
 Gap=     0.045 Goal=   None    Shift=    0.000
 Gap=     0.168 Goal=   None    Shift=    0.000
 RMSDP=1.54D-04 MaxDP=6.35D-03 DE=-3.48D-04 OVMax= 3.37D-04

 Cycle   4  Pass 1  IDiag  1:
 E= -2990.08145545476     Delta-E=       -0.000003452794 Rises=F Damp=F
 DIIS: error= 3.72D-05 at cycle   4 NSaved=   4.
 NSaved= 4 IEnMin= 4 EnMin= -2990.08145545476     IErMin= 4 ErrMin= 3.72D-05
 ErrMax= 3.72D-05  0.00D+00 EMaxC= 1.00D-01 BMatC= 7.28D-07 BMatP= 1.49D-05
 IDIUse=1 WtCom= 1.00D+00 WtEn= 0.00D+00
 Coeff-Com: -0.426D+00 0.559D+00 0.279D+00 0.587D+00
 Coeff:     -0.426D+00 0.559D+00 0.279D+00 0.587D+00
 Gap=     0.045 Goal=   None    Shift=    0.000
 Gap=     0.168 Goal=   None    Shift=    0.000
 RMSDP=2.28D-05 MaxDP=9.57D-04 DE=-3.45D-06 OVMax= 1.49D-04

 Cycle   5  Pass 1  IDiag  1:
 E= -2990.08145561519     Delta-E=       -0.000000160432 Rises=F Damp=F
 DIIS: error= 1.92D-05 at cycle   5 NSaved=   5.
 NSaved= 5 IEnMin= 5 EnMin= -2990.08145561519     IErMin= 5 ErrMin= 1.92D-05
 ErrMax= 1.92D-05  0.00D+00 EMaxC= 1.00D-01 BMatC= 1.70D-07 BMatP= 7.28D-07
 IDIUse=1 WtCom= 1.00D+00 WtEn= 0.00D+00
 Coeff-Com: -0.339D-03-0.348D-03 0.352D-01 0.339D+00 0.626D+00
 Coeff:     -0.339D-03-0.348D-03 0.352D-01 0.339D+00 0.626D+00
 Gap=     0.045 Goal=   None    Shift=    0.000
 Gap=     0.168 Goal=   None    Shift=    0.000
 RMSDP=8.30D-06 MaxDP=6.11D-04 DE=-1.60D-07 OVMax= 5.34D-05

 Cycle   6  Pass 1  IDiag  1:
 E= -2990.08145565921     Delta-E=       -0.000000044020 Rises=F Damp=F
 DIIS: error= 2.74D-06 at cycle   6 NSaved=   6.
 NSaved= 6 IEnMin= 6 EnMin= -2990.08145565921     IErMin= 6 ErrMin= 2.74D-06
 ErrMax= 2.74D-06  0.00D+00 EMaxC= 1.00D-01 BMatC= 7.15D-09 BMatP= 1.70D-07
 IDIUse=1 WtCom= 1.00D+00 WtEn= 0.00D+00
 Coeff-Com:  0.254D-01-0.338D-01-0.936D-03 0.116D+00 0.276D+00 0.618D+00
 Coeff:      0.254D-01-0.338D-01-0.936D-03 0.116D+00 0.276D+00 0.618D+00
 Gap=     0.045 Goal=   None    Shift=    0.000
 Gap=     0.168 Goal=   None    Shift=    0.000
 RMSDP=2.74D-06 MaxDP=2.60D-04 DE=-4.40D-08 OVMax= 7.94D-06

 Cycle   7  Pass 1  IDiag  1:
 E= -2990.08145566081     Delta-E=       -0.000000001596 Rises=F Damp=F
 DIIS: error= 1.02D-06 at cycle   7 NSaved=   7.
 NSaved= 7 IEnMin= 7 EnMin= -2990.08145566081     IErMin= 7 ErrMin= 1.02D-06
 ErrMax= 1.02D-06  0.00D+00 EMaxC= 1.00D-01 BMatC= 3.86D-10 BMatP= 7.15D-09
 IDIUse=1 WtCom= 1.00D+00 WtEn= 0.00D+00
 Coeff-Com:  0.887D-02-0.117D-01-0.305D-02 0.128D-01 0.495D-01 0.180D+00
 Coeff-Com:  0.763D+00
 Coeff:      0.887D-02-0.117D-01-0.305D-02 0.128D-01 0.495D-01 0.180D+00
 Coeff:      0.763D+00
 Gap=     0.045 Goal=   None    Shift=    0.000
 Gap=     0.168 Goal=   None    Shift=    0.000
 RMSDP=3.79D-07 MaxDP=2.23D-05 DE=-1.60D-09 OVMax= 6.60D-06

 Cycle   8  Pass 1  IDiag  1:
 E= -2990.08145566089     Delta-E=       -0.000000000087 Rises=F Damp=F
 DIIS: error= 6.60D-07 at cycle   8 NSaved=   8.
 NSaved= 8 IEnMin= 8 EnMin= -2990.08145566089     IErMin= 8 ErrMin= 6.60D-07
 ErrMax= 6.60D-07  0.00D+00 EMaxC= 1.00D-01 BMatC= 2.02D-10 BMatP= 3.86D-10
 IDIUse=1 WtCom= 1.00D+00 WtEn= 0.00D+00
 Coeff-Com:  0.352D-04-0.629D-05-0.152D-02-0.152D-01-0.243D-01-0.210D-01
 Coeff-Com:  0.438D+00 0.624D+00
 Coeff:      0.352D-04-0.629D-05-0.152D-02-0.152D-01-0.243D-01-0.210D-01
 Coeff:      0.438D+00 0.624D+00
 Gap=     0.045 Goal=   None    Shift=    0.000
 Gap=     0.168 Goal=   None    Shift=    0.000
 RMSDP=2.40D-07 MaxDP=1.20D-05 DE=-8.69D-11 OVMax= 3.67D-06

 Cycle   9  Pass 1  IDiag  1:
 E= -2990.08145566095     Delta-E=       -0.000000000052 Rises=F Damp=F
 DIIS: error= 1.70D-07 at cycle   9 NSaved=   9.
 NSaved= 9 IEnMin= 9 EnMin= -2990.08145566095     IErMin= 9 ErrMin= 1.70D-07
 ErrMax= 1.70D-07  0.00D+00 EMaxC= 1.00D-01 BMatC= 1.16D-11 BMatP= 2.02D-10
 IDIUse=1 WtCom= 1.00D+00 WtEn= 0.00D+00
 Coeff-Com: -0.152D-02 0.201D-02 0.263D-03-0.466D-02-0.135D-01-0.303D-01
 Coeff-Com: -0.104D+00 0.107D+00 0.104D+01
 Coeff:     -0.152D-02 0.201D-02 0.263D-03-0.466D-02-0.135D-01-0.303D-01
 Coeff:     -0.104D+00 0.107D+00 0.104D+01
 Gap=     0.045 Goal=   None    Shift=    0.000
 Gap=     0.168 Goal=   None    Shift=    0.000
 RMSDP=7.62D-08 MaxDP=6.97D-06 DE=-5.23D-11 OVMax= 1.49D-06

 Cycle  10  Pass 1  IDiag  1:
 E= -2990.08145566095     Delta-E=       -0.000000000007 Rises=F Damp=F
 DIIS: error= 2.01D-08 at cycle  10 NSaved=  10.
 NSaved=10 IEnMin=10 EnMin= -2990.08145566095     IErMin=10 ErrMin= 2.01D-08
 ErrMax= 2.01D-08  0.00D+00 EMaxC= 1.00D-01 BMatC= 3.78D-13 BMatP= 1.16D-11
 IDIUse=1 WtCom= 1.00D+00 WtEn= 0.00D+00
 Coeff-Com: -0.200D-03 0.262D-03 0.184D-03 0.879D-03 0.851D-03-0.434D-03
 Coeff-Com: -0.450D-01-0.329D-01 0.910D-01 0.985D+00
 Coeff:     -0.200D-03 0.262D-03 0.184D-03 0.879D-03 0.851D-03-0.434D-03
 Coeff:     -0.450D-01-0.329D-01 0.910D-01 0.985D+00
 Gap=     0.045 Goal=   None    Shift=    0.000
 Gap=     0.168 Goal=   None    Shift=    0.000
 RMSDP=4.96D-08 MaxDP=3.31D-06 DE=-6.82D-12 OVMax= 3.27D-07

 Cycle  11  Pass 1  IDiag  1:
 E= -2990.08145566096     Delta-E=       -0.000000000007 Rises=F Damp=F
 DIIS: error= 7.78D-09 at cycle  11 NSaved=  11.
 NSaved=11 IEnMin=11 EnMin= -2990.08145566096     IErMin=11 ErrMin= 7.78D-09
 ErrMax= 7.78D-09  0.00D+00 EMaxC= 1.00D-01 BMatC= 6.88D-14 BMatP= 3.78D-13
 IDIUse=1 WtCom= 1.00D+00 WtEn= 0.00D+00
 Coeff-Com:  0.751D-05-0.110D-04 0.483D-04 0.500D-03 0.954D-03 0.107D-02
 Coeff-Com: -0.102D-01-0.175D-01-0.221D-01 0.359D+00 0.688D+00
 Coeff:      0.751D-05-0.110D-04 0.483D-04 0.500D-03 0.954D-03 0.107D-02
 Coeff:     -0.102D-01-0.175D-01-0.221D-01 0.359D+00 0.688D+00
 Gap=     0.045 Goal=   None    Shift=    0.000
 Gap=     0.168 Goal=   None    Shift=    0.000
 RMSDP=1.16D-08 MaxDP=9.38D-07 DE=-7.28D-12 OVMax= 5.26D-08

 Cycle  12  Pass 1  IDiag  1:
 E= -2990.08145566095     Delta-E=        0.000000000010 Rises=F Damp=F
 DIIS: error= 2.79D-09 at cycle  12 NSaved=  12.
 NSaved=12 IEnMin=11 EnMin= -2990.08145566096     IErMin=12 ErrMin= 2.79D-09
 ErrMax= 2.79D-09  0.00D+00 EMaxC= 1.00D-01 BMatC= 6.95D-15 BMatP= 6.88D-14
 IDIUse=1 WtCom= 1.00D+00 WtEn= 0.00D+00
 Coeff-Com:  0.252D-04-0.335D-04-0.782D-05 0.310D-04 0.181D-03 0.277D-03
 Coeff-Com:  0.260D-02-0.137D-02-0.176D-01-0.125D-01 0.228D+00 0.800D+00
 Coeff:      0.252D-04-0.335D-04-0.782D-05 0.310D-04 0.181D-03 0.277D-03
 Coeff:      0.260D-02-0.137D-02-0.176D-01-0.125D-01 0.228D+00 0.800D+00
 Gap=     0.045 Goal=   None    Shift=    0.000
 Gap=     0.168 Goal=   None    Shift=    0.000
 RMSDP=3.14D-09 MaxDP=3.15D-07 DE= 1.00D-11 OVMax= 1.51D-08

 Error on total polarization charges =  0.01420
 SCF Done:  E(UB3LYP) =  -2990.08145566     A.U. after   12 cycles
            NFock= 12  Conv=0.31D-08     -V/T= 2.0025
 <Sx>= 0.0000 <Sy>= 0.0000 <Sz>= 0.5000 <S**2>= 0.7599 S= 0.5049
 <L.S>=  0.00000000000    
 KE= 2.982680025830D+03 PE=-9.766754416720D+03 EE= 2.468606235967D+03
 SMD-CDS (non-electrostatic) energy       (kcal/mol) =       3.28
 (included in total energy above)
 Annihilation of the first spin contaminant:
 S**2 before annihilation     0.7599,   after     0.7500
 Leave Link  502 at Mon Sep 28 02:47:20 2026, MaxMem=  1610612736 cpu:             114.2 elap:              14.8
 (Enter /share/software/user/restricted/gaussian/g16.B01/l701.exe)
 ... and contract with generalized density number  0.
 Compute integral first derivatives.
 D1PCM: PCM CHGder 1st derivatives, ID1Alg=3 FixD1E=F DoIter=F DoCFld=F I1PDM=0.
 GePol: Maximum number of non-zero 1st derivatives   =     326
 Leave Link  701 at Mon Sep 28 02:47:21 2026, MaxMem=  1610612736 cpu:               7.2 elap:               0.9
 (Enter /share/software/user/restricted/gaussian/g16.B01/l702.exe)
 L702 exits ... SP integral derivatives will be done elsewhere.
 Leave Link  702 at Mon Sep 28 02:47:21 2026, MaxMem=  1610612736 cpu:               0.2 elap:               0.0
 (Enter /share/software/user/restricted/gaussian/g16.B01/l703.exe)
 Integral derivatives from FoFJK, PRISM(SPDF).
 Compute integral first derivatives, UseDBF=F ICtDFT=           0.
 Calling FoFJK, ICntrl=      2127 FMM=F ISym2X=1 I1Cent= 0 IOpClX= 1 NMat=1 NMatS=1 NMatT=0.
 FoFJK:  IHMeth= 1 ICntrl=    2127 DoSepK=F KAlg= 0 I1Cent=           0 FoldK=F
 IRaf=         0 NMat=       1 IRICut=       1 DoRegI=T DoRafI=F ISym2E= 1 IDoP0=0 IntGTp=1.
 FoFCou: FMM=F IPFlag=           0 FMFlag=      100000 FMFlg1=         800
         NFxFlg=           0 DoJE=F BraDBF=F KetDBF=F FulRan=T
         wScrn=  0.000000 ICntrl=      2127 IOpCl=  1 I1Cent=           0 NGrid=           0
         NMat0=    1 NMatS0=      1 NMatT0=    0 NMatD0=    1 NMtDS0=    0 NMtDT0=    0
 Petite list used in FoFCou.
 Leave Link  703 at Mon Sep 28 02:47:23 2026, MaxMem=  1610612736 cpu:              16.2 elap:               2.0
 (Enter /share/software/user/restricted/gaussian/g16.B01/l716.exe)
 Dipole        =-3.24241222D-17 1.42108547D-14-4.26325641D-14
 ***** Axes restored to original set *****
 -------------------------------------------------------------------
 Center     Atomic                   Forces (Hartrees/Bohr)
 Number     Number              X              Y              Z
 -------------------------------------------------------------------
      1        6          -0.000000000   -0.001130670   -0.000000000
      2        6          -0.001469121   -0.001171010   -0.000000000
      3        6          -0.001469121    0.001171010    0.000000000
      4        6           0.000000000    0.001130670   -0.000000000
      5        6           0.001469121    0.001171010   -0.000000000
      6        6           0.001469121   -0.001171010   -0.000000000
      7       17          -0.000000000    0.000192671   -0.000000000
      8       17           0.000840435   -0.000266034    0.000000000
      9       17           0.000840435    0.000266034    0.000000000
     10       17           0.000000000   -0.000192671   -0.000000000
     11       17          -0.000840435    0.000266034    0.000000000
     12       17          -0.000840435   -0.000266034    0.000000000
 -------------------------------------------------------------------
 Cartesian Forces:  Max     0.001469121 RMS     0.000742702
 Leave Link  716 at Mon Sep 28 02:47:23 2026, MaxMem=  1610612736 cpu:               0.2 elap:               0.0
 (Enter /share/software/user/restricted/gaussian/g16.B01/l103.exe)

 GradGradGradGradGradGradGradGradGradGradGradGradGradGradGradGradGradGrad
 Berny optimization.
 Using GEDIIS/GDIIS optimizer.
 FormGI is forming the generalized inverse of G from B-inverse, IUseBI=4.
 Internal  Forces:  Max     0.001906044 RMS     0.000628622
 Search for a local minimum.
 Step number   3 out of a maximum of   64
 All quantities printed in internal units (Hartrees-Bohrs-Radians)
 RMS Force = .62862D-03 SwitMx=.10000D-02 MixMth= 2
 Mixed Optimization -- En-DIIS/RFO-DIIS
 Update second derivatives using D2CorX and points    1    2    3
 DE= -4.97D-04 DEPred=-4.69D-04 R= 1.06D+00
 TightC=F SS=  1.41D+00  RLast= 6.15D-02 DXNew= 8.4853D-01 1.8452D-01
 Trust test= 1.06D+00 RLast= 6.15D-02 DXMaxT set to 5.05D-01
 ITU=  1  1  0
 Use linear search instead of GDIIS.
     Eigenvalues ---    0.01837   0.01837   0.01837   0.02019   0.02021
     Eigenvalues ---    0.02107   0.02108   0.02189   0.02195   0.21029
     Eigenvalues ---    0.25000   0.25000   0.25000   0.25000   0.25000
     Eigenvalues ---    0.25000   0.25000   0.25415   0.30411   0.34545
     Eigenvalues ---    0.34545   0.34545   0.35586   0.35936   0.39603
     Eigenvalues ---    0.41007   0.42612   0.46310   0.47049   0.51549
 RFO step:  Lambda=-6.90213877D-05 EMin= 1.83746453D-02
 Quartic linear search produced a step of  0.03096.
 Iteration  1 RMS(Cart)=  0.00414149 RMS(Int)=  0.00000811
 Iteration  2 RMS(Cart)=  0.00001211 RMS(Int)=  0.00000000
 Iteration  3 RMS(Cart)=  0.00000000 RMS(Int)=  0.00000000
 ITry= 1 IFail=0 DXMaxC= 1.27D-02 DCOld= 1.00D+10 DXMaxT= 5.05D-01 DXLimC= 3.00D+00 Rises=F
 ClnCor:  largest displacement from symmetrization is 9.78D-12 for atom     9.
 Variable       Old X    -DE/DX   Delta X   Delta X   Delta X     New X
                                 (Linear)    (Quad)   (Total)
    R1        2.72057  -0.00078  -0.00012  -0.00183  -0.00195   2.71862
    R2        2.72057  -0.00078  -0.00012  -0.00183  -0.00195   2.71862
    R3        3.31305   0.00019   0.00067   0.00184   0.00251   3.31557
    R4        2.59996  -0.00191  -0.00031  -0.00437  -0.00468   2.59528
    R5        3.31644   0.00059   0.00066   0.00293   0.00360   3.32003
    R6        2.72057  -0.00078  -0.00012  -0.00183  -0.00195   2.71862
    R7        3.31644   0.00059   0.00066   0.00293   0.00360   3.32003
    R8        2.72057  -0.00078  -0.00012  -0.00183  -0.00195   2.71862
    R9        3.31305   0.00019   0.00067   0.00184   0.00251   3.31557
   R10        2.59996  -0.00191  -0.00031  -0.00437  -0.00468   2.59528
   R11        3.31644   0.00059   0.00066   0.00293   0.00360   3.32003
   R12        3.31644   0.00059   0.00066   0.00293   0.00360   3.32003
    A1        2.05763  -0.00039  -0.00004  -0.00174  -0.00178   2.05585
    A2        2.11278   0.00020   0.00002   0.00087   0.00089   2.11367
    A3        2.11278   0.00020   0.00002   0.00087   0.00089   2.11367
    A4        2.11278   0.00020   0.00002   0.00087   0.00089   2.11367
    A5        2.06529   0.00099  -0.00031   0.00369   0.00339   2.06868
    A6        2.10512  -0.00119   0.00028  -0.00456  -0.00428   2.10084
    A7        2.11278   0.00020   0.00002   0.00087   0.00089   2.11367
    A8        2.10512  -0.00119   0.00028  -0.00456  -0.00428   2.10084
    A9        2.06529   0.00099  -0.00031   0.00369   0.00339   2.06868
   A10        2.05763  -0.00039  -0.00004  -0.00174  -0.00178   2.05585
   A11        2.11278   0.00020   0.00002   0.00087   0.00089   2.11367
   A12        2.11278   0.00020   0.00002   0.00087   0.00089   2.11367
   A13        2.11278   0.00020   0.00002   0.00087   0.00089   2.11367
   A14        2.06529   0.00099  -0.00031   0.00369   0.00339   2.06868
   A15        2.10512  -0.00119   0.00028  -0.00456  -0.00428   2.10084
   A16        2.11278   0.00020   0.00002   0.00087   0.00089   2.11367
   A17        2.06529   0.00099  -0.00031   0.00369   0.00339   2.06868
   A18        2.10512  -0.00119   0.00028  -0.00456  -0.00428   2.10084
    D1       -0.00000   0.00000   0.00000   0.00000   0.00000   0.00000
    D2        3.14159   0.00000   0.00000   0.00000   0.00000   3.14159
    D3        3.14159   0.00000   0.00000   0.00000   0.00000   3.14159
    D4        0.00000   0.00000   0.00000   0.00000  -0.00000   0.00000
    D5        0.00000  -0.00000   0.00000  -0.00000   0.00000   0.00000
    D6        3.14159  -0.00000   0.00000  -0.00000   0.00000   3.14159
    D7        3.14159  -0.00000   0.00000  -0.00000   0.00000   3.14159
    D8       -0.00000  -0.00000   0.00000  -0.00000   0.00000   0.00000
    D9        0.00000   0.00000   0.00000   0.00000   0.00000   0.00000
   D10        3.14159  -0.00000   0.00000  -0.00000   0.00000   3.14159
   D11        3.14159  -0.00000   0.00000  -0.00000   0.00000   3.14159
   D12       -0.00000  -0.00000   0.00000  -0.00000   0.00000   0.00000
   D13        0.00000  -0.00000   0.00000  -0.00000   0.00000   0.00000
   D14        3.14159  -0.00000   0.00000  -0.00000   0.00000   3.14159
   D15        3.14159  -0.00000   0.00000  -0.00000   0.00000   3.14159
   D16       -0.00000  -0.00000   0.00000  -0.00000   0.00000   0.00000
   D17       -0.00000   0.00000   0.00000   0.00000   0.00000   0.00000
   D18        3.14159   0.00000   0.00000   0.00000   0.00000   3.14159
   D19        3.14159   0.00000   0.00000   0.00000   0.00000   3.14159
   D20       -0.00000   0.00000   0.00000   0.00000   0.00000   0.00000
   D21        0.00000  -0.00000   0.00000  -0.00000   0.00000   0.00000
   D22        3.14159   0.00000   0.00000   0.00000   0.00000   3.14159
   D23        3.14159  -0.00000   0.00000  -0.00000   0.00000   3.14159
   D24        0.00000  -0.00000   0.00000  -0.00000  -0.00000   0.00000
         Item               Value     Threshold  Converged?
 Maximum Force            0.001906     0.000450     NO 
 RMS     Force            0.000629     0.000300     NO 
 Maximum Displacement     0.012746     0.001800     NO 
 RMS     Displacement     0.004150     0.001200     NO 
 Predicted change in Energy=-3.492183D-05
 Lowest energy point so far.  Saving SCF results.
 GradGradGradGradGradGradGradGradGradGradGradGradGradGradGradGradGradGrad

 Leave Link  103 at Mon Sep 28 02:47:23 2026, MaxMem=  1610612736 cpu:               0.2 elap:               0.0
 (Enter /share/software/user/restricted/gaussian/g16.B01/l202.exe)
                          Input orientation:                          
 ---------------------------------------------------------------------
 Center     Atomic      Atomic             Coordinates (Angstroms)
 Number     Number       Type             X           Y           Z
 ---------------------------------------------------------------------
      1          6           0        0.000000    1.429874   -0.000000
      2          6           0        1.231799    0.686682   -0.000000
      3          6           0        1.231799   -0.686682   -0.000000
      4          6           0        0.000000   -1.429874   -0.000000
      5          6           0       -1.231799   -0.686682   -0.000000
      6          6           0       -1.231799    0.686682   -0.000000
      7         17           0        0.000000    3.184397   -0.000000
      8         17           0        2.747614    1.574911   -0.000000
      9         17           0        2.747614   -1.574911   -0.000000
     10         17           0        0.000000   -3.184397   -0.000000
     11         17           0       -2.747614   -1.574911   -0.000000
     12         17           0       -2.747614    1.574911   -0.000000
 ---------------------------------------------------------------------
                    Distance matrix (angstroms):
                    1          2          3          4          5
     1  C    0.000000
     2  C    1.438632   0.000000
     3  C    2.448905   1.373364   0.000000
     4  C    2.859747   2.448905   1.438632   0.000000
     5  C    2.448905   2.820540   2.463598   1.438632   0.000000
     6  C    1.438632   2.463598   2.820540   2.448905   1.373364
     7  Cl   1.754523   2.784943   4.062337   4.614271   4.062337
     8  Cl   2.751440   1.756886   2.722591   4.071623   4.577175
     9  Cl   4.071623   2.722591   1.756886   2.751440   4.077338
    10  Cl   4.614271   4.062337   2.784943   1.754523   2.784943
    11  Cl   4.071623   4.577175   4.077338   2.751440   1.756886
    12  Cl   2.751440   4.077338   4.577175   4.071623   2.722591
                    6          7          8          9         10
     6  C    0.000000
     7  Cl   2.784943   0.000000
     8  Cl   4.077338   3.184310   0.000000
     9  Cl   4.577175   5.495489   3.149823   0.000000
    10  Cl   4.062337   6.368794   5.495489   3.184310   0.000000
    11  Cl   2.722591   5.495489   6.333950   5.495229   3.184310
    12  Cl   1.756886   3.184310   5.495229   6.333950   5.495489
                   11         12
    11  Cl   0.000000
    12  Cl   3.149823   0.000000
 Stoichiometry    C6Cl6(1-,2)
 Framework group  D2H[C2"(ClC.CCl),SG(C4Cl4)]
 Deg. of freedom     6
 Full point group                 D2H     NOp   8
 RotChk:  IX=0 Diff= 7.11D-14
 Largest Abelian subgroup         D2H     NOp   8
 Largest concise Abelian subgroup D2      NOp   4
                         Standard orientation:                         
 ---------------------------------------------------------------------
 Center     Atomic      Atomic             Coordinates (Angstroms)
 Number     Number       Type             X           Y           Z
 ---------------------------------------------------------------------
      1          6           0        0.000000   -0.000000    1.429874
      2          6           0        0.000000    1.231799    0.686682
      3          6           0        0.000000    1.231799   -0.686682
      4          6           0        0.000000   -0.000000   -1.429874
      5          6           0       -0.000000   -1.231799   -0.686682
      6          6           0       -0.000000   -1.231799    0.686682
      7         17           0        0.000000   -0.000000    3.184397
      8         17           0        0.000000    2.747614    1.574911
      9         17           0        0.000000    2.747614   -1.574911
     10         17           0        0.000000   -0.000000   -3.184397
     11         17           0       -0.000000   -2.747614   -1.574911
     12         17           0       -0.000000   -2.747614    1.574911
 ---------------------------------------------------------------------
 Rotational constants (GHZ):           0.4480958           0.4477115           0.2239518
 Leave Link  202 at Mon Sep 28 02:47:24 2026, MaxMem=  1610612736 cpu:               0.0 elap:               0.0
 (Enter /share/software/user/restricted/gaussian/g16.B01/l301.exe)
 Standard basis: 6-311++G(d) (5D, 7F)
 Ernie: Thresh=  0.10000D-02 Tol=  0.10000D-05 Strict=F.
 There are    68 symmetry adapted cartesian basis functions of AG  symmetry.
 There are    16 symmetry adapted cartesian basis functions of B1G symmetry.
 There are    26 symmetry adapted cartesian basis functions of B2G symmetry.
 There are    52 symmetry adapted cartesian basis functions of B3G symmetry.
 There are    16 symmetry adapted cartesian basis functions of AU  symmetry.
 There are    68 symmetry adapted cartesian basis functions of B1U symmetry.
 There are    52 symmetry adapted cartesian basis functions of B2U symmetry.
 There are    26 symmetry adapted cartesian basis functions of B3U symmetry.
 There are    64 symmetry adapted basis functions of AG  symmetry.
 There are    16 symmetry adapted basis functions of B1G symmetry.
 There are    26 symmetry adapted basis functions of B2G symmetry.
 There are    50 symmetry adapted basis functions of B3G symmetry.
 There are    16 symmetry adapted basis functions of AU  symmetry.
 There are    64 symmetry adapted basis functions of B1U symmetry.
 There are    50 symmetry adapted basis functions of B2U symmetry.
 There are    26 symmetry adapted basis functions of B3U symmetry.
   312 basis functions,   534 primitive gaussians,   324 cartesian basis functions
    70 alpha electrons       69 beta electrons
       nuclear repulsion energy      1325.3584488611 Hartrees.
 IExCor=  402 DFT=T Ex+Corr=B3LYP ExCW=0 ScaHFX=  0.200000
 ScaDFX=  0.800000  0.720000  1.000000  0.810000 ScalE2=  1.000000  1.000000
 IRadAn=      5 IRanWt=     -1 IRanGd=            0 ICorTp=0 IEmpDi=  4
 NAtoms=   12 NActive=   12 NUniq=    4 SFac= 4.00D+00 NAtFMM=   60 NAOKFM=F Big=F
 Integral buffers will be    131072 words long.
 Raffenetti 2 integral format.
 Two-electron integral symmetry is turned on.
 ------------------------------------------------------------------------------
 Polarizable Continuum Model (PCM)
 =================================
 Model                : PCM.
 Atomic radii         : SMD-Coulomb.
 Polarization charges : Total charges.
 Charge compensation  : None.
 Solution method      : On-the-fly selection.
 Cavity type          : VdW (van der Waals Surface) (Alpha=1.000).
 Cavity algorithm     : GePol (No added spheres)
                        Default sphere list used, NSphG=   12.
                        Lebedev-Laikov grids with approx.  5.0 points / Ang**2.
                        Smoothing algorithm: York/Karplus (Gamma=1.0000).
                        Polarization charges: spherical gaussians, with
                                              point-specific exponents (IZeta= 3).
                        Self-potential: point-specific (ISelfS= 7).
                        Self-field    : sphere-specific E.n sum rule (ISelfD= 2).
 1st derivatives      : Analytical E(r).r(x)/FMM algorithm (CHGder, D1EAlg=3).
                        Cavity 1st derivative terms included.
 Solvent              : Water, Eps=  78.355300 Eps(inf)=   1.777849
 ------------------------------------------------------------------------------
 Spheres list:
 ISph  on   Nord     Re0    Alpha      Xe            Ye            Ze
    1   C      1    1.8500  1.000     -0.000000      0.000000      1.429874
    2   C      2    1.8500  1.000     -0.000000      1.231799      0.686682
    3   C      3    1.8500  1.000      0.000000      1.231799     -0.686682
    4   C      4    1.8500  1.000      0.000000     -0.000000     -1.429874
    5   C      5    1.8500  1.000     -0.000000     -1.231799     -0.686682
    6   C      6    1.8500  1.000     -0.000000     -1.231799      0.686682
    7  Cl      7    2.3800  1.000     -0.000000      0.000000      3.184397
    8  Cl      8    2.3800  1.000     -0.000000      2.747614      1.574911
    9  Cl      9    2.3800  1.000      0.000000      2.747614     -1.574911
   10  Cl     10    2.3800  1.000      0.000000     -0.000000     -3.184397
   11  Cl     11    2.3800  1.000     -0.000000     -2.747614     -1.574911
   12  Cl     12    2.3800  1.000     -0.000000     -2.747614      1.574911
 ------------------------------------------------------------------------------
 GePol: Number of generator spheres                  =      12
 GePol: Total number of spheres                      =      12
 GePol: Number of exposed spheres                    =      12 (100.00%)
 GePol: Number of points                             =    1902
 GePol: Average weight of points                     =       0.14
 GePol: Minimum weight of points                     =   0.82D-06
 GePol: Maximum weight of points                     =    0.18138
 GePol: Number of points with low weight             =      48
 GePol: Fraction of low-weight points (<1% of avg)   =       2.52%
 GePol: Cavity surface area                          =    272.929 Ang**2
 GePol: Cavity volume                                =    303.759 Ang**3
 ------------------------------------------------------------------------------
 Atomic radii for non-electrostatic terms: SMD-CDS.
 ------------------------------------------------------------------------------
 PCM non-electrostatic energy =         0.0052169236 Hartrees.
 Nuclear repulsion after PCM non-electrostatic terms =     1325.3636657848 Hartrees.
 Leave Link  301 at Mon Sep 28 02:47:24 2026, MaxMem=  1610612736 cpu:               0.3 elap:               0.0
 (Enter /share/software/user/restricted/gaussian/g16.B01/l302.exe)
 NPDir=0 NMtPBC=     1 NCelOv=     1 NCel=       1 NClECP=     1 NCelD=      1
         NCelK=      1 NCelE2=     1 NClLst=     1 CellRange=     0.0.
 One-electron integrals computed using PRISM.
 One-electron integral symmetry used in STVInt
 NBasis=   312 RedAO= T EigKep=  1.86D-06  NBF=    64    16    26    50    16    64    50    26
 NBsUse=   310 1.00D-06 EigRej=  2.66D-07 NBFU=    64    16    26    49    16    63    50    26
 Precomputing XC quadrature grid using
 IXCGrd= 4 IRadAn=           5 IRanWt=          -1 IRanGd=           0 AccXCQ= 0.00D+00.
 Generated NRdTot=       0 NPtTot=           0 NUsed=           0 NTot=          32
 NSgBfM=   314   314   314   314   314 MxSgAt=    12 MxSgA2=    12.
 Leave Link  302 at Mon Sep 28 02:47:24 2026, MaxMem=  1610612736 cpu:               1.1 elap:               0.2
 (Enter /share/software/user/restricted/gaussian/g16.B01/l303.exe)
 DipDrv:  MaxL=1.
 Leave Link  303 at Mon Sep 28 02:47:24 2026, MaxMem=  1610612736 cpu:               0.2 elap:               0.0
 (Enter /share/software/user/restricted/gaussian/g16.B01/l401.exe)
 Initial guess from the checkpoint file:  "calcs/b3lyp_smd/chks/ClBz_123456_RA.chk"
 B after Tr=    -0.000000   -0.000000   -0.000000
         Rot=    1.000000    0.000000   -0.000000   -0.000000 Ang=   0.00 deg.
 Guess basis will be translated and rotated to current coordinates.
 JPrj=2 DoOrth=T DoCkMO=T.
 Initial guess orbital symmetries:
 Alpha Orbitals:
       Occupied  (B3G) (B1U) (B2U) (AG) (B1U) (AG) (B2U) (AG) (B1U)
                 (B3G) (B1U) (AG) (B3G) (B1U) (B2U) (AG) (B1U)
                 (AG) (B1U) (B3G) (B2U) (AG) (B1U) (AG) (B2G) (AU)
                 (B1G) (B3U) (B3G) (B1U) (B2U) (AG) (B3U) (B2G)
                 (B3G) (B2U) (AG) (B2U) (B1U) (B3G) (AG) (B1U)
                 (AG) (B2U) (B1U) (AG) (B3G) (B2U) (AG) (B1U) (B2U)
                 (B3U) (B1U) (AG) (B3G) (B1G) (B2G) (AU) (B3U)
                 (AG) (B2U) (B3G) (B2G) (B1U) (B2U) (B3U) (B3G)
                 (B1G) (B2G) (B3U)
       Virtual   (AG) (AU) (B2U) (B1U) (AG) (AG) (B3G) (B1U) (B2U)
                 (B1U) (B3U) (AG) (B2G) (B1G) (B2U) (AG) (B2G)
                 (B2U) (B3G) (B1U) (B3U) (AU) (B1U) (AG) (B3G)
                 (B3U) (B2G) (AG) (B3G) (AG) (B2U) (B1U) (B2G)
                 (B1G) (B2U) (B1U) (B3U) (AG) (AU) (B3G) (B1U)
                 (B2U) (B2U) (B1U) (AG) (B3G) (AG) (B3G) (B2G)
                 (B2U) (AG) (B1U) (B3G) (AG) (B1U) (B2U) (B3G)
                 (B1U) (AG) (B3G) (B3U) (B2U) (B1G) (B2G) (B1U)
                 (B2U) (B1U) (AG) (B3G) (B2U) (AU) (B3U) (AG) (B2G)
                 (B3G) (B2U) (B1U) (B3U) (AG) (B1G) (B2G) (B3U)
                 (AG) (AU) (B3G) (B1U) (B3G) (B2U) (B2G) (B1U)
                 (B3U) (AG) (B1U) (B2G) (B1G) (B1G) (B3U) (B2U)
                 (AU) (AG) (AU) (B2G) (B3G) (B1G) (B1U) (AG) (B2U)
                 (B1U) (B3G) (B3U) (AU) (B2U) (B1U) (AG) (B1U)
                 (B3G) (B2U) (B3G) (AG) (B1U) (AG) (B1G) (AG) (B1U)
                 (AG) (B3G) (B2U) (B2G) (B2U) (B1U) (B3G) (AG)
                 (B3U) (B1U) (B3U) (AG) (B3G) (AU) (B1U) (B1G)
                 (B2G) (B2U) (B1U) (AG) (B2U) (B3G) (AG) (B2U)
                 (B1U) (B3U) (AU) (AG) (B3G) (B1U) (B1G) (B2U)
                 (B2G) (B2G) (AG) (B3G) (B2U) (B1U) (B3U) (B1G)
                 (B2G) (AU) (B3U) (AU) (AG) (B3G) (B2G) (B1U) (B2U)
                 (B2U) (B3G) (B1U) (AG) (B3G) (AG) (B3G) (B2U)
                 (B1U) (B3U) (B1U) (AG) (B3G) (B1G) (B2G) (B3U)
                 (AU) (B1U) (B2U) (B2G) (B1U) (AG) (B2U) (B3G)
                 (AG) (B3G) (AG) (B1U) (B1U) (B2U) (B3G) (AG) (B2U)
                 (B1U) (B3G) (B1U) (AG) (AG) (B2U) (B1U) (AG) (B3G)
                 (B1U) (B3U) (B1G) (B2G) (AU) (B3U) (B2G) (B2U)
                 (B1U) (B2U) (B3G) (AG) (B3G) (AG) (B1U) (B2U)
                 (AG) (B3G) (B1U) (AG) (B2U) (B1U) (B3G) (B1U)
                 (AG)
 Beta  Orbitals:
       Occupied  (B3G) (B1U) (B2U) (AG) (B1U) (AG) (B2U) (AG) (B1U)
                 (B3G) (B1U) (AG) (B3G) (B1U) (B2U) (AG) (B1U)
                 (AG) (B1U) (B3G) (B2U) (AG) (B1U) (AG) (B2G) (AU)
                 (B1G) (B3U) (B3G) (B1U) (B2U) (AG) (B3G) (B2U)
                 (B2G) (B3U) (AG) (B2U) (B1U) (B3G) (AG) (B1U)
                 (AG) (B2U) (B1U) (AG) (B3G) (B2U) (AG) (B1U) (B2U)
                 (B1U) (B3U) (AG) (B3G) (B1G) (B2G) (AU) (AG) (B3U)
                 (B2U) (B3G) (B2G) (B1U) (B2U) (B3U) (B3G) (B1G)
                 (B2G)
       Virtual   (AG) (AU) (B3U) (B2U) (B1U) (AG) (AG) (B3G) (B1U)
                 (B2U) (B1U) (B3U) (AG) (B2G) (B1G) (B2U) (B2U)
                 (AG) (B3G) (B1U) (B3U) (AU) (B2G) (B1U) (B3G)
                 (AG) (B3U) (AG) (B3G) (AG) (B2G) (B2U) (B1U) (B1G)
                 (B2G) (B2U) (B1U) (AG) (B3U) (AU) (B3G) (B1U)
                 (B2U) (B2U) (B1U) (AG) (B3G) (AG) (B3G) (B2G)
                 (B2U) (AG) (B1U) (B3G) (AG) (B1U) (B2U) (B3G)
                 (B1U) (AG) (B3G) (B3U) (B2U) (B1G) (B2G) (B2U)
                 (B1U) (B1U) (AG) (B3G) (B2U) (AU) (B3U) (AG) (B3G)
                 (B2G) (B2U) (B1U) (B3U) (AG) (B1G) (B2G) (AG)
                 (AU) (B3U) (B3G) (B1U) (B3G) (B2U) (B2G) (B1U)
                 (B3U) (AG) (B1U) (B1G) (B2G) (B1G) (B3U) (AU)
                 (B2U) (AG) (AU) (B2G) (B3G) (B1G) (B1U) (AG) (B2U)
                 (B1U) (B3G) (AU) (B3U) (B2U) (B1U) (B3G) (B1U)
                 (AG) (B2U) (B3G) (AG) (B1U) (AG) (B1G) (AG) (B1U)
                 (AG) (B3G) (B2U) (B2G) (B2U) (B1U) (B3G) (AG)
                 (B3U) (B1U) (AG) (B3G) (B3U) (AU) (B1U) (B1G)
                 (B2U) (B2G) (B1U) (AG) (B2U) (B3G) (AG) (B2U)
                 (B1U) (B3U) (AU) (AG) (B3G) (B2U) (B1U) (B1G)
                 (B2G) (B2G) (AG) (B3G) (B2U) (B1U) (B3U) (B1G)
                 (B2G) (AU) (AU) (B3U) (AG) (B3G) (B2G) (B1U) (B2U)
                 (B2U) (B3G) (B1U) (B3G) (AG) (AG) (B3G) (B2U)
                 (B1U) (B3U) (B1U) (AG) (B3G) (B1G) (B2G) (AU)
                 (B3U) (B1U) (B2U) (B2G) (B1U) (AG) (B2U) (B3G)
                 (AG) (B3G) (AG) (B1U) (B1U) (B2U) (B3G) (AG) (B2U)
                 (B1U) (B3G) (B1U) (AG) (AG) (B2U) (B1U) (AG) (B3G)
                 (B1U) (B3U) (B1G) (B2G) (AU) (B3U) (B2G) (B2U)
                 (B1U) (B2U) (B3G) (AG) (B3G) (AG) (B1U) (B2U)
                 (AG) (B3G) (B1U) (AG) (B2U) (B1U) (B3G) (B1U)
                 (AG)
 The electronic state of the initial guess is 2-B3U.
 Initial guess <Sx>= 0.0000 <Sy>= 0.0000 <Sz>= 0.5000 <S**2>= 0.7598 S= 0.5049
 Leave Link  401 at Mon Sep 28 02:47:24 2026, MaxMem=  1610612736 cpu:               2.3 elap:               0.3
 (Enter /share/software/user/restricted/gaussian/g16.B01/l502.exe)
 Keep R1 and R2 ints in memory in symmetry-blocked form, NReq=1348300735.
 FoFCou: FMM=F IPFlag=           0 FMFlag=           0 FMFlg1=           0
         NFxFlg=           0 DoJE=F BraDBF=F KetDBF=F FulRan=T
         wScrn=  0.000000 ICntrl=       600 IOpCl=  0 I1Cent=           0 NGrid=           0
         NMat0=    1 NMatS0=  48828 NMatT0=    0 NMatD0=    1 NMtDS0=    0 NMtDT0=    0
 Petite list used in FoFCou.
 UHF open shell SCF:
 Using DIIS extrapolation, IDIIS=  1040.
 NGot=  1610612736 LenX=  1298136914 LenY=  1298031497
 Requested convergence on RMS density matrix=1.00D-08 within 128 cycles.
 Requested convergence on MAX density matrix=1.00D-06.
 Requested convergence on             energy=1.00D-06.
 No special actions if energy rises.

 Cycle   1  Pass 1  IDiag  1:
 Inv3:  Mode=1 IEnd=    10852812.
 Iteration    1 A*A^-1 deviation from unit magnitude is 5.22D-15 for   1901.
 Iteration    1 A*A^-1 deviation from orthogonality  is 1.33D-15 for    855     22.
 Iteration    1 A^-1*A deviation from unit magnitude is 5.11D-15 for   1901.
 Iteration    1 A^-1*A deviation from orthogonality  is 1.25D-15 for   1895   1883.
 E= -2990.08141526683    
 DIIS: error= 5.03D-04 at cycle   1 NSaved=   1.
 NSaved= 1 IEnMin= 1 EnMin= -2990.08141526683     IErMin= 1 ErrMin= 5.03D-04
 ErrMax= 5.03D-04  0.00D+00 EMaxC= 1.00D-01 BMatC= 2.16D-04 BMatP= 2.16D-04
 IDIUse=3 WtCom= 9.95D-01 WtEn= 5.03D-03
 Coeff-Com:  0.100D+01
 Coeff-En:   0.100D+01
 Coeff:      0.100D+01
 Gap=     0.044 Goal=   None    Shift=    0.000
 Gap=     0.167 Goal=   None    Shift=    0.000
 RMSDP=1.56D-03 MaxDP=1.08D-01              OVMax= 2.10D-03

 Cycle   2  Pass 1  IDiag  1:
 E= -2990.08147787709     Delta-E=       -0.000062610256 Rises=F Damp=F
 DIIS: error= 9.10D-05 at cycle   2 NSaved=   2.
 NSaved= 2 IEnMin= 2 EnMin= -2990.08147787709     IErMin= 2 ErrMin= 9.10D-05
 ErrMax= 9.10D-05  0.00D+00 EMaxC= 1.00D-01 BMatC= 6.04D-06 BMatP= 2.16D-04
 IDIUse=1 WtCom= 1.00D+00 WtEn= 0.00D+00
 Coeff-Com:  0.232D-01 0.977D+00
 Coeff:      0.232D-01 0.977D+00
 Gap=     0.044 Goal=   None    Shift=    0.000
 Gap=     0.167 Goal=   None    Shift=    0.000
 RMSDP=2.38D-04 MaxDP=1.56D-02 DE=-6.26D-05 OVMax= 5.65D-04

 Cycle   3  Pass 1  IDiag  1:
 E= -2990.08147726476     Delta-E=        0.000000612326 Rises=F Damp=F
 DIIS: error= 1.32D-04 at cycle   3 NSaved=   3.
 NSaved= 3 IEnMin= 2 EnMin= -2990.08147787709     IErMin= 2 ErrMin= 9.10D-05
 ErrMax= 1.32D-04  0.00D+00 EMaxC= 1.00D-01 BMatC= 9.03D-06 BMatP= 6.04D-06
 IDIUse=3 WtCom= 4.65D-01 WtEn= 5.35D-01
 Coeff-Com: -0.132D-01 0.559D+00 0.454D+00
 Coeff-En:   0.000D+00 0.578D+00 0.422D+00
 Coeff:     -0.613D-02 0.569D+00 0.437D+00
 Gap=     0.044 Goal=   None    Shift=    0.000
 Gap=     0.167 Goal=   None    Shift=    0.000
 RMSDP=3.75D-05 MaxDP=1.74D-03 DE= 6.12D-07 OVMax= 3.68D-04

 Cycle   4  Pass 1  IDiag  1:
 E= -2990.08147953243     Delta-E=       -0.000002267668 Rises=F Damp=F
 DIIS: error= 1.95D-05 at cycle   4 NSaved=   4.
 NSaved= 4 IEnMin= 4 EnMin= -2990.08147953243     IErMin= 4 ErrMin= 1.95D-05
 ErrMax= 1.95D-05  0.00D+00 EMaxC= 1.00D-01 BMatC= 2.44D-07 BMatP= 6.04D-06
 IDIUse=1 WtCom= 1.00D+00 WtEn= 0.00D+00
 Coeff-Com: -0.678D-02 0.177D+00 0.197D+00 0.634D+00
 Coeff:     -0.678D-02 0.177D+00 0.197D+00 0.634D+00
 Gap=     0.044 Goal=   None    Shift=    0.000
 Gap=     0.167 Goal=   None    Shift=    0.000
 RMSDP=1.52D-05 MaxDP=9.73D-04 DE=-2.27D-06 OVMax= 5.22D-05

 Cycle   5  Pass 1  IDiag  1:
 E= -2990.08147959080     Delta-E=       -0.000000058367 Rises=F Damp=F
 DIIS: error= 3.67D-06 at cycle   5 NSaved=   5.
 NSaved= 5 IEnMin= 5 EnMin= -2990.08147959080     IErMin= 5 ErrMin= 3.67D-06
 ErrMax= 3.67D-06  0.00D+00 EMaxC= 1.00D-01 BMatC= 9.00D-09 BMatP= 2.44D-07
 IDIUse=1 WtCom= 1.00D+00 WtEn= 0.00D+00
 Coeff-Com: -0.124D-02 0.129D-01 0.310D-01 0.185D+00 0.772D+00
 Coeff:     -0.124D-02 0.129D-01 0.310D-01 0.185D+00 0.772D+00
 Gap=     0.044 Goal=   None    Shift=    0.000
 Gap=     0.167 Goal=   None    Shift=    0.000
 RMSDP=6.90D-06 MaxDP=4.96D-04 DE=-5.84D-08 OVMax= 1.62D-05

 Cycle   6  Pass 1  IDiag  1:
 E= -2990.08147959205     Delta-E=       -0.000000001256 Rises=F Damp=F
 DIIS: error= 2.56D-06 at cycle   6 NSaved=   6.
 NSaved= 6 IEnMin= 6 EnMin= -2990.08147959205     IErMin= 6 ErrMin= 2.56D-06
 ErrMax= 2.56D-06  0.00D+00 EMaxC= 1.00D-01 BMatC= 3.78D-09 BMatP= 9.00D-09
 IDIUse=1 WtCom= 1.00D+00 WtEn= 0.00D+00
 Coeff-Com: -0.520D-04-0.101D-01-0.693D-03 0.497D-01 0.452D+00 0.509D+00
 Coeff:     -0.520D-04-0.101D-01-0.693D-03 0.497D-01 0.452D+00 0.509D+00
 Gap=     0.044 Goal=   None    Shift=    0.000
 Gap=     0.167 Goal=   None    Shift=    0.000
 RMSDP=1.01D-06 MaxDP=6.29D-05 DE=-1.26D-09 OVMax= 1.05D-05

 Cycle   7  Pass 1  IDiag  1:
 E= -2990.08147959301     Delta-E=       -0.000000000953 Rises=F Damp=F
 DIIS: error= 4.10D-07 at cycle   7 NSaved=   7.
 NSaved= 7 IEnMin= 7 EnMin= -2990.08147959301     IErMin= 7 ErrMin= 4.10D-07
 ErrMax= 4.10D-07  0.00D+00 EMaxC= 1.00D-01 BMatC= 8.81D-11 BMatP= 3.78D-09
 IDIUse=1 WtCom= 1.00D+00 WtEn= 0.00D+00
 Coeff-Com:  0.693D-04-0.333D-02-0.200D-02 0.340D-02 0.652D-01 0.172D+00
 Coeff-Com:  0.764D+00
 Coeff:      0.693D-04-0.333D-02-0.200D-02 0.340D-02 0.652D-01 0.172D+00
 Coeff:      0.764D+00
 Gap=     0.044 Goal=   None    Shift=    0.000
 Gap=     0.167 Goal=   None    Shift=    0.000
 RMSDP=1.48D-07 MaxDP=8.69D-06 DE=-9.53D-10 OVMax= 1.65D-06

 Cycle   8  Pass 1  IDiag  1:
 E= -2990.08147959302     Delta-E=       -0.000000000010 Rises=F Damp=F
 DIIS: error= 4.73D-08 at cycle   8 NSaved=   8.
 NSaved= 8 IEnMin= 8 EnMin= -2990.08147959302     IErMin= 8 ErrMin= 4.73D-08
 ErrMax= 4.73D-08  0.00D+00 EMaxC= 1.00D-01 BMatC= 1.56D-12 BMatP= 8.81D-11
 IDIUse=1 WtCom= 1.00D+00 WtEn= 0.00D+00
 Coeff-Com:  0.152D-04-0.398D-03-0.421D-03-0.705D-03-0.212D-02 0.190D-01
 Coeff-Com:  0.130D+00 0.854D+00
 Coeff:      0.152D-04-0.398D-03-0.421D-03-0.705D-03-0.212D-02 0.190D-01
 Coeff:      0.130D+00 0.854D+00
 Gap=     0.044 Goal=   None    Shift=    0.000
 Gap=     0.167 Goal=   None    Shift=    0.000
 RMSDP=6.15D-08 MaxDP=3.97D-06 DE=-1.05D-11 OVMax= 8.11D-07

 Cycle   9  Pass 1  IDiag  1:
 E= -2990.08147959301     Delta-E=        0.000000000004 Rises=F Damp=F
 DIIS: error= 2.19D-08 at cycle   9 NSaved=   9.
 NSaved= 9 IEnMin= 8 EnMin= -2990.08147959302     IErMin= 9 ErrMin= 2.19D-08
 ErrMax= 2.19D-08  0.00D+00 EMaxC= 1.00D-01 BMatC= 3.78D-13 BMatP= 1.56D-12
 IDIUse=1 WtCom= 1.00D+00 WtEn= 0.00D+00
 Coeff-Com: -0.247D-05 0.260D-03 0.101D-03-0.790D-03-0.904D-02-0.143D-01
 Coeff-Com: -0.422D-01 0.304D+00 0.761D+00
 Coeff:     -0.247D-05 0.260D-03 0.101D-03-0.790D-03-0.904D-02-0.143D-01
 Coeff:     -0.422D-01 0.304D+00 0.761D+00
 Gap=     0.044 Goal=   None    Shift=    0.000
 Gap=     0.167 Goal=   None    Shift=    0.000
 RMSDP=3.18D-08 MaxDP=2.25D-06 DE= 3.64D-12 OVMax= 3.49D-07

 Cycle  10  Pass 1  IDiag  1:
 E= -2990.08147959301     Delta-E=        0.000000000000 Rises=F Damp=F
 DIIS: error= 7.67D-09 at cycle  10 NSaved=  10.
 NSaved=10 IEnMin= 8 EnMin= -2990.08147959302     IErMin=10 ErrMin= 7.67D-09
 ErrMax= 7.67D-09  0.00D+00 EMaxC= 1.00D-01 BMatC= 2.15D-14 BMatP= 3.78D-13
 IDIUse=1 WtCom= 1.00D+00 WtEn= 0.00D+00
 Coeff-Com: -0.158D-05 0.413D-04 0.486D-04 0.721D-04 0.564D-03-0.184D-02
 Coeff-Com: -0.116D-01-0.913D-01 0.779D-02 0.110D+01
 Coeff:     -0.158D-05 0.413D-04 0.486D-04 0.721D-04 0.564D-03-0.184D-02
 Coeff:     -0.116D-01-0.913D-01 0.779D-02 0.110D+01
 Gap=     0.044 Goal=   None    Shift=    0.000
 Gap=     0.167 Goal=   None    Shift=    0.000
 RMSDP=8.64D-09 MaxDP=7.64D-07 DE= 0.00D+00 OVMax= 1.31D-07

 Error on total polarization charges =  0.01418
 SCF Done:  E(UB3LYP) =  -2990.08147959     A.U. after   10 cycles
            NFock= 10  Conv=0.86D-08     -V/T= 2.0025
 <Sx>= 0.0000 <Sy>= 0.0000 <Sz>= 0.5000 <S**2>= 0.7598 S= 0.5049
 <L.S>=  0.00000000000    
 KE= 2.982686537015D+03 PE=-9.766706541389D+03 EE= 2.468574858996D+03
 SMD-CDS (non-electrostatic) energy       (kcal/mol) =       3.27
 (included in total energy above)
 Annihilation of the first spin contaminant:
 S**2 before annihilation     0.7598,   after     0.7500
 Leave Link  502 at Mon Sep 28 02:47:38 2026, MaxMem=  1610612736 cpu:             105.2 elap:              13.6
 (Enter /share/software/user/restricted/gaussian/g16.B01/l701.exe)
 ... and contract with generalized density number  0.
 Compute integral first derivatives.
 D1PCM: PCM CHGder 1st derivatives, ID1Alg=3 FixD1E=F DoIter=F DoCFld=F I1PDM=0.
 GePol: Maximum number of non-zero 1st derivatives   =     320
 Leave Link  701 at Mon Sep 28 02:47:39 2026, MaxMem=  1610612736 cpu:               7.2 elap:               0.9
 (Enter /share/software/user/restricted/gaussian/g16.B01/l702.exe)
 L702 exits ... SP integral derivatives will be done elsewhere.
 Leave Link  702 at Mon Sep 28 02:47:39 2026, MaxMem=  1610612736 cpu:               0.2 elap:               0.0
 (Enter /share/software/user/restricted/gaussian/g16.B01/l703.exe)
 Integral derivatives from FoFJK, PRISM(SPDF).
 Compute integral first derivatives, UseDBF=F ICtDFT=           0.
 Calling FoFJK, ICntrl=      2127 FMM=F ISym2X=1 I1Cent= 0 IOpClX= 1 NMat=1 NMatS=1 NMatT=0.
 FoFJK:  IHMeth= 1 ICntrl=    2127 DoSepK=F KAlg= 0 I1Cent=           0 FoldK=F
 IRaf=         0 NMat=       1 IRICut=       1 DoRegI=T DoRafI=F ISym2E= 1 IDoP0=0 IntGTp=1.
 FoFCou: FMM=F IPFlag=           0 FMFlag=      100000 FMFlg1=         800
         NFxFlg=           0 DoJE=F BraDBF=F KetDBF=F FulRan=T
         wScrn=  0.000000 ICntrl=      2127 IOpCl=  1 I1Cent=           0 NGrid=           0
         NMat0=    1 NMatS0=      1 NMatT0=    0 NMatD0=    1 NMtDS0=    0 NMtDT0=    0
 Petite list used in FoFCou.
 Leave Link  703 at Mon Sep 28 02:47:41 2026, MaxMem=  1610612736 cpu:              16.2 elap:               2.0
 (Enter /share/software/user/restricted/gaussian/g16.B01/l716.exe)
 Dipole        =-2.92311493D-17 0.00000000D+00-3.55271368D-14
 ***** Axes restored to original set *****
 -------------------------------------------------------------------
 Center     Atomic                   Forces (Hartrees/Bohr)
 Number     Number              X              Y              Z
 -------------------------------------------------------------------
      1        6          -0.000000000    0.000288584   -0.000000000
      2        6          -0.000165090    0.000733995   -0.000000000
      3        6          -0.000165090   -0.000733995    0.000000000
      4        6          -0.000000000   -0.000288584   -0.000000000
      5        6           0.000165090   -0.000733995   -0.000000000
      6        6           0.000165090    0.000733995   -0.000000000
      7       17          -0.000000000   -0.000447707   -0.000000000
      8       17          -0.000139789    0.000222265    0.000000000
      9       17          -0.000139789   -0.000222265    0.000000000
     10       17           0.000000000    0.000447707   -0.000000000
     11       17           0.000139789   -0.000222265    0.000000000
     12       17           0.000139789    0.000222265    0.000000000
 -------------------------------------------------------------------
 Cartesian Forces:  Max     0.000733995 RMS     0.000293789
 Leave Link  716 at Mon Sep 28 02:47:41 2026, MaxMem=  1610612736 cpu:               0.2 elap:               0.0
 (Enter /share/software/user/restricted/gaussian/g16.B01/l103.exe)

 GradGradGradGradGradGradGradGradGradGradGradGradGradGradGradGradGradGrad
 Berny optimization.
 Using GEDIIS/GDIIS optimizer.
 FormGI is forming the generalized inverse of G from B-inverse, IUseBI=4.
 Internal  Forces:  Max     0.000876699 RMS     0.000267183
 Search for a local minimum.
 Step number   4 out of a maximum of   64
 All quantities printed in internal units (Hartrees-Bohrs-Radians)
 RMS Force = .26718D-03 SwitMx=.10000D-02 MixMth= 2
 Mixed Optimization -- En-DIIS/RFO-DIIS
 Swapping is turned off.
 Update second derivatives using D2CorX and points    1    2    3    4
 DE= -2.39D-05 DEPred=-3.49D-05 R= 6.85D-01
 TightC=F SS=  1.41D+00  RLast= 1.60D-02 DXNew= 8.4853D-01 4.7922D-02
 Trust test= 6.85D-01 RLast= 1.60D-02 DXMaxT set to 5.05D-01
 ITU=  1  1  1  0
     Eigenvalues ---    0.01837   0.01837   0.01837   0.02018   0.02021
     Eigenvalues ---    0.02106   0.02107   0.02189   0.02194   0.20992
     Eigenvalues ---    0.25000   0.25000   0.25000   0.25000   0.25000
     Eigenvalues ---    0.25000   0.25000   0.25704   0.32861   0.34545
     Eigenvalues ---    0.34545   0.34545   0.35936   0.36384   0.39602
     Eigenvalues ---    0.40998   0.42612   0.46880   0.47047   0.56932
 En-DIIS/RFO-DIIS/Sim-DIIS IScMMF=       -3 using points:     4    3
 RFO step:  Lambda=-7.83514653D-06.
 NNeg= 0 NGDIIS= 2 SimSw=  2.50D-01 Rises=F DC= -2.39D-05 SmlDif=  1.00D-05
 NRisDI= 0 DoIntr=F SqrtH=F CThrHd= 10.0 CDAdj=  3.0
 RMS Error=  0.5622183094D-03 NUsed= 2 OKEnD=T EnDIS=F
 InvSVX:  RCond= 2.87D-04 Info=           0 Equed=N FErr=  1.13D-15 BErr=  9.77D-17
 DidBck=T Rises=F RFO-DIIS coefs:    0.78967    0.21033
 Iteration  1 RMS(Cart)=  0.00119483 RMS(Int)=  0.00000050
 Iteration  2 RMS(Cart)=  0.00000052 RMS(Int)=  0.00000000
 ITry= 1 IFail=0 DXMaxC= 3.57D-03 DCOld= 1.00D+10 DXMaxT= 5.05D-01 DXLimC= 3.00D+00 Rises=F
 ClnCor:  largest displacement from symmetrization is 5.82D-12 for atom    11.
 Variable       Old X    -DE/DX   Delta X   Delta X   Delta X     New X
                                 (Linear)    (Quad)   (Total)
    R1        2.71862  -0.00030   0.00041  -0.00088  -0.00047   2.71815
    R2        2.71862  -0.00030   0.00041  -0.00088  -0.00047   2.71815
    R3        3.31557  -0.00045  -0.00053  -0.00076  -0.00129   3.31428
    R4        2.59528   0.00088   0.00098   0.00046   0.00144   2.59672
    R5        3.32003  -0.00001  -0.00076   0.00041  -0.00034   3.31969
    R6        2.71862  -0.00030   0.00041  -0.00088  -0.00047   2.71815
    R7        3.32003  -0.00001  -0.00076   0.00041  -0.00034   3.31969
    R8        2.71862  -0.00030   0.00041  -0.00088  -0.00047   2.71815
    R9        3.31557  -0.00045  -0.00053  -0.00076  -0.00129   3.31428
   R10        2.59528   0.00088   0.00098   0.00046   0.00144   2.59672
   R11        3.32003  -0.00001  -0.00076   0.00041  -0.00034   3.31969
   R12        3.32003  -0.00001  -0.00076   0.00041  -0.00034   3.31969
    A1        2.05585   0.00009   0.00038  -0.00015   0.00023   2.05608
    A2        2.11367  -0.00004  -0.00019   0.00007  -0.00011   2.11355
    A3        2.11367  -0.00004  -0.00019   0.00007  -0.00011   2.11355
    A4        2.11367  -0.00004  -0.00019   0.00007  -0.00011   2.11355
    A5        2.06868  -0.00041  -0.00071  -0.00023  -0.00094   2.06774
    A6        2.10084   0.00046   0.00090   0.00016   0.00106   2.10189
    A7        2.11367  -0.00004  -0.00019   0.00007  -0.00011   2.11355
    A8        2.10084   0.00046   0.00090   0.00016   0.00106   2.10189
    A9        2.06868  -0.00041  -0.00071  -0.00023  -0.00094   2.06774
   A10        2.05585   0.00009   0.00038  -0.00015   0.00023   2.05608
   A11        2.11367  -0.00004  -0.00019   0.00007  -0.00011   2.11355
   A12        2.11367  -0.00004  -0.00019   0.00007  -0.00011   2.11355
   A13        2.11367  -0.00004  -0.00019   0.00007  -0.00011   2.11355
   A14        2.06868  -0.00041  -0.00071  -0.00023  -0.00094   2.06774
   A15        2.10084   0.00046   0.00090   0.00016   0.00106   2.10189
   A16        2.11367  -0.00004  -0.00019   0.00007  -0.00011   2.11355
   A17        2.06868  -0.00041  -0.00071  -0.00023  -0.00094   2.06774
   A18        2.10084   0.00046   0.00090   0.00016   0.00106   2.10189
    D1       -0.00000   0.00000   0.00000   0.00000   0.00000   0.00000
    D2        3.14159   0.00000   0.00000   0.00000   0.00000   3.14159
    D3        3.14159   0.00000   0.00000   0.00000   0.00000   3.14159
    D4        0.00000   0.00000   0.00000   0.00000  -0.00000   0.00000
    D5        0.00000  -0.00000   0.00000  -0.00000   0.00000   0.00000
    D6        3.14159  -0.00000   0.00000  -0.00000   0.00000   3.14159
    D7        3.14159  -0.00000   0.00000  -0.00000   0.00000   3.14159
    D8       -0.00000  -0.00000   0.00000  -0.00000   0.00000   0.00000
    D9        0.00000   0.00000   0.00000   0.00000  -0.00000   0.00000
   D10        3.14159  -0.00000   0.00000  -0.00000   0.00000   3.14159
   D11        3.14159  -0.00000   0.00000  -0.00000   0.00000   3.14159
   D12       -0.00000  -0.00000   0.00000  -0.00000   0.00000   0.00000
   D13        0.00000  -0.00000   0.00000  -0.00000   0.00000   0.00000
   D14        3.14159  -0.00000   0.00000  -0.00000   0.00000   3.14159
   D15        3.14159  -0.00000   0.00000  -0.00000   0.00000   3.14159
   D16       -0.00000  -0.00000   0.00000  -0.00000   0.00000   0.00000
   D17       -0.00000   0.00000   0.00000   0.00000   0.00000   0.00000
   D18        3.14159   0.00000   0.00000   0.00000   0.00000   3.14159
   D19        3.14159   0.00000   0.00000   0.00000   0.00000   3.14159
   D20       -0.00000   0.00000   0.00000   0.00000   0.00000   0.00000
   D21        0.00000  -0.00000   0.00000  -0.00000   0.00000   0.00000
   D22        3.14159   0.00000   0.00000   0.00000   0.00000   3.14159
   D23        3.14159  -0.00000   0.00000  -0.00000   0.00000   3.14159
   D24        0.00000  -0.00000   0.00000  -0.00000   0.00000   0.00000
         Item               Value     Threshold  Converged?
 Maximum Force            0.000877     0.000450     NO 
 RMS     Force            0.000267     0.000300     YES
 Maximum Displacement     0.003569     0.001800     NO 
 RMS     Displacement     0.001195     0.001200     YES
 Predicted change in Energy=-3.917636D-06
 Lowest energy point so far.  Saving SCF results.
 GradGradGradGradGradGradGradGradGradGradGradGradGradGradGradGradGradGrad

 Leave Link  103 at Mon Sep 28 02:47:42 2026, MaxMem=  1610612736 cpu:               0.3 elap:               0.1
 (Enter /share/software/user/restricted/gaussian/g16.B01/l202.exe)
                          Input orientation:                          
 ---------------------------------------------------------------------
 Center     Atomic      Atomic             Coordinates (Angstroms)
 Number     Number       Type             X           Y           Z
 ---------------------------------------------------------------------
      1          6           0       -0.000000    1.429986   -0.000000
      2          6           0        1.231669    0.687064   -0.000000
      3          6           0        1.231669   -0.687064   -0.000000
      4          6           0        0.000000   -1.429986   -0.000000
      5          6           0       -1.231669   -0.687064   -0.000000
      6          6           0       -1.231669    0.687064   -0.000000
      7         17           0       -0.000000    3.183825   -0.000000
      8         17           0        2.746391    1.576800   -0.000000
      9         17           0        2.746391   -1.576800   -0.000000
     10         17           0        0.000000   -3.183825   -0.000000
     11         17           0       -2.746391   -1.576800   -0.000000
     12         17           0       -2.746391    1.576800   -0.000000
 ---------------------------------------------------------------------
                    Distance matrix (angstroms):
                    1          2          3          4          5
     1  C    0.000000
     2  C    1.438382   0.000000
     3  C    2.449267   1.374127   0.000000
     4  C    2.859972   2.449267   1.438382   0.000000
     5  C    2.449267   2.820685   2.463339   1.438382   0.000000
     6  C    1.438382   2.463339   2.820685   2.449267   1.374127
     7  Cl   1.753839   2.784031   4.062116   4.613811   4.062116
     8  Cl   2.750312   1.756704   2.723868   4.072275   4.577121
     9  Cl   4.072275   2.723868   1.756704   2.750312   4.076345
    10  Cl   4.613811   4.062116   2.784031   1.753839   2.784031
    11  Cl   4.072275   4.577121   4.076345   2.750312   1.756704
    12  Cl   2.750312   4.076345   4.577121   4.072275   2.723868
                    6          7          8          9         10
     6  C    0.000000
     7  Cl   2.784031   0.000000
     8  Cl   4.076345   3.182011   0.000000
     9  Cl   4.577121   5.496018   3.153600   0.000000
    10  Cl   4.062116   6.367650   5.496018   3.182011   0.000000
    11  Cl   2.723868   5.496018   6.333706   5.492781   3.182011
    12  Cl   1.756704   3.182011   5.492781   6.333706   5.496018
                   11         12
    11  Cl   0.000000
    12  Cl   3.153600   0.000000
 Stoichiometry    C6Cl6(1-,2)
 Framework group  D2H[C2"(ClC.CCl),SG(C4Cl4)]
 Deg. of freedom     6
 Full point group                 D2H     NOp   8
 RotChk:  IX=0 Diff= 7.11D-14
 Largest Abelian subgroup         D2H     NOp   8
 Largest concise Abelian subgroup D2      NOp   4
                         Standard orientation:                         
 ---------------------------------------------------------------------
 Center     Atomic      Atomic             Coordinates (Angstroms)
 Number     Number       Type             X           Y           Z
 ---------------------------------------------------------------------
      1          6           0       -0.000000   -0.000000    1.429986
      2          6           0        0.000000    1.231669    0.687064
      3          6           0        0.000000    1.231669   -0.687064
      4          6           0        0.000000   -0.000000   -1.429986
      5          6           0       -0.000000   -1.231669   -0.687064
      6          6           0       -0.000000   -1.231669    0.687064
      7         17           0       -0.000000   -0.000000    3.183825
      8         17           0        0.000000    2.746391    1.576800
      9         17           0        0.000000    2.746391   -1.576800
     10         17           0        0.000000   -0.000000   -3.183825
     11         17           0       -0.000000   -2.746391   -1.576800
     12         17           0       -0.000000   -2.746391    1.576800
 ---------------------------------------------------------------------
 Rotational constants (GHZ):           0.4480909           0.4478533           0.2239860
 Leave Link  202 at Mon Sep 28 02:47:42 2026, MaxMem=  1610612736 cpu:               0.1 elap:               0.0
 (Enter /share/software/user/restricted/gaussian/g16.B01/l301.exe)
 Standard basis: 6-311++G(d) (5D, 7F)
 Ernie: Thresh=  0.10000D-02 Tol=  0.10000D-05 Strict=F.
 There are    68 symmetry adapted cartesian basis functions of AG  symmetry.
 There are    16 symmetry adapted cartesian basis functions of B1G symmetry.
 There are    26 symmetry adapted cartesian basis functions of B2G symmetry.
 There are    52 symmetry adapted cartesian basis functions of B3G symmetry.
 There are    16 symmetry adapted cartesian basis functions of AU  symmetry.
 There are    68 symmetry adapted cartesian basis functions of B1U symmetry.
 There are    52 symmetry adapted cartesian basis functions of B2U symmetry.
 There are    26 symmetry adapted cartesian basis functions of B3U symmetry.
 There are    64 symmetry adapted basis functions of AG  symmetry.
 There are    16 symmetry adapted basis functions of B1G symmetry.
 There are    26 symmetry adapted basis functions of B2G symmetry.
 There are    50 symmetry adapted basis functions of B3G symmetry.
 There are    16 symmetry adapted basis functions of AU  symmetry.
 There are    64 symmetry adapted basis functions of B1U symmetry.
 There are    50 symmetry adapted basis functions of B2U symmetry.
 There are    26 symmetry adapted basis functions of B3U symmetry.
   312 basis functions,   534 primitive gaussians,   324 cartesian basis functions
    70 alpha electrons       69 beta electrons
       nuclear repulsion energy      1325.4580922453 Hartrees.
 IExCor=  402 DFT=T Ex+Corr=B3LYP ExCW=0 ScaHFX=  0.200000
 ScaDFX=  0.800000  0.720000  1.000000  0.810000 ScalE2=  1.000000  1.000000
 IRadAn=      5 IRanWt=     -1 IRanGd=            0 ICorTp=0 IEmpDi=  4
 NAtoms=   12 NActive=   12 NUniq=    4 SFac= 4.00D+00 NAtFMM=   60 NAOKFM=F Big=F
 Integral buffers will be    131072 words long.
 Raffenetti 2 integral format.
 Two-electron integral symmetry is turned on.
 ------------------------------------------------------------------------------
 Polarizable Continuum Model (PCM)
 =================================
 Model                : PCM.
 Atomic radii         : SMD-Coulomb.
 Polarization charges : Total charges.
 Charge compensation  : None.
 Solution method      : On-the-fly selection.
 Cavity type          : VdW (van der Waals Surface) (Alpha=1.000).
 Cavity algorithm     : GePol (No added spheres)
                        Default sphere list used, NSphG=   12.
                        Lebedev-Laikov grids with approx.  5.0 points / Ang**2.
                        Smoothing algorithm: York/Karplus (Gamma=1.0000).
                        Polarization charges: spherical gaussians, with
                                              point-specific exponents (IZeta= 3).
                        Self-potential: point-specific (ISelfS= 7).
                        Self-field    : sphere-specific E.n sum rule (ISelfD= 2).
 1st derivatives      : Analytical E(r).r(x)/FMM algorithm (CHGder, D1EAlg=3).
                        Cavity 1st derivative terms included.
 Solvent              : Water, Eps=  78.355300 Eps(inf)=   1.777849
 ------------------------------------------------------------------------------
 Spheres list:
 ISph  on   Nord     Re0    Alpha      Xe            Ye            Ze
    1   C      1    1.8500  1.000      0.000000      0.000000      1.429986
    2   C      2    1.8500  1.000      0.000000      1.231669      0.687064
    3   C      3    1.8500  1.000      0.000000      1.231669     -0.687064
    4   C      4    1.8500  1.000      0.000000     -0.000000     -1.429986
    5   C      5    1.8500  1.000     -0.000000     -1.231669     -0.687064
    6   C      6    1.8500  1.000     -0.000000     -1.231669      0.687064
    7  Cl      7    2.3800  1.000     -0.000000      0.000000      3.183825
    8  Cl      8    2.3800  1.000     -0.000000      2.746391      1.576800
    9  Cl      9    2.3800  1.000      0.000000      2.746391     -1.576800
   10  Cl     10    2.3800  1.000      0.000000      0.000000     -3.183825
   11  Cl     11    2.3800  1.000     -0.000000     -2.746391     -1.576800
   12  Cl     12    2.3800  1.000     -0.000000     -2.746391      1.576800
 ------------------------------------------------------------------------------
 GePol: Number of generator spheres                  =      12
 GePol: Total number of spheres                      =      12
 GePol: Number of exposed spheres                    =      12 (100.00%)
 GePol: Number of points                             =    1902
 GePol: Average weight of points                     =       0.14
 GePol: Minimum weight of points                     =   0.92D-06
 GePol: Maximum weight of points                     =    0.18138
 GePol: Number of points with low weight             =      64
 GePol: Fraction of low-weight points (<1% of avg)   =       3.36%
 GePol: Cavity surface area                          =    272.898 Ang**2
 GePol: Cavity volume                                =    303.729 Ang**3
 ------------------------------------------------------------------------------
 Atomic radii for non-electrostatic terms: SMD-CDS.
 ------------------------------------------------------------------------------
 PCM non-electrostatic energy =         0.0052165876 Hartrees.
 Nuclear repulsion after PCM non-electrostatic terms =     1325.4633088330 Hartrees.
 Leave Link  301 at Mon Sep 28 02:47:42 2026, MaxMem=  1610612736 cpu:               0.3 elap:               0.0
 (Enter /share/software/user/restricted/gaussian/g16.B01/l302.exe)
 NPDir=0 NMtPBC=     1 NCelOv=     1 NCel=       1 NClECP=     1 NCelD=      1
         NCelK=      1 NCelE2=     1 NClLst=     1 CellRange=     0.0.
 One-electron integrals computed using PRISM.
 One-electron integral symmetry used in STVInt
 NBasis=   312 RedAO= T EigKep=  1.85D-06  NBF=    64    16    26    50    16    64    50    26
 NBsUse=   310 1.00D-06 EigRej=  2.66D-07 NBFU=    64    16    26    49    16    63    50    26
 Precomputing XC quadrature grid using
 IXCGrd= 4 IRadAn=           5 IRanWt=          -1 IRanGd=           0 AccXCQ= 0.00D+00.
 Generated NRdTot=       0 NPtTot=           0 NUsed=           0 NTot=          32
 NSgBfM=   314   314   314   314   314 MxSgAt=    12 MxSgA2=    12.
 Leave Link  302 at Mon Sep 28 02:47:42 2026, MaxMem=  1610612736 cpu:               1.2 elap:               0.2
 (Enter /share/software/user/restricted/gaussian/g16.B01/l303.exe)
 DipDrv:  MaxL=1.
 Leave Link  303 at Mon Sep 28 02:47:42 2026, MaxMem=  1610612736 cpu:               0.3 elap:               0.0
 (Enter /share/software/user/restricted/gaussian/g16.B01/l401.exe)
 Initial guess from the checkpoint file:  "calcs/b3lyp_smd/chks/ClBz_123456_RA.chk"
 B after Tr=     0.000000   -0.000000    0.000000
         Rot=    1.000000   -0.000000   -0.000000    0.000000 Ang=   0.00 deg.
 Guess basis will be translated and rotated to current coordinates.
 JPrj=2 DoOrth=T DoCkMO=T.
 Initial guess orbital symmetries:
 Alpha Orbitals:
       Occupied  (B3G) (B1U) (B2U) (AG) (B1U) (AG) (B2U) (AG) (B1U)
                 (B3G) (B1U) (AG) (B3G) (B1U) (B2U) (AG) (B1U)
                 (AG) (B1U) (B3G) (B2U) (AG) (B1U) (AG) (B2G) (AU)
                 (B1G) (B3U) (B3G) (B1U) (B2U) (AG) (B3U) (B2G)
                 (B3G) (B2U) (AG) (B2U) (B1U) (B3G) (AG) (B1U)
                 (AG) (B2U) (B1U) (AG) (B3G) (B2U) (AG) (B1U) (B2U)
                 (B3U) (B1U) (AG) (B3G) (B1G) (B2G) (AU) (B3U)
                 (AG) (B2U) (B3G) (B2G) (B1U) (B2U) (B3U) (B3G)
                 (B1G) (B2G) (B3U)
       Virtual   (AG) (AU) (B2U) (B1U) (AG) (AG) (B1U) (B3G) (B2U)
                 (B1U) (B3U) (AG) (B2G) (B1G) (B2U) (AG) (B2G)
                 (B2U) (B3G) (B1U) (B3U) (AU) (B1U) (AG) (B3G)
                 (B3U) (B2G) (AG) (B3G) (AG) (B2U) (B1U) (B2G)
                 (B1G) (B2U) (B1U) (B3U) (AG) (AU) (B3G) (B1U)
                 (B2U) (B2U) (B1U) (AG) (B3G) (AG) (B3G) (B2G)
                 (B2U) (AG) (B1U) (B3G) (AG) (B1U) (B2U) (B3G)
                 (B1U) (AG) (B3G) (B3U) (B2U) (B1G) (B2G) (B1U)
                 (B2U) (B1U) (AG) (B3G) (B2U) (AU) (B3U) (AG) (B2G)
                 (B3G) (B2U) (B1U) (B3U) (AG) (B1G) (B2G) (B3U)
                 (AG) (AU) (B3G) (B1U) (B3G) (B2U) (B2G) (B1U)
                 (B3U) (AG) (B1U) (B2G) (B1G) (B1G) (B3U) (B2U)
                 (AU) (AG) (AU) (B2G) (B3G) (B1G) (B1U) (AG) (B2U)
                 (B1U) (B3G) (AU) (B3U) (B2U) (B1U) (AG) (B1U)
                 (B3G) (B2U) (B3G) (AG) (B1U) (AG) (B1G) (AG) (B1U)
                 (AG) (B3G) (B2U) (B2G) (B2U) (B1U) (B3G) (AG)
                 (B3U) (B1U) (B3U) (AG) (B3G) (AU) (B1U) (B1G)
                 (B2G) (B2U) (B1U) (AG) (B2U) (B3G) (AG) (B2U)
                 (B1U) (B3U) (AU) (AG) (B3G) (B1U) (B1G) (B2U)
                 (B2G) (B2G) (AG) (B3G) (B2U) (B1U) (B3U) (B1G)
                 (B2G) (AU) (AU) (B3U) (AG) (B3G) (B2G) (B1U) (B2U)
                 (B2U) (B3G) (B1U) (B3G) (AG) (AG) (B3G) (B2U)
                 (B1U) (B3U) (B1U) (AG) (B3G) (B1G) (B2G) (B3U)
                 (AU) (B1U) (B2U) (B2G) (B1U) (AG) (B2U) (B3G)
                 (AG) (B3G) (AG) (B1U) (B1U) (B2U) (B3G) (AG) (B2U)
                 (B1U) (B3G) (B1U) (AG) (AG) (B2U) (B1U) (AG) (B3G)
                 (B1U) (B3U) (B1G) (B2G) (AU) (B3U) (B2G) (B1U)
                 (B2U) (B2U) (B3G) (AG) (B3G) (AG) (B1U) (B2U)
                 (AG) (B3G) (B1U) (AG) (B2U) (B1U) (B1U) (B3G)
                 (AG)
 Beta  Orbitals:
       Occupied  (B3G) (B1U) (B2U) (AG) (B1U) (AG) (B2U) (AG) (B1U)
                 (B3G) (B1U) (AG) (B3G) (B1U) (B2U) (AG) (B1U)
                 (AG) (B1U) (B3G) (B2U) (AG) (B1U) (AG) (B2G) (AU)
                 (B1G) (B3U) (B3G) (B1U) (B2U) (AG) (B3G) (B2U)
                 (B2G) (B3U) (AG) (B2U) (B1U) (B3G) (AG) (B1U)
                 (AG) (B2U) (B1U) (AG) (B3G) (B2U) (AG) (B1U) (B2U)
                 (B1U) (B3U) (AG) (B3G) (B1G) (B2G) (AU) (AG) (B3U)
                 (B2U) (B3G) (B2G) (B1U) (B2U) (B3U) (B3G) (B1G)
                 (B2G)
       Virtual   (AG) (AU) (B3U) (B2U) (B1U) (AG) (AG) (B3G) (B1U)
                 (B2U) (B1U) (B3U) (AG) (B2G) (B1G) (B2U) (B2U)
                 (AG) (B3G) (B1U) (B3U) (AU) (B2G) (B1U) (B3G)
                 (AG) (B3U) (AG) (B3G) (AG) (B2G) (B2U) (B1U) (B1G)
                 (B2G) (B2U) (B1U) (AG) (B3U) (AU) (B3G) (B1U)
                 (B2U) (B2U) (B1U) (AG) (B3G) (AG) (B3G) (B2G)
                 (B2U) (AG) (B1U) (B3G) (AG) (B1U) (B2U) (B3G)
                 (B1U) (AG) (B3G) (B3U) (B2U) (B1G) (B2G) (B2U)
                 (B1U) (B1U) (AG) (B3G) (B2U) (AU) (B3U) (AG) (B3G)
                 (B2G) (B2U) (B1U) (B3U) (AG) (B1G) (B2G) (AG)
                 (AU) (B3U) (B3G) (B1U) (B3G) (B2U) (B2G) (B1U)
                 (B3U) (AG) (B1U) (B1G) (B2G) (B1G) (B3U) (B2U)
                 (AU) (AG) (AU) (B2G) (B3G) (B1G) (B1U) (AG) (B2U)
                 (B1U) (B3G) (AU) (B3U) (B2U) (B1U) (B1U) (B3G)
                 (AG) (B2U) (B3G) (AG) (B1U) (AG) (B1G) (AG) (B1U)
                 (AG) (B3G) (B2U) (B2G) (B2U) (B1U) (B3G) (AG)
                 (B3U) (B1U) (AG) (B3U) (B3G) (AU) (B1U) (B1G)
                 (B2U) (B2G) (B1U) (AG) (B2U) (B3G) (AG) (B2U)
                 (B1U) (B3U) (AU) (AG) (B3G) (B2U) (B1U) (B1G)
                 (B2G) (B2G) (AG) (B3G) (B2U) (B1U) (B3U) (B1G)
                 (B2G) (AU) (AU) (B3U) (AG) (B3G) (B2G) (B1U) (B2U)
                 (B2U) (B3G) (B1U) (B3G) (AG) (AG) (B3G) (B2U)
                 (B1U) (B3U) (B1U) (AG) (B3G) (B1G) (B2G) (AU)
                 (B3U) (B1U) (B2U) (B2G) (B1U) (AG) (B2U) (B3G)
                 (AG) (B3G) (AG) (B1U) (B1U) (B2U) (B3G) (AG) (B2U)
                 (B1U) (B3G) (B1U) (AG) (AG) (B2U) (B1U) (AG) (B3G)
                 (B1U) (B3U) (B1G) (B2G) (AU) (B3U) (B2G) (B1U)
                 (B2U) (B2U) (B3G) (AG) (B3G) (AG) (B1U) (B2U)
                 (AG) (B3G) (B1U) (AG) (B2U) (B1U) (B1U) (B3G)
                 (AG)
 The electronic state of the initial guess is 2-B3U.
 Initial guess <Sx>= 0.0000 <Sy>= 0.0000 <Sz>= 0.5000 <S**2>= 0.7598 S= 0.5049
 Leave Link  401 at Mon Sep 28 02:47:42 2026, MaxMem=  1610612736 cpu:               2.2 elap:               0.3
 (Enter /share/software/user/restricted/gaussian/g16.B01/l502.exe)
 Keep R1 and R2 ints in memory in symmetry-blocked form, NReq=1348300735.
 FoFCou: FMM=F IPFlag=           0 FMFlag=           0 FMFlg1=           0
         NFxFlg=           0 DoJE=F BraDBF=F KetDBF=F FulRan=T
         wScrn=  0.000000 ICntrl=       600 IOpCl=  0 I1Cent=           0 NGrid=           0
         NMat0=    1 NMatS0=  48828 NMatT0=    0 NMatD0=    1 NMtDS0=    0 NMtDT0=    0
 Petite list used in FoFCou.
 UHF open shell SCF:
 Using DIIS extrapolation, IDIIS=  1040.
 NGot=  1610612736 LenX=  1298136914 LenY=  1298031497
 Requested convergence on RMS density matrix=1.00D-08 within 128 cycles.
 Requested convergence on MAX density matrix=1.00D-06.
 Requested convergence on             energy=1.00D-06.
 No special actions if energy rises.

 Cycle   1  Pass 1  IDiag  1:
 Inv3:  Mode=1 IEnd=    10852812.
 Iteration    1 A*A^-1 deviation from unit magnitude is 6.66D-15 for   1894.
 Iteration    1 A*A^-1 deviation from orthogonality  is 1.61D-15 for   1900   1899.
 Iteration    1 A^-1*A deviation from unit magnitude is 6.66D-15 for   1894.
 Iteration    1 A^-1*A deviation from orthogonality  is 1.30D-15 for   1890   1888.
 E= -2990.08147960552    
 DIIS: error= 1.19D-04 at cycle   1 NSaved=   1.
 NSaved= 1 IEnMin= 1 EnMin= -2990.08147960552     IErMin= 1 ErrMin= 1.19D-04
 ErrMax= 1.19D-04  0.00D+00 EMaxC= 1.00D-01 BMatC= 1.42D-05 BMatP= 1.42D-05
 IDIUse=3 WtCom= 9.99D-01 WtEn= 1.19D-03
 Coeff-Com:  0.100D+01
 Coeff-En:   0.100D+01
 Coeff:      0.100D+01
 Gap=     0.044 Goal=   None    Shift=    0.000
 Gap=     0.167 Goal=   None    Shift=    0.000
 RMSDP=3.93D-04 MaxDP=2.75D-02              OVMax= 5.50D-04

 Cycle   2  Pass 1  IDiag  1:
 E= -2990.08148350235     Delta-E=       -0.000003896821 Rises=F Damp=F
 DIIS: error= 3.62D-05 at cycle   2 NSaved=   2.
 NSaved= 2 IEnMin= 2 EnMin= -2990.08148350235     IErMin= 2 ErrMin= 3.62D-05
 ErrMax= 3.62D-05  0.00D+00 EMaxC= 1.00D-01 BMatC= 8.32D-07 BMatP= 1.42D-05
 IDIUse=1 WtCom= 1.00D+00 WtEn= 0.00D+00
 Coeff-Com:  0.669D-01 0.933D+00
 Coeff:      0.669D-01 0.933D+00
 Gap=     0.044 Goal=   None    Shift=    0.000
 Gap=     0.167 Goal=   None    Shift=    0.000
 RMSDP=5.14D-05 MaxDP=3.09D-03 DE=-3.90D-06 OVMax= 2.33D-04

 Cycle   3  Pass 1  IDiag  1:
 E= -2990.08148340235     Delta-E=        0.000000099992 Rises=F Damp=F
 DIIS: error= 4.47D-05 at cycle   3 NSaved=   3.
 NSaved= 3 IEnMin= 2 EnMin= -2990.08148350235     IErMin= 2 ErrMin= 3.62D-05
 ErrMax= 4.47D-05  0.00D+00 EMaxC= 1.00D-01 BMatC= 1.32D-06 BMatP= 8.32D-07
 IDIUse=1 WtCom= 1.00D+00 WtEn= 0.00D+00
 Coeff-Com: -0.131D-01 0.564D+00 0.449D+00
 Coeff:     -0.131D-01 0.564D+00 0.449D+00
 Gap=     0.044 Goal=   None    Shift=    0.000
 Gap=     0.167 Goal=   None    Shift=    0.000
 RMSDP=9.33D-06 MaxDP=4.34D-04 DE= 1.00D-07 OVMax= 1.41D-04

 Cycle   4  Pass 1  IDiag  1:
 E= -2990.08148370698     Delta-E=       -0.000000304625 Rises=F Damp=F
 DIIS: error= 4.62D-06 at cycle   4 NSaved=   4.
 NSaved= 4 IEnMin= 4 EnMin= -2990.08148370698     IErMin= 4 ErrMin= 4.62D-06
 ErrMax= 4.62D-06  0.00D+00 EMaxC= 1.00D-01 BMatC= 9.83D-09 BMatP= 8.32D-07
 IDIUse=1 WtCom= 1.00D+00 WtEn= 0.00D+00
 Coeff-Com: -0.568D-02 0.149D+00 0.151D+00 0.705D+00
 Coeff:     -0.568D-02 0.149D+00 0.151D+00 0.705D+00
 Gap=     0.044 Goal=   None    Shift=    0.000
 Gap=     0.167 Goal=   None    Shift=    0.000
 RMSDP=2.51D-06 MaxDP=1.85D-04 DE=-3.05D-07 OVMax= 1.63D-05

 Cycle   5  Pass 1  IDiag  1:
 E= -2990.08148370926     Delta-E=       -0.000000002277 Rises=F Damp=F
 DIIS: error= 6.06D-07 at cycle   5 NSaved=   5.
 NSaved= 5 IEnMin= 5 EnMin= -2990.08148370926     IErMin= 5 ErrMin= 6.06D-07
 ErrMax= 6.06D-07  0.00D+00 EMaxC= 1.00D-01 BMatC= 6.97D-10 BMatP= 9.83D-09
 IDIUse=1 WtCom= 1.00D+00 WtEn= 0.00D+00
 Coeff-Com: -0.132D-02 0.138D-01 0.240D-01 0.247D+00 0.717D+00
 Coeff:     -0.132D-02 0.138D-01 0.240D-01 0.247D+00 0.717D+00
 Gap=     0.044 Goal=   None    Shift=    0.000
 Gap=     0.167 Goal=   None    Shift=    0.000
 RMSDP=1.02D-06 MaxDP=7.06D-05 DE=-2.28D-09 OVMax= 4.31D-06

 Cycle   6  Pass 1  IDiag  1:
 E= -2990.08148370942     Delta-E=       -0.000000000169 Rises=F Damp=F
 DIIS: error= 3.08D-07 at cycle   6 NSaved=   6.
 NSaved= 6 IEnMin= 6 EnMin= -2990.08148370942     IErMin= 6 ErrMin= 3.08D-07
 ErrMax= 3.08D-07  0.00D+00 EMaxC= 1.00D-01 BMatC= 7.07D-11 BMatP= 6.97D-10
 IDIUse=1 WtCom= 1.00D+00 WtEn= 0.00D+00
 Coeff-Com:  0.191D-04-0.873D-02-0.366D-02 0.381D-01 0.278D+00 0.696D+00
 Coeff:      0.191D-04-0.873D-02-0.366D-02 0.381D-01 0.278D+00 0.696D+00
 Gap=     0.044 Goal=   None    Shift=    0.000
 Gap=     0.167 Goal=   None    Shift=    0.000
 RMSDP=6.12D-07 MaxDP=4.20D-05 DE=-1.69D-10 OVMax= 1.69D-06

 Cycle   7  Pass 1  IDiag  1:
 E= -2990.08148370943     Delta-E=       -0.000000000010 Rises=F Damp=F
 DIIS: error= 1.92D-07 at cycle   7 NSaved=   7.
 NSaved= 7 IEnMin= 7 EnMin= -2990.08148370943     IErMin= 7 ErrMin= 1.92D-07
 ErrMax= 1.92D-07  0.00D+00 EMaxC= 1.00D-01 BMatC= 1.60D-11 BMatP= 7.07D-11
 IDIUse=1 WtCom= 1.00D+00 WtEn= 0.00D+00
 Coeff-Com:  0.105D-03-0.532D-02-0.330D-02 0.178D-02 0.882D-01 0.384D+00
 Coeff-Com:  0.535D+00
 Coeff:      0.105D-03-0.532D-02-0.330D-02 0.178D-02 0.882D-01 0.384D+00
 Coeff:      0.535D+00
 Gap=     0.044 Goal=   None    Shift=    0.000
 Gap=     0.167 Goal=   None    Shift=    0.000
 RMSDP=5.43D-08 MaxDP=1.82D-06 DE=-9.55D-12 OVMax= 5.89D-07

 Cycle   8  Pass 1  IDiag  1:
 E= -2990.08148370943     Delta-E=        0.000000000005 Rises=F Damp=F
 DIIS: error= 4.16D-08 at cycle   8 NSaved=   8.
 NSaved= 8 IEnMin= 7 EnMin= -2990.08148370943     IErMin= 8 ErrMin= 4.16D-08
 ErrMax= 4.16D-08  0.00D+00 EMaxC= 1.00D-01 BMatC= 1.34D-12 BMatP= 1.60D-11
 IDIUse=1 WtCom= 1.00D+00 WtEn= 0.00D+00
 Coeff-Com:  0.456D-04-0.145D-02-0.950D-03-0.249D-02 0.125D-01 0.112D+00
 Coeff-Com:  0.261D+00 0.619D+00
 Coeff:      0.456D-04-0.145D-02-0.950D-03-0.249D-02 0.125D-01 0.112D+00
 Coeff:      0.261D+00 0.619D+00
 Gap=     0.044 Goal=   None    Shift=    0.000
 Gap=     0.167 Goal=   None    Shift=    0.000
 RMSDP=5.97D-08 MaxDP=4.46D-06 DE= 4.55D-12 OVMax= 1.59D-07

 Cycle   9  Pass 1  IDiag  1:
 E= -2990.08148370944     Delta-E=       -0.000000000010 Rises=F Damp=F
 DIIS: error= 1.17D-08 at cycle   9 NSaved=   9.
 NSaved= 9 IEnMin= 9 EnMin= -2990.08148370944     IErMin= 9 ErrMin= 1.17D-08
 ErrMax= 1.17D-08  0.00D+00 EMaxC= 1.00D-01 BMatC= 6.91D-14 BMatP= 1.34D-12
 IDIUse=1 WtCom= 1.00D+00 WtEn= 0.00D+00
 Coeff-Com: -0.784D-05 0.545D-03 0.337D-03-0.110D-02-0.128D-01-0.494D-01
 Coeff-Com: -0.563D-01 0.784D-01 0.104D+01
 Coeff:     -0.784D-05 0.545D-03 0.337D-03-0.110D-02-0.128D-01-0.494D-01
 Coeff:     -0.563D-01 0.784D-01 0.104D+01
 Gap=     0.044 Goal=   None    Shift=    0.000
 Gap=     0.167 Goal=   None    Shift=    0.000
 RMSDP=1.82D-08 MaxDP=1.81D-06 DE=-1.00D-11 OVMax= 1.08D-07

 Cycle  10  Pass 1  IDiag  1:
 E= -2990.08148370943     Delta-E=        0.000000000006 Rises=F Damp=F
 DIIS: error= 3.62D-09 at cycle  10 NSaved=  10.
 NSaved=10 IEnMin= 9 EnMin= -2990.08148370944     IErMin=10 ErrMin= 3.62D-09
 ErrMax= 3.62D-09  0.00D+00 EMaxC= 1.00D-01 BMatC= 6.44D-15 BMatP= 6.91D-14
 IDIUse=1 WtCom= 1.00D+00 WtEn= 0.00D+00
 Coeff-Com: -0.544D-05 0.242D-03 0.155D-03-0.114D-03-0.383D-02-0.207D-01
 Coeff-Com: -0.311D-01-0.292D-01 0.256D+00 0.829D+00
 Coeff:     -0.544D-05 0.242D-03 0.155D-03-0.114D-03-0.383D-02-0.207D-01
 Coeff:     -0.311D-01-0.292D-01 0.256D+00 0.829D+00
 Gap=     0.044 Goal=   None    Shift=    0.000
 Gap=     0.167 Goal=   None    Shift=    0.000
 RMSDP=3.71D-09 MaxDP=3.52D-07 DE= 5.91D-12 OVMax= 2.30D-08

 Error on total polarization charges =  0.01419
 SCF Done:  E(UB3LYP) =  -2990.08148371     A.U. after   10 cycles
            NFock= 10  Conv=0.37D-08     -V/T= 2.0025
 <Sx>= 0.0000 <Sy>= 0.0000 <Sz>= 0.5000 <S**2>= 0.7598 S= 0.5049
 <L.S>=  0.00000000000    
 KE= 2.982687916213D+03 PE=-9.766908923088D+03 EE= 2.468676214332D+03
 SMD-CDS (non-electrostatic) energy       (kcal/mol) =       3.27
 (included in total energy above)
 Annihilation of the first spin contaminant:
 S**2 before annihilation     0.7598,   after     0.7500
 Leave Link  502 at Mon Sep 28 02:47:56 2026, MaxMem=  1610612736 cpu:             105.2 elap:              13.6
 (Enter /share/software/user/restricted/gaussian/g16.B01/l701.exe)
 ... and contract with generalized density number  0.
 Compute integral first derivatives.
 D1PCM: PCM CHGder 1st derivatives, ID1Alg=3 FixD1E=F DoIter=F DoCFld=F I1PDM=0.
 GePol: Maximum number of non-zero 1st derivatives   =     320
 Leave Link  701 at Mon Sep 28 02:47:57 2026, MaxMem=  1610612736 cpu:               7.3 elap:               0.9
 (Enter /share/software/user/restricted/gaussian/g16.B01/l702.exe)
 L702 exits ... SP integral derivatives will be done elsewhere.
 Leave Link  702 at Mon Sep 28 02:47:58 2026, MaxMem=  1610612736 cpu:               0.1 elap:               0.0
 (Enter /share/software/user/restricted/gaussian/g16.B01/l703.exe)
 Integral derivatives from FoFJK, PRISM(SPDF).
 Compute integral first derivatives, UseDBF=F ICtDFT=           0.
 Calling FoFJK, ICntrl=      2127 FMM=F ISym2X=1 I1Cent= 0 IOpClX= 1 NMat=1 NMatS=1 NMatT=0.
 FoFJK:  IHMeth= 1 ICntrl=    2127 DoSepK=F KAlg= 0 I1Cent=           0 FoldK=F
 IRaf=         0 NMat=       1 IRICut=       1 DoRegI=T DoRafI=F ISym2E= 1 IDoP0=0 IntGTp=1.
 FoFCou: FMM=F IPFlag=           0 FMFlag=      100000 FMFlg1=         800
         NFxFlg=           0 DoJE=F BraDBF=F KetDBF=F FulRan=T
         wScrn=  0.000000 ICntrl=      2127 IOpCl=  1 I1Cent=           0 NGrid=           0
         NMat0=    1 NMatS0=      1 NMatT0=    0 NMatD0=    1 NMtDS0=    0 NMtDT0=    0
 Petite list used in FoFCou.
 Leave Link  703 at Mon Sep 28 02:48:00 2026, MaxMem=  1610612736 cpu:              16.4 elap:               2.1
 (Enter /share/software/user/restricted/gaussian/g16.B01/l716.exe)
 Dipole        =-2.99489678D-17-1.42108547D-14 7.10542736D-15
 ***** Axes restored to original set *****
 -------------------------------------------------------------------
 Center     Atomic                   Forces (Hartrees/Bohr)
 Number     Number              X              Y              Z
 -------------------------------------------------------------------
      1        6          -0.000000000    0.000133536   -0.000000000
      2        6          -0.000076784    0.000019750   -0.000000000
      3        6          -0.000076784   -0.000019750    0.000000000
      4        6          -0.000000000   -0.000133536   -0.000000000
      5        6           0.000076784   -0.000019750   -0.000000000
      6        6           0.000076784    0.000019750   -0.000000000
      7       17          -0.000000000   -0.000124266   -0.000000000
      8       17           0.000031658    0.000016884    0.000000000
      9       17           0.000031658   -0.000016884    0.000000000
     10       17           0.000000000    0.000124266   -0.000000000
     11       17          -0.000031658   -0.000016884    0.000000000
     12       17          -0.000031658    0.000016884    0.000000000
 -------------------------------------------------------------------
 Cartesian Forces:  Max     0.000133536 RMS     0.000051865
 Leave Link  716 at Mon Sep 28 02:48:00 2026, MaxMem=  1610612736 cpu:               0.1 elap:               0.0
 (Enter /share/software/user/restricted/gaussian/g16.B01/l103.exe)

 GradGradGradGradGradGradGradGradGradGradGradGradGradGradGradGradGradGrad
 Berny optimization.
 Using GEDIIS/GDIIS optimizer.
 FormGI is forming the generalized inverse of G from B-inverse, IUseBI=4.
 Internal  Forces:  Max     0.000124266 RMS     0.000030413
 Search for a local minimum.
 Step number   5 out of a maximum of   64
 All quantities printed in internal units (Hartrees-Bohrs-Radians)
 RMS Force = .30413D-04 SwitMx=.10000D-02 MixMth= 2
 Mixed Optimization -- En-DIIS/RFO-DIIS
 Swapping is turned off.
 Update second derivatives using D2CorX and points    1    2    3    4    5
 DE= -4.12D-06 DEPred=-3.92D-06 R= 1.05D+00
 TightC=F SS=  1.41D+00  RLast= 4.13D-03 DXNew= 8.4853D-01 1.2395D-02
 Trust test= 1.05D+00 RLast= 4.13D-03 DXMaxT set to 5.05D-01
 ITU=  1  1  1  1  0
     Eigenvalues ---    0.01837   0.01837   0.01837   0.02018   0.02021
     Eigenvalues ---    0.02107   0.02107   0.02189   0.02194   0.22237
     Eigenvalues ---    0.25000   0.25000   0.25000   0.25000   0.25000
     Eigenvalues ---    0.25000   0.25000   0.25432   0.31329   0.34545
     Eigenvalues ---    0.34545   0.34545   0.34760   0.35936   0.39602
     Eigenvalues ---    0.40999   0.42612   0.46466   0.47047   0.56984
 En-DIIS/RFO-DIIS/Sim-DIIS IScMMF=       -3 using points:     5    4    3
 RFO step:  Lambda=-1.64600527D-07.
 NNeg= 0 NGDIIS= 3 SimSw=  2.50D-01 Rises=F DC= -4.12D-06 SmlDif=  1.00D-05
 NRisDI= 0 DoIntr=F SqrtH=F CThrHd= 10.0 CDAdj=  3.0
 RMS Error=  0.1010905323D-03 NUsed= 3 OKEnD=F EnDIS=F
 InvSVX:  RCond= 8.52D-07 Info=           0 Equed=N FErr=  2.57D-15 BErr=  1.10D-16
 DidBck=F Rises=F RFO-DIIS coefs:    1.23332   -0.18033   -0.05300
 Iteration  1 RMS(Cart)=  0.00008660 RMS(Int)=  0.00000000
 Iteration  2 RMS(Cart)=  0.00000000 RMS(Int)=  0.00000000
 ITry= 1 IFail=0 DXMaxC= 2.42D-04 DCOld= 1.00D+10 DXMaxT= 5.05D-01 DXLimC= 3.00D+00 Rises=F
 ClnCor:  largest displacement from symmetrization is 1.17D-11 for atom     9.
 Variable       Old X    -DE/DX   Delta X   Delta X   Delta X     New X
                                 (Linear)    (Quad)   (Total)
    R1        2.71815  -0.00004  -0.00021   0.00010  -0.00012   2.71803
    R2        2.71815  -0.00004  -0.00021   0.00010  -0.00012   2.71803
    R3        3.31428  -0.00012  -0.00017  -0.00026  -0.00043   3.31384
    R4        2.59672   0.00004   0.00009   0.00002   0.00011   2.59683
    R5        3.31969   0.00004   0.00011   0.00002   0.00013   3.31982
    R6        2.71815  -0.00004  -0.00021   0.00010  -0.00012   2.71803
    R7        3.31969   0.00004   0.00011   0.00002   0.00013   3.31982
    R8        2.71815  -0.00004  -0.00021   0.00010  -0.00012   2.71803
    R9        3.31428  -0.00012  -0.00017  -0.00026  -0.00043   3.31384
   R10        2.59672   0.00004   0.00009   0.00002   0.00011   2.59683
   R11        3.31969   0.00004   0.00011   0.00002   0.00013   3.31982
   R12        3.31969   0.00004   0.00011   0.00002   0.00013   3.31982
    A1        2.05608  -0.00003  -0.00004  -0.00013  -0.00017   2.05591
    A2        2.11355   0.00002   0.00002   0.00006   0.00008   2.11364
    A3        2.11355   0.00002   0.00002   0.00006   0.00008   2.11364
    A4        2.11355   0.00002   0.00002   0.00006   0.00008   2.11364
    A5        2.06774  -0.00001  -0.00004   0.00002  -0.00002   2.06771
    A6        2.10189  -0.00001   0.00002  -0.00008  -0.00006   2.10183
    A7        2.11355   0.00002   0.00002   0.00006   0.00008   2.11364
    A8        2.10189  -0.00001   0.00002  -0.00008  -0.00006   2.10183
    A9        2.06774  -0.00001  -0.00004   0.00002  -0.00002   2.06771
   A10        2.05608  -0.00003  -0.00004  -0.00013  -0.00017   2.05591
   A11        2.11355   0.00002   0.00002   0.00006   0.00008   2.11364
   A12        2.11355   0.00002   0.00002   0.00006   0.00008   2.11364
   A13        2.11355   0.00002   0.00002   0.00006   0.00008   2.11364
   A14        2.06774  -0.00001  -0.00004   0.00002  -0.00002   2.06771
   A15        2.10189  -0.00001   0.00002  -0.00008  -0.00006   2.10183
   A16        2.11355   0.00002   0.00002   0.00006   0.00008   2.11364
   A17        2.06774  -0.00001  -0.00004   0.00002  -0.00002   2.06771
   A18        2.10189  -0.00001   0.00002  -0.00008  -0.00006   2.10183
    D1       -0.00000   0.00000   0.00000   0.00000   0.00000   0.00000
    D2        3.14159   0.00000  -0.00000   0.00000   0.00000   3.14159
    D3        3.14159   0.00000  -0.00000   0.00000   0.00000   3.14159
    D4        0.00000   0.00000   0.00000   0.00000   0.00000   0.00000
    D5        0.00000  -0.00000   0.00000  -0.00000   0.00000   0.00000
    D6        3.14159  -0.00000  -0.00000  -0.00000   0.00000   3.14159
    D7        3.14159  -0.00000  -0.00000  -0.00000   0.00000   3.14159
    D8       -0.00000  -0.00000   0.00000  -0.00000   0.00000   0.00000
    D9        0.00000   0.00000   0.00000   0.00000   0.00000   0.00000
   D10        3.14159  -0.00000  -0.00000  -0.00000   0.00000   3.14159
   D11        3.14159  -0.00000  -0.00000  -0.00000   0.00000   3.14159
   D12        0.00000  -0.00000   0.00000  -0.00000   0.00000   0.00000
   D13        0.00000  -0.00000   0.00000  -0.00000   0.00000   0.00000
   D14        3.14159  -0.00000  -0.00000  -0.00000   0.00000   3.14159
   D15        3.14159  -0.00000  -0.00000  -0.00000   0.00000   3.14159
   D16       -0.00000  -0.00000   0.00000  -0.00000   0.00000   0.00000
   D17       -0.00000   0.00000   0.00000   0.00000   0.00000   0.00000
   D18        3.14159   0.00000  -0.00000   0.00000   0.00000   3.14159
   D19        3.14159   0.00000  -0.00000   0.00000   0.00000   3.14159
   D20       -0.00000   0.00000   0.00000   0.00000   0.00000   0.00000
   D21        0.00000  -0.00000   0.00000  -0.00000   0.00000   0.00000
   D22        3.14159   0.00000  -0.00000   0.00000   0.00000   3.14159
   D23        3.14159  -0.00000  -0.00000  -0.00000   0.00000   3.14159
   D24       -0.00000  -0.00000   0.00000  -0.00000   0.00000   0.00000
         Item               Value     Threshold  Converged?
 Maximum Force            0.000124     0.000450     YES
 RMS     Force            0.000030     0.000300     YES
 Maximum Displacement     0.000242     0.001800     YES
 RMS     Displacement     0.000087     0.001200     YES
 Predicted change in Energy=-8.155993D-08
 Optimization completed.
    -- Stationary point found.
                           ----------------------------
                           !   Optimized Parameters   !
                           ! (Angstroms and Degrees)  !
 --------------------------                            --------------------------
 ! Name  Definition              Value          Derivative Info.                !
 --------------------------------------------------------------------------------
 ! R1    R(1,2)                  1.4384         -DE/DX =    0.0                 !
 ! R2    R(1,6)                  1.4384         -DE/DX =    0.0                 !
 ! R3    R(1,7)                  1.7538         -DE/DX =   -0.0001              !
 ! R4    R(2,3)                  1.3741         -DE/DX =    0.0                 !
 ! R5    R(2,8)                  1.7567         -DE/DX =    0.0                 !
 ! R6    R(3,4)                  1.4384         -DE/DX =    0.0                 !
 ! R7    R(3,9)                  1.7567         -DE/DX =    0.0                 !
 ! R8    R(4,5)                  1.4384         -DE/DX =    0.0                 !
 ! R9    R(4,10)                 1.7538         -DE/DX =   -0.0001              !
 ! R10   R(5,6)                  1.3741         -DE/DX =    0.0                 !
 ! R11   R(5,11)                 1.7567         -DE/DX =    0.0                 !
 ! R12   R(6,12)                 1.7567         -DE/DX =    0.0                 !
 ! A1    A(2,1,6)              117.8046         -DE/DX =    0.0                 !
 ! A2    A(2,1,7)              121.0977         -DE/DX =    0.0                 !
 ! A3    A(6,1,7)              121.0977         -DE/DX =    0.0                 !
 ! A4    A(1,2,3)              121.0977         -DE/DX =    0.0                 !
 ! A5    A(1,2,8)              118.4727         -DE/DX =    0.0                 !
 ! A6    A(3,2,8)              120.4297         -DE/DX =    0.0                 !
 ! A7    A(2,3,4)              121.0977         -DE/DX =    0.0                 !
 ! A8    A(2,3,9)              120.4297         -DE/DX =    0.0                 !
 ! A9    A(4,3,9)              118.4727         -DE/DX =    0.0                 !
 ! A10   A(3,4,5)              117.8046         -DE/DX =    0.0                 !
 ! A11   A(3,4,10)             121.0977         -DE/DX =    0.0                 !
 ! A12   A(5,4,10)             121.0977         -DE/DX =    0.0                 !
 ! A13   A(4,5,6)              121.0977         -DE/DX =    0.0                 !
 ! A14   A(4,5,11)             118.4727         -DE/DX =    0.0                 !
 ! A15   A(6,5,11)             120.4297         -DE/DX =    0.0                 !
 ! A16   A(1,6,5)              121.0977         -DE/DX =    0.0                 !
 ! A17   A(1,6,12)             118.4727         -DE/DX =    0.0                 !
 ! A18   A(5,6,12)             120.4297         -DE/DX =    0.0                 !
 ! D1    D(6,1,2,3)              0.0            -DE/DX =    0.0                 !
 ! D2    D(6,1,2,8)            180.0            -DE/DX =    0.0                 !
 ! D3    D(7,1,2,3)            180.0            -DE/DX =    0.0                 !
 ! D4    D(7,1,2,8)              0.0            -DE/DX =    0.0                 !
 ! D5    D(2,1,6,5)              0.0            -DE/DX =    0.0                 !
 ! D6    D(2,1,6,12)           180.0            -DE/DX =    0.0                 !
 ! D7    D(7,1,6,5)            180.0            -DE/DX =    0.0                 !
 ! D8    D(7,1,6,12)             0.0            -DE/DX =    0.0                 !
 ! D9    D(1,2,3,4)              0.0            -DE/DX =    0.0                 !
 ! D10   D(1,2,3,9)            180.0            -DE/DX =    0.0                 !
 ! D11   D(8,2,3,4)            180.0            -DE/DX =    0.0                 !
 ! D12   D(8,2,3,9)              0.0            -DE/DX =    0.0                 !
 ! D13   D(2,3,4,5)              0.0            -DE/DX =    0.0                 !
 ! D14   D(2,3,4,10)           180.0            -DE/DX =    0.0                 !
 ! D15   D(9,3,4,5)            180.0            -DE/DX =    0.0                 !
 ! D16   D(9,3,4,10)             0.0            -DE/DX =    0.0                 !
 ! D17   D(3,4,5,6)              0.0            -DE/DX =    0.0                 !
 ! D18   D(3,4,5,11)           180.0            -DE/DX =    0.0                 !
 ! D19   D(10,4,5,6)           180.0            -DE/DX =    0.0                 !
 ! D20   D(10,4,5,11)            0.0            -DE/DX =    0.0                 !
 ! D21   D(4,5,6,1)              0.0            -DE/DX =    0.0                 !
 ! D22   D(4,5,6,12)           180.0            -DE/DX =    0.0                 !
 ! D23   D(11,5,6,1)           180.0            -DE/DX =    0.0                 !
 ! D24   D(11,5,6,12)            0.0            -DE/DX =    0.0                 !
 --------------------------------------------------------------------------------
 Lowest energy point so far.  Saving SCF results.
 Largest change from initial coordinates is atom    7       0.054 Angstoms.
 GradGradGradGradGradGradGradGradGradGradGradGradGradGradGradGradGradGrad

 Leave Link  103 at Mon Sep 28 02:48:00 2026, MaxMem=  1610612736 cpu:               0.2 elap:               0.0
 (Enter /share/software/user/restricted/gaussian/g16.B01/l202.exe)
                          Input orientation:                          
 ---------------------------------------------------------------------
 Center     Atomic      Atomic             Coordinates (Angstroms)
 Number     Number       Type             X           Y           Z
 ---------------------------------------------------------------------
      1          6           0        0.000000    1.429986   -0.000000
      2          6           0        1.231669    0.687064   -0.000000
      3          6           0        1.231669   -0.687064   -0.000000
      4          6           0        0.000000   -1.429986   -0.000000
      5          6           0       -1.231669   -0.687064   -0.000000
      6          6           0       -1.231669    0.687064   -0.000000
      7         17           0        0.000000    3.183825   -0.000000
      8         17           0        2.746391    1.576800   -0.000000
      9         17           0        2.746391   -1.576800   -0.000000
     10         17           0        0.000000   -3.183825   -0.000000
     11         17           0       -2.746391   -1.576800   -0.000000
     12         17           0       -2.746391    1.576800   -0.000000
 ---------------------------------------------------------------------
                    Distance matrix (angstroms):
                    1          2          3          4          5
     1  C    0.000000
     2  C    1.438382   0.000000
     3  C    2.449267   1.374127   0.000000
     4  C    2.859972   2.449267   1.438382   0.000000
     5  C    2.449267   2.820685   2.463339   1.438382   0.000000
     6  C    1.438382   2.463339   2.820685   2.449267   1.374127
     7  Cl   1.753839   2.784031   4.062116   4.613811   4.062116
     8  Cl   2.750312   1.756704   2.723868   4.072275   4.577121
     9  Cl   4.072275   2.723868   1.756704   2.750312   4.076345
    10  Cl   4.613811   4.062116   2.784031   1.753839   2.784031
    11  Cl   4.072275   4.577121   4.076345   2.750312   1.756704
    12  Cl   2.750312   4.076345   4.577121   4.072275   2.723868
                    6          7          8          9         10
     6  C    0.000000
     7  Cl   2.784031   0.000000
     8  Cl   4.076345   3.182011   0.000000
     9  Cl   4.577121   5.496018   3.153600   0.000000
    10  Cl   4.062116   6.367650   5.496018   3.182011   0.000000
    11  Cl   2.723868   5.496018   6.333706   5.492781   3.182011
    12  Cl   1.756704   3.182011   5.492781   6.333706   5.496018
                   11         12
    11  Cl   0.000000
    12  Cl   3.153600   0.000000
 Stoichiometry    C6Cl6(1-,2)
 Framework group  D2H[C2"(ClC.CCl),SG(C4Cl4)]
 Deg. of freedom     6
 Full point group                 D2H     NOp   8
 RotChk:  IX=0 Diff= 7.74D-48
 Largest Abelian subgroup         D2H     NOp   8
 Largest concise Abelian subgroup D2      NOp   4
                         Standard orientation:                         
 ---------------------------------------------------------------------
 Center     Atomic      Atomic             Coordinates (Angstroms)
 Number     Number       Type             X           Y           Z
 ---------------------------------------------------------------------
      1          6           0       -0.000000   -0.000000    1.429986
      2          6           0        0.000000    1.231669    0.687064
      3          6           0        0.000000    1.231669   -0.687064
      4          6           0        0.000000   -0.000000   -1.429986
      5          6           0       -0.000000   -1.231669   -0.687064
      6          6           0       -0.000000   -1.231669    0.687064
      7         17           0       -0.000000   -0.000000    3.183825
      8         17           0        0.000000    2.746391    1.576800
      9         17           0        0.000000    2.746391   -1.576800
     10         17           0        0.000000   -0.000000   -3.183825
     11         17           0       -0.000000   -2.746391   -1.576800
     12         17           0       -0.000000   -2.746391    1.576800
 ---------------------------------------------------------------------
 Rotational constants (GHZ):           0.4480909           0.4478533           0.2239860
 Leave Link  202 at Mon Sep 28 02:48:00 2026, MaxMem=  1610612736 cpu:               0.0 elap:               0.0
 (Enter /share/software/user/restricted/gaussian/g16.B01/l601.exe)
 Copying SCF densities to generalized density rwf, IOpCl= 1 IROHF=0.

 **********************************************************************

            Population analysis using the SCF Density.

 **********************************************************************

 Orbital symmetries:
 Alpha Orbitals:
       Occupied  (B3G) (B1U) (B2U) (AG) (B1U) (AG) (B2U) (AG) (B1U)
                 (B3G) (B1U) (AG) (B3G) (B1U) (B2U) (AG) (B1U)
                 (AG) (B1U) (B3G) (B2U) (AG) (B1U) (AG) (B2G) (AU)
                 (B1G) (B3U) (B3G) (B1U) (B2U) (AG) (B3U) (B2G)
                 (B3G) (B2U) (AG) (B2U) (B1U) (B3G) (AG) (B1U)
                 (AG) (B2U) (B1U) (AG) (B3G) (B2U) (AG) (B1U) (B2U)
                 (B3U) (B1U) (AG) (B3G) (B1G) (B2G) (AU) (B3U)
                 (AG) (B2U) (B3G) (B2G) (B1U) (B2U) (B3U) (B3G)
                 (B1G) (B2G) (B3U)
       Virtual   (AG) (AU) (B2U) (B1U) (AG) (AG) (B1U) (B3G) (B2U)
                 (B1U) (B3U) (AG) (B2G) (B1G) (B2U) (AG) (B2G)
                 (B2U) (B3G) (B1U) (B3U) (AU) (B1U) (AG) (B3G)
                 (B3U) (B2G) (AG) (B3G) (AG) (B2U) (B1U) (B2G)
                 (B1G) (B2U) (B1U) (B3U) (AG) (AU) (B3G) (B1U)
                 (B2U) (B2U) (B1U) (AG) (B3G) (AG) (B3G) (B2G)
                 (B2U) (AG) (B1U) (B3G) (AG) (B1U) (B2U) (B3G)
                 (B1U) (AG) (B3G) (B3U) (B2U) (B1G) (B2G) (B1U)
                 (B2U) (B1U) (AG) (B3G) (B2U) (AU) (B3U) (AG) (B2G)
                 (B3G) (B2U) (B1U) (B3U) (AG) (B1G) (B2G) (B3U)
                 (AG) (AU) (B3G) (B1U) (B3G) (B2U) (B2G) (B1U)
                 (B3U) (AG) (B1U) (B2G) (B1G) (B1G) (B3U) (B2U)
                 (AU) (AG) (AU) (B2G) (B3G) (B1G) (B1U) (AG) (B2U)
                 (B1U) (B3G) (B3U) (AU) (B2U) (B1U) (AG) (B1U)
                 (B3G) (B2U) (B3G) (AG) (B1U) (AG) (B1G) (AG) (B1U)
                 (AG) (B3G) (B2U) (B2G) (B2U) (B1U) (B3G) (AG)
                 (B3U) (B1U) (B3U) (AG) (B3G) (AU) (B1U) (B1G)
                 (B2G) (B2U) (B1U) (AG) (B2U) (B3G) (AG) (B2U)
                 (B1U) (B3U) (AU) (AG) (B3G) (B1U) (B1G) (B2U)
                 (B2G) (B2G) (AG) (B3G) (B2U) (B1U) (B3U) (B1G)
                 (B2G) (AU) (AU) (B3U) (AG) (B3G) (B2G) (B1U) (B2U)
                 (B2U) (B3G) (B1U) (B3G) (AG) (AG) (B3G) (B2U)
                 (B1U) (B3U) (B1U) (AG) (B3G) (B1G) (B2G) (B3U)
                 (AU) (B1U) (B2U) (B2G) (B1U) (AG) (B2U) (B3G)
                 (AG) (B3G) (AG) (B1U) (B1U) (B2U) (B3G) (AG) (B2U)
                 (B1U) (B3G) (B1U) (AG) (AG) (B2U) (B1U) (AG) (B3G)
                 (B1U) (B3U) (B1G) (B2G) (AU) (B3U) (B2G) (B1U)
                 (B2U) (B2U) (B3G) (AG) (B3G) (AG) (B1U) (B2U)
                 (AG) (B3G) (B1U) (AG) (B2U) (B1U) (B1U) (B3G)
                 (AG)
 Beta  Orbitals:
       Occupied  (B3G) (B1U) (B2U) (AG) (B1U) (AG) (B2U) (AG) (B1U)
                 (B3G) (B1U) (AG) (B3G) (B1U) (B2U) (AG) (B1U)
                 (AG) (B1U) (B3G) (B2U) (AG) (B1U) (AG) (B2G) (AU)
                 (B1G) (B3U) (B3G) (B1U) (B2U) (AG) (B3G) (B2U)
                 (B2G) (B3U) (AG) (B2U) (B1U) (B3G) (AG) (B1U)
                 (AG) (B2U) (B1U) (AG) (B3G) (B2U) (AG) (B1U) (B2U)
                 (B1U) (B3U) (AG) (B3G) (B1G) (B2G) (AU) (AG) (B3U)
                 (B2U) (B3G) (B2G) (B1U) (B2U) (B3U) (B3G) (B1G)
                 (B2G)
       Virtual   (AG) (AU) (B3U) (B2U) (B1U) (AG) (AG) (B3G) (B1U)
                 (B2U) (B1U) (B3U) (AG) (B2G) (B1G) (B2U) (B2U)
                 (AG) (B3G) (B1U) (B3U) (AU) (B2G) (B1U) (B3G)
                 (AG) (B3U) (AG) (B3G) (AG) (B2G) (B2U) (B1U) (B1G)
                 (B2G) (B2U) (B1U) (AG) (B3U) (AU) (B3G) (B1U)
                 (B2U) (B2U) (B1U) (AG) (B3G) (AG) (B3G) (B2G)
                 (B2U) (AG) (B1U) (B3G) (AG) (B1U) (B2U) (B3G)
                 (B1U) (AG) (B3G) (B3U) (B2U) (B1G) (B2G) (B2U)
                 (B1U) (B1U) (AG) (B3G) (B2U) (AU) (B3U) (AG) (B3G)
                 (B2G) (B2U) (B1U) (B3U) (AG) (B1G) (B2G) (AG)
                 (AU) (B3U) (B3G) (B1U) (B3G) (B2U) (B2G) (B1U)
                 (B3U) (AG) (B1U) (B1G) (B2G) (B1G) (B3U) (B2U)
                 (AU) (AG) (AU) (B2G) (B3G) (B1G) (B1U) (AG) (B2U)
                 (B1U) (B3G) (AU) (B3U) (B2U) (B1U) (B1U) (B3G)
                 (AG) (B2U) (B3G) (AG) (B1U) (AG) (B1G) (AG) (B1U)
                 (AG) (B3G) (B2U) (B2G) (B2U) (B1U) (B3G) (AG)
                 (B3U) (B1U) (AG) (B3G) (B3U) (AU) (B1U) (B1G)
                 (B2U) (B2G) (B1U) (AG) (B2U) (B3G) (AG) (B2U)
                 (B1U) (B3U) (AU) (AG) (B3G) (B2U) (B1U) (B1G)
                 (B2G) (B2G) (AG) (B3G) (B2U) (B1U) (B3U) (B1G)
                 (B2G) (AU) (AU) (B3U) (AG) (B3G) (B2G) (B1U) (B2U)
                 (B2U) (B3G) (B1U) (B3G) (AG) (AG) (B3G) (B2U)
                 (B1U) (B3U) (B1U) (AG) (B3G) (B1G) (B2G) (AU)
                 (B3U) (B1U) (B2U) (B2G) (B1U) (AG) (B2U) (B3G)
                 (AG) (B3G) (AG) (B1U) (B1U) (B2U) (B3G) (AG) (B2U)
                 (B1U) (B3G) (B1U) (AG) (AG) (B2U) (B1U) (AG) (B3G)
                 (B1U) (B3U) (B1G) (B2G) (AU) (B3U) (B2G) (B1U)
                 (B2U) (B2U) (B3G) (AG) (B3G) (AG) (B1U) (B2U)
                 (AG) (B3G) (B1U) (AG) (B2U) (B1U) (B1U) (B3G)
                 (AG)
 The electronic state is 2-B3U.
 Alpha  occ. eigenvalues -- -101.55581-101.55581-101.55581-101.55581-101.54924
 Alpha  occ. eigenvalues -- -101.54924 -10.23740 -10.23738 -10.23678 -10.23677
 Alpha  occ. eigenvalues --  -10.21435 -10.21433  -9.47045  -9.47045  -9.47044
 Alpha  occ. eigenvalues --   -9.47042  -9.46347  -9.46347  -7.23506  -7.23506
 Alpha  occ. eigenvalues --   -7.23506  -7.23506  -7.22791  -7.22791  -7.22542
 Alpha  occ. eigenvalues --   -7.22542  -7.22542  -7.22542  -7.22476  -7.22475
 Alpha  occ. eigenvalues --   -7.22475  -7.22475  -7.21857  -7.21857  -7.21808
 Alpha  occ. eigenvalues --   -7.21808  -0.92629  -0.89185  -0.88224  -0.84944
 Alpha  occ. eigenvalues --   -0.84632  -0.83092  -0.79417  -0.71399  -0.69829
 Alpha  occ. eigenvalues --   -0.60173  -0.58447  -0.51255  -0.49788  -0.46458
 Alpha  occ. eigenvalues --   -0.44268  -0.43642  -0.43198  -0.40835  -0.40023
 Alpha  occ. eigenvalues --   -0.38519  -0.37861  -0.34015  -0.33990  -0.33787
 Alpha  occ. eigenvalues --   -0.33097  -0.32863  -0.32831  -0.31192  -0.30983
 Alpha  occ. eigenvalues --   -0.29851  -0.28588  -0.24578  -0.23732  -0.08938
 Alpha virt. eigenvalues --   -0.04554  -0.01916   0.00256   0.00799   0.00933
 Alpha virt. eigenvalues --    0.03067   0.03214   0.03223   0.03848   0.04535
 Alpha virt. eigenvalues --    0.04911   0.05544   0.06836   0.06858   0.08175
 Alpha virt. eigenvalues --    0.09028   0.09110   0.09190   0.09278   0.09438
 Alpha virt. eigenvalues --    0.09562   0.09657   0.10499   0.10969   0.11014
 Alpha virt. eigenvalues --    0.11392   0.13826   0.14174   0.14602   0.14978
 Alpha virt. eigenvalues --    0.15227   0.15265   0.15883   0.15915   0.18713
 Alpha virt. eigenvalues --    0.18946   0.19171   0.19301   0.19672   0.19828
 Alpha virt. eigenvalues --    0.20052   0.22721   0.23151   0.23201   0.24240
 Alpha virt. eigenvalues --    0.24482   0.25644   0.26459   0.27381   0.27747
 Alpha virt. eigenvalues --    0.28330   0.28851   0.28990   0.29214   0.29652
 Alpha virt. eigenvalues --    0.29764   0.30041   0.30276   0.39041   0.39914
 Alpha virt. eigenvalues --    0.42261   0.43634   0.44816   0.45008   0.45320
 Alpha virt. eigenvalues --    0.45335   0.46348   0.46486   0.46927   0.48151
 Alpha virt. eigenvalues --    0.48641   0.48839   0.49451   0.50006   0.50069
 Alpha virt. eigenvalues --    0.50585   0.50994   0.53461   0.58392   0.58908
 Alpha virt. eigenvalues --    0.59629   0.61014   0.61636   0.61799   0.62642
 Alpha virt. eigenvalues --    0.62868   0.65034   0.65941   0.66588   0.68136
 Alpha virt. eigenvalues --    0.73508   0.75890   0.80213   0.81839   0.81959
 Alpha virt. eigenvalues --    0.85039   0.85680   0.85739   0.85854   0.86360
 Alpha virt. eigenvalues --    0.86471   0.86670   0.86946   0.87036   0.87152
 Alpha virt. eigenvalues --    0.87695   0.88219   0.88521   0.89931   0.91340
 Alpha virt. eigenvalues --    0.91344   0.92917   0.93540   0.93573   0.93757
 Alpha virt. eigenvalues --    0.93990   0.95951   0.96383   0.96412   0.96715
 Alpha virt. eigenvalues --    0.97208   0.98815   1.00882   1.01812   1.06379
 Alpha virt. eigenvalues --    1.07222   1.09879   1.10969   1.19561   1.19767
 Alpha virt. eigenvalues --    1.20047   1.20450   1.24907   1.28066   1.29843
 Alpha virt. eigenvalues --    1.30111   1.30468   1.30740   1.32061   1.32166
 Alpha virt. eigenvalues --    1.32810   1.33099   1.39672   1.47283   1.48903
 Alpha virt. eigenvalues --    1.56378   1.63319   1.67981   1.68623   1.76366
 Alpha virt. eigenvalues --    1.78665   1.79514   1.81322   1.84914   1.84962
 Alpha virt. eigenvalues --    1.85773   1.90288   1.95676   2.11371   2.13202
 Alpha virt. eigenvalues --    2.19720   2.22229   2.23412   2.24683   2.24961
 Alpha virt. eigenvalues --    2.27056   2.29127   2.29144   2.29924   2.31229
 Alpha virt. eigenvalues --    2.34187   2.35386   2.38922   2.39805   2.40594
 Alpha virt. eigenvalues --    2.40819   2.46246   2.46273   2.47248   2.51464
 Alpha virt. eigenvalues --    2.53785   2.53980   2.61556   2.64339   2.66822
 Alpha virt. eigenvalues --    2.67375   2.76474   2.77566   2.87705   2.88042
 Alpha virt. eigenvalues --    3.01391   3.06421   3.07843   3.13588   3.13889
 Alpha virt. eigenvalues --    3.15735   3.22077   3.25625   3.49955   3.55654
 Alpha virt. eigenvalues --    3.69677   3.87897   3.93297   4.79304   9.67435
 Alpha virt. eigenvalues --    9.78936   9.79544   9.82263   9.82390   9.82446
 Alpha virt. eigenvalues --   23.23587  23.71064  23.81900  23.85447  24.01032
 Alpha virt. eigenvalues --   24.02842  25.75744  25.79940  25.80259  25.86224
 Alpha virt. eigenvalues --   25.86734  25.95583  26.03767  26.03785  26.16630
 Alpha virt. eigenvalues --   26.16828  26.17476  26.31094  26.33319  26.54040
 Alpha virt. eigenvalues --   26.54114  26.75118  26.75406  27.04272 215.65536
 Alpha virt. eigenvalues --  215.78354 215.78945 215.82193 215.82203 215.82303
  Beta  occ. eigenvalues -- -101.55580-101.55580-101.55580-101.55580-101.54910
  Beta  occ. eigenvalues -- -101.54910 -10.23679 -10.23676 -10.23617 -10.23616
  Beta  occ. eigenvalues --  -10.20732 -10.20730  -9.47045  -9.47044  -9.47044
  Beta  occ. eigenvalues --   -9.47042  -9.46333  -9.46333  -7.23511  -7.23511
  Beta  occ. eigenvalues --   -7.23511  -7.23511  -7.22813  -7.22813  -7.22534
  Beta  occ. eigenvalues --   -7.22534  -7.22534  -7.22534  -7.22476  -7.22476
  Beta  occ. eigenvalues --   -7.22476  -7.22476  -7.21800  -7.21800  -7.21779
  Beta  occ. eigenvalues --   -7.21779  -0.92193  -0.89026  -0.87832  -0.84918
  Beta  occ. eigenvalues --   -0.84344  -0.82974  -0.79175  -0.71074  -0.69063
  Beta  occ. eigenvalues --   -0.59220  -0.58303  -0.50980  -0.49582  -0.46119
  Beta  occ. eigenvalues --   -0.44209  -0.42932  -0.42380  -0.40655  -0.39875
  Beta  occ. eigenvalues --   -0.38085  -0.36733  -0.33951  -0.33682  -0.33351
  Beta  occ. eigenvalues --   -0.33023  -0.32825  -0.32542  -0.31181  -0.30958
  Beta  occ. eigenvalues --   -0.29205  -0.28574  -0.23733  -0.21075
  Beta virt. eigenvalues --   -0.04329  -0.01611  -0.01016   0.00298   0.00938
  Beta virt. eigenvalues --    0.00961   0.03239   0.03259   0.03498   0.03866
  Beta virt. eigenvalues --    0.04754   0.04955   0.05597   0.06830   0.06841
  Beta virt. eigenvalues --    0.08152   0.09223   0.09276   0.09333   0.09525
  Beta virt. eigenvalues --    0.09576   0.09629   0.10552   0.10824   0.11004
  Beta virt. eigenvalues --    0.11051   0.11472   0.14533   0.14685   0.14955
  Beta virt. eigenvalues --    0.15070   0.15221   0.15287   0.15967   0.16155
  Beta virt. eigenvalues --    0.18731   0.18946   0.19295   0.19609   0.19647
  Beta virt. eigenvalues --    0.19818   0.20093   0.22864   0.23134   0.23408
  Beta virt. eigenvalues --    0.24378   0.24446   0.26003   0.26477   0.27376
  Beta virt. eigenvalues --    0.27964   0.28464   0.28939   0.28961   0.29586
  Beta virt. eigenvalues --    0.29656   0.29795   0.30050   0.30335   0.39053
  Beta virt. eigenvalues --    0.40010   0.42330   0.43717   0.44832   0.45100
  Beta virt. eigenvalues --    0.45399   0.45743   0.46559   0.46723   0.46949
  Beta virt. eigenvalues --    0.48160   0.48626   0.48890   0.49567   0.50072
  Beta virt. eigenvalues --    0.50175   0.50659   0.51080   0.54207   0.58489
  Beta virt. eigenvalues --    0.59223   0.60774   0.61882   0.62001   0.62808
  Beta virt. eigenvalues --    0.62941   0.63345   0.65175   0.66176   0.67398
  Beta virt. eigenvalues --    0.68194   0.73848   0.76203   0.80338   0.82136
  Beta virt. eigenvalues --    0.82412   0.85192   0.85868   0.85931   0.85955
  Beta virt. eigenvalues --    0.86492   0.86669   0.86728   0.86976   0.87213
  Beta virt. eigenvalues --    0.87475   0.87881   0.88295   0.88890   0.90017
  Beta virt. eigenvalues --    0.91562   0.91802   0.92950   0.93611   0.93976
  Beta virt. eigenvalues --    0.93998   0.94553   0.95998   0.96388   0.96505
  Beta virt. eigenvalues --    0.96966   0.97243   0.99875   1.01170   1.02052
  Beta virt. eigenvalues --    1.06743   1.07241   1.09937   1.11241   1.19604
  Beta virt. eigenvalues --    1.19987   1.20162   1.20670   1.25696   1.28257
  Beta virt. eigenvalues --    1.30332   1.30490   1.30496   1.31852   1.32295
  Beta virt. eigenvalues --    1.32491   1.33190   1.34144   1.40063   1.48429
  Beta virt. eigenvalues --    1.49059   1.56408   1.63460   1.68076   1.69012
  Beta virt. eigenvalues --    1.78078   1.79103   1.79742   1.81633   1.86140
  Beta virt. eigenvalues --    1.86575   1.86884   1.90885   1.96688   2.13010
  Beta virt. eigenvalues --    2.13450   2.20011   2.22281   2.23500   2.24719
  Beta virt. eigenvalues --    2.25145   2.28178   2.29315   2.29378   2.30181
  Beta virt. eigenvalues --    2.31276   2.34387   2.36303   2.38940   2.39926
  Beta virt. eigenvalues --    2.40647   2.40926   2.46324   2.46552   2.47281
  Beta virt. eigenvalues --    2.51643   2.53805   2.54024   2.62878   2.64519
  Beta virt. eigenvalues --    2.66969   2.67370   2.76967   2.79769   2.88525
  Beta virt. eigenvalues --    2.90050   3.01651   3.06652   3.09237   3.13966
  Beta virt. eigenvalues --    3.14155   3.15862   3.22253   3.25872   3.50192
  Beta virt. eigenvalues --    3.56196   3.70005   3.88239   3.94010   4.79995
  Beta virt. eigenvalues --    9.67448   9.78940   9.79566   9.82266   9.82408
  Beta virt. eigenvalues --    9.82475  23.23866  23.71140  23.82666  23.86006
  Beta virt. eigenvalues --   24.01115  24.02938  25.75783  25.79951  25.80329
  Beta virt. eigenvalues --   25.86234  25.86809  25.95626  26.03766  26.03792
  Beta virt. eigenvalues --   26.16634  26.16834  26.17476  26.31099  26.33313
  Beta virt. eigenvalues --   26.54033  26.54113  26.75115  26.75403  27.04270
  Beta virt. eigenvalues --  215.65541 215.78354 215.78953 215.82199 215.82203
  Beta virt. eigenvalues --  215.82313
          Condensed to atoms (all electrons):
               1          2          3          4          5          6
     1  C   17.240929  -1.941995  -4.301502   2.650114  -4.301502  -1.941995
     2  C   -1.941995  16.140215  -2.541366  -4.301502   4.306884  -4.465779
     3  C   -4.301502  -2.541366  16.140215  -1.941995  -4.465779   4.306884
     4  C    2.650114  -4.301502  -1.941995  17.240929  -1.941995  -4.301502
     5  C   -4.301502   4.306884  -4.465779  -1.941995  16.140215  -2.541366
     6  C   -1.941995  -4.465779   4.306884  -4.301502  -2.541366  16.140215
     7  Cl  -0.265612   0.020379  -0.463114   0.443012  -0.463114   0.020379
     8  Cl  -0.131356  -0.041251   0.022266  -0.335685   0.499116  -0.583434
     9  Cl  -0.335685   0.022266  -0.041251  -0.131356  -0.583434   0.499116
    10  Cl   0.443012  -0.463114   0.020379  -0.265612   0.020379  -0.463114
    11  Cl  -0.335685   0.499116  -0.583434  -0.131356  -0.041251   0.022266
    12  Cl  -0.131356  -0.583434   0.499116  -0.335685   0.022266  -0.041251
               7          8          9         10         11         12
     1  C   -0.265612  -0.131356  -0.335685   0.443012  -0.335685  -0.131356
     2  C    0.020379  -0.041251   0.022266  -0.463114   0.499116  -0.583434
     3  C   -0.463114   0.022266  -0.041251   0.020379  -0.583434   0.499116
     4  C    0.443012  -0.335685  -0.131356  -0.265612  -0.131356  -0.335685
     5  C   -0.463114   0.499116  -0.583434   0.020379  -0.041251   0.022266
     6  C    0.020379  -0.583434   0.499116  -0.463114   0.022266  -0.041251
     7  Cl  17.744115  -0.240252  -0.022322   0.018476  -0.022322  -0.240252
     8  Cl  -0.240252  17.596981  -0.247899  -0.022322   0.015411  -0.020368
     9  Cl  -0.022322  -0.247899  17.596981  -0.240252  -0.020368   0.015411
    10  Cl   0.018476  -0.022322  -0.240252  17.744115  -0.240252  -0.022322
    11  Cl  -0.022322   0.015411  -0.020368  -0.240252  17.596981  -0.247899
    12  Cl  -0.240252  -0.020368   0.015411  -0.022322  -0.247899  17.596981
          Atomic-Atomic Spin Densities.
               1          2          3          4          5          6
     1  C    0.881231  -0.103923  -0.014683  -0.130394  -0.014683  -0.103923
     2  C   -0.103923   0.069135   0.118201  -0.014683  -0.056222   0.014096
     3  C   -0.014683   0.118201   0.069135  -0.103923   0.014096  -0.056222
     4  C   -0.130394  -0.014683  -0.103923   0.881231  -0.103923  -0.014683
     5  C   -0.014683  -0.056222   0.014096  -0.103923   0.069135   0.118201
     6  C   -0.103923   0.014096  -0.056222  -0.014683   0.118201   0.069135
     7  Cl  -0.202991   0.060142   0.016313  -0.037778   0.016313   0.060142
     8  Cl   0.063101  -0.034737  -0.029730   0.017275  -0.010156  -0.008343
     9  Cl   0.017275  -0.029730  -0.034737   0.063101  -0.008343  -0.010156
    10  Cl  -0.037778   0.016313   0.060142  -0.202991   0.060142   0.016313
    11  Cl   0.017275  -0.010156  -0.008343   0.063101  -0.034737  -0.029730
    12  Cl   0.063101  -0.008343  -0.010156   0.017275  -0.029730  -0.034737
               7          8          9         10         11         12
     1  C   -0.202991   0.063101   0.017275  -0.037778   0.017275   0.063101
     2  C    0.060142  -0.034737  -0.029730   0.016313  -0.010156  -0.008343
     3  C    0.016313  -0.029730  -0.034737   0.060142  -0.008343  -0.010156
     4  C   -0.037778   0.017275   0.063101  -0.202991   0.063101   0.017275
     5  C    0.016313  -0.010156  -0.008343   0.060142  -0.034737  -0.029730
     6  C    0.060142  -0.008343  -0.010156   0.016313  -0.029730  -0.034737
     7  Cl   0.134038  -0.013043  -0.000331   0.000627  -0.000331  -0.013043
     8  Cl  -0.013043   0.013102   0.005548  -0.000331   0.000302   0.000085
     9  Cl  -0.000331   0.005548   0.013102  -0.013043   0.000085   0.000302
    10  Cl   0.000627  -0.000331  -0.013043   0.134038  -0.013043  -0.000331
    11  Cl  -0.000331   0.000302   0.000085  -0.013043   0.013102   0.005548
    12  Cl  -0.013043   0.000085   0.000302  -0.000331   0.005548   0.013102
 Mulliken charges and spin densities:
               1          2
     1  C   -0.647369   0.433611
     2  C   -0.650421   0.020093
     3  C   -0.650421   0.020093
     4  C   -0.647369   0.433611
     5  C   -0.650421   0.020093
     6  C   -0.650421   0.020093
     7  Cl   0.470627   0.020057
     8  Cl   0.488791   0.003073
     9  Cl   0.488791   0.003073
    10  Cl   0.470627   0.020057
    11  Cl   0.488791   0.003073
    12  Cl   0.488791   0.003073
 Sum of Mulliken charges =  -1.00000   1.00000
 Mulliken charges and spin densities with hydrogens summed into heavy atoms:
               1          2
     1  C   -0.647369   0.433611
     2  C   -0.650421   0.020093
     3  C   -0.650421   0.020093
     4  C   -0.647369   0.433611
     5  C   -0.650421   0.020093
     6  C   -0.650421   0.020093
     7  Cl   0.470627   0.020057
     8  Cl   0.488791   0.003073
     9  Cl   0.488791   0.003073
    10  Cl   0.470627   0.020057
    11  Cl   0.488791   0.003073
    12  Cl   0.488791   0.003073
 Electronic spatial extent (au):  <R**2>=           4206.5645
 Charge=             -1.0000 electrons
 Dipole moment (field-independent basis, Debye):
    X=             -0.0000    Y=             -0.0000    Z=              0.0000  Tot=              0.0000
 Quadrupole moment (field-independent basis, Debye-Ang):
   XX=           -115.6567   YY=           -129.5085   ZZ=           -134.5941
   XY=             -0.0000   XZ=              0.0000   YZ=             -0.0000
 Traceless Quadrupole moment (field-independent basis, Debye-Ang):
   XX=             10.9298   YY=             -2.9221   ZZ=             -8.0077
   XY=             -0.0000   XZ=              0.0000   YZ=             -0.0000
 Octapole moment (field-independent basis, Debye-Ang**2):
  XXX=              0.0000  YYY=             -0.0000  ZZZ=             -0.0000  XYY=              0.0000
  XXY=             -0.0000  XXZ=             -0.0000  XZZ=              0.0000  YZZ=             -0.0000
  YYZ=              0.0000  XYZ=              0.0000
 Hexadecapole moment (field-independent basis, Debye-Ang**3):
 XXXX=           -141.7384 YYYY=          -2724.8345 ZZZZ=          -2796.5317 XXXY=             -0.0000
 XXXZ=              0.0000 YYYX=             -0.0000 YYYZ=             -0.0000 ZZZX=              0.0000
 ZZZY=             -0.0000 XXYY=           -484.9350 XXZZ=           -492.3050 YYZZ=           -908.2914
 XXYZ=              0.0000 YYXZ=              0.0000 ZZXY=             -0.0000
 N-N= 1.325463308833D+03 E-N=-9.766908924678D+03  KE= 2.982687916213D+03
 Symmetry AG   KE= 8.530754775818D+02
 Symmetry B1G  KE= 4.819313976004D+01
 Symmetry B2G  KE= 9.402548509672D+01
 Symmetry B3G  KE= 4.967589395876D+02
 Symmetry AU   KE= 4.563720630152D+01
 Symmetry B1U  KE= 8.514330797358D+02
 Symmetry B2U  KE= 4.986621410807D+02
 Symmetry B3U  KE= 9.490244706887D+01
 Symmetry AG   SP= 1.210394835033D-15
 Symmetry B1G  SP= 1.401665716545D-14
 Symmetry B2G  SP=-7.418339963042D-15
 Symmetry B3G  SP= 7.096935640547D-15
 Symmetry AU   SP= 1.633874475962D-15
 Symmetry B1U  SP=-1.558847127114D-14
 Symmetry B2U  SP=-2.630643355945D-14
 Symmetry B3U  SP= 1.000000000000D+00
                          Isotropic Fermi Contact Couplings
        Atom                 a.u.       MegaHertz       Gauss      10(-4) cm-1
     1  C(13)              0.03689      41.46585      14.79605      13.83152
     2  C(13)             -0.01245     -13.99693      -4.99445      -4.66887
     3  C(13)             -0.01245     -13.99693      -4.99445      -4.66887
     4  C(13)              0.03689      41.46585      14.79605      13.83152
     5  C(13)             -0.01245     -13.99693      -4.99445      -4.66887
     6  C(13)             -0.01245     -13.99693      -4.99445      -4.66887
     7  Cl(35)             0.00304       1.33461       0.47622       0.44518
     8  Cl(35)            -0.00068      -0.29718      -0.10604      -0.09913
     9  Cl(35)            -0.00068      -0.29718      -0.10604      -0.09913
    10  Cl(35)             0.00304       1.33461       0.47622       0.44518
    11  Cl(35)            -0.00068      -0.29718      -0.10604      -0.09913
    12  Cl(35)            -0.00068      -0.29718      -0.10604      -0.09913
 --------------------------------------------------------
       Center         ----  Spin Dipole Couplings  ----
                      3XX-RR        3YY-RR        3ZZ-RR
 --------------------------------------------------------
     1   Atom        0.578302     -0.294255     -0.284047
     2   Atom        0.074296     -0.035426     -0.038869
     3   Atom        0.074296     -0.035426     -0.038869
     4   Atom        0.578302     -0.294255     -0.284047
     5   Atom        0.074296     -0.035426     -0.038869
     6   Atom        0.074296     -0.035426     -0.038869
     7   Atom        0.275987     -0.074777     -0.201210
     8   Atom        0.030725     -0.015693     -0.015031
     9   Atom        0.030725     -0.015693     -0.015031
    10   Atom        0.275987     -0.074777     -0.201210
    11   Atom        0.030725     -0.015693     -0.015031
    12   Atom        0.030725     -0.015693     -0.015031
 --------------------------------------------------------
                        XY            XZ            YZ
 --------------------------------------------------------
     1   Atom        0.000000      0.000000      0.000000
     2   Atom       -0.000000     -0.000000     -0.005028
     3   Atom       -0.000000      0.000000      0.005028
     4   Atom        0.000000     -0.000000      0.000000
     5   Atom        0.000000     -0.000000     -0.005028
     6   Atom        0.000000     -0.000000      0.005028
     7   Atom        0.000000     -0.000000      0.000000
     8   Atom        0.000000     -0.000000     -0.006608
     9   Atom       -0.000000      0.000000      0.006608
    10   Atom        0.000000      0.000000     -0.000000
    11   Atom        0.000000      0.000000     -0.006608
    12   Atom        0.000000     -0.000000      0.006608
 --------------------------------------------------------


 ---------------------------------------------------------------------------------
              Anisotropic Spin Dipole Couplings in Principal Axis System
 ---------------------------------------------------------------------------------

       Atom             a.u.   MegaHertz   Gauss  10(-4) cm-1        Axes

              Baa    -0.2943   -39.486   -14.090   -13.171  0.0000  1.0000 -0.0000
     1 C(13)  Bbb    -0.2840   -38.116   -13.601   -12.714  0.0000  0.0000  1.0000
              Bcc     0.5783    77.603    27.691    25.885  1.0000 -0.0000 -0.0000
 
              Baa    -0.0425    -5.698    -2.033    -1.901  0.0000  0.5814  0.8136
     2 C(13)  Bbb    -0.0318    -4.272    -1.524    -1.425  0.0000  0.8136 -0.5814
              Bcc     0.0743     9.970     3.557     3.326  1.0000 -0.0000  0.0000
 
              Baa    -0.0425    -5.698    -2.033    -1.901 -0.0000 -0.5814  0.8136
     3 C(13)  Bbb    -0.0318    -4.272    -1.524    -1.425  0.0000  0.8136  0.5814
              Bcc     0.0743     9.970     3.557     3.326  1.0000 -0.0000  0.0000
 
              Baa    -0.2943   -39.486   -14.090   -13.171 -0.0000  1.0000 -0.0000
     4 C(13)  Bbb    -0.2840   -38.116   -13.601   -12.714  0.0000  0.0000  1.0000
              Bcc     0.5783    77.603    27.691    25.885  1.0000  0.0000 -0.0000
 
              Baa    -0.0425    -5.698    -2.033    -1.901 -0.0000  0.5814  0.8136
     5 C(13)  Bbb    -0.0318    -4.272    -1.524    -1.425 -0.0000  0.8136 -0.5814
              Bcc     0.0743     9.970     3.557     3.326  1.0000  0.0000  0.0000
 
              Baa    -0.0425    -5.698    -2.033    -1.901  0.0000 -0.5814  0.8136
     6 C(13)  Bbb    -0.0318    -4.272    -1.524    -1.425 -0.0000  0.8136  0.5814
              Bcc     0.0743     9.970     3.557     3.326  1.0000  0.0000  0.0000
 
              Baa    -0.2012   -10.531    -3.758    -3.513  0.0000  0.0000  1.0000
     7 Cl(35) Bbb    -0.0748    -3.914    -1.396    -1.305  0.0000  1.0000  0.0000
              Bcc     0.2760    14.445     5.154     4.818  1.0000 -0.0000  0.0000
 
              Baa    -0.0220    -1.150    -0.410    -0.384  0.0000  0.7246  0.6892
     8 Cl(35) Bbb    -0.0087    -0.458    -0.163    -0.153 -0.0000 -0.6892  0.7246
              Bcc     0.0307     1.608     0.574     0.536  1.0000 -0.0000  0.0000
 
              Baa    -0.0220    -1.150    -0.410    -0.384  0.0000  0.7246 -0.6892
     9 Cl(35) Bbb    -0.0087    -0.458    -0.163    -0.153  0.0000  0.6892  0.7246
              Bcc     0.0307     1.608     0.574     0.536  1.0000 -0.0000  0.0000
 
              Baa    -0.2012   -10.531    -3.758    -3.513 -0.0000  0.0000  1.0000
    10 Cl(35) Bbb    -0.0748    -3.914    -1.396    -1.305  0.0000  1.0000 -0.0000
              Bcc     0.2760    14.445     5.154     4.818  1.0000 -0.0000  0.0000
 
              Baa    -0.0220    -1.150    -0.410    -0.384  0.0000  0.7246  0.6892
    11 Cl(35) Bbb    -0.0087    -0.458    -0.163    -0.153 -0.0000 -0.6892  0.7246
              Bcc     0.0307     1.608     0.574     0.536  1.0000 -0.0000  0.0000
 
              Baa    -0.0220    -1.150    -0.410    -0.384 -0.0000  0.7246 -0.6892
    12 Cl(35) Bbb    -0.0087    -0.458    -0.163    -0.153 -0.0000  0.6892  0.7246
              Bcc     0.0307     1.608     0.574     0.536  1.0000  0.0000  0.0000
 

 ---------------------------------------------------------------------------------

 No NMR shielding tensors so no spin-rotation constants.
 Leave Link  601 at Mon Sep 28 02:48:00 2026, MaxMem=  1610612736 cpu:               2.3 elap:               0.3
 (Enter /share/software/user/restricted/gaussian/g16.B01/l9999.exe)
 1\1\GINC-SH03-01N29\FOpt\UB3LYP\6-311++G(d)\C6Cl6(1-,2)\JLAPIER\28-Sep
 -2026\0\\#p Opt Freq B3LYP/6-311++G(d) SCRF=(SMD,Solvent=Water) Int=Ul
 traFine Geom=Check\\ClBz_123456_RA b3lyp_smd\\-1,2\C,0.,1.4299861155,0
 .\C,1.231669398,0.6870636685,0.\C,1.231669398,-0.6870636685,0.\C,0.,-1
 .4299861155,0.\C,-1.231669398,-0.6870636685,0.\C,-1.231669398,0.687063
 6685,0.\Cl,0.,3.1838250586,0.\Cl,2.7463905409,1.5767998085,0.\Cl,2.746
 3905409,-1.5767998085,0.\Cl,0.,-3.1838250586,0.\Cl,-2.7463905409,-1.57
 67998085,0.\Cl,-2.7463905409,1.5767998085,0.\\Version=ES64L-G16RevB.01
 \State=2-B3U\HF=-2990.0814837\S2=0.759809\S2-1=0.\S2A=0.75004\RMSD=3.7
 13e-09\RMSF=5.187e-05\Dipole=0.,0.,0.\Quadrupole=-2.1725042,-5.9534996
 ,8.1260038,0.,0.,0.\PG=D02H [C2"(Cl1C1.C1Cl1),SG(C4Cl4)]\\@


 REFRAIN FROM ILLUSIONS, INSIST ON WORK AND NOT WORDS,
 PATIENTLY SEEK DIVINE AND SCIENTIFIC TRUTH.
 LAST WORDS OF MARIA MENDELEEVA TO HER SON DMITRI, C. 1850
 Leave Link 9999 at Mon Sep 28 02:48:00 2026, MaxMem=  1610612736 cpu:               0.3 elap:               0.0
 Job cpu time:       0 days  0 hours 12 minutes  7.6 seconds.
 Elapsed time:       0 days  0 hours  1 minutes 33.8 seconds.
 File lengths (MBytes):  RWF=    186 Int=      0 D2E=      0 Chk=     67 Scr=      1
 Normal termination of Gaussian 16 at Mon Sep 28 02:48:00 2026.
 (Enter /share/software/user/restricted/gaussian/g16.B01/l1.exe)
 Link1:  Proceeding to internal job step number  2.
 ----------------------------------------------------------------------
 #P Geom=AllCheck Guess=TCheck SCRF=Check GenChk UB3LYP/6-311++G(d) Fre
 q
 ----------------------------------------------------------------------
 1/10=4,29=7,30=1,38=1,40=1/1,3;
 2/12=2,40=1/2;
 3/5=4,6=6,7=1011,11=2,14=-4,25=1,30=1,70=2,71=2,74=-5,75=-5,116=2,140=1/1,2,3;
 4/5=101/1;
 5/5=2,38=6,98=1/2;
 8/6=4,10=90,11=11/1;
 11/6=1,8=1,9=11,15=111,16=1/1,2,10;
 10/6=1/2;
 6/7=2,8=2,9=2,10=2,28=1/1;
 7/8=1,10=1,25=1/1,2,3,16;
 1/10=4,30=1/3;
 99//99;
 Leave Link    1 at Mon Sep 28 02:48:00 2026, MaxMem=  1610612736 cpu:               0.1 elap:               0.0
 (Enter /share/software/user/restricted/gaussian/g16.B01/l101.exe)
 Structure from the checkpoint file:  "calcs/b3lyp_smd/chks/ClBz_123456_RA.chk"
 ------------------------
 ClBz_123456_RA b3lyp_smd
 ------------------------
 Charge = -1 Multiplicity = 2
 Redundant internal coordinates found in file.  (old form).
 C,0,0.,1.4299861155,0.
 C,0,1.231669398,0.6870636685,0.
 C,0,1.231669398,-0.6870636685,0.
 C,0,0.,-1.4299861155,0.
 C,0,-1.231669398,-0.6870636685,0.
 C,0,-1.231669398,0.6870636685,0.
 Cl,0,0.,3.1838250586,0.
 Cl,0,2.7463905409,1.5767998085,0.
 Cl,0,2.7463905409,-1.5767998085,0.
 Cl,0,0.,-3.1838250586,0.
 Cl,0,-2.7463905409,-1.5767998085,0.
 Cl,0,-2.7463905409,1.5767998085,0.
 Recover connectivity data from disk.
 ITRead=  0  0  0  0  0  0  0  0  0  0  0  0
 MicOpt= -1 -1 -1 -1 -1 -1 -1 -1 -1 -1 -1 -1
 NAtoms=     12 NQM=       12 NQMF=       0 NMMI=      0 NMMIF=      0
                NMic=       0 NMicF=      0.
                    Isotopes and Nuclear Properties:
 (Nuclear quadrupole moments (NQMom) in fm**2, nuclear magnetic moments (NMagM)
  in nuclear magnetons)

  Atom         1           2           3           4           5           6           7           8           9          10
 IAtWgt=          12          12          12          12          12          12          35          35          35          35
 AtmWgt=  12.0000000  12.0000000  12.0000000  12.0000000  12.0000000  12.0000000  34.9688527  34.9688527  34.9688527  34.9688527
 NucSpn=           0           0           0           0           0           0           3           3           3           3
 AtZEff=   3.6000000   3.6000000   3.6000000   3.6000000   3.6000000   3.6000000  14.2400000  14.2400000  14.2400000  14.2400000
 NQMom=    0.0000000   0.0000000   0.0000000   0.0000000   0.0000000   0.0000000  -8.1650000  -8.1650000  -8.1650000  -8.1650000
 NMagM=    0.0000000   0.0000000   0.0000000   0.0000000   0.0000000   0.0000000   0.8218740   0.8218740   0.8218740   0.8218740
 AtZNuc=   6.0000000   6.0000000   6.0000000   6.0000000   6.0000000   6.0000000  17.0000000  17.0000000  17.0000000  17.0000000

  Atom        11          12
 IAtWgt=          35          35
 AtmWgt=  34.9688527  34.9688527
 NucSpn=           3           3
 AtZEff=  14.2400000  14.2400000
 NQMom=   -8.1650000  -8.1650000
 NMagM=    0.8218740   0.8218740
 AtZNuc=  17.0000000  17.0000000
 Leave Link  101 at Mon Sep 28 02:48:01 2026, MaxMem=  1610612736 cpu:               2.2 elap:               0.3
 (Enter /share/software/user/restricted/gaussian/g16.B01/l103.exe)

 GradGradGradGradGradGradGradGradGradGradGradGradGradGradGradGradGradGrad
 Berny optimization.
 Initialization pass.
                           ----------------------------
                           !    Initial Parameters    !
                           ! (Angstroms and Degrees)  !
 --------------------------                            --------------------------
 ! Name  Definition              Value          Derivative Info.                !
 --------------------------------------------------------------------------------
 ! R1    R(1,2)                  1.4384         calculate D2E/DX2 analytically  !
 ! R2    R(1,6)                  1.4384         calculate D2E/DX2 analytically  !
 ! R3    R(1,7)                  1.7538         calculate D2E/DX2 analytically  !
 ! R4    R(2,3)                  1.3741         calculate D2E/DX2 analytically  !
 ! R5    R(2,8)                  1.7567         calculate D2E/DX2 analytically  !
 ! R6    R(3,4)                  1.4384         calculate D2E/DX2 analytically  !
 ! R7    R(3,9)                  1.7567         calculate D2E/DX2 analytically  !
 ! R8    R(4,5)                  1.4384         calculate D2E/DX2 analytically  !
 ! R9    R(4,10)                 1.7538         calculate D2E/DX2 analytically  !
 ! R10   R(5,6)                  1.3741         calculate D2E/DX2 analytically  !
 ! R11   R(5,11)                 1.7567         calculate D2E/DX2 analytically  !
 ! R12   R(6,12)                 1.7567         calculate D2E/DX2 analytically  !
 ! A1    A(2,1,6)              117.8046         calculate D2E/DX2 analytically  !
 ! A2    A(2,1,7)              121.0977         calculate D2E/DX2 analytically  !
 ! A3    A(6,1,7)              121.0977         calculate D2E/DX2 analytically  !
 ! A4    A(1,2,3)              121.0977         calculate D2E/DX2 analytically  !
 ! A5    A(1,2,8)              118.4727         calculate D2E/DX2 analytically  !
 ! A6    A(3,2,8)              120.4297         calculate D2E/DX2 analytically  !
 ! A7    A(2,3,4)              121.0977         calculate D2E/DX2 analytically  !
 ! A8    A(2,3,9)              120.4297         calculate D2E/DX2 analytically  !
 ! A9    A(4,3,9)              118.4727         calculate D2E/DX2 analytically  !
 ! A10   A(3,4,5)              117.8046         calculate D2E/DX2 analytically  !
 ! A11   A(3,4,10)             121.0977         calculate D2E/DX2 analytically  !
 ! A12   A(5,4,10)             121.0977         calculate D2E/DX2 analytically  !
 ! A13   A(4,5,6)              121.0977         calculate D2E/DX2 analytically  !
 ! A14   A(4,5,11)             118.4727         calculate D2E/DX2 analytically  !
 ! A15   A(6,5,11)             120.4297         calculate D2E/DX2 analytically  !
 ! A16   A(1,6,5)              121.0977         calculate D2E/DX2 analytically  !
 ! A17   A(1,6,12)             118.4727         calculate D2E/DX2 analytically  !
 ! A18   A(5,6,12)             120.4297         calculate D2E/DX2 analytically  !
 ! D1    D(6,1,2,3)              0.0            calculate D2E/DX2 analytically  !
 ! D2    D(6,1,2,8)            180.0            calculate D2E/DX2 analytically  !
 ! D3    D(7,1,2,3)            180.0            calculate D2E/DX2 analytically  !
 ! D4    D(7,1,2,8)              0.0            calculate D2E/DX2 analytically  !
 ! D5    D(2,1,6,5)              0.0            calculate D2E/DX2 analytically  !
 ! D6    D(2,1,6,12)           180.0            calculate D2E/DX2 analytically  !
 ! D7    D(7,1,6,5)            180.0            calculate D2E/DX2 analytically  !
 ! D8    D(7,1,6,12)             0.0            calculate D2E/DX2 analytically  !
 ! D9    D(1,2,3,4)              0.0            calculate D2E/DX2 analytically  !
 ! D10   D(1,2,3,9)            180.0            calculate D2E/DX2 analytically  !
 ! D11   D(8,2,3,4)            180.0            calculate D2E/DX2 analytically  !
 ! D12   D(8,2,3,9)              0.0            calculate D2E/DX2 analytically  !
 ! D13   D(2,3,4,5)              0.0            calculate D2E/DX2 analytically  !
 ! D14   D(2,3,4,10)           180.0            calculate D2E/DX2 analytically  !
 ! D15   D(9,3,4,5)            180.0            calculate D2E/DX2 analytically  !
 ! D16   D(9,3,4,10)             0.0            calculate D2E/DX2 analytically  !
 ! D17   D(3,4,5,6)              0.0            calculate D2E/DX2 analytically  !
 ! D18   D(3,4,5,11)           180.0            calculate D2E/DX2 analytically  !
 ! D19   D(10,4,5,6)           180.0            calculate D2E/DX2 analytically  !
 ! D20   D(10,4,5,11)            0.0            calculate D2E/DX2 analytically  !
 ! D21   D(4,5,6,1)              0.0            calculate D2E/DX2 analytically  !
 ! D22   D(4,5,6,12)           180.0            calculate D2E/DX2 analytically  !
 ! D23   D(11,5,6,1)           180.0            calculate D2E/DX2 analytically  !
 ! D24   D(11,5,6,12)            0.0            calculate D2E/DX2 analytically  !
 --------------------------------------------------------------------------------
 Trust Radius=3.00D-01 FncErr=1.00D-07 GrdErr=1.00D-07 EigMax=2.50D+02 EigMin=1.00D-04
 Number of steps in this run=      2 maximum allowed number of steps=      2.
 GradGradGradGradGradGradGradGradGradGradGradGradGradGradGradGradGradGrad

 Leave Link  103 at Mon Sep 28 02:48:01 2026, MaxMem=  1610612736 cpu:               0.1 elap:               0.0
 (Enter /share/software/user/restricted/gaussian/g16.B01/l202.exe)
                          Input orientation:                          
 ---------------------------------------------------------------------
 Center     Atomic      Atomic             Coordinates (Angstroms)
 Number     Number       Type             X           Y           Z
 ---------------------------------------------------------------------
      1          6           0        0.000000    1.429986   -0.000000
      2          6           0        1.231669    0.687064   -0.000000
      3          6           0        1.231669   -0.687064   -0.000000
      4          6           0        0.000000   -1.429986   -0.000000
      5          6           0       -1.231669   -0.687064   -0.000000
      6          6           0       -1.231669    0.687064   -0.000000
      7         17           0        0.000000    3.183825   -0.000000
      8         17           0        2.746391    1.576800   -0.000000
      9         17           0        2.746391   -1.576800   -0.000000
     10         17           0        0.000000   -3.183825   -0.000000
     11         17           0       -2.746391   -1.576800   -0.000000
     12         17           0       -2.746391    1.576800   -0.000000
 ---------------------------------------------------------------------
                    Distance matrix (angstroms):
                    1          2          3          4          5
     1  C    0.000000
     2  C    1.438382   0.000000
     3  C    2.449267   1.374127   0.000000
     4  C    2.859972   2.449267   1.438382   0.000000
     5  C    2.449267   2.820685   2.463339   1.438382   0.000000
     6  C    1.438382   2.463339   2.820685   2.449267   1.374127
     7  Cl   1.753839   2.784031   4.062116   4.613811   4.062116
     8  Cl   2.750312   1.756704   2.723868   4.072275   4.577121
     9  Cl   4.072275   2.723868   1.756704   2.750312   4.076345
    10  Cl   4.613811   4.062116   2.784031   1.753839   2.784031
    11  Cl   4.072275   4.577121   4.076345   2.750312   1.756704
    12  Cl   2.750312   4.076345   4.577121   4.072275   2.723868
                    6          7          8          9         10
     6  C    0.000000
     7  Cl   2.784031   0.000000
     8  Cl   4.076345   3.182011   0.000000
     9  Cl   4.577121   5.496018   3.153600   0.000000
    10  Cl   4.062116   6.367650   5.496018   3.182011   0.000000
    11  Cl   2.723868   5.496018   6.333706   5.492781   3.182011
    12  Cl   1.756704   3.182011   5.492781   6.333706   5.496018
                   11         12
    11  Cl   0.000000
    12  Cl   3.153600   0.000000
 Stoichiometry    C6Cl6(1-,2)
 Framework group  D2H[C2"(ClC.CCl),SG(C4Cl4)]
 Deg. of freedom     6
 Full point group                 D2H     NOp   8
 RotChk:  IX=0 Diff= 7.74D-48
 Largest Abelian subgroup         D2H     NOp   8
 Largest concise Abelian subgroup D2      NOp   4
                         Standard orientation:                         
 ---------------------------------------------------------------------
 Center     Atomic      Atomic             Coordinates (Angstroms)
 Number     Number       Type             X           Y           Z
 ---------------------------------------------------------------------
      1          6           0       -0.000000   -0.000000    1.429986
      2          6           0        0.000000    1.231669    0.687064
      3          6           0        0.000000    1.231669   -0.687064
      4          6           0        0.000000   -0.000000   -1.429986
      5          6           0       -0.000000   -1.231669   -0.687064
      6          6           0       -0.000000   -1.231669    0.687064
      7         17           0       -0.000000   -0.000000    3.183825
      8         17           0        0.000000    2.746391    1.576800
      9         17           0        0.000000    2.746391   -1.576800
     10         17           0        0.000000   -0.000000   -3.183825
     11         17           0       -0.000000   -2.746391   -1.576800
     12         17           0       -0.000000   -2.746391    1.576800
 ---------------------------------------------------------------------
 Rotational constants (GHZ):           0.4480909           0.4478533           0.2239860
 Leave Link  202 at Mon Sep 28 02:48:01 2026, MaxMem=  1610612736 cpu:               0.1 elap:               0.0
 (Enter /share/software/user/restricted/gaussian/g16.B01/l301.exe)
 Standard basis: 6-311++G(d) (5D, 7F)
 Ernie: Thresh=  0.10000D-02 Tol=  0.10000D-05 Strict=F.
 There are    68 symmetry adapted cartesian basis functions of AG  symmetry.
 There are    16 symmetry adapted cartesian basis functions of B1G symmetry.
 There are    26 symmetry adapted cartesian basis functions of B2G symmetry.
 There are    52 symmetry adapted cartesian basis functions of B3G symmetry.
 There are    16 symmetry adapted cartesian basis functions of AU  symmetry.
 There are    68 symmetry adapted cartesian basis functions of B1U symmetry.
 There are    52 symmetry adapted cartesian basis functions of B2U symmetry.
 There are    26 symmetry adapted cartesian basis functions of B3U symmetry.
 There are    64 symmetry adapted basis functions of AG  symmetry.
 There are    16 symmetry adapted basis functions of B1G symmetry.
 There are    26 symmetry adapted basis functions of B2G symmetry.
 There are    50 symmetry adapted basis functions of B3G symmetry.
 There are    16 symmetry adapted basis functions of AU  symmetry.
 There are    64 symmetry adapted basis functions of B1U symmetry.
 There are    50 symmetry adapted basis functions of B2U symmetry.
 There are    26 symmetry adapted basis functions of B3U symmetry.
   312 basis functions,   534 primitive gaussians,   324 cartesian basis functions
    70 alpha electrons       69 beta electrons
       nuclear repulsion energy      1325.4580922453 Hartrees.
 IExCor=  402 DFT=T Ex+Corr=B3LYP ExCW=0 ScaHFX=  0.200000
 ScaDFX=  0.800000  0.720000  1.000000  0.810000 ScalE2=  1.000000  1.000000
 IRadAn=      5 IRanWt=     -1 IRanGd=            0 ICorTp=0 IEmpDi=  4
 NAtoms=   12 NActive=   12 NUniq=    4 SFac= 4.00D+00 NAtFMM=   60 NAOKFM=F Big=F
 Integral buffers will be    131072 words long.
 Raffenetti 2 integral format.
 Two-electron integral symmetry is turned on.
 Force inversion solution in PCM.
 ------------------------------------------------------------------------------
 Polarizable Continuum Model (PCM)
 =================================
 Model                : PCM.
 Atomic radii         : SMD-Coulomb.
 Polarization charges : Total charges.
 Charge compensation  : None.
 Solution method      : Matrix inversion.
 Cavity type          : VdW (van der Waals Surface) (Alpha=1.000).
 Cavity algorithm     : GePol (No added spheres)
                        Default sphere list used, NSphG=   12.
                        Lebedev-Laikov grids with approx.  5.0 points / Ang**2.
                        Smoothing algorithm: York/Karplus (Gamma=1.0000).
                        Polarization charges: spherical gaussians, with
                                              point-specific exponents (IZeta= 3).
                        Self-potential: point-specific (ISelfS= 7).
                        Self-field    : sphere-specific E.n sum rule (ISelfD= 2).
 1st derivatives      : Analytical E(r).r(x)/FMM algorithm (CHGder, D1EAlg=3).
                        Cavity 1st derivative terms included.
 2nd derivatives      : Analytical E(r).r(xy)/FMM algorithm (CHGder, D2EAlg=3).
                        Cavity 2nd derivative terms included.
 Solvent              : Water, Eps=  78.355300 Eps(inf)=   1.777849
 ------------------------------------------------------------------------------
 Spheres list:
 ISph  on   Nord     Re0    Alpha      Xe            Ye            Ze
    1   C      1    1.8500  1.000      0.000000      0.000000      1.429986
    2   C      2    1.8500  1.000      0.000000      1.231669      0.687064
    3   C      3    1.8500  1.000      0.000000      1.231669     -0.687064
    4   C      4    1.8500  1.000      0.000000     -0.000000     -1.429986
    5   C      5    1.8500  1.000     -0.000000     -1.231669     -0.687064
    6   C      6    1.8500  1.000     -0.000000     -1.231669      0.687064
    7  Cl      7    2.3800  1.000     -0.000000      0.000000      3.183825
    8  Cl      8    2.3800  1.000     -0.000000      2.746391      1.576800
    9  Cl      9    2.3800  1.000      0.000000      2.746391     -1.576800
   10  Cl     10    2.3800  1.000      0.000000      0.000000     -3.183825
   11  Cl     11    2.3800  1.000     -0.000000     -2.746391     -1.576800
   12  Cl     12    2.3800  1.000     -0.000000     -2.746391      1.576800
 ------------------------------------------------------------------------------
 GePol: Number of generator spheres                  =      12
 GePol: Total number of spheres                      =      12
 GePol: Number of exposed spheres                    =      12 (100.00%)
 GePol: Number of points                             =    1902
 GePol: Average weight of points                     =       0.14
 GePol: Minimum weight of points                     =   0.92D-06
 GePol: Maximum weight of points                     =    0.18138
 GePol: Number of points with low weight             =      64
 GePol: Fraction of low-weight points (<1% of avg)   =       3.36%
 GePol: Cavity surface area                          =    272.898 Ang**2
 GePol: Cavity volume                                =    303.729 Ang**3
 ------------------------------------------------------------------------------
 Atomic radii for non-electrostatic terms: SMD-CDS.
 ------------------------------------------------------------------------------
 PCM non-electrostatic energy =         0.0052165876 Hartrees.
 Nuclear repulsion after PCM non-electrostatic terms =     1325.4633088330 Hartrees.
 Leave Link  301 at Mon Sep 28 02:48:01 2026, MaxMem=  1610612736 cpu:               2.3 elap:               0.3
 (Enter /share/software/user/restricted/gaussian/g16.B01/l302.exe)
 NPDir=0 NMtPBC=     1 NCelOv=     1 NCel=       1 NClECP=     1 NCelD=      1
         NCelK=      1 NCelE2=     1 NClLst=     1 CellRange=     0.0.
 One-electron integrals computed using PRISM.
 One-electron integral symmetry used in STVInt
 NBasis=   312 RedAO= T EigKep=  1.85D-06  NBF=    64    16    26    50    16    64    50    26
 NBsUse=   310 1.00D-06 EigRej=  2.66D-07 NBFU=    64    16    26    49    16    63    50    26
 Precomputing XC quadrature grid using
 IXCGrd= 4 IRadAn=           5 IRanWt=          -1 IRanGd=           0 AccXCQ= 0.00D+00.
 Generated NRdTot=       0 NPtTot=           0 NUsed=           0 NTot=          32
 NSgBfM=   314   314   314   314   314 MxSgAt=    12 MxSgA2=    12.
 Leave Link  302 at Mon Sep 28 02:48:01 2026, MaxMem=  1610612736 cpu:               1.2 elap:               0.2
 (Enter /share/software/user/restricted/gaussian/g16.B01/l303.exe)
 DipDrv:  MaxL=1.
 Leave Link  303 at Mon Sep 28 02:48:01 2026, MaxMem=  1610612736 cpu:               0.2 elap:               0.0
 (Enter /share/software/user/restricted/gaussian/g16.B01/l401.exe)
 Initial guess from the checkpoint file:  "calcs/b3lyp_smd/chks/ClBz_123456_RA.chk"
 B after Tr=     0.000000    0.000000    0.000000
         Rot=    1.000000    0.000000    0.000000    0.000000 Ang=   0.00 deg.
 Guess basis will be translated and rotated to current coordinates.
 JPrj=2 DoOrth=T DoCkMO=T.
 Initial guess orbital symmetries:
 Alpha Orbitals:
       Occupied  (B3G) (B1U) (B2U) (AG) (B1U) (AG) (B2U) (AG) (B1U)
                 (B3G) (B1U) (AG) (B3G) (B1U) (B2U) (AG) (B1U)
                 (AG) (B1U) (B3G) (B2U) (AG) (B1U) (AG) (B2G) (AU)
                 (B1G) (B3U) (B3G) (B1U) (B2U) (AG) (B3U) (B2G)
                 (B3G) (B2U) (AG) (B2U) (B1U) (B3G) (AG) (B1U)
                 (AG) (B2U) (B1U) (AG) (B3G) (B2U) (AG) (B1U) (B2U)
                 (B3U) (B1U) (AG) (B3G) (B1G) (B2G) (AU) (B3U)
                 (AG) (B2U) (B3G) (B2G) (B1U) (B2U) (B3U) (B3G)
                 (B1G) (B2G) (B3U)
       Virtual   (AG) (AU) (B2U) (B1U) (AG) (AG) (B1U) (B3G) (B2U)
                 (B1U) (B3U) (AG) (B2G) (B1G) (B2U) (AG) (B2G)
                 (B2U) (B3G) (B1U) (B3U) (AU) (B1U) (AG) (B3G)
                 (B3U) (B2G) (AG) (B3G) (AG) (B2U) (B1U) (B2G)
                 (B1G) (B2U) (B1U) (B3U) (AG) (AU) (B3G) (B1U)
                 (B2U) (B2U) (B1U) (AG) (B3G) (AG) (B3G) (B2G)
                 (B2U) (AG) (B1U) (B3G) (AG) (B1U) (B2U) (B3G)
                 (B1U) (AG) (B3G) (B3U) (B2U) (B1G) (B2G) (B1U)
                 (B2U) (B1U) (AG) (B3G) (B2U) (AU) (B3U) (AG) (B2G)
                 (B3G) (B2U) (B1U) (B3U) (AG) (B1G) (B2G) (B3U)
                 (AG) (AU) (B3G) (B1U) (B3G) (B2U) (B2G) (B1U)
                 (B3U) (AG) (B1U) (B2G) (B1G) (B1G) (B3U) (B2U)
                 (AU) (AG) (AU) (B2G) (B3G) (B1G) (B1U) (AG) (B2U)
                 (B1U) (B3G) (B3U) (AU) (B2U) (B1U) (AG) (B1U)
                 (B3G) (B2U) (B3G) (AG) (B1U) (AG) (B1G) (AG) (B1U)
                 (AG) (B3G) (B2U) (B2G) (B2U) (B1U) (B3G) (AG)
                 (B3U) (B1U) (B3U) (AG) (B3G) (AU) (B1U) (B1G)
                 (B2G) (B2U) (B1U) (AG) (B2U) (B3G) (AG) (B2U)
                 (B1U) (B3U) (AU) (AG) (B3G) (B1U) (B1G) (B2U)
                 (B2G) (B2G) (AG) (B3G) (B2U) (B1U) (B3U) (B1G)
                 (B2G) (AU) (AU) (B3U) (AG) (B3G) (B2G) (B1U) (B2U)
                 (B2U) (B3G) (B1U) (B3G) (AG) (AG) (B3G) (B2U)
                 (B1U) (B3U) (B1U) (AG) (B3G) (B1G) (B2G) (B3U)
                 (AU) (B1U) (B2U) (B2G) (B1U) (AG) (B2U) (B3G)
                 (AG) (B3G) (AG) (B1U) (B1U) (B2U) (B3G) (AG) (B2U)
                 (B1U) (B3G) (B1U) (AG) (AG) (B2U) (B1U) (AG) (B3G)
                 (B1U) (B3U) (B1G) (B2G) (AU) (B3U) (B2G) (B1U)
                 (B2U) (B2U) (B3G) (AG) (B3G) (AG) (B1U) (B2U)
                 (AG) (B3G) (B1U) (AG) (B2U) (B1U) (B1U) (B3G)
                 (AG)
 Beta  Orbitals:
       Occupied  (B3G) (B1U) (B2U) (AG) (B1U) (AG) (B2U) (AG) (B1U)
                 (B3G) (B1U) (AG) (B3G) (B1U) (B2U) (AG) (B1U)
                 (AG) (B1U) (B3G) (B2U) (AG) (B1U) (AG) (B2G) (AU)
                 (B1G) (B3U) (B3G) (B1U) (B2U) (AG) (B3G) (B2U)
                 (B2G) (B3U) (AG) (B2U) (B1U) (B3G) (AG) (B1U)
                 (AG) (B2U) (B1U) (AG) (B3G) (B2U) (AG) (B1U) (B2U)
                 (B1U) (B3U) (AG) (B3G) (B1G) (B2G) (AU) (AG) (B3U)
                 (B2U) (B3G) (B2G) (B1U) (B2U) (B3U) (B3G) (B1G)
                 (B2G)
       Virtual   (AG) (AU) (B3U) (B2U) (B1U) (AG) (AG) (B3G) (B1U)
                 (B2U) (B1U) (B3U) (AG) (B2G) (B1G) (B2U) (B2U)
                 (AG) (B3G) (B1U) (B3U) (AU) (B2G) (B1U) (B3G)
                 (AG) (B3U) (AG) (B3G) (AG) (B2G) (B2U) (B1U) (B1G)
                 (B2G) (B2U) (B1U) (AG) (B3U) (AU) (B3G) (B1U)
                 (B2U) (B2U) (B1U) (AG) (B3G) (AG) (B3G) (B2G)
                 (B2U) (AG) (B1U) (B3G) (AG) (B1U) (B2U) (B3G)
                 (B1U) (AG) (B3G) (B3U) (B2U) (B1G) (B2G) (B2U)
                 (B1U) (B1U) (AG) (B3G) (B2U) (AU) (B3U) (AG) (B3G)
                 (B2G) (B2U) (B1U) (B3U) (AG) (B1G) (B2G) (AG)
                 (AU) (B3U) (B3G) (B1U) (B3G) (B2U) (B2G) (B1U)
                 (B3U) (AG) (B1U) (B1G) (B2G) (B1G) (B3U) (B2U)
                 (AU) (AG) (AU) (B2G) (B3G) (B1G) (B1U) (AG) (B2U)
                 (B1U) (B3G) (AU) (B3U) (B2U) (B1U) (B1U) (B3G)
                 (AG) (B2U) (B3G) (AG) (B1U) (AG) (B1G) (AG) (B1U)
                 (AG) (B3G) (B2U) (B2G) (B2U) (B1U) (B3G) (AG)
                 (B3U) (B1U) (AG) (B3G) (B3U) (AU) (B1U) (B1G)
                 (B2U) (B2G) (B1U) (AG) (B2U) (B3G) (AG) (B2U)
                 (B1U) (B3U) (AU) (AG) (B3G) (B2U) (B1U) (B1G)
                 (B2G) (B2G) (AG) (B3G) (B2U) (B1U) (B3U) (B1G)
                 (B2G) (AU) (AU) (B3U) (AG) (B3G) (B2G) (B1U) (B2U)
                 (B2U) (B3G) (B1U) (B3G) (AG) (AG) (B3G) (B2U)
                 (B1U) (B3U) (B1U) (AG) (B3G) (B1G) (B2G) (AU)
                 (B3U) (B1U) (B2U) (B2G) (B1U) (AG) (B2U) (B3G)
                 (AG) (B3G) (AG) (B1U) (B1U) (B2U) (B3G) (AG) (B2U)
                 (B1U) (B3G) (B1U) (AG) (AG) (B2U) (B1U) (AG) (B3G)
                 (B1U) (B3U) (B1G) (B2G) (AU) (B3U) (B2G) (B1U)
                 (B2U) (B2U) (B3G) (AG) (B3G) (AG) (B1U) (B2U)
                 (AG) (B3G) (B1U) (AG) (B2U) (B1U) (B1U) (B3G)
                 (AG)
 The electronic state of the initial guess is 2-B3U.
 Initial guess <Sx>= 0.0000 <Sy>= 0.0000 <Sz>= 0.5000 <S**2>= 0.7598 S= 0.5049
 Leave Link  401 at Mon Sep 28 02:48:02 2026, MaxMem=  1610612736 cpu:               2.1 elap:               0.3
 (Enter /share/software/user/restricted/gaussian/g16.B01/l502.exe)
 Keep R1 and R2 ints in memory in symmetry-blocked form, NReq=1348300735.
 FoFCou: FMM=F IPFlag=           0 FMFlag=           0 FMFlg1=           0
         NFxFlg=           0 DoJE=F BraDBF=F KetDBF=F FulRan=T
         wScrn=  0.000000 ICntrl=       600 IOpCl=  0 I1Cent=           0 NGrid=           0
         NMat0=    1 NMatS0=  48828 NMatT0=    0 NMatD0=    1 NMtDS0=    0 NMtDT0=    0
 Petite list used in FoFCou.
 UHF open shell SCF:
 Using DIIS extrapolation, IDIIS=  1040.
 NGot=  1610612736 LenX=  1298136914 LenY=  1298031497
 Requested convergence on RMS density matrix=1.00D-08 within 128 cycles.
 Requested convergence on MAX density matrix=1.00D-06.
 Requested convergence on             energy=1.00D-06.
 No special actions if energy rises.

 Cycle   1  Pass 1  IDiag  1:
 Inv3:  Mode=1 IEnd=    10852812.
 Iteration    1 A*A^-1 deviation from unit magnitude is 6.44D-15 for   1894.
 Iteration    1 A*A^-1 deviation from orthogonality  is 1.65D-15 for   1900   1899.
 Iteration    1 A^-1*A deviation from unit magnitude is 6.66D-15 for   1894.
 Iteration    1 A^-1*A deviation from orthogonality  is 1.27D-15 for   1890   1888.
 E= -2990.08148370943    
 DIIS: error= 1.07D-09 at cycle   1 NSaved=   1.
 NSaved= 1 IEnMin= 1 EnMin= -2990.08148370943     IErMin= 1 ErrMin= 1.07D-09
 ErrMax= 1.07D-09  0.00D+00 EMaxC= 1.00D-01 BMatC= 8.91D-16 BMatP= 8.91D-16
 IDIUse=1 WtCom= 1.00D+00 WtEn= 0.00D+00
 Coeff-Com:  0.100D+01
 Coeff:      0.100D+01
 Gap=     0.044 Goal=   None    Shift=    0.000
 Gap=     0.167 Goal=   None    Shift=    0.000
 RMSDP=1.58D-09 MaxDP=8.57D-08              OVMax= 1.66D-08

 Error on total polarization charges =  0.01419
 SCF Done:  E(UB3LYP) =  -2990.08148371     A.U. after    1 cycles
            NFock=  1  Conv=0.16D-08     -V/T= 2.0025
 <Sx>= 0.0000 <Sy>= 0.0000 <Sz>= 0.5000 <S**2>= 0.7598 S= 0.5049
 <L.S>=  0.00000000000    
 KE= 2.982687915756D+03 PE=-9.766908924220D+03 EE= 2.468676215922D+03
 SMD-CDS (non-electrostatic) energy       (kcal/mol) =       3.27
 (included in total energy above)
 Annihilation of the first spin contaminant:
 S**2 before annihilation     0.7598,   after     0.7500
 Leave Link  502 at Mon Sep 28 02:48:10 2026, MaxMem=  1610612736 cpu:              63.1 elap:               8.0
 (Enter /share/software/user/restricted/gaussian/g16.B01/l801.exe)
 DoSCS=F DFT=T ScalE2(SS,OS)=  1.000000  1.000000
 Range of M.O.s used for correlation:     1   310
 NBasis=   312 NAE=    70 NBE=    69 NFC=     0 NFV=     0
 NROrb=    310 NOA=    70 NOB=    69 NVA=   240 NVB=   241

 **** Warning!!: The largest alpha MO coefficient is  0.26614127D+03


 **** Warning!!: The smallest alpha delta epsilon is  0.43841758D-01


 **** Warning!!: The largest beta MO coefficient is  0.25871486D+03

 Leave Link  801 at Mon Sep 28 02:48:10 2026, MaxMem=  1610612736 cpu:               0.2 elap:               0.0
 (Enter /share/software/user/restricted/gaussian/g16.B01/l1101.exe)
 Using compressed storage, NAtomX=    12.
 Will process     13 centers per pass.
 Leave Link 1101 at Mon Sep 28 02:48:11 2026, MaxMem=  1610612736 cpu:               1.3 elap:               0.2
 (Enter /share/software/user/restricted/gaussian/g16.B01/l1102.exe)
 Symmetrizing basis deriv contribution to polar:
 IMax=3 JMax=2 DiffMx= 0.00D+00
 Leave Link 1102 at Mon Sep 28 02:48:11 2026, MaxMem=  1610612736 cpu:               0.3 elap:               0.1
 (Enter /share/software/user/restricted/gaussian/g16.B01/l1110.exe)
 Forming Gx(P) for the SCF density, NAtomX=    12.
 Integral derivatives from FoFJK, PRISM(SPDF).
 Do as many integral derivatives as possible in FoFJK.
 G2DrvN: MDV=    1610611664.
 G2DrvN: will do    13 centers at a time, making    1 passes.
 Calling FoFCou, ICntrl=  3107 FMM=F I1Cent=   0 AccDes= 0.00D+00.
 FoFJK:  IHMeth= 1 ICntrl=    3107 DoSepK=F KAlg= 0 I1Cent=           0 FoldK=F
 IRaf=         0 NMat=       1 IRICut=       1 DoRegI=T DoRafI=F ISym2E= 1 IDoP0=0 IntGTp=1.
 FoFCou: FMM=F IPFlag=           0 FMFlag=      100000 FMFlg1=           0
         NFxFlg=           0 DoJE=F BraDBF=F KetDBF=F FulRan=T
         wScrn=  0.000000 ICntrl=      3107 IOpCl=  1 I1Cent=           0 NGrid=           0
         NMat0=    1 NMatS0=      1 NMatT0=    0 NMatD0=    1 NMtDS0=    0 NMtDT0=    0
 Petite list used in FoFCou.
 NEqPCM:  Using equilibrium solvation (IEInf=0, Eps=  78.3553, EpsInf=   1.7778)
 G2PCM: DoFxE=T DoFxN=T DoGrad=T DoDP/DQ/DG/TGxP=FFFF NFrqRd=   0 IEInf=0 SqF1=F DoCFld=F IF1Alg=4.
 GePol: Maximum number of non-zero 1st derivatives   =     320
 End of G2Drv F.D. properties file   721 does not exist.
 End of G2Drv F.D. properties file   722 does not exist.
 End of G2Drv F.D. properties file   788 does not exist.
 Leave Link 1110 at Mon Sep 28 02:48:26 2026, MaxMem=  1610612736 cpu:             119.2 elap:              14.9
 (Enter /share/software/user/restricted/gaussian/g16.B01/l1002.exe)
 Minotr:  UHF open shell wavefunction.
          IDoAtm=111111111111
 NEqPCM:  Using equilibrium solvation (IEInf=0, Eps=  78.3553, EpsInf=   1.7778)
          Direct CPHF calculation.
          Differentiating once with respect to electric field.
                with respect to dipole field.
          Differentiating once with respect to nuclear coordinates.
          Using symmetry in CPHF.
          Requested convergence is 1.0D-08 RMS, and 1.0D-07 maximum.
          Secondary convergence is 1.0D-12 RMS, and 1.0D-12 maximum.
          NewPWx=T KeepS1=F KeepF1=F KeepIn=T MapXYZ=F SortEE=F KeepMc=T.
         3619 words used for storage of precomputed grid.
 Keep R1 and R2 ints in memory in symmetry-blocked form, NReq=1348306894.
 FoFCou: FMM=F IPFlag=           0 FMFlag=           0 FMFlg1=           0
         NFxFlg=           0 DoJE=F BraDBF=F KetDBF=F FulRan=T
         wScrn=  0.000000 ICntrl=       600 IOpCl=  0 I1Cent=           0 NGrid=           0
         NMat0=    1 NMatS0=  48828 NMatT0=    0 NMatD0=    1 NMtDS0=    0 NMtDT0=    0
 Petite list used in FoFCou.
          MDV=    1610612736 using IRadAn=       1.
          Solving linear equations simultaneously, MaxMat=       0.
          There are    15 degrees of freedom in the 1st order CPHF.  IDoFFX=4 NUNeed=    15.
     15 vectors produced by pass  0 Test12= 2.23D-13 6.67D-09 XBig12= 5.04D+02 1.14D+01.
 AX will form    15 AO Fock derivatives at one time.
     15 vectors produced by pass  1 Test12= 2.23D-13 6.67D-09 XBig12= 1.28D+02 3.21D+00.
     15 vectors produced by pass  2 Test12= 2.23D-13 6.67D-09 XBig12= 2.91D+01 1.31D+00.
     15 vectors produced by pass  3 Test12= 2.23D-13 6.67D-09 XBig12= 9.70D+00 1.10D+00.
     15 vectors produced by pass  4 Test12= 2.23D-13 6.67D-09 XBig12= 1.22D+00 2.13D-01.
     15 vectors produced by pass  5 Test12= 2.23D-13 6.67D-09 XBig12= 8.20D-02 4.62D-02.
     15 vectors produced by pass  6 Test12= 2.23D-13 6.67D-09 XBig12= 3.34D-03 1.26D-02.
     15 vectors produced by pass  7 Test12= 2.23D-13 6.67D-09 XBig12= 1.83D-04 3.46D-03.
     15 vectors produced by pass  8 Test12= 2.23D-13 6.67D-09 XBig12= 3.53D-06 2.01D-04.
     13 vectors produced by pass  9 Test12= 2.23D-13 6.67D-09 XBig12= 4.74D-08 2.68D-05.
      6 vectors produced by pass 10 Test12= 2.23D-13 6.67D-09 XBig12= 7.57D-10 2.79D-06.
      2 vectors produced by pass 11 Test12= 2.23D-13 6.67D-09 XBig12= 1.41D-11 7.34D-07.
      2 vectors produced by pass 12 Test12= 2.23D-13 6.67D-09 XBig12= 1.68D-13 5.79D-08.
 InvSVY:  IOpt=1 It=  1 EMax= 1.42D-14
 Solved reduced A of dimension   158 with    15 vectors.
 FullF1:  Do perturbations      1 to      15.
 Isotropic polarizability for W=    0.000000      212.65 Bohr**3.
 End of Minotr F.D. properties file   721 does not exist.
 End of Minotr F.D. properties file   722 does not exist.
 End of Minotr F.D. properties file   788 does not exist.
 Leave Link 1002 at Mon Sep 28 02:49:54 2026, MaxMem=  1610612736 cpu:             705.7 elap:              88.2
 (Enter /share/software/user/restricted/gaussian/g16.B01/l601.exe)
 Copying SCF densities to generalized density rwf, IOpCl= 1 IROHF=0.

 **********************************************************************

            Population analysis using the SCF Density.

 **********************************************************************

 Orbital symmetries:
 Alpha Orbitals:
       Occupied  (B3G) (B1U) (B2U) (AG) (B1U) (AG) (B2U) (AG) (B1U)
                 (B3G) (B1U) (AG) (B3G) (B1U) (B2U) (AG) (B1U)
                 (AG) (B1U) (B3G) (B2U) (AG) (B1U) (AG) (B2G) (AU)
                 (B1G) (B3U) (B3G) (B1U) (B2U) (AG) (B3U) (B2G)
                 (B3G) (B2U) (AG) (B2U) (B1U) (B3G) (AG) (B1U)
                 (AG) (B2U) (B1U) (AG) (B3G) (B2U) (AG) (B1U) (B2U)
                 (B3U) (B1U) (AG) (B3G) (B1G) (B2G) (AU) (B3U)
                 (AG) (B2U) (B3G) (B2G) (B1U) (B2U) (B3U) (B3G)
                 (B1G) (B2G) (B3U)
       Virtual   (AG) (AU) (B2U) (B1U) (AG) (AG) (B1U) (B3G) (B2U)
                 (B1U) (B3U) (AG) (B2G) (B1G) (B2U) (AG) (B2G)
                 (B2U) (B3G) (B1U) (B3U) (AU) (B1U) (AG) (B3G)
                 (B3U) (B2G) (AG) (B3G) (AG) (B2U) (B1U) (B2G)
                 (B1G) (B2U) (B1U) (B3U) (AG) (AU) (B3G) (B1U)
                 (B2U) (B2U) (B1U) (AG) (B3G) (AG) (B3G) (B2G)
                 (B2U) (AG) (B1U) (B3G) (AG) (B1U) (B2U) (B3G)
                 (B1U) (AG) (B3G) (B3U) (B2U) (B1G) (B2G) (B1U)
                 (B2U) (B1U) (AG) (B3G) (B2U) (AU) (B3U) (AG) (B2G)
                 (B3G) (B2U) (B1U) (B3U) (AG) (B1G) (B2G) (B3U)
                 (AG) (AU) (B3G) (B1U) (B3G) (B2U) (B2G) (B1U)
                 (B3U) (AG) (B1U) (B2G) (B1G) (B1G) (B3U) (B2U)
                 (AU) (AG) (AU) (B2G) (B3G) (B1G) (B1U) (AG) (B2U)
                 (B1U) (B3G) (B3U) (AU) (B2U) (B1U) (AG) (B1U)
                 (B3G) (B2U) (B3G) (AG) (B1U) (AG) (B1G) (AG) (B1U)
                 (AG) (B3G) (B2U) (B2G) (B2U) (B1U) (B3G) (AG)
                 (B3U) (B1U) (B3U) (AG) (B3G) (AU) (B1U) (B1G)
                 (B2G) (B2U) (B1U) (AG) (B2U) (B3G) (AG) (B2U)
                 (B1U) (B3U) (AU) (AG) (B3G) (B1U) (B1G) (B2U)
                 (B2G) (B2G) (AG) (B3G) (B2U) (B1U) (B3U) (B1G)
                 (B2G) (AU) (AU) (B3U) (AG) (B3G) (B2G) (B1U) (B2U)
                 (B2U) (B3G) (B1U) (B3G) (AG) (AG) (B3G) (B2U)
                 (B1U) (B3U) (B1U) (AG) (B3G) (B1G) (B2G) (B3U)
                 (AU) (B1U) (B2U) (B2G) (B1U) (AG) (B2U) (B3G)
                 (AG) (B3G) (AG) (B1U) (B1U) (B2U) (B3G) (AG) (B2U)
                 (B1U) (B3G) (B1U) (AG) (AG) (B2U) (B1U) (AG) (B3G)
                 (B1U) (B3U) (B1G) (B2G) (AU) (B3U) (B2G) (B1U)
                 (B2U) (B2U) (B3G) (AG) (B3G) (AG) (B1U) (B2U)
                 (AG) (B3G) (B1U) (AG) (B2U) (B1U) (B1U) (B3G)
                 (AG)
 Beta  Orbitals:
       Occupied  (B3G) (B1U) (B2U) (AG) (B1U) (AG) (B2U) (AG) (B1U)
                 (B3G) (B1U) (AG) (B3G) (B1U) (B2U) (AG) (B1U)
                 (AG) (B1U) (B3G) (B2U) (AG) (B1U) (AG) (B2G) (AU)
                 (B1G) (B3U) (B3G) (B1U) (B2U) (AG) (B3G) (B2U)
                 (B2G) (B3U) (AG) (B2U) (B1U) (B3G) (AG) (B1U)
                 (AG) (B2U) (B1U) (AG) (B3G) (B2U) (AG) (B1U) (B2U)
                 (B1U) (B3U) (AG) (B3G) (B1G) (B2G) (AU) (AG) (B3U)
                 (B2U) (B3G) (B2G) (B1U) (B2U) (B3U) (B3G) (B1G)
                 (B2G)
       Virtual   (AG) (AU) (B3U) (B2U) (B1U) (AG) (AG) (B3G) (B1U)
                 (B2U) (B1U) (B3U) (AG) (B2G) (B1G) (B2U) (B2U)
                 (AG) (B3G) (B1U) (B3U) (AU) (B2G) (B1U) (B3G)
                 (AG) (B3U) (AG) (B3G) (AG) (B2G) (B2U) (B1U) (B1G)
                 (B2G) (B2U) (B1U) (AG) (B3U) (AU) (B3G) (B1U)
                 (B2U) (B2U) (B1U) (AG) (B3G) (AG) (B3G) (B2G)
                 (B2U) (AG) (B1U) (B3G) (AG) (B1U) (B2U) (B3G)
                 (B1U) (AG) (B3G) (B3U) (B2U) (B1G) (B2G) (B2U)
                 (B1U) (B1U) (AG) (B3G) (B2U) (AU) (B3U) (AG) (B3G)
                 (B2G) (B2U) (B1U) (B3U) (AG) (B1G) (B2G) (AG)
                 (AU) (B3U) (B3G) (B1U) (B3G) (B2U) (B2G) (B1U)
                 (B3U) (AG) (B1U) (B1G) (B2G) (B1G) (B3U) (B2U)
                 (AU) (AG) (AU) (B2G) (B3G) (B1G) (B1U) (AG) (B2U)
                 (B1U) (B3G) (AU) (B3U) (B2U) (B1U) (B1U) (B3G)
                 (AG) (B2U) (B3G) (AG) (B1U) (AG) (B1G) (AG) (B1U)
                 (AG) (B3G) (B2U) (B2G) (B2U) (B1U) (B3G) (AG)
                 (B3U) (B1U) (AG) (B3G) (B3U) (AU) (B1U) (B1G)
                 (B2U) (B2G) (B1U) (AG) (B2U) (B3G) (AG) (B2U)
                 (B1U) (B3U) (AU) (AG) (B3G) (B2U) (B1U) (B1G)
                 (B2G) (B2G) (AG) (B3G) (B2U) (B1U) (B3U) (B1G)
                 (B2G) (AU) (AU) (B3U) (AG) (B3G) (B2G) (B1U) (B2U)
                 (B2U) (B3G) (B1U) (B3G) (AG) (AG) (B3G) (B2U)
                 (B1U) (B3U) (B1U) (AG) (B3G) (B1G) (B2G) (AU)
                 (B3U) (B1U) (B2U) (B2G) (B1U) (AG) (B2U) (B3G)
                 (AG) (B3G) (AG) (B1U) (B1U) (B2U) (B3G) (AG) (B2U)
                 (B1U) (B3G) (B1U) (AG) (AG) (B2U) (B1U) (AG) (B3G)
                 (B1U) (B3U) (B1G) (B2G) (AU) (B3U) (B2G) (B1U)
                 (B2U) (B2U) (B3G) (AG) (B3G) (AG) (B1U) (B2U)
                 (AG) (B3G) (B1U) (AG) (B2U) (B1U) (B1U) (B3G)
                 (AG)
 The electronic state is 2-B3U.
 Alpha  occ. eigenvalues -- -101.55581-101.55581-101.55581-101.55581-101.54924
 Alpha  occ. eigenvalues -- -101.54924 -10.23740 -10.23738 -10.23678 -10.23677
 Alpha  occ. eigenvalues --  -10.21435 -10.21433  -9.47045  -9.47045  -9.47044
 Alpha  occ. eigenvalues --   -9.47042  -9.46347  -9.46347  -7.23506  -7.23506
 Alpha  occ. eigenvalues --   -7.23506  -7.23506  -7.22791  -7.22791  -7.22542
 Alpha  occ. eigenvalues --   -7.22542  -7.22542  -7.22542  -7.22476  -7.22475
 Alpha  occ. eigenvalues --   -7.22475  -7.22475  -7.21857  -7.21857  -7.21808
 Alpha  occ. eigenvalues --   -7.21808  -0.92629  -0.89185  -0.88224  -0.84944
 Alpha  occ. eigenvalues --   -0.84632  -0.83092  -0.79417  -0.71399  -0.69829
 Alpha  occ. eigenvalues --   -0.60173  -0.58447  -0.51255  -0.49788  -0.46458
 Alpha  occ. eigenvalues --   -0.44268  -0.43642  -0.43198  -0.40835  -0.40023
 Alpha  occ. eigenvalues --   -0.38519  -0.37861  -0.34015  -0.33990  -0.33787
 Alpha  occ. eigenvalues --   -0.33097  -0.32863  -0.32831  -0.31192  -0.30983
 Alpha  occ. eigenvalues --   -0.29851  -0.28588  -0.24578  -0.23732  -0.08938
 Alpha virt. eigenvalues --   -0.04554  -0.01916   0.00256   0.00799   0.00933
 Alpha virt. eigenvalues --    0.03067   0.03214   0.03223   0.03848   0.04535
 Alpha virt. eigenvalues --    0.04911   0.05544   0.06836   0.06858   0.08175
 Alpha virt. eigenvalues --    0.09028   0.09110   0.09190   0.09278   0.09438
 Alpha virt. eigenvalues --    0.09562   0.09657   0.10499   0.10969   0.11014
 Alpha virt. eigenvalues --    0.11392   0.13826   0.14174   0.14602   0.14978
 Alpha virt. eigenvalues --    0.15227   0.15265   0.15883   0.15915   0.18713
 Alpha virt. eigenvalues --    0.18946   0.19171   0.19301   0.19672   0.19828
 Alpha virt. eigenvalues --    0.20052   0.22721   0.23151   0.23201   0.24240
 Alpha virt. eigenvalues --    0.24482   0.25644   0.26459   0.27381   0.27747
 Alpha virt. eigenvalues --    0.28330   0.28851   0.28990   0.29214   0.29652
 Alpha virt. eigenvalues --    0.29764   0.30041   0.30276   0.39041   0.39914
 Alpha virt. eigenvalues --    0.42261   0.43634   0.44816   0.45008   0.45320
 Alpha virt. eigenvalues --    0.45335   0.46348   0.46486   0.46927   0.48151
 Alpha virt. eigenvalues --    0.48641   0.48839   0.49451   0.50006   0.50069
 Alpha virt. eigenvalues --    0.50585   0.50994   0.53461   0.58392   0.58908
 Alpha virt. eigenvalues --    0.59629   0.61014   0.61636   0.61799   0.62642
 Alpha virt. eigenvalues --    0.62868   0.65034   0.65941   0.66588   0.68136
 Alpha virt. eigenvalues --    0.73508   0.75890   0.80213   0.81839   0.81959
 Alpha virt. eigenvalues --    0.85039   0.85680   0.85739   0.85854   0.86360
 Alpha virt. eigenvalues --    0.86471   0.86670   0.86946   0.87036   0.87152
 Alpha virt. eigenvalues --    0.87695   0.88219   0.88521   0.89931   0.91340
 Alpha virt. eigenvalues --    0.91344   0.92917   0.93540   0.93573   0.93757
 Alpha virt. eigenvalues --    0.93990   0.95951   0.96383   0.96412   0.96715
 Alpha virt. eigenvalues --    0.97208   0.98815   1.00882   1.01812   1.06379
 Alpha virt. eigenvalues --    1.07222   1.09879   1.10969   1.19561   1.19767
 Alpha virt. eigenvalues --    1.20047   1.20450   1.24907   1.28066   1.29843
 Alpha virt. eigenvalues --    1.30111   1.30468   1.30740   1.32061   1.32166
 Alpha virt. eigenvalues --    1.32810   1.33099   1.39672   1.47283   1.48903
 Alpha virt. eigenvalues --    1.56378   1.63319   1.67981   1.68623   1.76366
 Alpha virt. eigenvalues --    1.78665   1.79514   1.81322   1.84914   1.84962
 Alpha virt. eigenvalues --    1.85773   1.90288   1.95676   2.11371   2.13202
 Alpha virt. eigenvalues --    2.19720   2.22229   2.23412   2.24683   2.24961
 Alpha virt. eigenvalues --    2.27056   2.29127   2.29144   2.29924   2.31229
 Alpha virt. eigenvalues --    2.34187   2.35386   2.38922   2.39805   2.40594
 Alpha virt. eigenvalues --    2.40819   2.46246   2.46273   2.47248   2.51464
 Alpha virt. eigenvalues --    2.53785   2.53980   2.61556   2.64339   2.66822
 Alpha virt. eigenvalues --    2.67375   2.76474   2.77566   2.87705   2.88042
 Alpha virt. eigenvalues --    3.01391   3.06421   3.07843   3.13588   3.13889
 Alpha virt. eigenvalues --    3.15735   3.22077   3.25625   3.49955   3.55654
 Alpha virt. eigenvalues --    3.69677   3.87897   3.93297   4.79304   9.67435
 Alpha virt. eigenvalues --    9.78936   9.79544   9.82263   9.82390   9.82446
 Alpha virt. eigenvalues --   23.23587  23.71064  23.81900  23.85447  24.01032
 Alpha virt. eigenvalues --   24.02842  25.75744  25.79940  25.80259  25.86224
 Alpha virt. eigenvalues --   25.86734  25.95583  26.03767  26.03785  26.16630
 Alpha virt. eigenvalues --   26.16828  26.17476  26.31094  26.33319  26.54040
 Alpha virt. eigenvalues --   26.54114  26.75118  26.75406  27.04272 215.65536
 Alpha virt. eigenvalues --  215.78354 215.78945 215.82193 215.82203 215.82303
  Beta  occ. eigenvalues -- -101.55580-101.55580-101.55580-101.55580-101.54910
  Beta  occ. eigenvalues -- -101.54910 -10.23679 -10.23676 -10.23617 -10.23616
  Beta  occ. eigenvalues --  -10.20732 -10.20730  -9.47045  -9.47044  -9.47044
  Beta  occ. eigenvalues --   -9.47042  -9.46333  -9.46333  -7.23511  -7.23511
  Beta  occ. eigenvalues --   -7.23511  -7.23511  -7.22813  -7.22813  -7.22534
  Beta  occ. eigenvalues --   -7.22534  -7.22534  -7.22534  -7.22476  -7.22476
  Beta  occ. eigenvalues --   -7.22476  -7.22476  -7.21800  -7.21800  -7.21779
  Beta  occ. eigenvalues --   -7.21779  -0.92193  -0.89026  -0.87832  -0.84918
  Beta  occ. eigenvalues --   -0.84344  -0.82974  -0.79175  -0.71074  -0.69063
  Beta  occ. eigenvalues --   -0.59220  -0.58303  -0.50980  -0.49582  -0.46119
  Beta  occ. eigenvalues --   -0.44209  -0.42932  -0.42380  -0.40655  -0.39875
  Beta  occ. eigenvalues --   -0.38085  -0.36733  -0.33951  -0.33682  -0.33351
  Beta  occ. eigenvalues --   -0.33023  -0.32825  -0.32542  -0.31181  -0.30958
  Beta  occ. eigenvalues --   -0.29205  -0.28574  -0.23733  -0.21075
  Beta virt. eigenvalues --   -0.04329  -0.01611  -0.01016   0.00298   0.00938
  Beta virt. eigenvalues --    0.00961   0.03239   0.03259   0.03498   0.03866
  Beta virt. eigenvalues --    0.04754   0.04955   0.05597   0.06830   0.06841
  Beta virt. eigenvalues --    0.08152   0.09223   0.09276   0.09333   0.09525
  Beta virt. eigenvalues --    0.09576   0.09629   0.10552   0.10824   0.11004
  Beta virt. eigenvalues --    0.11051   0.11472   0.14533   0.14685   0.14955
  Beta virt. eigenvalues --    0.15070   0.15221   0.15287   0.15967   0.16155
  Beta virt. eigenvalues --    0.18731   0.18946   0.19295   0.19609   0.19647
  Beta virt. eigenvalues --    0.19818   0.20093   0.22864   0.23134   0.23408
  Beta virt. eigenvalues --    0.24378   0.24446   0.26003   0.26477   0.27376
  Beta virt. eigenvalues --    0.27964   0.28464   0.28939   0.28961   0.29586
  Beta virt. eigenvalues --    0.29656   0.29795   0.30050   0.30335   0.39053
  Beta virt. eigenvalues --    0.40010   0.42330   0.43717   0.44832   0.45100
  Beta virt. eigenvalues --    0.45399   0.45743   0.46559   0.46723   0.46949
  Beta virt. eigenvalues --    0.48160   0.48626   0.48890   0.49567   0.50072
  Beta virt. eigenvalues --    0.50175   0.50659   0.51080   0.54207   0.58489
  Beta virt. eigenvalues --    0.59223   0.60774   0.61882   0.62001   0.62808
  Beta virt. eigenvalues --    0.62941   0.63345   0.65175   0.66176   0.67398
  Beta virt. eigenvalues --    0.68194   0.73848   0.76203   0.80338   0.82136
  Beta virt. eigenvalues --    0.82412   0.85192   0.85868   0.85931   0.85955
  Beta virt. eigenvalues --    0.86492   0.86669   0.86728   0.86976   0.87213
  Beta virt. eigenvalues --    0.87475   0.87881   0.88295   0.88890   0.90017
  Beta virt. eigenvalues --    0.91562   0.91802   0.92950   0.93611   0.93976
  Beta virt. eigenvalues --    0.93998   0.94553   0.95998   0.96388   0.96505
  Beta virt. eigenvalues --    0.96966   0.97243   0.99875   1.01170   1.02052
  Beta virt. eigenvalues --    1.06743   1.07241   1.09937   1.11241   1.19604
  Beta virt. eigenvalues --    1.19987   1.20162   1.20670   1.25696   1.28257
  Beta virt. eigenvalues --    1.30332   1.30490   1.30496   1.31852   1.32295
  Beta virt. eigenvalues --    1.32491   1.33190   1.34144   1.40063   1.48429
  Beta virt. eigenvalues --    1.49059   1.56408   1.63460   1.68076   1.69012
  Beta virt. eigenvalues --    1.78078   1.79103   1.79742   1.81633   1.86140
  Beta virt. eigenvalues --    1.86575   1.86884   1.90885   1.96688   2.13010
  Beta virt. eigenvalues --    2.13450   2.20011   2.22281   2.23500   2.24719
  Beta virt. eigenvalues --    2.25145   2.28178   2.29315   2.29378   2.30181
  Beta virt. eigenvalues --    2.31276   2.34387   2.36303   2.38940   2.39926
  Beta virt. eigenvalues --    2.40647   2.40926   2.46324   2.46552   2.47281
  Beta virt. eigenvalues --    2.51643   2.53805   2.54024   2.62878   2.64519
  Beta virt. eigenvalues --    2.66969   2.67370   2.76967   2.79769   2.88525
  Beta virt. eigenvalues --    2.90050   3.01651   3.06652   3.09237   3.13966
  Beta virt. eigenvalues --    3.14155   3.15862   3.22253   3.25872   3.50192
  Beta virt. eigenvalues --    3.56196   3.70005   3.88239   3.94010   4.79995
  Beta virt. eigenvalues --    9.67448   9.78940   9.79566   9.82266   9.82408
  Beta virt. eigenvalues --    9.82475  23.23866  23.71140  23.82666  23.86006
  Beta virt. eigenvalues --   24.01115  24.02938  25.75783  25.79951  25.80329
  Beta virt. eigenvalues --   25.86234  25.86809  25.95626  26.03766  26.03792
  Beta virt. eigenvalues --   26.16634  26.16834  26.17476  26.31099  26.33313
  Beta virt. eigenvalues --   26.54033  26.54113  26.75115  26.75403  27.04270
  Beta virt. eigenvalues --  215.65541 215.78354 215.78953 215.82199 215.82203
  Beta virt. eigenvalues --  215.82313
          Condensed to atoms (all electrons):
               1          2          3          4          5          6
     1  C   17.240929  -1.941995  -4.301501   2.650114  -4.301501  -1.941995
     2  C   -1.941995  16.140215  -2.541366  -4.301501   4.306884  -4.465779
     3  C   -4.301501  -2.541366  16.140215  -1.941995  -4.465779   4.306884
     4  C    2.650114  -4.301501  -1.941995  17.240929  -1.941995  -4.301501
     5  C   -4.301501   4.306884  -4.465779  -1.941995  16.140215  -2.541366
     6  C   -1.941995  -4.465779   4.306884  -4.301501  -2.541366  16.140215
     7  Cl  -0.265612   0.020379  -0.463114   0.443012  -0.463114   0.020379
     8  Cl  -0.131356  -0.041251   0.022266  -0.335685   0.499116  -0.583433
     9  Cl  -0.335685   0.022266  -0.041251  -0.131356  -0.583433   0.499116
    10  Cl   0.443012  -0.463114   0.020379  -0.265612   0.020379  -0.463114
    11  Cl  -0.335685   0.499116  -0.583433  -0.131356  -0.041251   0.022266
    12  Cl  -0.131356  -0.583433   0.499116  -0.335685   0.022266  -0.041251
               7          8          9         10         11         12
     1  C   -0.265612  -0.131356  -0.335685   0.443012  -0.335685  -0.131356
     2  C    0.020379  -0.041251   0.022266  -0.463114   0.499116  -0.583433
     3  C   -0.463114   0.022266  -0.041251   0.020379  -0.583433   0.499116
     4  C    0.443012  -0.335685  -0.131356  -0.265612  -0.131356  -0.335685
     5  C   -0.463114   0.499116  -0.583433   0.020379  -0.041251   0.022266
     6  C    0.020379  -0.583433   0.499116  -0.463114   0.022266  -0.041251
     7  Cl  17.744115  -0.240252  -0.022322   0.018476  -0.022322  -0.240252
     8  Cl  -0.240252  17.596981  -0.247899  -0.022322   0.015411  -0.020368
     9  Cl  -0.022322  -0.247899  17.596981  -0.240252  -0.020368   0.015411
    10  Cl   0.018476  -0.022322  -0.240252  17.744115  -0.240252  -0.022322
    11  Cl  -0.022322   0.015411  -0.020368  -0.240252  17.596981  -0.247899
    12  Cl  -0.240252  -0.020368   0.015411  -0.022322  -0.247899  17.596981
          Atomic-Atomic Spin Densities.
               1          2          3          4          5          6
     1  C    0.881231  -0.103923  -0.014683  -0.130394  -0.014683  -0.103923
     2  C   -0.103923   0.069135   0.118201  -0.014683  -0.056222   0.014096
     3  C   -0.014683   0.118201   0.069135  -0.103923   0.014096  -0.056222
     4  C   -0.130394  -0.014683  -0.103923   0.881231  -0.103923  -0.014683
     5  C   -0.014683  -0.056222   0.014096  -0.103923   0.069135   0.118201
     6  C   -0.103923   0.014096  -0.056222  -0.014683   0.118201   0.069135
     7  Cl  -0.202991   0.060142   0.016313  -0.037778   0.016313   0.060142
     8  Cl   0.063101  -0.034737  -0.029730   0.017275  -0.010156  -0.008343
     9  Cl   0.017275  -0.029730  -0.034737   0.063101  -0.008343  -0.010156
    10  Cl  -0.037778   0.016313   0.060142  -0.202991   0.060142   0.016313
    11  Cl   0.017275  -0.010156  -0.008343   0.063101  -0.034737  -0.029730
    12  Cl   0.063101  -0.008343  -0.010156   0.017275  -0.029730  -0.034737
               7          8          9         10         11         12
     1  C   -0.202991   0.063101   0.017275  -0.037778   0.017275   0.063101
     2  C    0.060142  -0.034737  -0.029730   0.016313  -0.010156  -0.008343
     3  C    0.016313  -0.029730  -0.034737   0.060142  -0.008343  -0.010156
     4  C   -0.037778   0.017275   0.063101  -0.202991   0.063101   0.017275
     5  C    0.016313  -0.010156  -0.008343   0.060142  -0.034737  -0.029730
     6  C    0.060142  -0.008343  -0.010156   0.016313  -0.029730  -0.034737
     7  Cl   0.134038  -0.013043  -0.000331   0.000627  -0.000331  -0.013043
     8  Cl  -0.013043   0.013102   0.005548  -0.000331   0.000302   0.000085
     9  Cl  -0.000331   0.005548   0.013102  -0.013043   0.000085   0.000302
    10  Cl   0.000627  -0.000331  -0.013043   0.134038  -0.013043  -0.000331
    11  Cl  -0.000331   0.000302   0.000085  -0.013043   0.013102   0.005548
    12  Cl  -0.013043   0.000085   0.000302  -0.000331   0.005548   0.013102
 Mulliken charges and spin densities:
               1          2
     1  C   -0.647369   0.433611
     2  C   -0.650421   0.020093
     3  C   -0.650421   0.020093
     4  C   -0.647369   0.433611
     5  C   -0.650421   0.020093
     6  C   -0.650421   0.020093
     7  Cl   0.470627   0.020057
     8  Cl   0.488791   0.003073
     9  Cl   0.488791   0.003073
    10  Cl   0.470627   0.020057
    11  Cl   0.488791   0.003073
    12  Cl   0.488791   0.003073
 Sum of Mulliken charges =  -1.00000   1.00000
 Mulliken charges and spin densities with hydrogens summed into heavy atoms:
               1          2
     1  C   -0.647369   0.433611
     2  C   -0.650421   0.020093
     3  C   -0.650421   0.020093
     4  C   -0.647369   0.433611
     5  C   -0.650421   0.020093
     6  C   -0.650421   0.020093
     7  Cl   0.470627   0.020057
     8  Cl   0.488791   0.003073
     9  Cl   0.488791   0.003073
    10  Cl   0.470627   0.020057
    11  Cl   0.488791   0.003073
    12  Cl   0.488791   0.003073
 APT charges:
               1
     1  C   -0.416691
     2  C    0.523839
     3  C    0.523839
     4  C   -0.416692
     5  C    0.523839
     6  C    0.523839
     7  Cl  -0.316798
     8  Cl  -0.407094
     9  Cl  -0.407094
    10  Cl  -0.316798
    11  Cl  -0.407094
    12  Cl  -0.407094
 Sum of APT charges =  -1.00000
 APT charges with hydrogens summed into heavy atoms:
               1
     1  C   -0.416691
     2  C    0.523839
     3  C    0.523839
     4  C   -0.416692
     5  C    0.523839
     6  C    0.523839
     7  Cl  -0.316798
     8  Cl  -0.407094
     9  Cl  -0.407094
    10  Cl  -0.316798
    11  Cl  -0.407094
    12  Cl  -0.407094
 Electronic spatial extent (au):  <R**2>=           4206.5645
 Charge=             -1.0000 electrons
 Dipole moment (field-independent basis, Debye):
    X=             -0.0000    Y=              0.0000    Z=              0.0000  Tot=              0.0000
 Quadrupole moment (field-independent basis, Debye-Ang):
   XX=           -115.6567   YY=           -129.5085   ZZ=           -134.5941
   XY=             -0.0000   XZ=              0.0000   YZ=             -0.0000
 Traceless Quadrupole moment (field-independent basis, Debye-Ang):
   XX=             10.9298   YY=             -2.9221   ZZ=             -8.0077
   XY=             -0.0000   XZ=              0.0000   YZ=             -0.0000
 Octapole moment (field-independent basis, Debye-Ang**2):
  XXX=              0.0000  YYY=              0.0000  ZZZ=              0.0000  XYY=              0.0000
  XXY=              0.0000  XXZ=              0.0000  XZZ=              0.0000  YZZ=             -0.0000
  YYZ=              0.0000  XYZ=              0.0000
 Hexadecapole moment (field-independent basis, Debye-Ang**3):
 XXXX=           -141.7384 YYYY=          -2724.8345 ZZZZ=          -2796.5318 XXXY=             -0.0000
 XXXZ=              0.0000 YYYX=             -0.0000 YYYZ=             -0.0000 ZZZX=              0.0000
 ZZZY=              0.0000 XXYY=           -484.9350 XXZZ=           -492.3050 YYZZ=           -908.2914
 XXYZ=              0.0000 YYXZ=              0.0000 ZZXY=             -0.0000
 N-N= 1.325463308833D+03 E-N=-9.766908923331D+03  KE= 2.982687915756D+03
 Symmetry AG   KE= 8.530754774946D+02
 Symmetry B1G  KE= 4.819313973728D+01
 Symmetry B2G  KE= 9.402548504471D+01
 Symmetry B3G  KE= 4.967589395198D+02
 Symmetry AU   KE= 4.563720628901D+01
 Symmetry B1U  KE= 8.514330796494D+02
 Symmetry B2U  KE= 4.986621410108D+02
 Symmetry B3U  KE= 9.490244700993D+01
 Symmetry AG   SP= 9.446323186017D-15
 Symmetry B1G  SP= 1.263769769172D-15
 Symmetry B2G  SP=-5.666008366157D-15
 Symmetry B3G  SP=-1.407653985372D-15
 Symmetry AU   SP=-1.319581511220D-15
 Symmetry B1U  SP= 2.530625861705D-15
 Symmetry B2U  SP=-1.193412982494D-14
 Symmetry B3U  SP= 1.000000000000D+00
  Exact polarizability: 118.501   0.000 240.199   0.000  -0.000 279.257
 Approx polarizability: 132.638   0.000 257.983  -0.000   0.000 306.187
                          Isotropic Fermi Contact Couplings
        Atom                 a.u.       MegaHertz       Gauss      10(-4) cm-1
     1  C(13)              0.03689      41.46583      14.79604      13.83151
     2  C(13)             -0.01245     -13.99692      -4.99445      -4.66887
     3  C(13)             -0.01245     -13.99692      -4.99445      -4.66887
     4  C(13)              0.03689      41.46583      14.79604      13.83151
     5  C(13)             -0.01245     -13.99692      -4.99445      -4.66887
     6  C(13)             -0.01245     -13.99692      -4.99445      -4.66887
     7  Cl(35)             0.00304       1.33462       0.47622       0.44518
     8  Cl(35)            -0.00068      -0.29718      -0.10604      -0.09913
     9  Cl(35)            -0.00068      -0.29718      -0.10604      -0.09913
    10  Cl(35)             0.00304       1.33462       0.47622       0.44518
    11  Cl(35)            -0.00068      -0.29718      -0.10604      -0.09913
    12  Cl(35)            -0.00068      -0.29718      -0.10604      -0.09913
 --------------------------------------------------------
       Center         ----  Spin Dipole Couplings  ----
                      3XX-RR        3YY-RR        3ZZ-RR
 --------------------------------------------------------
     1   Atom        0.578302     -0.294255     -0.284047
     2   Atom        0.074296     -0.035426     -0.038869
     3   Atom        0.074296     -0.035426     -0.038869
     4   Atom        0.578302     -0.294255     -0.284047
     5   Atom        0.074296     -0.035426     -0.038869
     6   Atom        0.074296     -0.035426     -0.038869
     7   Atom        0.275987     -0.074777     -0.201210
     8   Atom        0.030725     -0.015693     -0.015031
     9   Atom        0.030725     -0.015693     -0.015031
    10   Atom        0.275987     -0.074777     -0.201210
    11   Atom        0.030725     -0.015693     -0.015031
    12   Atom        0.030725     -0.015693     -0.015031
 --------------------------------------------------------
                        XY            XZ            YZ
 --------------------------------------------------------
     1   Atom        0.000000      0.000000     -0.000000
     2   Atom       -0.000000     -0.000000     -0.005028
     3   Atom       -0.000000      0.000000      0.005028
     4   Atom        0.000000     -0.000000      0.000000
     5   Atom        0.000000     -0.000000     -0.005028
     6   Atom        0.000000     -0.000000      0.005028
     7   Atom        0.000000     -0.000000      0.000000
     8   Atom        0.000000     -0.000000     -0.006608
     9   Atom       -0.000000      0.000000      0.006608
    10   Atom        0.000000      0.000000     -0.000000
    11   Atom        0.000000      0.000000     -0.006608
    12   Atom        0.000000     -0.000000      0.006608
 --------------------------------------------------------


 ---------------------------------------------------------------------------------
              Anisotropic Spin Dipole Couplings in Principal Axis System
 ---------------------------------------------------------------------------------

       Atom             a.u.   MegaHertz   Gauss  10(-4) cm-1        Axes

              Baa    -0.2943   -39.486   -14.090   -13.171  0.0000  1.0000 -0.0000
     1 C(13)  Bbb    -0.2840   -38.116   -13.601   -12.714  0.0000  0.0000  1.0000
              Bcc     0.5783    77.603    27.691    25.885  1.0000 -0.0000  0.0000
 
              Baa    -0.0425    -5.698    -2.033    -1.901  0.0000  0.5814  0.8136
     2 C(13)  Bbb    -0.0318    -4.272    -1.524    -1.425  0.0000  0.8136 -0.5814
              Bcc     0.0743     9.970     3.557     3.326  1.0000 -0.0000  0.0000
 
              Baa    -0.0425    -5.698    -2.033    -1.901 -0.0000 -0.5814  0.8136
     3 C(13)  Bbb    -0.0318    -4.272    -1.524    -1.425  0.0000  0.8136  0.5814
              Bcc     0.0743     9.970     3.557     3.326  1.0000 -0.0000  0.0000
 
              Baa    -0.2943   -39.486   -14.090   -13.171 -0.0000  1.0000 -0.0000
     4 C(13)  Bbb    -0.2840   -38.116   -13.601   -12.714  0.0000  0.0000  1.0000
              Bcc     0.5783    77.603    27.691    25.885  1.0000  0.0000 -0.0000
 
              Baa    -0.0425    -5.698    -2.033    -1.901 -0.0000  0.5814  0.8136
     5 C(13)  Bbb    -0.0318    -4.272    -1.524    -1.425 -0.0000  0.8136 -0.5814
              Bcc     0.0743     9.970     3.557     3.326  1.0000  0.0000  0.0000
 
              Baa    -0.0425    -5.698    -2.033    -1.901  0.0000 -0.5814  0.8136
     6 C(13)  Bbb    -0.0318    -4.272    -1.524    -1.425 -0.0000  0.8136  0.5814
              Bcc     0.0743     9.970     3.557     3.326  1.0000  0.0000  0.0000
 
              Baa    -0.2012   -10.531    -3.758    -3.513  0.0000  0.0000  1.0000
     7 Cl(35) Bbb    -0.0748    -3.914    -1.396    -1.305 -0.0000  1.0000  0.0000
              Bcc     0.2760    14.444     5.154     4.818  1.0000 -0.0000  0.0000
 
              Baa    -0.0220    -1.150    -0.410    -0.384  0.0000  0.7246  0.6892
     8 Cl(35) Bbb    -0.0087    -0.458    -0.163    -0.153 -0.0000 -0.6892  0.7246
              Bcc     0.0307     1.608     0.574     0.536  1.0000 -0.0000  0.0000
 
              Baa    -0.0220    -1.150    -0.410    -0.384  0.0000  0.7246 -0.6892
     9 Cl(35) Bbb    -0.0087    -0.458    -0.163    -0.153  0.0000  0.6892  0.7246
              Bcc     0.0307     1.608     0.574     0.536  1.0000 -0.0000  0.0000
 
              Baa    -0.2012   -10.531    -3.758    -3.513 -0.0000  0.0000  1.0000
    10 Cl(35) Bbb    -0.0748    -3.914    -1.396    -1.305  0.0000  1.0000 -0.0000
              Bcc     0.2760    14.444     5.154     4.818  1.0000 -0.0000  0.0000
 
              Baa    -0.0220    -1.150    -0.410    -0.384  0.0000  0.7246  0.6892
    11 Cl(35) Bbb    -0.0087    -0.458    -0.163    -0.153 -0.0000 -0.6892  0.7246
              Bcc     0.0307     1.608     0.574     0.536  1.0000 -0.0000  0.0000
 
              Baa    -0.0220    -1.150    -0.410    -0.384 -0.0000  0.7246 -0.6892
    12 Cl(35) Bbb    -0.0087    -0.458    -0.163    -0.153 -0.0000  0.6892  0.7246
              Bcc     0.0307     1.608     0.574     0.536  1.0000  0.0000  0.0000
 

 ---------------------------------------------------------------------------------

 No NMR shielding tensors so no spin-rotation constants.
 Leave Link  601 at Mon Sep 28 02:49:55 2026, MaxMem=  1610612736 cpu:               2.4 elap:               0.3
 (Enter /share/software/user/restricted/gaussian/g16.B01/l701.exe)
 ... and contract with generalized density number  0.
 Compute integral second derivatives.
 D2PCM: PCM CHGder 2nd derivatives, FixD1E=F FixD2E=F DoIter=F DoCFld=F I1PDM=0
 GePol: Maximum number of non-zero 2nd derivatives   =     320
 Leave Link  701 at Mon Sep 28 02:50:01 2026, MaxMem=  1610612736 cpu:              46.6 elap:               5.8
 (Enter /share/software/user/restricted/gaussian/g16.B01/l702.exe)
 L702 exits ... SP integral derivatives will be done elsewhere.
 Leave Link  702 at Mon Sep 28 02:50:01 2026, MaxMem=  1610612736 cpu:               0.1 elap:               0.0
 (Enter /share/software/user/restricted/gaussian/g16.B01/l703.exe)
 Integral derivatives from FoFJK, PRISM(SPDF).
 Compute integral second derivatives, UseDBF=F ICtDFT=           0.
 Calling FoFJK, ICntrl=    100127 FMM=F ISym2X=1 I1Cent= 0 IOpClX= 1 NMat=1 NMatS=1 NMatT=0.
 FoFJK:  IHMeth= 1 ICntrl=  100127 DoSepK=F KAlg= 0 I1Cent=           0 FoldK=F
 IRaf=         0 NMat=       1 IRICut=       1 DoRegI=T DoRafI=F ISym2E= 1 IDoP0=0 IntGTp=1.
 FoFCou: FMM=F IPFlag=           0 FMFlag=      100000 FMFlg1=         800
         NFxFlg=           0 DoJE=F BraDBF=F KetDBF=F FulRan=T
         wScrn=  0.000000 ICntrl=    100127 IOpCl=  1 I1Cent=           0 NGrid=           0
         NMat0=    1 NMatS0=      1 NMatT0=    0 NMatD0=    1 NMtDS0=    0 NMtDT0=    0
 Petite list used in FoFCou.
 Leave Link  703 at Mon Sep 28 02:50:17 2026, MaxMem=  1610612736 cpu:             126.8 elap:              15.9
 (Enter /share/software/user/restricted/gaussian/g16.B01/l716.exe)
 Dipole        =-2.99489707D-17 0.00000000D+00 1.28785871D-14
 Polarizability= 1.18501300D+02 4.03797489D-13 2.40199067D+02
                 5.90621534D-12-3.70026384D-07 2.79256520D+02
 Full mass-weighted force constant matrix:
 Low frequencies ----1340.5105 -240.7703 -239.5039  -65.5284  -12.5382   -5.8652
 Low frequencies ---   -0.0017   -0.0014    0.0007
 ******    4 imaginary frequencies (negative Signs) ****** 
 Diagonal vibrational polarizability:
       22.7772701      16.5251553      12.6717439
 Harmonic frequencies (cm**-1), IR intensities (KM/Mole), Raman scattering
 activities (A**4/AMU), depolarization ratios for plane and unpolarized
 incident light, reduced masses (AMU), force constants (mDyne/A),
 and normal coordinates:
                      1                      2                      3
                     B3U                    B3G                    B2G
 Frequencies --  -1340.5105              -240.7703              -239.5028
 Red. masses --     13.3455                13.1894                13.4783
 Frc consts  --     14.1295                 0.4505                 0.4555
 IR Inten    --     38.0437                 0.0000                 0.0000
  Atom  AN      X      Y      Z        X      Y      Z        X      Y      Z
     1   6     0.58   0.00   0.00     0.00   0.52  -0.00     0.66  -0.00   0.00
     2   6    -0.26  -0.00   0.00     0.00  -0.29   0.13     0.13   0.00  -0.00
     3   6    -0.26   0.00   0.00     0.00   0.29   0.13    -0.13  -0.00  -0.00
     4   6     0.58  -0.00   0.00    -0.00  -0.52  -0.00    -0.66   0.00  -0.00
     5   6    -0.26   0.00  -0.00     0.00   0.29  -0.13    -0.13  -0.00   0.00
     6   6    -0.26  -0.00  -0.00     0.00  -0.29  -0.13     0.13   0.00   0.00
     7  17    -0.15  -0.00  -0.00     0.00   0.08  -0.00    -0.17  -0.00   0.00
     8  17     0.06  -0.00  -0.00    -0.00  -0.10  -0.01     0.05   0.00  -0.00
     9  17     0.06   0.00  -0.00    -0.00   0.10  -0.01    -0.05  -0.00   0.00
    10  17    -0.15   0.00  -0.00     0.00  -0.08  -0.00     0.17  -0.00  -0.00
    11  17     0.06  -0.00   0.00    -0.00   0.10   0.01    -0.05  -0.00  -0.00
    12  17     0.06   0.00   0.00    -0.00  -0.10   0.01     0.05   0.00  -0.00
                      4                      5                      6
                     B3U                    AU                     B2G
 Frequencies --    -65.5284                67.3769               101.4714
 Red. masses --     23.0014                34.4152                28.9098
 Frc consts  --      0.0582                 0.0920                 0.1754
 IR Inten    --      3.4076                 0.0000                 0.0000
  Atom  AN      X      Y      Z        X      Y      Z        X      Y      Z
     1   6     0.49  -0.00   0.00     0.00  -0.00  -0.00     0.35   0.00   0.00
     2   6     0.10   0.00  -0.00     0.08  -0.00  -0.00     0.07  -0.00   0.00
     3   6     0.10  -0.00  -0.00    -0.08  -0.00   0.00    -0.07  -0.00  -0.00
     4   6     0.49   0.00   0.00    -0.00  -0.00   0.00    -0.35   0.00  -0.00
     5   6     0.10  -0.00   0.00     0.08   0.00   0.00    -0.07   0.00   0.00
     6   6     0.10   0.00   0.00    -0.08   0.00  -0.00     0.07   0.00  -0.00
     7  17     0.30  -0.00  -0.00    -0.00   0.00  -0.00     0.30  -0.00   0.00
     8  17    -0.27   0.00  -0.00     0.49  -0.00  -0.00    -0.37   0.00  -0.00
     9  17    -0.27  -0.00  -0.00    -0.49  -0.00   0.00     0.37   0.00   0.00
    10  17     0.30   0.00  -0.00     0.00   0.00   0.00    -0.30  -0.00  -0.00
    11  17    -0.27  -0.00   0.00     0.49   0.00   0.00     0.37   0.00  -0.00
    12  17    -0.27   0.00   0.00    -0.49   0.00  -0.00    -0.37   0.00  -0.00
                      7                      8                      9
                     B3U                    B1U                    B2U
 Frequencies --    162.0101               205.8978               209.7043
 Red. masses --     15.9053                29.7831                29.5920
 Frc consts  --      0.2460                 0.7439                 0.7667
 IR Inten    --      0.8306                 5.8338                 0.5237
  Atom  AN      X      Y      Z        X      Y      Z        X      Y      Z
     1   6    -0.21  -0.00   0.00     0.00   0.00   0.23     0.00  -0.16  -0.00
     2   6    -0.43  -0.00   0.00     0.00   0.04   0.17     0.00  -0.21  -0.03
     3   6    -0.43   0.00   0.00     0.00  -0.04   0.17    -0.00  -0.21   0.03
     4   6    -0.21   0.00   0.00     0.00  -0.00   0.23    -0.00  -0.16   0.00
     5   6    -0.43   0.00   0.00    -0.00   0.04   0.17    -0.00  -0.21  -0.03
     6   6    -0.43  -0.00   0.00    -0.00  -0.04   0.17     0.00  -0.21   0.03
     7  17     0.29   0.00   0.00    -0.00   0.00   0.28     0.00   0.48  -0.00
     8  17     0.04   0.00  -0.00    -0.00   0.31  -0.24    -0.00  -0.14  -0.24
     9  17     0.04  -0.00  -0.00    -0.00  -0.31  -0.24     0.00  -0.14   0.24
    10  17     0.29  -0.00   0.00    -0.00  -0.00   0.28    -0.00   0.48   0.00
    11  17     0.04   0.00  -0.00     0.00   0.31  -0.24     0.00  -0.14  -0.24
    12  17     0.04  -0.00  -0.00     0.00  -0.31  -0.24    -0.00  -0.14   0.24
                     10                     11                     12
                     AG                     B1G                    B3G
 Frequencies --    219.0517               220.2685               227.7001
 Red. masses --     34.7010                12.5314                32.2913
 Frc consts  --      0.9810                 0.3582                 0.9864
 IR Inten    --      0.0000                 0.0000                 0.0000
  Atom  AN      X      Y      Z        X      Y      Z        X      Y      Z
     1   6     0.00  -0.00  -0.06     0.00   0.00  -0.00     0.00  -0.20  -0.00
     2   6     0.00   0.03   0.01     0.49   0.00  -0.00     0.00   0.09  -0.05
     3   6    -0.00   0.03  -0.01     0.49  -0.00  -0.00     0.00  -0.09  -0.05
     4   6    -0.00  -0.00   0.06     0.00  -0.00  -0.00     0.00   0.20  -0.00
     5   6    -0.00  -0.03  -0.01    -0.49   0.00  -0.00     0.00  -0.09   0.05
     6   6     0.00  -0.03   0.01    -0.49  -0.00  -0.00     0.00   0.09   0.05
     7  17     0.00   0.00  -0.06    -0.00  -0.00  -0.00    -0.00   0.54  -0.00
     8  17    -0.00  -0.23   0.44    -0.08  -0.00   0.00    -0.00  -0.10   0.25
     9  17     0.00  -0.23  -0.44    -0.08   0.00   0.00    -0.00   0.10   0.25
    10  17    -0.00   0.00   0.06    -0.00   0.00  -0.00    -0.00  -0.54  -0.00
    11  17     0.00   0.23  -0.44     0.08  -0.00   0.00    -0.00   0.10  -0.25
    12  17    -0.00   0.23   0.44     0.08   0.00   0.00    -0.00  -0.10  -0.25
                     13                     14                     15
                     B2U                    AG                     B3G
 Frequencies --    232.8760               301.5779               331.1298
 Red. masses --     34.7279                27.8762                25.0322
 Frc consts  --      1.1096                 1.4938                 1.6171
 IR Inten    --      0.0001                 0.0000                 0.0000
  Atom  AN      X      Y      Z        X      Y      Z        X      Y      Z
     1   6     0.00   0.03   0.00    -0.00  -0.00   0.28    -0.00   0.32  -0.00
     2   6     0.00   0.05   0.00    -0.00  -0.20   0.02    -0.00   0.05   0.24
     3   6    -0.00   0.05  -0.00     0.00  -0.20  -0.02    -0.00  -0.05   0.24
     4   6    -0.00   0.03  -0.00     0.00  -0.00  -0.28    -0.00  -0.32  -0.00
     5   6    -0.00   0.05   0.00     0.00   0.20  -0.02    -0.00  -0.05  -0.24
     6   6     0.00   0.05  -0.00    -0.00   0.20   0.02    -0.00   0.05  -0.24
     7  17     0.00   0.32   0.00     0.00   0.00   0.45    -0.00  -0.00  -0.00
     8  17    -0.00  -0.18   0.41     0.00  -0.25  -0.09     0.00   0.33   0.18
     9  17     0.00  -0.18  -0.41    -0.00  -0.25   0.09     0.00  -0.33   0.18
    10  17    -0.00   0.32  -0.00    -0.00   0.00  -0.45    -0.00   0.00  -0.00
    11  17     0.00  -0.18   0.41    -0.00   0.25   0.09     0.00  -0.33  -0.18
    12  17    -0.00  -0.18  -0.41     0.00   0.25  -0.09     0.00   0.33  -0.18
                     16                     17                     18
                     AG                     B1U                    B2G
 Frequencies --    352.1280               377.7175               502.7446
 Red. masses --     32.5044                33.3652                12.0481
 Frc consts  --      2.3746                 2.8046                 1.7942
 IR Inten    --      0.0000                 0.0472                 0.0000
  Atom  AN      X      Y      Z        X      Y      Z        X      Y      Z
     1   6     0.00  -0.00   0.15    -0.00   0.00   0.11    -0.20  -0.00  -0.00
     2   6     0.00   0.11   0.05     0.00  -0.09  -0.06     0.48   0.00  -0.00
     3   6    -0.00   0.11  -0.05     0.00   0.09  -0.06    -0.48  -0.00   0.00
     4   6    -0.00  -0.00  -0.15    -0.00  -0.00   0.11     0.20  -0.00   0.00
     5   6     0.00  -0.11  -0.05    -0.00  -0.09  -0.06    -0.48  -0.00  -0.00
     6   6    -0.00  -0.11   0.05    -0.00   0.09  -0.06     0.48  -0.00   0.00
     7  17    -0.00   0.00   0.42     0.00  -0.00   0.40    -0.03  -0.00   0.00
     8  17     0.00   0.31   0.19     0.00  -0.33  -0.20    -0.01   0.00  -0.00
     9  17    -0.00   0.31  -0.19     0.00   0.33  -0.20     0.01   0.00   0.00
    10  17     0.00   0.00  -0.42     0.00   0.00   0.40     0.03  -0.00  -0.00
    11  17     0.00  -0.31  -0.19     0.00  -0.33  -0.20     0.01   0.00   0.00
    12  17    -0.00  -0.31   0.19     0.00   0.33  -0.20    -0.01   0.00  -0.00
                     19                     20                     21
                     AU                     B3G                    B2U
 Frequencies --    527.7536               601.7677               642.3899
 Red. masses --     12.0666                12.5338                15.5421
 Frc consts  --      1.9801                 2.6742                 3.7788
 IR Inten    --      0.0000                 0.0000               129.3824
  Atom  AN      X      Y      Z        X      Y      Z        X      Y      Z
     1   6     0.00  -0.00   0.00    -0.00   0.41  -0.00    -0.00   0.41   0.00
     2   6     0.50   0.00   0.00    -0.00   0.20  -0.35     0.00   0.35  -0.03
     3   6    -0.50   0.00  -0.00    -0.00  -0.20  -0.35    -0.00   0.35   0.03
     4   6    -0.00  -0.00  -0.00    -0.00  -0.41  -0.00     0.00   0.41  -0.00
     5   6     0.50  -0.00  -0.00    -0.00  -0.20   0.35    -0.00   0.35  -0.03
     6   6    -0.50  -0.00   0.00    -0.00   0.20   0.35     0.00   0.35   0.03
     7  17    -0.00  -0.00  -0.00     0.00  -0.06   0.00     0.00  -0.03  -0.00
     8  17    -0.03  -0.00  -0.00    -0.00  -0.03   0.06    -0.00  -0.18  -0.08
     9  17     0.03  -0.00   0.00    -0.00   0.03   0.06     0.00  -0.18   0.08
    10  17     0.00  -0.00   0.00     0.00   0.06   0.00    -0.00  -0.03   0.00
    11  17    -0.03   0.00   0.00    -0.00   0.03  -0.06     0.00  -0.18  -0.08
    12  17     0.03   0.00  -0.00    -0.00  -0.03  -0.06    -0.00  -0.18   0.08
                     22                     23                     24
                     B1U                    AG                     B3G
 Frequencies --    649.7172               805.7664               841.7547
 Red. masses --     15.3498                13.1829                12.9587
 Frc consts  --      3.8177                 5.0429                 5.4098
 IR Inten    --    138.9509                 0.0000                 0.0000
  Atom  AN      X      Y      Z        X      Y      Z        X      Y      Z
     1   6    -0.00   0.00   0.31    -0.00  -0.00   0.48    -0.00   0.15  -0.00
     2   6     0.00  -0.05   0.40     0.00  -0.35   0.05    -0.00   0.37   0.30
     3   6     0.00   0.05   0.40    -0.00  -0.35  -0.05    -0.00  -0.37   0.30
     4   6    -0.00  -0.00   0.31     0.00  -0.00  -0.48    -0.00  -0.15  -0.00
     5   6    -0.00  -0.05   0.40     0.00   0.35  -0.05    -0.00  -0.37  -0.30
     6   6    -0.00   0.05   0.40    -0.00   0.35   0.05    -0.00   0.37  -0.30
     7  17     0.00  -0.00  -0.21     0.00   0.00  -0.12    -0.00   0.01  -0.00
     8  17    -0.00  -0.08  -0.09    -0.00   0.06   0.04     0.00  -0.09  -0.05
     9  17    -0.00   0.08  -0.09     0.00   0.06  -0.04     0.00   0.09  -0.05
    10  17     0.00   0.00  -0.21    -0.00   0.00   0.12    -0.00  -0.01  -0.00
    11  17     0.00  -0.08  -0.09    -0.00  -0.06  -0.04     0.00   0.09   0.05
    12  17     0.00   0.08  -0.09     0.00  -0.06   0.04     0.00  -0.09   0.05
                     25                     26                     27
                     B1U                    AG                     B1U
 Frequencies --   1033.7958              1170.0567              1202.4931
 Red. masses --     12.1987                12.3208                12.1156
 Frc consts  --      7.6812                 9.9381                10.3219
 IR Inten    --      3.7505                 0.0000                 0.3748
  Atom  AN      X      Y      Z        X      Y      Z        X      Y      Z
     1   6     0.00  -0.00  -0.37     0.00  -0.00   0.47    -0.00   0.00   0.47
     2   6    -0.00   0.38   0.18    -0.00   0.34   0.15    -0.00   0.32  -0.19
     3   6    -0.00  -0.38   0.18     0.00   0.34  -0.15    -0.00  -0.32  -0.19
     4   6     0.00   0.00  -0.37    -0.00  -0.00  -0.47    -0.00  -0.00   0.47
     5   6     0.00   0.38   0.18    -0.00  -0.34  -0.15     0.00   0.32  -0.19
     6   6     0.00  -0.38   0.18     0.00  -0.34   0.15     0.00  -0.32  -0.19
     7  17    -0.00   0.00   0.04    -0.00   0.00  -0.05    -0.00  -0.00  -0.04
     8  17    -0.00  -0.03  -0.02     0.00  -0.04  -0.02     0.00  -0.02   0.00
     9  17    -0.00   0.03  -0.02    -0.00  -0.04   0.02     0.00   0.02   0.00
    10  17    -0.00  -0.00   0.04     0.00   0.00   0.05    -0.00   0.00  -0.04
    11  17    -0.00  -0.03  -0.02     0.00   0.04   0.02     0.00  -0.02   0.00
    12  17    -0.00   0.03  -0.02    -0.00   0.04  -0.02     0.00   0.02   0.00
                     28                     29                     30
                     B2U                    B2U                    AG
 Frequencies --   1253.9568              1447.0864              1590.7206
 Red. masses --     12.0343                12.0215                12.0026
 Frc consts  --     11.1490                14.8320                17.8943
 IR Inten    --    447.4518                 8.4976                 0.0000
  Atom  AN      X      Y      Z        X      Y      Z        X      Y      Z
     1   6    -0.00   0.56   0.00    -0.00   0.04  -0.00    -0.00  -0.00  -0.20
     2   6     0.00  -0.30  -0.02    -0.00   0.00   0.50    -0.00  -0.08   0.47
     3   6    -0.00  -0.30   0.02     0.00   0.00  -0.50     0.00  -0.08  -0.47
     4   6     0.00   0.56  -0.00     0.00   0.04   0.00     0.00  -0.00   0.20
     5   6    -0.00  -0.30  -0.02     0.00   0.00   0.50    -0.00   0.08  -0.47
     6   6     0.00  -0.30   0.02    -0.00   0.00  -0.50     0.00   0.08   0.47
     7  17     0.00  -0.01  -0.00     0.00   0.01  -0.00     0.00   0.00   0.00
     8  17     0.00   0.01   0.01     0.00  -0.01  -0.01     0.00  -0.00  -0.01
     9  17    -0.00   0.01  -0.01    -0.00  -0.01   0.01    -0.00  -0.00   0.01
    10  17    -0.00  -0.01   0.00    -0.00   0.01   0.00    -0.00   0.00  -0.00
    11  17    -0.00   0.01   0.01    -0.00  -0.01  -0.01     0.00   0.00   0.01
    12  17     0.00   0.01  -0.01     0.00  -0.01   0.01    -0.00   0.00  -0.01

 -------------------
 - Thermochemistry -
 -------------------
 Temperature   298.150 Kelvin.  Pressure   1.00000 Atm.
 Atom     1 has atomic number  6 and mass  12.00000
 Atom     2 has atomic number  6 and mass  12.00000
 Atom     3 has atomic number  6 and mass  12.00000
 Atom     4 has atomic number  6 and mass  12.00000
 Atom     5 has atomic number  6 and mass  12.00000
 Atom     6 has atomic number  6 and mass  12.00000
 Atom     7 has atomic number 17 and mass  34.96885
 Atom     8 has atomic number 17 and mass  34.96885
 Atom     9 has atomic number 17 and mass  34.96885
 Atom    10 has atomic number 17 and mass  34.96885
 Atom    11 has atomic number 17 and mass  34.96885
 Atom    12 has atomic number 17 and mass  34.96885
 Molecular mass:   281.81312 amu.
 Principal axes and moments of inertia in atomic units:
                           1         2         3
     Eigenvalues --  4027.622834029.760038057.38286
           X            0.00000  -0.00000   1.00000
           Y            0.00000   1.00000   0.00000
           Z            1.00000  -0.00000   0.00000
 This molecule is an asymmetric top.
 Rotational symmetry number  4.
 Warning -- assumption of classical behavior for rotation
           may cause significant error
 Rotational temperatures (Kelvin)      0.02150     0.02149     0.01075
 Rotational constants (GHZ):           0.44809     0.44785     0.22399
    4 imaginary frequencies ignored.
 Zero-point vibrational energy      91388.2 (Joules/Mol)
                                   21.84230 (Kcal/Mol)
 Warning -- explicit consideration of  16 degrees of freedom as
           vibrations may cause significant error
 Vibrational temperatures:     96.94   145.99   233.10   296.24   301.72
          (Kelvin)            315.17   316.92   327.61   335.06   433.90
                              476.42   506.63   543.45   723.34   759.32
                              865.81   924.26   934.80  1159.32  1211.10
                             1487.40  1683.45  1730.12  1804.16  2082.03
                             2288.69
 
 Zero-point correction=                           0.034808 (Hartree/Particle)
 Thermal correction to Energy=                    0.045566
 Thermal correction to Enthalpy=                  0.046510
 Thermal correction to Gibbs Free Energy=        -0.003171
 Sum of electronic and zero-point Energies=          -2990.046676
 Sum of electronic and thermal Energies=             -2990.035918
 Sum of electronic and thermal Enthalpies=           -2990.034973
 Sum of electronic and thermal Free Energies=        -2990.084655
 
                     E (Thermal)             CV                S
                      KCal/Mol        Cal/Mol-Kelvin    Cal/Mol-Kelvin
 Total                   28.593             36.655            104.564
 Electronic               0.000              0.000              1.377
 Translational            0.889              2.981             42.806
 Rotational               0.889              2.981             30.481
 Vibrational             26.816             30.693             29.899
 Vibration     1          0.598              1.970              4.229
 Vibration     2          0.604              1.948              3.426
 Vibration     3          0.622              1.889              2.526
 Vibration     4          0.640              1.831              2.080
 Vibration     5          0.642              1.826              2.046
 Vibration     6          0.647              1.812              1.967
 Vibration     7          0.647              1.810              1.957
 Vibration     8          0.651              1.799              1.897
 Vibration     9          0.654              1.791              1.857
 Vibration    10          0.694              1.671              1.408
 Vibration    11          0.713              1.613              1.255
 Vibration    12          0.729              1.571              1.157
 Vibration    13          0.748              1.518              1.048
 Vibration    14          0.858              1.244              0.651
 Vibration    15          0.883              1.189              0.592
 Vibration    16          0.960              1.028              0.447
                       Q            Log10(Q)             Ln(Q)
 Total Bot       0.287582D+02          1.458762          3.358924
 Total V=0       0.294634D+18         17.469283         40.224510
 Vib (Bot)       0.755596D-13        -13.121710        -30.213855
 Vib (Bot)    1  0.306210D+01          0.486019          1.119100
 Vib (Bot)    2  0.202194D+01          0.305767          0.704055
 Vib (Bot)    3  0.124708D+01          0.095894          0.220805
 Vib (Bot)    4  0.966206D+00         -0.014930         -0.034378
 Vib (Bot)    5  0.947236D+00         -0.023542         -0.054207
 Vib (Bot)    6  0.903358D+00         -0.044140         -0.101637
 Vib (Bot)    7  0.897910D+00         -0.046767         -0.107686
 Vib (Bot)    8  0.865856D+00         -0.062555         -0.144037
 Vib (Bot)    9  0.844694D+00         -0.073300         -0.168781
 Vib (Bot)   10  0.630044D+00         -0.200629         -0.461966
 Vib (Bot)   11  0.563876D+00         -0.248817         -0.572921
 Vib (Bot)   12  0.523230D+00         -0.281307         -0.647734
 Vib (Bot)   13  0.479441D+00         -0.319265         -0.735134
 Vib (Bot)   14  0.326114D+00         -0.486631         -1.120508
 Vib (Bot)   15  0.303670D+00         -0.517598         -1.191813
 Vib (Bot)   16  0.247683D+00         -0.606103         -1.395604
 Vib (V=0)       0.774124D+03          2.888810          6.651732
 Vib (V=0)    1  0.360265D+01          0.556622          1.281670
 Vib (V=0)    2  0.258284D+01          0.412098          0.948890
 Vib (V=0)    3  0.184358D+01          0.265662          0.611710
 Vib (V=0)    4  0.158791D+01          0.200827          0.462420
 Vib (V=0)    5  0.157110D+01          0.196204          0.451776
 Vib (V=0)    6  0.153250D+01          0.185400          0.426900
 Vib (V=0)    7  0.152774D+01          0.184048          0.423787
 Vib (V=0)    8  0.149985D+01          0.176049          0.405367
 Vib (V=0)    9  0.148158D+01          0.170726          0.393112
 Vib (V=0)   10  0.130434D+01          0.115389          0.265694
 Vib (V=0)   11  0.125363D+01          0.098169          0.226042
 Vib (V=0)   12  0.122372D+01          0.087682          0.201895
 Vib (V=0)   13  0.119272D+01          0.076539          0.176238
 Vib (V=0)   14  0.109695D+01          0.040187          0.092534
 Vib (V=0)   15  0.108499D+01          0.035427          0.081573
 Vib (V=0)   16  0.105798D+01          0.024479          0.056366
 Electronic      0.200000D+01          0.301030          0.693147
 Translational   0.185950D+09          8.269396         19.040987
 Rotational      0.102340D+07          6.010047         13.838644
 
                                                       ClBz_123456_RA b3lyp_smd
                                                             IR Spectrum
 
     1           1              1   1  1          1                                                                                  
     5           4              2   2  1          0              8  8           66  6     5 5         3 3 3 3  222222   1   1        
     9           4              5   0  7          3              4  0           54  0     2 0         7 5 3 0  322110   6   0  6     
     1           7              4   2  0          4              2  6           02  2     8 3         8 2 1 2  380906   2   1  7     
 
                 X              X   X             X                             XX                                 XX   X            
                                X                                               XX                                                   
                                X                                               XX                                                   
                                X                                               XX                                                   
                                X                                               XX                                                   
                                X                                               XX                                                   
                                X                                                                                                    
                                X                                                                                                    
                                X                                                                                                    
                                X                                                                                                    
                                X                                                                                                    
                                X                                                                                                    
                                X                                                                                                    
                                X                                                                                                    
                                X                                                                                                    
                                X                                                                                                    
                                X                                                                                                    
                                X                                                                                                    
                                X                                                                                                    
                                X                                                                                                    
 
 ***** Axes restored to original set *****
 -------------------------------------------------------------------
 Center     Atomic                   Forces (Hartrees/Bohr)
 Number     Number              X              Y              Z
 -------------------------------------------------------------------
      1        6           0.000000000    0.000133530    0.000000000
      2        6          -0.000076791    0.000019746   -0.000000000
      3        6          -0.000076791   -0.000019746    0.000000000
      4        6           0.000000000   -0.000133530    0.000000000
      5        6           0.000076791   -0.000019746   -0.000000000
      6        6           0.000076791    0.000019746   -0.000000000
      7       17           0.000000000   -0.000124267   -0.000000000
      8       17           0.000031657    0.000016884   -0.000000000
      9       17           0.000031657   -0.000016884   -0.000000000
     10       17           0.000000000    0.000124267   -0.000000000
     11       17          -0.000031657   -0.000016884    0.000000000
     12       17          -0.000031657    0.000016884    0.000000000
 -------------------------------------------------------------------
 Cartesian Forces:  Max     0.000133530 RMS     0.000051865
 Force constants in Cartesian coordinates: 
                1             2             3             4             5 
      1  0.279142D+00
      2  0.000000D+00  0.464813D+00
      3  0.000000D+00  0.000000D+00 -0.248733D+00
      4 -0.661759D-01  0.961793D-01  0.000000D+00  0.376246D+00
      5 -0.739583D-04 -0.131092D+00  0.000000D+00  0.417838D-02  0.619681D+00
      6  0.000000D+00  0.000000D+00  0.989050D-01  0.000000D+00  0.000000D+00
      7 -0.133356D+00  0.393081D-01  0.000000D+00  0.119234D-01 -0.263087D-01
      8 -0.169498D-01 -0.112425D-01  0.000000D+00  0.263087D-01 -0.398490D+00
      9  0.000000D+00  0.000000D+00  0.125160D+00  0.000000D+00  0.000000D+00
     10  0.220249D+00  0.000000D+00  0.000000D+00 -0.133356D+00  0.169498D-01
     11  0.000000D+00 -0.149731D-01  0.000000D+00 -0.393081D-01 -0.112425D-01
     12  0.000000D+00  0.000000D+00 -0.238648D+00  0.000000D+00  0.000000D+00
     13 -0.133356D+00 -0.393081D-01  0.000000D+00  0.653354D-01 -0.144894D-01
     14  0.169498D-01 -0.112425D-01  0.000000D+00 -0.144894D-01 -0.181289D-01
     15  0.000000D+00  0.000000D+00  0.125160D+00  0.000000D+00  0.000000D+00
     16 -0.661759D-01 -0.961793D-01  0.000000D+00 -0.116489D+00  0.484866D-01
     17  0.739527D-04 -0.131092D+00  0.000000D+00 -0.484866D-01  0.527564D-01
     18  0.000000D+00  0.000000D+00  0.989046D-01  0.000000D+00  0.000000D+00
     19 -0.317605D-01  0.000000D+00  0.000000D+00 -0.119047D-02  0.205846D-01
     20  0.000000D+00 -0.161538D+00  0.000000D+00 -0.438761D-02 -0.286742D-01
     21  0.000000D+00  0.000000D+00  0.186821D+00  0.000000D+00  0.000000D+00
     22 -0.220596D-01 -0.223626D-01  0.000000D+00 -0.127323D+00 -0.474242D-01
     23  0.908910D-02  0.153324D-03  0.000000D+00 -0.530260D-01 -0.652714D-01
     24  0.000000D+00  0.000000D+00 -0.805270D-01  0.000000D+00  0.000000D+00
     25 -0.116005D-01  0.433679D-03  0.000000D+00 -0.101736D-01  0.564704D-02
     26  0.704255D-02 -0.213072D-02  0.000000D+00  0.268971D-01 -0.155159D-01
     27  0.000000D+00  0.000000D+00 -0.768873D-01  0.000000D+00  0.000000D+00
     28 -0.124673D-02  0.000000D+00  0.000000D+00 -0.163353D-02  0.638476D-03
     29  0.000000D+00  0.322521D-03  0.000000D+00 -0.334968D-02  0.742458D-03
     30  0.000000D+00  0.000000D+00  0.167261D+00  0.000000D+00  0.000000D+00
     31 -0.116005D-01 -0.433679D-03  0.000000D+00  0.801850D-02 -0.442556D-02
     32 -0.704255D-02 -0.213072D-02  0.000000D+00  0.613049D-02 -0.339578D-02
     33  0.000000D+00  0.000000D+00 -0.768873D-01  0.000000D+00  0.000000D+00
     34 -0.220596D-01  0.223626D-01  0.000000D+00 -0.518199D-02 -0.376305D-02
     35 -0.908911D-02  0.153324D-03  0.000000D+00  0.335345D-02 -0.136818D-02
     36  0.000000D+00  0.000000D+00 -0.805271D-01  0.000000D+00  0.000000D+00
                6             7             8             9            10 
      6  0.131401D-01
      7  0.000000D+00  0.376246D+00
      8  0.000000D+00 -0.417838D-02  0.619681D+00
      9 -0.101046D+00  0.000000D+00  0.000000D+00  0.131401D-01
     10  0.000000D+00 -0.661759D-01  0.739583D-04  0.000000D+00  0.279142D+00
     11  0.000000D+00 -0.961793D-01 -0.131092D+00  0.000000D+00  0.000000D+00
     12  0.125160D+00  0.000000D+00  0.000000D+00  0.989050D-01  0.000000D+00
     13  0.000000D+00 -0.116489D+00 -0.484866D-01  0.000000D+00 -0.661759D-01
     14  0.000000D+00  0.484866D-01  0.527564D-01  0.000000D+00 -0.739527D-04
     15 -0.486547D-01  0.000000D+00  0.000000D+00 -0.599067D-01  0.000000D+00
     16  0.000000D+00  0.653354D-01  0.144894D-01  0.000000D+00 -0.133356D+00
     17  0.000000D+00  0.144894D-01 -0.181289D-01  0.000000D+00 -0.169498D-01
     18 -0.599067D-01  0.000000D+00  0.000000D+00 -0.486547D-01  0.000000D+00
     19  0.000000D+00 -0.163353D-02 -0.638476D-03  0.000000D+00 -0.124673D-02
     20  0.000000D+00  0.334968D-02  0.742458D-03  0.000000D+00  0.000000D+00
     21 -0.875127D-01  0.000000D+00  0.000000D+00 -0.825315D-01  0.000000D+00
     22  0.000000D+00 -0.101736D-01 -0.564704D-02  0.000000D+00 -0.116005D-01
     23  0.000000D+00 -0.268971D-01 -0.155159D-01  0.000000D+00 -0.704255D-02
     24  0.255591D-01  0.000000D+00  0.000000D+00  0.411149D-01  0.000000D+00
     25  0.000000D+00 -0.127323D+00  0.474242D-01  0.000000D+00 -0.220596D-01
     26  0.000000D+00  0.530260D-01 -0.652714D-01  0.000000D+00 -0.908910D-02
     27  0.411149D-01  0.000000D+00  0.000000D+00  0.255591D-01  0.000000D+00
     28  0.000000D+00 -0.119047D-02 -0.205846D-01  0.000000D+00 -0.317605D-01
     29  0.000000D+00  0.438761D-02 -0.286742D-01  0.000000D+00  0.000000D+00
     30 -0.825315D-01  0.000000D+00  0.000000D+00 -0.875127D-01  0.000000D+00
     31  0.000000D+00 -0.518199D-02  0.376305D-02  0.000000D+00 -0.220596D-01
     32  0.000000D+00 -0.335345D-02 -0.136818D-02  0.000000D+00  0.908911D-02
     33  0.359695D-01  0.000000D+00  0.000000D+00  0.398035D-01  0.000000D+00
     34  0.000000D+00  0.801850D-02  0.442556D-02  0.000000D+00 -0.116005D-01
     35  0.000000D+00 -0.613049D-02 -0.339578D-02  0.000000D+00  0.704255D-02
     36  0.398035D-01  0.000000D+00  0.000000D+00  0.359695D-01  0.000000D+00
               11            12            13            14            15 
     11  0.464813D+00
     12  0.000000D+00 -0.248733D+00
     13  0.961793D-01  0.000000D+00  0.376246D+00
     14 -0.131092D+00  0.000000D+00  0.417838D-02  0.619681D+00
     15  0.000000D+00  0.989046D-01  0.000000D+00  0.000000D+00  0.131401D-01
     16  0.393081D-01  0.000000D+00  0.119234D-01 -0.263087D-01  0.000000D+00
     17 -0.112425D-01  0.000000D+00  0.263087D-01 -0.398490D+00  0.000000D+00
     18  0.000000D+00  0.125160D+00  0.000000D+00  0.000000D+00 -0.101046D+00
     19  0.000000D+00  0.000000D+00 -0.163353D-02  0.638476D-03  0.000000D+00
     20  0.322521D-03  0.000000D+00 -0.334968D-02  0.742458D-03  0.000000D+00
     21  0.000000D+00  0.167261D+00  0.000000D+00  0.000000D+00 -0.825316D-01
     22 -0.433679D-03  0.000000D+00  0.801850D-02 -0.442556D-02  0.000000D+00
     23 -0.213072D-02  0.000000D+00  0.613049D-02 -0.339578D-02  0.000000D+00
     24  0.000000D+00 -0.768873D-01  0.000000D+00  0.000000D+00  0.359695D-01
     25  0.223626D-01  0.000000D+00 -0.518199D-02 -0.376305D-02  0.000000D+00
     26  0.153324D-03  0.000000D+00  0.335345D-02 -0.136818D-02  0.000000D+00
     27  0.000000D+00 -0.805270D-01  0.000000D+00  0.000000D+00  0.398035D-01
     28  0.000000D+00  0.000000D+00 -0.119047D-02  0.205846D-01  0.000000D+00
     29 -0.161538D+00  0.000000D+00 -0.438761D-02 -0.286742D-01  0.000000D+00
     30  0.000000D+00  0.186821D+00  0.000000D+00  0.000000D+00 -0.875125D-01
     31 -0.223626D-01  0.000000D+00 -0.127323D+00 -0.474242D-01  0.000000D+00
     32  0.153324D-03  0.000000D+00 -0.530260D-01 -0.652714D-01  0.000000D+00
     33  0.000000D+00 -0.805271D-01  0.000000D+00  0.000000D+00  0.255591D-01
     34  0.433679D-03  0.000000D+00 -0.101736D-01  0.564704D-02  0.000000D+00
     35 -0.213072D-02  0.000000D+00  0.268971D-01 -0.155159D-01  0.000000D+00
     36  0.000000D+00 -0.768873D-01  0.000000D+00  0.000000D+00  0.411149D-01
               16            17            18            19            20 
     16  0.376246D+00
     17 -0.417838D-02  0.619681D+00
     18  0.000000D+00  0.000000D+00  0.131401D-01
     19 -0.119047D-02 -0.205846D-01  0.000000D+00  0.503799D-01
     20  0.438761D-02 -0.286742D-01  0.000000D+00  0.000000D+00  0.223155D+00
     21  0.000000D+00  0.000000D+00 -0.875125D-01  0.000000D+00  0.000000D+00
     22 -0.518199D-02  0.376305D-02  0.000000D+00 -0.564048D-02  0.172561D-02
     23 -0.335345D-02 -0.136818D-02  0.000000D+00  0.817261D-02 -0.412418D-03
     24  0.000000D+00  0.000000D+00  0.398035D-01  0.000000D+00  0.000000D+00
     25  0.801850D-02  0.442556D-02  0.000000D+00 -0.289075D-03  0.118736D-02
     26 -0.613049D-02 -0.339578D-02  0.000000D+00  0.118451D-02 -0.166444D-02
     27  0.000000D+00  0.000000D+00  0.359695D-01  0.000000D+00  0.000000D+00
     28 -0.163353D-02 -0.638476D-03  0.000000D+00  0.134395D-03  0.000000D+00
     29  0.334968D-02  0.742458D-03  0.000000D+00  0.000000D+00 -0.192212D-02
     30  0.000000D+00  0.000000D+00 -0.825316D-01  0.000000D+00  0.000000D+00
     31 -0.101736D-01 -0.564704D-02  0.000000D+00 -0.289075D-03 -0.118736D-02
     32 -0.268971D-01 -0.155159D-01  0.000000D+00 -0.118451D-02 -0.166444D-02
     33  0.000000D+00  0.000000D+00  0.411149D-01  0.000000D+00  0.000000D+00
     34 -0.127323D+00  0.474242D-01  0.000000D+00 -0.564048D-02 -0.172561D-02
     35  0.530260D-01 -0.652714D-01  0.000000D+00 -0.817261D-02 -0.412417D-03
     36  0.000000D+00  0.000000D+00  0.255591D-01  0.000000D+00  0.000000D+00
               21            22            23            24            25 
     21 -0.129168D+00
     22  0.000000D+00  0.174589D+00
     23  0.000000D+00  0.726160D-01  0.976409D-01
     24  0.594694D-01  0.000000D+00  0.000000D+00 -0.208026D-01
     25  0.000000D+00  0.422519D-02 -0.348481D-02  0.000000D+00  0.174589D+00
     26  0.000000D+00  0.348481D-02 -0.861269D-02  0.000000D+00 -0.726160D-01
     27  0.595788D-01  0.000000D+00  0.000000D+00 -0.291726D-01  0.000000D+00
     28  0.000000D+00 -0.289075D-03 -0.118451D-02  0.000000D+00 -0.564048D-02
     29  0.000000D+00 -0.118736D-02 -0.166444D-02  0.000000D+00 -0.172561D-02
     30 -0.122921D+00  0.000000D+00  0.000000D+00  0.595788D-01  0.000000D+00
     31  0.000000D+00 -0.112037D-02 -0.564409D-03  0.000000D+00 -0.344404D-02
     32  0.000000D+00 -0.564409D-03 -0.963434D-04  0.000000D+00 -0.455414D-03
     33  0.595788D-01  0.000000D+00  0.000000D+00 -0.267104D-01  0.000000D+00
     34  0.000000D+00 -0.344404D-02 -0.455414D-03  0.000000D+00 -0.112037D-02
     35  0.000000D+00  0.455414D-03  0.673598D-03  0.000000D+00  0.564409D-03
     36  0.594695D-01  0.000000D+00  0.000000D+00 -0.273952D-01  0.000000D+00
               26            27            28            29            30 
     26  0.976409D-01
     27  0.000000D+00 -0.208026D-01
     28 -0.817261D-02  0.000000D+00  0.503799D-01
     29 -0.412418D-03  0.000000D+00  0.000000D+00  0.223155D+00
     30  0.000000D+00  0.594694D-01  0.000000D+00  0.000000D+00 -0.129168D+00
     31  0.455414D-03  0.000000D+00 -0.564048D-02  0.172561D-02  0.000000D+00
     32  0.673598D-03  0.000000D+00  0.817261D-02 -0.412417D-03  0.000000D+00
     33  0.000000D+00 -0.273952D-01  0.000000D+00  0.000000D+00  0.594695D-01
     34  0.564409D-03  0.000000D+00 -0.289075D-03  0.118736D-02  0.000000D+00
     35 -0.963434D-04  0.000000D+00  0.118451D-02 -0.166444D-02  0.000000D+00
     36  0.000000D+00 -0.267104D-01  0.000000D+00  0.000000D+00  0.595788D-01
               31            32            33            34            35 
     31  0.174589D+00
     32  0.726160D-01  0.976409D-01
     33  0.000000D+00  0.000000D+00 -0.208026D-01
     34  0.422519D-02 -0.348481D-02  0.000000D+00  0.174589D+00
     35  0.348481D-02 -0.861269D-02  0.000000D+00 -0.726160D-01  0.976409D-01
     36  0.000000D+00  0.000000D+00 -0.291726D-01  0.000000D+00  0.000000D+00
               36 
     36 -0.208026D-01
 FormGI is forming the generalized inverse of G from B-inverse, IUseBI=4.
 Leave Link  716 at Mon Sep 28 02:50:17 2026, MaxMem=  1610612736 cpu:               0.3 elap:               0.1
 (Enter /share/software/user/restricted/gaussian/g16.B01/l103.exe)

 GradGradGradGradGradGradGradGradGradGradGradGradGradGradGradGradGradGrad
 Berny optimization.
 Red2BG is reusing G-inverse.
 Internal  Forces:  Max     0.000124267 RMS     0.000030414
 Search for a local minimum.
 Step number   1 out of a maximum of    2
 All quantities printed in internal units (Hartrees-Bohrs-Radians)
 Second derivative matrix not updated -- analytic derivatives used.
 ITU=  0
     Eigenvalues ---   -0.60535  -0.01563  -0.00968  -0.00456   0.01158
     Eigenvalues ---    0.01328   0.01439   0.01494   0.02291   0.03021
     Eigenvalues ---    0.13332   0.14085   0.16756   0.17566   0.18996
     Eigenvalues ---    0.19233   0.21550   0.22208   0.22535   0.24682
     Eigenvalues ---    0.26339   0.27251   0.28402   0.30765   0.36707
     Eigenvalues ---    0.37343   0.43835   0.43929   0.50039   0.53659
 Eigenvalue     1 is  -6.05D-01 should be greater than     0.000000 Eigenvector:
                          D16       D4        D20       D8        D14
   1                   -0.37105   0.37105   0.37105  -0.37105  -0.27779
                          D19       D7        D3        D15       D2
   1                    0.27779  -0.27779   0.27779  -0.15095   0.15095
 Eigenvalue     2 is  -1.56D-02 should be greater than     0.000000 Eigenvector:
                          D8        D20       D4        D16       D7
   1                   -0.34836  -0.34836   0.34836   0.34836  -0.33137
                          D19       D3        D14       D9        D21
   1                   -0.33137   0.33136   0.33136   0.08197  -0.08197
 Eigenvalue     3 is  -9.68D-03 should be greater than     0.000000 Eigenvector:
                          R1        R6        R8        R2        A13
   1                   -0.41808   0.41808  -0.41808   0.41808   0.19003
                          A16       A4        A7        A18       A15
   1                   -0.19003   0.19003  -0.19003   0.15264  -0.15264
 Eigenvalue     4 is  -4.56D-03 should be greater than     0.000000 Eigenvector:
                          D13       D17       D5        D1        D18
   1                   -0.35371   0.35371  -0.35371   0.35371   0.32188
                          D6        D15       D2        D16       D4
   1                   -0.32188  -0.32188   0.32188   0.11521  -0.11521
 Angle between quadratic step and forces=  20.78 degrees.
 Linear search not attempted -- first point.
 Iteration  1 RMS(Cart)=  0.00012100 RMS(Int)=  0.00000001
 Iteration  2 RMS(Cart)=  0.00000001 RMS(Int)=  0.00000000
 ITry= 1 IFail=0 DXMaxC= 3.66D-04 DCOld= 1.00D+10 DXMaxT= 3.00D-01 DXLimC= 3.00D+00 Rises=F
 ClnCor:  largest displacement from symmetrization is 1.40D-11 for atom     7.
 Variable       Old X    -DE/DX   Delta X   Delta X   Delta X     New X
                                 (Linear)    (Quad)   (Total)
    R1        2.71815  -0.00004   0.00000  -0.00007  -0.00007   2.71807
    R2        2.71815  -0.00004   0.00000  -0.00007  -0.00007   2.71807
    R3        3.31428  -0.00012   0.00000  -0.00065  -0.00065   3.31363
    R4        2.59672   0.00004   0.00000   0.00007   0.00007   2.59679
    R5        3.31969   0.00004   0.00000   0.00022   0.00022   3.31991
    R6        2.71815  -0.00004   0.00000  -0.00007  -0.00007   2.71807
    R7        3.31969   0.00004   0.00000   0.00022   0.00022   3.31991
    R8        2.71815  -0.00004   0.00000  -0.00007  -0.00007   2.71807
    R9        3.31428  -0.00012   0.00000  -0.00065  -0.00065   3.31363
   R10        2.59672   0.00004   0.00000   0.00007   0.00007   2.59679
   R11        3.31969   0.00004   0.00000   0.00022   0.00022   3.31991
   R12        3.31969   0.00004   0.00000   0.00022   0.00022   3.31991
    A1        2.05608  -0.00003   0.00000  -0.00032  -0.00032   2.05576
    A2        2.11355   0.00002   0.00000   0.00016   0.00016   2.11371
    A3        2.11355   0.00002   0.00000   0.00016   0.00016   2.11371
    A4        2.11355   0.00002   0.00000   0.00016   0.00016   2.11371
    A5        2.06774  -0.00001   0.00000  -0.00008  -0.00008   2.06766
    A6        2.10189  -0.00001   0.00000  -0.00008  -0.00008   2.10182
    A7        2.11355   0.00002   0.00000   0.00016   0.00016   2.11371
    A8        2.10189  -0.00001   0.00000  -0.00008  -0.00008   2.10182
    A9        2.06774  -0.00001   0.00000  -0.00008  -0.00008   2.06766
   A10        2.05608  -0.00003   0.00000  -0.00032  -0.00032   2.05576
   A11        2.11355   0.00002   0.00000   0.00016   0.00016   2.11371
   A12        2.11355   0.00002   0.00000   0.00016   0.00016   2.11371
   A13        2.11355   0.00002   0.00000   0.00016   0.00016   2.11371
   A14        2.06774  -0.00001   0.00000  -0.00008  -0.00008   2.06766
   A15        2.10189  -0.00001   0.00000  -0.00008  -0.00008   2.10182
   A16        2.11355   0.00002   0.00000   0.00016   0.00016   2.11371
   A17        2.06774  -0.00001   0.00000  -0.00008  -0.00008   2.06766
   A18        2.10189  -0.00001   0.00000  -0.00008  -0.00008   2.10182
    D1       -0.00000   0.00000   0.00000  -0.00000   0.00000   0.00000
    D2        3.14159   0.00000   0.00000   0.00000   0.00000   3.14159
    D3        3.14159   0.00000   0.00000  -0.00000   0.00000   3.14159
    D4        0.00000   0.00000   0.00000  -0.00000  -0.00000   0.00000
    D5        0.00000  -0.00000   0.00000  -0.00000   0.00000   0.00000
    D6        3.14159  -0.00000   0.00000  -0.00000   0.00000   3.14159
    D7        3.14159  -0.00000   0.00000   0.00000   0.00000   3.14159
    D8       -0.00000  -0.00000   0.00000   0.00000   0.00000   0.00000
    D9        0.00000   0.00000   0.00000   0.00000  -0.00000   0.00000
   D10        3.14159  -0.00000   0.00000  -0.00000   0.00000   3.14159
   D11        3.14159  -0.00000   0.00000   0.00000   0.00000   3.14159
   D12        0.00000  -0.00000   0.00000  -0.00000  -0.00000   0.00000
   D13        0.00000  -0.00000   0.00000  -0.00000   0.00000   0.00000
   D14        3.14159  -0.00000   0.00000  -0.00000   0.00000   3.14159
   D15        3.14159   0.00000   0.00000   0.00000   0.00000   3.14159
   D16       -0.00000  -0.00000   0.00000   0.00000   0.00000   0.00000
   D17       -0.00000   0.00000   0.00000   0.00000   0.00000   0.00000
   D18        3.14159   0.00000   0.00000   0.00000   0.00000   3.14159
   D19        3.14159   0.00000   0.00000   0.00000   0.00000   3.14159
   D20       -0.00000   0.00000   0.00000   0.00000   0.00000   0.00000
   D21        0.00000  -0.00000   0.00000  -0.00000   0.00000   0.00000
   D22        3.14159   0.00000   0.00000  -0.00000   0.00000   3.14159
   D23        3.14159  -0.00000   0.00000  -0.00000   0.00000   3.14159
   D24       -0.00000  -0.00000   0.00000  -0.00000   0.00000   0.00000
         Item               Value     Threshold  Converged?
 Maximum Force            0.000124     0.000450     YES
 RMS     Force            0.000030     0.000300     YES
 Maximum Displacement     0.000366     0.001800     YES
 RMS     Displacement     0.000121     0.001200     YES
 Predicted change in Energy=-1.291025D-07
 Optimization completed.
    -- Stationary point found.
                           ----------------------------
                           !   Optimized Parameters   !
                           ! (Angstroms and Degrees)  !
 --------------------------                            --------------------------
 ! Name  Definition              Value          Derivative Info.                !
 --------------------------------------------------------------------------------
 ! R1    R(1,2)                  1.4384         -DE/DX =    0.0                 !
 ! R2    R(1,6)                  1.4384         -DE/DX =    0.0                 !
 ! R3    R(1,7)                  1.7538         -DE/DX =   -0.0001              !
 ! R4    R(2,3)                  1.3741         -DE/DX =    0.0                 !
 ! R5    R(2,8)                  1.7567         -DE/DX =    0.0                 !
 ! R6    R(3,4)                  1.4384         -DE/DX =    0.0                 !
 ! R7    R(3,9)                  1.7567         -DE/DX =    0.0                 !
 ! R8    R(4,5)                  1.4384         -DE/DX =    0.0                 !
 ! R9    R(4,10)                 1.7538         -DE/DX =   -0.0001              !
 ! R10   R(5,6)                  1.3741         -DE/DX =    0.0                 !
 ! R11   R(5,11)                 1.7567         -DE/DX =    0.0                 !
 ! R12   R(6,12)                 1.7567         -DE/DX =    0.0                 !
 ! A1    A(2,1,6)              117.8046         -DE/DX =    0.0                 !
 ! A2    A(2,1,7)              121.0977         -DE/DX =    0.0                 !
 ! A3    A(6,1,7)              121.0977         -DE/DX =    0.0                 !
 ! A4    A(1,2,3)              121.0977         -DE/DX =    0.0                 !
 ! A5    A(1,2,8)              118.4727         -DE/DX =    0.0                 !
 ! A6    A(3,2,8)              120.4297         -DE/DX =    0.0                 !
 ! A7    A(2,3,4)              121.0977         -DE/DX =    0.0                 !
 ! A8    A(2,3,9)              120.4297         -DE/DX =    0.0                 !
 ! A9    A(4,3,9)              118.4727         -DE/DX =    0.0                 !
 ! A10   A(3,4,5)              117.8046         -DE/DX =    0.0                 !
 ! A11   A(3,4,10)             121.0977         -DE/DX =    0.0                 !
 ! A12   A(5,4,10)             121.0977         -DE/DX =    0.0                 !
 ! A13   A(4,5,6)              121.0977         -DE/DX =    0.0                 !
 ! A14   A(4,5,11)             118.4727         -DE/DX =    0.0                 !
 ! A15   A(6,5,11)             120.4297         -DE/DX =    0.0                 !
 ! A16   A(1,6,5)              121.0977         -DE/DX =    0.0                 !
 ! A17   A(1,6,12)             118.4727         -DE/DX =    0.0                 !
 ! A18   A(5,6,12)             120.4297         -DE/DX =    0.0                 !
 ! D1    D(6,1,2,3)              0.0            -DE/DX =    0.0                 !
 ! D2    D(6,1,2,8)            180.0            -DE/DX =    0.0                 !
 ! D3    D(7,1,2,3)            180.0            -DE/DX =    0.0                 !
 ! D4    D(7,1,2,8)              0.0            -DE/DX =    0.0                 !
 ! D5    D(2,1,6,5)              0.0            -DE/DX =    0.0                 !
 ! D6    D(2,1,6,12)           180.0            -DE/DX =    0.0                 !
 ! D7    D(7,1,6,5)            180.0            -DE/DX =    0.0                 !
 ! D8    D(7,1,6,12)             0.0            -DE/DX =    0.0                 !
 ! D9    D(1,2,3,4)              0.0            -DE/DX =    0.0                 !
 ! D10   D(1,2,3,9)            180.0            -DE/DX =    0.0                 !
 ! D11   D(8,2,3,4)            180.0            -DE/DX =    0.0                 !
 ! D12   D(8,2,3,9)              0.0            -DE/DX =    0.0                 !
 ! D13   D(2,3,4,5)              0.0            -DE/DX =    0.0                 !
 ! D14   D(2,3,4,10)           180.0            -DE/DX =    0.0                 !
 ! D15   D(9,3,4,5)            180.0            -DE/DX =    0.0                 !
 ! D16   D(9,3,4,10)             0.0            -DE/DX =    0.0                 !
 ! D17   D(3,4,5,6)              0.0            -DE/DX =    0.0                 !
 ! D18   D(3,4,5,11)           180.0            -DE/DX =    0.0                 !
 ! D19   D(10,4,5,6)           180.0            -DE/DX =    0.0                 !
 ! D20   D(10,4,5,11)            0.0            -DE/DX =    0.0                 !
 ! D21   D(4,5,6,1)              0.0            -DE/DX =    0.0                 !
 ! D22   D(4,5,6,12)           180.0            -DE/DX =    0.0                 !
 ! D23   D(11,5,6,1)           180.0            -DE/DX =    0.0                 !
 ! D24   D(11,5,6,12)            0.0            -DE/DX =    0.0                 !
 --------------------------------------------------------------------------------
 GradGradGradGradGradGradGradGradGradGradGradGradGradGradGradGradGradGrad

 Leave Link  103 at Mon Sep 28 02:50:17 2026, MaxMem=  1610612736 cpu:               0.4 elap:               0.1
 (Enter /share/software/user/restricted/gaussian/g16.B01/l9999.exe)
 Dipole is zero, so no output in dipole orientation.

 ----------------------------------------------------------------------

 Electric dipole moment (input orientation):
 (Debye = 10**-18 statcoulomb cm , SI units = C m)
                  (au)            (Debye)         (10**-30 SI)
   Tot        0.000000D+00      0.000000D+00      0.000000D+00
   x          0.000000D+00      0.000000D+00      0.000000D+00
   y          0.000000D+00      0.000000D+00      0.000000D+00
   z          0.000000D+00      0.000000D+00      0.000000D+00

 Dipole polarizability, Alpha (input orientation).
 (esu units = cm**3 , SI units = C**2 m**2 J**-1)
 Alpha(0;0):
               (au)            (10**-24 esu)      (10**-40 SI)
   iso        0.212652D+03      0.315118D+02      0.350616D+02
   aniso      0.145221D+03      0.215195D+02      0.239437D+02
   xx         0.240199D+03      0.355938D+02      0.396035D+02
   yx         0.000000D+00      0.000000D+00      0.000000D+00
   yy         0.279257D+03      0.413815D+02      0.460432D+02
   zx         0.000000D+00      0.000000D+00      0.000000D+00
   zy         0.000000D+00      0.000000D+00      0.000000D+00
   zz         0.118501D+03      0.175601D+02      0.195382D+02

 ----------------------------------------------------------------------
 1\1\GINC-SH03-01N29\Freq\UB3LYP\6-311++G(d)\C6Cl6(1-,2)\JLAPIER\28-Sep
 -2026\0\\#P Geom=AllCheck Guess=TCheck SCRF=Check GenChk UB3LYP/6-311+
 +G(d) Freq\\ClBz_123456_RA b3lyp_smd\\-1,2\C,0.,1.4299861155,0.\C,1.23
 1669398,0.6870636685,0.\C,1.231669398,-0.6870636685,0.\C,0.,-1.4299861
 155,0.\C,-1.231669398,-0.6870636685,0.\C,-1.231669398,0.6870636685,0.\
 Cl,0.,3.1838250586,0.\Cl,2.7463905409,1.5767998085,0.\Cl,2.7463905409,
 -1.5767998085,0.\Cl,0.,-3.1838250586,0.\Cl,-2.7463905409,-1.5767998085
 ,0.\Cl,-2.7463905409,1.5767998085,0.\\Version=ES64L-G16RevB.01\State=2
 -B3U\HF=-2990.0814837\S2=0.759809\S2-1=0.\S2A=0.75004\RMSD=1.584e-09\R
 MSF=5.187e-05\ZeroPoint=0.0348079\Thermal=0.0455662\Dipole=0.,0.,0.\Di
 poleDeriv=-0.9155693,-0.0000005,0.,0.,0.1730989,0.,0.,0.,-0.5076038,1.
 0502381,-0.0013612,0.,-0.1534972,0.4458167,0.,0.,0.,0.0754635,1.050238
 1,0.0013616,0.,0.1534972,0.4458168,0.,0.,0.,0.0754633,-0.9155693,0.,0.
 ,0.,0.1730986,0.,0.,0.,-0.507604,1.0502381,-0.0013613,0.,-0.1534972,0.
 4458168,0.,0.,0.,0.0754633,1.0502381,0.0013617,0.,0.1534972,0.4458168,
 0.,0.,0.,0.0754633,-0.1059796,-0.0000001,0.,0.,-0.9368428,0.,0.,0.,0.0
 924272,-0.7894636,-0.4544785,0.,-0.3892729,-0.3139448,0.,0.,0.,-0.1178
 749,-0.7894636,0.4544785,0.,0.3892729,-0.3139447,0.,0.,0.,-0.117875,-0
 .1059796,0.,0.,0.,-0.9368427,0.,0.,0.,0.0924271,-0.7894636,-0.4544785,
 0.,-0.3892729,-0.3139448,0.,0.,0.,-0.117875,-0.7894636,0.4544784,0.,0.
 3892729,-0.3139447,0.,0.,0.,-0.117875\Polar=240.1990666,-0.0000004,279
 .2565203,0.,0.,118.5013002\Quadrupole=-2.1725044,-5.9535,8.1260044,0.,
 0.,0.\PG=D02H [C2"(Cl1C1.C1Cl1),SG(C4Cl4)]\NImag=4\\0.27914195,0.,0.46
 481338,0.,0.,-0.24873349,-0.06617591,0.09617926,0.,0.37624613,-0.00007
 396,-0.13109246,0.,0.00417838,0.61968093,0.,0.,0.09890495,0.,0.,0.0131
 4007,-0.13335603,0.03930808,0.,0.01192335,-0.02630871,0.,0.37624613,-0
 .01694983,-0.01124250,0.,0.02630871,-0.39849049,0.,-0.00417838,0.61968
 093,0.,0.,0.12515982,0.,0.,-0.10104609,0.,0.,0.01314007,0.22024921,0.,
 0.,-0.13335603,0.01694983,0.,-0.06617591,0.00007396,0.,0.27914195,0.,-
 0.01497309,0.,-0.03930808,-0.01124250,0.,-0.09617926,-0.13109246,0.,0.
 ,0.46481338,0.,0.,-0.23864841,0.,0.,0.12515982,0.,0.,0.09890495,0.,0.,
 -0.24873349,-0.13335603,-0.03930808,0.,0.06533542,-0.01448938,0.,-0.11
 648881,-0.04848655,0.,-0.06617592,0.09617926,0.,0.37624613,0.01694983,
 -0.01124250,0.,-0.01448938,-0.01812889,0.,0.04848655,0.05275641,0.,-0.
 00007395,-0.13109246,0.,0.00417838,0.61968093,0.,0.,0.12515990,0.,0.,-
 0.04865475,0.,0.,-0.05990673,0.,0.,0.09890463,0.,0.,0.01314007,-0.0661
 7592,-0.09617926,0.,-0.11648881,0.04848655,0.,0.06533542,0.01448938,0.
 ,-0.13335603,0.03930808,0.,0.01192335,-0.02630871,0.,0.37624613,0.0000
 7395,-0.13109246,0.,-0.04848655,0.05275641,0.,0.01448938,-0.01812889,0
 .,-0.01694983,-0.01124250,0.,0.02630871,-0.39849049,0.,-0.00417838,0.6
 1968093,0.,0.,0.09890463,0.,0.,-0.05990673,0.,0.,-0.04865475,0.,0.,0.1
 2515990,0.,0.,-0.10104609,0.,0.,0.01314007,-0.03176047,0.,0.,-0.001190
 47,0.02058460,0.,-0.00163353,-0.00063848,0.,-0.00124673,0.,0.,-0.00163
 353,0.00063848,0.,-0.00119047,-0.02058460,0.,0.05037992,0.,-0.16153810
 ,0.,-0.00438761,-0.02867420,0.,0.00334968,0.00074246,0.,0.,0.00032252,
 0.,-0.00334968,0.00074246,0.,0.00438761,-0.02867420,0.,0.,0.22315490,0
 .,0.,0.18682050,0.,0.,-0.08751273,0.,0.,-0.08253153,0.,0.,0.16726079,0
 .,0.,-0.08253159,0.,0.,-0.08751250,0.,0.,-0.12916845,-0.02205956,-0.02
 236264,0.,-0.12732310,-0.04742422,0.,-0.01017357,-0.00564704,0.,-0.011
 60047,-0.00043368,0.,0.00801850,-0.00442556,0.,-0.00518199,0.00376305,
 0.,-0.00564048,0.00172561,0.,0.17458897,0.00908910,0.00015332,0.,-0.05
 302603,-0.06527138,0.,-0.02689705,-0.01551591,0.,-0.00704255,-0.002130
 72,0.,0.00613049,-0.00339578,0.,-0.00335345,-0.00136818,0.,0.00817261,
 -0.00041242,0.,0.07261603,0.09764095,0.,0.,-0.08052700,0.,0.,0.0255591
 0,0.,0.,0.04111494,0.,0.,-0.07688733,0.,0.,0.03596952,0.,0.,0.03980345
 ,0.,0.,0.05946942,0.,0.,-0.02080265,-0.01160047,0.00043368,0.,-0.01017
 357,0.00564704,0.,-0.12732310,0.04742422,0.,-0.02205956,0.02236264,0.,
 -0.00518199,-0.00376305,0.,0.00801850,0.00442556,0.,-0.00028907,0.0011
 8736,0.,0.00422519,-0.00348481,0.,0.17458897,0.00704255,-0.00213072,0.
 ,0.02689705,-0.01551591,0.,0.05302603,-0.06527138,0.,-0.00908910,0.000
 15332,0.,0.00335345,-0.00136818,0.,-0.00613049,-0.00339578,0.,0.001184
 51,-0.00166444,0.,0.00348481,-0.00861269,0.,-0.07261603,0.09764095,0.,
 0.,-0.07688733,0.,0.,0.04111494,0.,0.,0.02555910,0.,0.,-0.08052700,0.,
 0.,0.03980345,0.,0.,0.03596952,0.,0.,0.05957881,0.,0.,-0.02917262,0.,0
 .,-0.02080265,-0.00124673,0.,0.,-0.00163353,0.00063848,0.,-0.00119047,
 -0.02058460,0.,-0.03176047,0.,0.,-0.00119047,0.02058460,0.,-0.00163353
 ,-0.00063848,0.,0.00013439,0.,0.,-0.00028907,-0.00118451,0.,-0.0056404
 8,-0.00817261,0.,0.05037992,0.,0.00032252,0.,-0.00334968,0.00074246,0.
 ,0.00438761,-0.02867420,0.,0.,-0.16153810,0.,-0.00438761,-0.02867420,0
 .,0.00334968,0.00074246,0.,0.,-0.00192212,0.,-0.00118736,-0.00166444,0
 .,-0.00172561,-0.00041242,0.,0.,0.22315490,0.,0.,0.16726079,0.,0.,-0.0
 8253153,0.,0.,-0.08751273,0.,0.,0.18682050,0.,0.,-0.08751250,0.,0.,-0.
 08253159,0.,0.,-0.12292100,0.,0.,0.05957881,0.,0.,0.05946942,0.,0.,-0.
 12916845,-0.01160048,-0.00043368,0.,0.00801850,-0.00442556,0.,-0.00518
 199,0.00376305,0.,-0.02205956,-0.02236264,0.,-0.12732310,-0.04742422,0
 .,-0.01017357,-0.00564704,0.,-0.00028908,-0.00118736,0.,-0.00112037,-0
 .00056441,0.,-0.00344404,0.00045541,0.,-0.00564048,0.00172561,0.,0.174
 58897,-0.00704255,-0.00213072,0.,0.00613049,-0.00339578,0.,-0.00335345
 ,-0.00136818,0.,0.00908911,0.00015332,0.,-0.05302603,-0.06527138,0.,-0
 .02689705,-0.01551591,0.,-0.00118451,-0.00166444,0.,-0.00056441,-0.000
 09634,0.,-0.00045541,0.00067360,0.,0.00817261,-0.00041242,0.,0.0726160
 3,0.09764095,0.,0.,-0.07688731,0.,0.,0.03596952,0.,0.,0.03980345,0.,0.
 ,-0.08052707,0.,0.,0.02555910,0.,0.,0.04111494,0.,0.,0.05957879,0.,0.,
 -0.02671041,0.,0.,-0.02739524,0.,0.,0.05946948,0.,0.,-0.02080265,-0.02
 205956,0.02236264,0.,-0.00518199,-0.00376305,0.,0.00801850,0.00442556,
 0.,-0.01160048,0.00043368,0.,-0.01017357,0.00564704,0.,-0.12732310,0.0
 4742422,0.,-0.00564048,-0.00172561,0.,-0.00344404,-0.00045541,0.,-0.00
 112037,0.00056441,0.,-0.00028908,0.00118736,0.,0.00422519,-0.00348481,
 0.,0.17458897,-0.00908911,0.00015332,0.,0.00335345,-0.00136818,0.,-0.0
 0613049,-0.00339578,0.,0.00704255,-0.00213072,0.,0.02689705,-0.0155159
 1,0.,0.05302603,-0.06527138,0.,-0.00817261,-0.00041242,0.,0.00045541,0
 .00067360,0.,0.00056441,-0.00009634,0.,0.00118451,-0.00166444,0.,0.003
 48481,-0.00861269,0.,-0.07261603,0.09764095,0.,0.,-0.08052707,0.,0.,0.
 03980345,0.,0.,0.03596952,0.,0.,-0.07688731,0.,0.,0.04111494,0.,0.,0.0
 2555910,0.,0.,0.05946948,0.,0.,-0.02739524,0.,0.,-0.02671041,0.,0.,0.0
 5957879,0.,0.,-0.02917262,0.,0.,-0.02080265\\0.,-0.00013353,0.,0.00007
 679,-0.00001975,0.,0.00007679,0.00001975,0.,0.,0.00013353,0.,-0.000076
 79,0.00001975,0.,-0.00007679,-0.00001975,0.,0.,0.00012427,0.,-0.000031
 66,-0.00001688,0.,-0.00003166,0.00001688,0.,0.,-0.00012427,0.,0.000031
 66,0.00001688,0.,0.00003166,-0.00001688,0.\\\@


 DEFINE YOUR TERMS, YOU WILL PERMIT ME AGAIN TO SAY, 
 OR WE SHALL NEVER UNDERSTAND ONE ANOTHER.

                                    -- VOLTAIRE
 Job cpu time:       0 days  0 hours 17 minutes 56.7 seconds.
 Elapsed time:       0 days  0 hours  2 minutes 14.9 seconds.
 File lengths (MBytes):  RWF=    287 Int=      0 D2E=      0 Chk=     67 Scr=      1
 Normal termination of Gaussian 16 at Mon Sep 28 02:50:17 2026.
