%nprocshared=8
%mem=12GB
%chk=calcs/m062x_smd/chks/BrBz_123456_RA.chk
#p Opt=(CalcFC,Tight) Freq M062X/6-311++G(d) SCRF=(SMD,Solvent=Water) Int=UltraFine

BrBz_123456_RA m062x_smd

-1 2
C     -0.00000000     0.08268260     1.38060800
C      0.00000000     1.34183438     0.72699934
C      0.00000000     1.34183438    -0.72699934
C      0.00000000     0.08268260    -1.38060800
C      0.00000000    -1.05079162    -0.65423866
C     -0.00000000    -1.05079162     0.65423866
Br     0.00000000     0.00992191     3.35751800
Br     0.00000000     2.87458096     1.65310057
Br     0.00000000     2.87458096    -1.65310057
Br     0.00000000     0.00992191    -3.35751800
Br    -0.00000000    -2.94072704    -1.70601743
Br     0.00000000    -2.94072704     1.70601743

