%nprocshared=8
%mem=12GB
%chk=calcs/m062x_smd/chks/BrBz_1_RA.chk
#p Opt=(CalcFC,Tight) Freq M062X/6-311++G(d) SCRF=(SMD,Solvent=Water) Int=UltraFine

BrBz_1_RA m062x_smd

-1 2
C      0.00000000     0.09850366    -0.83861900
C      0.00000000     1.28244478    -1.54502577
C      0.00000000     1.20011404    -2.94073678
C      0.00000000    -0.04925183    -3.56960000
C     -0.00000000    -1.22122196    -2.81408922
C      0.00000000    -1.15579722    -1.41134223
Br    -0.00000000    -0.02462591     2.63059500
H      0.00000000     2.24874567    -1.04303459
H      0.00000000     2.10973514    -3.53937159
H      0.00000000    -0.10553963    -4.65391100
H     -0.00000000    -2.18713086    -3.30718441
H      0.00000000    -2.05877433    -0.81084741

