%nprocshared=8
%mem=12GB
%chk=calcs/m062x_smd/chks/BrBz_12_RA.chk
#p Opt=(CalcFC,Tight) Freq M062X/6-311++G(d) SCRF=(SMD,Solvent=Water) Int=UltraFine

BrBz_12_RA m062x_smd

-1 2
C      0.02647059     0.68439000     0.54526500
C      0.02647059    -0.68439000     0.54526500
C     -0.00661765    -1.43335000     1.76671600
C     -0.01323529    -0.68622200     2.98971500
C     -0.01323529     0.68622200     2.98971500
C     -0.00661765     1.43335000     1.76671600
Br    -0.00220588     1.70306700    -1.07118600
Br    -0.00220588    -1.70306700    -1.07118600
H      0.15000000    -2.51411600     1.74853400
H     -0.02867647    -1.22555600     3.93281800
H     -0.02867647     1.22555600     3.93281800
H      0.15000000     2.51411600     1.74853400

