%nprocshared=8
%mem=12GB
%chk=calcs/m062x_smd/chks/BrBz_13_RA.chk
#p Opt=(CalcFC,MaxCycles=300) Freq M062X/6-311++G(d) SCRF=(SMD,Solvent=Water) Int=UltraFine NoSymm

BrBz_13_RA m062x_smd

-1 2
C     -0.00351134     0.31950308     1.39494631
C     -0.00853927    -0.37142236     0.17921550
C     -0.00882802     0.44790262    -0.91610646
C     -0.00131509     1.77713063    -1.06659123
C     -0.00149662     2.48632804     0.10823168
C     -0.00552322     1.75520914     1.35399268
Br     0.00153506    -0.60368700     3.04893750
H     -0.00905535    -1.45482463     0.07296261
Br    -0.00712190    -0.69745954    -3.20860796
H      0.00633153     2.25259566    -2.05412388
H      0.00279027     3.56492895     0.22144182
H     -0.00873522     2.30529489     2.24831329

