%nprocshared=8
%mem=12GB
%chk=calcs/m062x_smd/chks/BrBz_14_RA.chk
#p Opt=(CalcFC,Tight) Freq M062X/6-311++G(d) SCRF=(SMD,Solvent=Water) Int=UltraFine

BrBz_14_RA m062x_smd

-1 2
C     -0.00000000     0.15000000     1.36922300
C      0.00000000     1.11424938     0.74450962
C      0.00000000     1.34501862    -0.71374038
C      0.00000000    -0.15000000    -1.36922300
C      0.00000000    -1.11424938    -0.74450962
C      0.00000000    -1.34501862     0.71374038
Br    -0.00000000     0.00000000     3.29616700
H      0.00000000     2.05023069     1.31889738
H      0.00000000     2.26561531    -1.24966662
Br     0.00000000    -0.00000000    -3.29616700
H      0.00000000    -2.05023069    -1.31889738
H      0.00000000    -2.26561531     1.24966662

