%nprocshared=8
%mem=12GB
%chk=calcs/m062x_smd/chks/BrBz_12345_RA.chk
#p Opt=(CalcFC,Tight) Freq M062X/6-311++G(d) SCRF=(SMD,Solvent=Water) Int=UltraFine

BrBz_12345_RA m062x_smd

-1 2
C      0.00833333    -1.20084000    -1.30763700
C     -0.05277778    -1.19725400     0.08963700
C     -0.08055556     0.00000000     0.76170200
C     -0.05277778     1.19725400     0.08963700
C      0.00833333     1.20084000    -1.30763700
C      0.04444444     0.00000000    -2.00689300
Br     0.04722222    -2.80070400    -2.34108200
Br    -0.11388889    -2.85434400     1.05320900
Br     0.15000000    -0.00000000     3.29506200
Br    -0.11388889     2.85434400     1.05320900
Br     0.04722222     2.80070400    -2.34108200
H      0.09722222     0.00000000    -3.08884800

