%nprocshared=8
%mem=12GB
%chk=calcs/m062x_smd/chks/ClBz_123456_RA.chk
#p Opt=(CalcFC,MaxCycles=300,Tight) Freq M062X/6-311++G(d) SCRF=(SMD,Solvent=Water) Int=UltraFine NoSymm

ClBz_123456_RA m062x_smd

-1 2
C      0.00251520     1.38899698    -0.04905331
C      1.20256873     0.68947841     0.03786313
C      1.20231098    -0.68240951     0.06718956
C     -0.00736564    -1.40434689    -0.06084374
C     -1.21266162    -0.68205673     0.03269039
C     -1.21665322     0.68527389     0.08572983
Cl    -0.01656759     3.02583861    -0.73253390
Cl     2.71505285     1.60197292     0.20780322
Cl     2.66877690    -1.59030161     0.50246360
Cl     0.02443218    -3.03464547    -0.73853600
Cl    -2.72141693    -1.59727860     0.21140592
Cl    -2.68456102     1.57392547     0.50197214

