%nprocshared=8
%mem=12GB
%chk=calcs/m062x_smd/chks/ClBz_124_RA.chk
#p Opt=(CalcFC,Tight) Freq M062X/6-311++G(d) SCRF=(SMD,Solvent=Water) Int=UltraFine

ClBz_124_RA m062x_smd

-1 2
C      1.19716600    -0.17042600     0.01011236
C      0.00000000    -0.83426200     0.01348315
C     -1.25083600    -0.12677700    -0.02022472
C     -1.14938600     1.28982500     0.00337079
C      0.03157600     1.97502500     0.00000000
C      1.27107100     1.24912000    -0.01179775
Cl     2.71651500    -1.04957400    -0.00168539
Cl    -0.08749000    -2.58292000    -0.00337079
H     -2.19679000    -0.64728400     0.15000000
Cl    -2.66808600     2.19368700     0.00000000
H      0.03627300     3.05887500    -0.01348315
H      2.22701300     1.75310600     0.06910112

