%nprocshared=8
%mem=12GB
%chk=calcs/m062x_smd/chks/ClBz_12345_RA.chk
#p Opt=(CalcFC,Tight) Freq M062X/6-311++G(d) SCRF=(SMD,Solvent=Water) Int=UltraFine

ClBz_12345_RA m062x_smd

-1 2
C     -0.01875000     1.21181200    -1.08959500
C     -0.01022727     1.23196300     0.27824500
C      0.06988636    -0.00000000     1.01993000
C     -0.01022727    -1.23196300     0.27824500
C     -0.01875000    -1.21181200    -1.08959500
C      0.01534091     0.00000000    -1.83672800
Cl     0.00000000     2.69408200    -2.01564300
Cl     0.00511364     2.73845000     1.15229800
Cl    -0.01704545     0.00000000     2.75920700
Cl     0.00511364    -2.73845000     1.15229800
Cl     0.00000000    -2.69408200    -2.01564300
H     -0.15000000     0.00000000    -2.91580200

