%nprocshared=8
%mem=12GB
%chk=calcs/m062x_smd/chks/ClBz_14_RA.chk
#p Opt=(CalcFC,Tight) Freq M062X/6-311++G(d) SCRF=(SMD,Solvent=Water) Int=UltraFine

ClBz_14_RA m062x_smd

-1 2
C      0.00000000    -0.12728225     1.36767500
C      0.00000000     1.36136329     0.71941091
C      0.00000000     1.09802071    -0.73696709
C      0.00000000     0.12728225    -1.36767500
C      0.00000000    -1.36136329    -0.71941091
C      0.00000000    -1.09802071     0.73696709
Cl    -0.00000000    -0.00877809     3.14113800
H      0.00000000     2.29576838     1.23562448
H      0.00000000     2.01486962    -1.34096152
Cl     0.00000000     0.00877809    -3.14113800
H     -0.00000000    -2.29576838    -1.23562448
H     -0.00000000    -2.01486962     1.34096152

