%nprocshared=8
%mem=12GB
%chk=calcs/m062x_smd/chks/ClBz_12_RA.chk
#p Opt=(CalcFC,Tight) Freq M062X/6-311++G(d) SCRF=(SMD,Solvent=Water) Int=UltraFine

ClBz_12_RA m062x_smd

-1 2
C      0.02686567    -0.68402400    -0.02731300
C      0.02686567     0.68402400    -0.02731300
C     -0.04029851     1.43504200     1.19022900
C      0.00671642     0.68628000     2.41260300
C      0.00671642    -0.68628000     2.41260300
C     -0.04029851    -1.43504200     1.19022900
Cl    -0.00223881    -1.59793000    -1.52800800
Cl    -0.00223881     1.59793000    -1.52800800
H      0.15000000     2.51596000     1.16678900
H      0.01791045     1.22406600     3.35624100
H      0.01791045    -1.22406600     3.35624100
H      0.15000000    -2.51596000     1.16678900

