 Entering Gaussian System, Link 0=g16
 Initial command:
 /share/software/user/restricted/gaussian/g16.B01/l1.exe "/lscratch/jlapier/g16_45963122_4/Gau-14528.inp" -scrdir="/lscratch/jlapier/g16_45963122_4/"
 Entering Link 1 = /share/software/user/restricted/gaussian/g16.B01/l1.exe PID=     14530.
  
 Copyright (c) 1988-2017, Gaussian, Inc.  All Rights Reserved.
  
 This is part of the Gaussian(R) 16 program.  It is based on
 the Gaussian(R) 09 system (copyright 2009, Gaussian, Inc.),
 the Gaussian(R) 03 system (copyright 2003, Gaussian, Inc.),
 the Gaussian(R) 98 system (copyright 1998, Gaussian, Inc.),
 the Gaussian(R) 94 system (copyright 1995, Gaussian, Inc.),
 the Gaussian 92(TM) system (copyright 1992, Gaussian, Inc.),
 the Gaussian 90(TM) system (copyright 1990, Gaussian, Inc.),
 the Gaussian 88(TM) system (copyright 1988, Gaussian, Inc.),
 the Gaussian 86(TM) system (copyright 1986, Carnegie Mellon
 University), and the Gaussian 82(TM) system (copyright 1983,
 Carnegie Mellon University). Gaussian is a federally registered
 trademark of Gaussian, Inc.
  
 This software contains proprietary and confidential information,
 including trade secrets, belonging to Gaussian, Inc.
  
 This software is provided under written license and may be
 used, copied, transmitted, or stored only in accord with that
 written license.
  
 The following legend is applicable only to US Government
 contracts under FAR:
  
                    RESTRICTED RIGHTS LEGEND
  
 Use, reproduction and disclosure by the US Government is
 subject to restrictions as set forth in subparagraphs (a)
 and (c) of the Commercial Computer Software - Restricted
 Rights clause in FAR 52.227-19.
  
 Gaussian, Inc.
 340 Quinnipiac St., Bldg. 40, Wallingford CT 06492
  
  
 ---------------------------------------------------------------
 Warning -- This program may not be used in any manner that
 competes with the business of Gaussian, Inc. or will provide
 assistance to any competitor of Gaussian, Inc.  The licensee
 of this program is prohibited from giving any competitor of
 Gaussian, Inc. access to this program.  By using this program,
 the user acknowledges that Gaussian, Inc. is engaged in the
 business of creating and licensing software in the field of
 computational chemistry and represents and warrants to the
 licensee that it is not a competitor of Gaussian, Inc. and that
 it will not use this program in any manner prohibited above.
 ---------------------------------------------------------------
  

 Cite this work as:
 Gaussian 16, Revision B.01,
 M. J. Frisch, G. W. Trucks, H. B. Schlegel, G. E. Scuseria, 
 M. A. Robb, J. R. Cheeseman, G. Scalmani, V. Barone, 
 G. A. Petersson, H. Nakatsuji, X. Li, M. Caricato, A. V. Marenich, 
 J. Bloino, B. G. Janesko, R. Gomperts, B. Mennucci, H. P. Hratchian, 
 J. V. Ortiz, A. F. Izmaylov, J. L. Sonnenberg, D. Williams-Young, 
 F. Ding, F. Lipparini, F. Egidi, J. Goings, B. Peng, A. Petrone, 
 T. Henderson, D. Ranasinghe, V. G. Zakrzewski, J. Gao, N. Rega, 
 G. Zheng, W. Liang, M. Hada, M. Ehara, K. Toyota, R. Fukuda, 
 J. Hasegawa, M. Ishida, T. Nakajima, Y. Honda, O. Kitao, H. Nakai, 
 T. Vreven, K. Throssell, J. A. Montgomery, Jr., J. E. Peralta, 
 F. Ogliaro, M. J. Bearpark, J. J. Heyd, E. N. Brothers, K. N. Kudin, 
 V. N. Staroverov, T. A. Keith, R. Kobayashi, J. Normand, 
 K. Raghavachari, A. P. Rendell, J. C. Burant, S. S. Iyengar, 
 J. Tomasi, M. Cossi, J. M. Millam, M. Klene, C. Adamo, R. Cammi, 
 J. W. Ochterski, R. L. Martin, K. Morokuma, O. Farkas, 
 J. B. Foresman, and D. J. Fox, Gaussian, Inc., Wallingford CT, 2016.
 
 ******************************************
 Gaussian 16:  ES64L-G16RevB.01 20-Dec-2017
                29-Sep-2026 
 ******************************************
 %nprocshared=16
 Will use up to   16 processors via shared memory.
 %mem=38GB
 %oldchk=calcs/am1/chks/BDE_24_2r4_anion.chk
 %chk=calcs/b3lyp_gas/chks/BDE_24_2r4_anion.chk
 Copying data from "calcs/am1/chks/BDE_24_2r4_anion.chk" to current chk file "calcs/b3lyp_gas/chks/BDE_24_2r4_anion.chk"
 IOpt=  2 FromEx=T IUOpen= 4 IOptOp= 5 NList=   0 IFRang= 0 IUIn= 4 IUOut= 2.
 ------------------------------------------------------
 #p Opt Freq B3LYP/6-311++G(d) Int=UltraFine Geom=Check
 ------------------------------------------------------
 1/18=20,19=15,26=4,29=2,38=1/1,3;
 2/9=110,12=2,40=1/2;
 3/5=4,6=6,7=1011,11=2,14=-4,25=1,30=1,71=1,74=-5,75=-5/1,2,3;
 4//1;
 5/5=2,38=5/2;
 6/7=2,8=2,9=2,10=2,28=1/1;
 7//1,2,3,16;
 1/18=20,19=15,26=4/3(2);
 2/9=110/2;
 99//99;
 2/9=110/2;
 3/5=4,6=6,7=1011,11=2,14=-2,25=1,30=1,71=1,74=-5,75=-5/1,2,3;
 4/5=5,16=3,69=1/1;
 5/5=2,38=5/2;
 7//1,2,3,16;
 1/18=20,19=15,26=4/3(-5);
 2/9=110/2;
 6/7=2,8=2,9=2,10=2,19=2,28=1/1;
 99/9=1/99;
 Leave Link    1 at Tue Sep 29 16:14:47 2026, MaxMem=  5100273664 cpu:               2.5 elap:               0.2
 (Enter /share/software/user/restricted/gaussian/g16.B01/l101.exe)
 --------------------------
 BDE_24_2r4_anion b3lyp_gas
 --------------------------
 Structure from the checkpoint file:  "calcs/b3lyp_gas/chks/BDE_24_2r4_anion.chk"
 Charge = -1 Multiplicity = 1
 Redundant internal coordinates found in file.  (old form).
 C,0,-1.2228544594,-0.8288877497,0.093870845
 C,0,-2.3671848329,-0.023409009,0.2442529723
 C,0,-3.6226007104,-0.6475594032,0.2774519202
 C,0,-3.7190055452,-2.0320905768,0.163319597
 C,0,-2.5625740298,-2.8136261808,0.0144441428
 C,0,-1.3205351357,-2.2175867385,-0.0203955811
 C,0,1.1721226088,-0.8557423407,-0.0768013499
 C,0,1.2534578631,-2.2518348274,-0.2047947275
 C,0,2.4965491517,-2.8458987218,-0.3443257806
 C,0,3.658895326,-2.0629103968,-0.3575046978
 C,0,3.5731724832,-0.6760248215,-0.2299945424
 C,0,2.3318333912,-0.0599755974,-0.0886845387
 O,0,-0.0052376852,-0.1442210383,0.0683948094
 Br,0,-2.3368706727,1.8565607834,0.406504586
 H,0,-4.5289844789,-0.0353439755,0.3941937549
 Br,0,-5.4250186186,-2.8412872813,0.211632131
 H,0,-2.6427649358,-3.9062387392,-0.0750713051
 H,0,0.1915806262,-2.773424383,-0.1755902079
 H,0,2.5616951449,-3.939205804,-0.4447380246
 Br,0,5.3449034564,-2.8779016186,-0.54752065
 H,0,4.4811385261,-0.0557606788,-0.2395475517
 H,0,2.2526601971,1.0300837588,0.0123980289
 Recover connectivity data from disk.
 ITRead=  0  0  0  0  0  0  0  0  0  0  0  0  0  0  0  0  0  0  0  0
 ITRead=  0  0
 MicOpt= -1 -1 -1 -1 -1 -1 -1 -1 -1 -1 -1 -1 -1 -1 -1 -1 -1 -1 -1 -1
 MicOpt= -1 -1
 NAtoms=     22 NQM=       22 NQMF=       0 NMMI=      0 NMMIF=      0
                NMic=       0 NMicF=      0.
                    Isotopes and Nuclear Properties:
 (Nuclear quadrupole moments (NQMom) in fm**2, nuclear magnetic moments (NMagM)
  in nuclear magnetons)

  Atom         1           2           3           4           5           6           7           8           9          10
 IAtWgt=          12          12          12          12          12          12          12          12          12          12
 AtmWgt=  12.0000000  12.0000000  12.0000000  12.0000000  12.0000000  12.0000000  12.0000000  12.0000000  12.0000000  12.0000000
 NucSpn=           0           0           0           0           0           0           0           0           0           0
 AtZEff=   3.9000000   3.9000000   3.9000000   3.9000000   3.9000000   3.9000000   3.9000000   3.9000000   3.9000000   3.9000000
 NQMom=    0.0000000   0.0000000   0.0000000   0.0000000   0.0000000   0.0000000   0.0000000   0.0000000   0.0000000   0.0000000
 NMagM=    0.0000000   0.0000000   0.0000000   0.0000000   0.0000000   0.0000000   0.0000000   0.0000000   0.0000000   0.0000000
 AtZNuc=   6.0000000   6.0000000   6.0000000   6.0000000   6.0000000   6.0000000   6.0000000   6.0000000   6.0000000   6.0000000

  Atom        11          12          13          14          15          16          17          18          19          20
 IAtWgt=          12          12          16          79           1          79           1           1           1          79
 AtmWgt=  12.0000000  12.0000000  15.9949146  78.9183361   1.0078250  78.9183361   1.0078250   1.0078250   1.0078250  78.9183361
 NucSpn=           0           0           0           3           1           3           1           1           1           3
 AtZEff=   3.9000000   3.9000000   6.00000001435.0000000   1.00000001435.0000000   1.0000000   1.0000000   1.00000001435.0000000
 NQMom=    0.0000000   0.0000000   0.0000000  31.3000000   0.0000000  31.3000000   0.0000000   0.0000000   0.0000000  31.3000000
 NMagM=    0.0000000   0.0000000   0.0000000   2.1063990   2.7928460   2.1063990   2.7928460   2.7928460   2.7928460   2.1063990
 AtZNuc=   6.0000000   6.0000000   8.0000000  35.0000000   1.0000000  35.0000000   1.0000000   1.0000000   1.0000000  35.0000000

  Atom        21          22
 IAtWgt=           1           1
 AtmWgt=   1.0078250   1.0078250
 NucSpn=           1           1
 AtZEff=   1.0000000   1.0000000
 NQMom=    0.0000000   0.0000000
 NMagM=    2.7928460   2.7928460
 AtZNuc=   1.0000000   1.0000000
 Leave Link  101 at Tue Sep 29 16:14:47 2026, MaxMem=  5100273664 cpu:               5.9 elap:               0.4
 (Enter /share/software/user/restricted/gaussian/g16.B01/l103.exe)

 GradGradGradGradGradGradGradGradGradGradGradGradGradGradGradGradGradGrad
 Berny optimization.
 Initialization pass.
                           ----------------------------
                           !    Initial Parameters    !
                           ! (Angstroms and Degrees)  !
 --------------------------                            --------------------------
 ! Name  Definition              Value          Derivative Info.                !
 --------------------------------------------------------------------------------
 ! R1    R(1,2)                  1.4074         estimate D2E/DX2                !
 ! R2    R(1,6)                  1.3968         estimate D2E/DX2                !
 ! R3    R(1,13)                 1.3971         estimate D2E/DX2                !
 ! R4    R(2,3)                  1.4024         estimate D2E/DX2                !
 ! R5    R(2,14)                 1.8872         estimate D2E/DX2                !
 ! R6    R(3,4)                  1.3926         estimate D2E/DX2                !
 ! R7    R(3,15)                 1.1            estimate D2E/DX2                !
 ! R8    R(4,5)                  1.4037         estimate D2E/DX2                !
 ! R9    R(4,16)                 1.8888         estimate D2E/DX2                !
 ! R10   R(5,6)                  1.3781         estimate D2E/DX2                !
 ! R11   R(5,17)                 1.0992         estimate D2E/DX2                !
 ! R12   R(6,18)                 1.6185         estimate D2E/DX2                !
 ! R13   R(7,8)                  1.4043         estimate D2E/DX2                !
 ! R14   R(7,12)                 1.4065         estimate D2E/DX2                !
 ! R15   R(7,13)                 1.3833         estimate D2E/DX2                !
 ! R16   R(8,9)                  1.3848         estimate D2E/DX2                !
 ! R17   R(9,10)                 1.4015         estimate D2E/DX2                !
 ! R18   R(9,19)                 1.0998         estimate D2E/DX2                !
 ! R19   R(10,11)                1.3954         estimate D2E/DX2                !
 ! R20   R(10,20)                1.8823         estimate D2E/DX2                !
 ! R21   R(11,12)                1.393          estimate D2E/DX2                !
 ! R22   R(11,21)                1.0996         estimate D2E/DX2                !
 ! R23   R(12,22)                1.0976         estimate D2E/DX2                !
 ! A1    A(2,1,6)              121.3898         estimate D2E/DX2                !
 ! A2    A(2,1,13)             115.4724         estimate D2E/DX2                !
 ! A3    A(6,1,13)             123.1378         estimate D2E/DX2                !
 ! A4    A(1,2,3)              118.4024         estimate D2E/DX2                !
 ! A5    A(1,2,14)             124.4878         estimate D2E/DX2                !
 ! A6    A(3,2,14)             117.1097         estimate D2E/DX2                !
 ! A7    A(2,3,4)              120.1669         estimate D2E/DX2                !
 ! A8    A(2,3,15)             119.5011         estimate D2E/DX2                !
 ! A9    A(4,3,15)             120.332          estimate D2E/DX2                !
 ! A10   A(3,4,5)              120.3462         estimate D2E/DX2                !
 ! A11   A(3,4,16)             119.1026         estimate D2E/DX2                !
 ! A12   A(5,4,16)             120.5512         estimate D2E/DX2                !
 ! A13   A(4,5,6)              120.2911         estimate D2E/DX2                !
 ! A14   A(4,5,17)             120.1307         estimate D2E/DX2                !
 ! A15   A(6,5,17)             119.5781         estimate D2E/DX2                !
 ! A16   A(1,6,5)              119.4035         estimate D2E/DX2                !
 ! A17   A(1,6,18)             106.4957         estimate D2E/DX2                !
 ! A18   A(5,6,18)             134.1008         estimate D2E/DX2                !
 ! A19   A(8,7,12)             120.9262         estimate D2E/DX2                !
 ! A20   A(8,7,13)             124.7655         estimate D2E/DX2                !
 ! A21   A(12,7,13)            114.3083         estimate D2E/DX2                !
 ! A22   A(7,8,9)              119.1867         estimate D2E/DX2                !
 ! A23   A(8,9,10)             120.3818         estimate D2E/DX2                !
 ! A24   A(8,9,19)             119.2626         estimate D2E/DX2                !
 ! A25   A(10,9,19)            120.3556         estimate D2E/DX2                !
 ! A26   A(9,10,11)            120.2292         estimate D2E/DX2                !
 ! A27   A(9,10,20)            120.1272         estimate D2E/DX2                !
 ! A28   A(11,10,20)           119.6436         estimate D2E/DX2                !
 ! A29   A(10,11,12)           120.237          estimate D2E/DX2                !
 ! A30   A(10,11,21)           120.6045         estimate D2E/DX2                !
 ! A31   A(12,11,21)           119.1585         estimate D2E/DX2                !
 ! A32   A(7,12,11)            119.0391         estimate D2E/DX2                !
 ! A33   A(7,12,22)            120.1079         estimate D2E/DX2                !
 ! A34   A(11,12,22)           120.853          estimate D2E/DX2                !
 ! A35   A(1,13,7)             119.4464         estimate D2E/DX2                !
 ! D1    D(6,1,2,3)             -0.0132         estimate D2E/DX2                !
 ! D2    D(6,1,2,14)           179.9845         estimate D2E/DX2                !
 ! D3    D(13,1,2,3)           179.9906         estimate D2E/DX2                !
 ! D4    D(13,1,2,14)           -0.0117         estimate D2E/DX2                !
 ! D5    D(2,1,6,5)              0.0076         estimate D2E/DX2                !
 ! D6    D(2,1,6,18)           179.9696         estimate D2E/DX2                !
 ! D7    D(13,1,6,5)          -179.9965         estimate D2E/DX2                !
 ! D8    D(13,1,6,18)           -0.0345         estimate D2E/DX2                !
 ! D9    D(2,1,13,7)          -179.9669         estimate D2E/DX2                !
 ! D10   D(6,1,13,7)             0.037          estimate D2E/DX2                !
 ! D11   D(1,2,3,4)              0.0064         estimate D2E/DX2                !
 ! D12   D(1,2,3,15)          -179.993          estimate D2E/DX2                !
 ! D13   D(14,2,3,4)          -179.9914         estimate D2E/DX2                !
 ! D14   D(14,2,3,15)            0.0092         estimate D2E/DX2                !
 ! D15   D(2,3,4,5)              0.0058         estimate D2E/DX2                !
 ! D16   D(2,3,4,16)          -179.9929         estimate D2E/DX2                !
 ! D17   D(15,3,4,5)          -179.9948         estimate D2E/DX2                !
 ! D18   D(15,3,4,16)            0.0065         estimate D2E/DX2                !
 ! D19   D(3,4,5,6)             -0.0116         estimate D2E/DX2                !
 ! D20   D(3,4,5,17)           179.9841         estimate D2E/DX2                !
 ! D21   D(16,4,5,6)           179.9871         estimate D2E/DX2                !
 ! D22   D(16,4,5,17)           -0.0173         estimate D2E/DX2                !
 ! D23   D(4,5,6,1)              0.0049         estimate D2E/DX2                !
 ! D24   D(4,5,6,18)          -179.9444         estimate D2E/DX2                !
 ! D25   D(17,5,6,1)          -179.9908         estimate D2E/DX2                !
 ! D26   D(17,5,6,18)            0.0599         estimate D2E/DX2                !
 ! D27   D(12,7,8,9)            -0.0028         estimate D2E/DX2                !
 ! D28   D(13,7,8,9)          -179.9997         estimate D2E/DX2                !
 ! D29   D(8,7,12,11)            0.0017         estimate D2E/DX2                !
 ! D30   D(8,7,12,22)         -179.9974         estimate D2E/DX2                !
 ! D31   D(13,7,12,11)         179.9989         estimate D2E/DX2                !
 ! D32   D(13,7,12,22)          -0.0001         estimate D2E/DX2                !
 ! D33   D(8,7,13,1)            -0.013          estimate D2E/DX2                !
 ! D34   D(12,7,13,1)          179.9899         estimate D2E/DX2                !
 ! D35   D(7,8,9,10)             0.0032         estimate D2E/DX2                !
 ! D36   D(7,8,9,19)          -179.9955         estimate D2E/DX2                !
 ! D37   D(8,9,10,11)           -0.0025         estimate D2E/DX2                !
 ! D38   D(8,9,10,20)          179.9985         estimate D2E/DX2                !
 ! D39   D(19,9,10,11)         179.9961         estimate D2E/DX2                !
 ! D40   D(19,9,10,20)          -0.0028         estimate D2E/DX2                !
 ! D41   D(9,10,11,12)           0.0014         estimate D2E/DX2                !
 ! D42   D(9,10,11,21)        -179.9991         estimate D2E/DX2                !
 ! D43   D(20,10,11,12)       -179.9997         estimate D2E/DX2                !
 ! D44   D(20,10,11,21)         -0.0002         estimate D2E/DX2                !
 ! D45   D(10,11,12,7)          -0.001          estimate D2E/DX2                !
 ! D46   D(10,11,12,22)        179.998          estimate D2E/DX2                !
 ! D47   D(21,11,12,7)         179.9996         estimate D2E/DX2                !
 ! D48   D(21,11,12,22)         -0.0014         estimate D2E/DX2                !
 --------------------------------------------------------------------------------
 Trust Radius=3.00D-01 FncErr=1.00D-07 GrdErr=1.00D-06 EigMax=2.50D+02 EigMin=1.00D-04
 Number of steps in this run=    116 maximum allowed number of steps=    132.
 GradGradGradGradGradGradGradGradGradGradGradGradGradGradGradGradGradGrad

 Leave Link  103 at Tue Sep 29 16:14:47 2026, MaxMem=  5100273664 cpu:               0.4 elap:               0.0
 (Enter /share/software/user/restricted/gaussian/g16.B01/l202.exe)
                          Input orientation:                          
 ---------------------------------------------------------------------
 Center     Atomic      Atomic             Coordinates (Angstroms)
 Number     Number       Type             X           Y           Z
 ---------------------------------------------------------------------
      1          6           0       -1.222854   -0.828888    0.093871
      2          6           0       -2.367185   -0.023409    0.244253
      3          6           0       -3.622601   -0.647559    0.277452
      4          6           0       -3.719006   -2.032091    0.163320
      5          6           0       -2.562574   -2.813626    0.014444
      6          6           0       -1.320535   -2.217587   -0.020396
      7          6           0        1.172123   -0.855742   -0.076801
      8          6           0        1.253458   -2.251835   -0.204795
      9          6           0        2.496549   -2.845899   -0.344326
     10          6           0        3.658895   -2.062910   -0.357505
     11          6           0        3.573172   -0.676025   -0.229995
     12          6           0        2.331833   -0.059976   -0.088685
     13          8           0       -0.005238   -0.144221    0.068395
     14         35           0       -2.336871    1.856561    0.406505
     15          1           0       -4.528984   -0.035344    0.394194
     16         35           0       -5.425019   -2.841287    0.211632
     17          1           0       -2.642765   -3.906239   -0.075071
     18          1           0        0.191581   -2.773424   -0.175590
     19          1           0        2.561695   -3.939206   -0.444738
     20         35           0        5.344903   -2.877902   -0.547521
     21          1           0        4.481139   -0.055761   -0.239548
     22          1           0        2.252660    1.030084    0.012398
 ---------------------------------------------------------------------
                    Distance matrix (angstroms):
                    1          2          3          4          5
     1  C    0.000000
     2  C    1.407445   0.000000
     3  C    2.413579   1.402403   0.000000
     4  C    2.771875   2.422555   1.392568   0.000000
     5  C    2.395901   2.806475   2.425835   1.403672   0.000000
     6  C    1.396812   2.445390   2.802357   2.412638   1.378092
     7  C    2.401201   3.650007   4.812297   5.036327   4.217771
     8  C    2.871603   4.275112   5.155794   4.990911   3.863389
     9  C    4.253741   5.654094   6.531715   6.289126   5.071931
    10  C    5.055495   6.390252   7.444902   7.396325   6.277627
    11  C    4.809379   5.994886   7.213700   7.427615   6.502036
    12  C    3.641477   4.710940   5.994547   6.369097   5.616801
    13  O    1.397143   2.371564   3.658192   4.167149   3.697107
    14  Br   2.924108   1.887202   2.817867   4.134132   4.692046
    15  H    3.413268   2.167026   1.099985   2.167110   3.424884
    16  Br   4.660666   4.158347   2.839980   1.888813   2.869362
    17  H    3.393343   3.905673   3.421015   2.174294   1.099202
    18  H    2.419599   3.779700   4.390049   3.994636   2.760996
    19  H    4.928184   6.332616   7.042869   6.591967   5.266490
    20  Br   6.909796   8.261437   9.277453   9.130999   7.927682
    21  H    5.765798   6.865467   8.141751   8.444557   7.568634
    22  H    3.942286   4.744109   6.115834   6.712710   6.161217
                    6          7          8          9         10
     6  C    0.000000
     7  C    2.840976   0.000000
     8  C    2.580817   1.404305   0.000000
     9  C    3.881989   2.405493   1.384795   0.000000
    10  C    4.993225   2.778505   2.417673   1.401532   0.000000
    11  C    5.135048   2.412635   2.804441   2.424983   1.395371
    12  C    4.242611   1.406526   2.445531   2.802472   2.417665
    13  O    2.456977   1.383301   2.470017   3.705177   4.157960
    14  Br   4.220647   4.461301   5.490270   6.785191   7.203831
    15  H    3.902335   5.779058   6.221596   7.602812   8.468616
    16  Br   4.158079   6.895495   6.717359   7.941054   9.134948
    17  H    2.145420   4.884557   4.234906   5.254462   6.571800
    18  H    1.618498   2.156090   1.183424   2.312273   3.544036
    19  H    4.267991   3.402064   2.148553   1.099840   2.175303
    20  Br   6.718776   4.660773   4.153233   2.855772   1.882270
    21  H    6.195235   3.408232   3.904084   3.425557   2.172245
    22  H    4.828681   2.175283   3.437523   3.899997   3.417739
                   11         12         13         14         15
    11  C    0.000000
    12  C    1.392985   0.000000
    13  O    3.629996   2.343858   0.000000
    14  Br   6.461248   5.071008   3.090948   0.000000
    15  H    8.151382   6.877834   4.536770   2.895655   0.000000
    16  Br   9.265573   8.245886   6.055469   5.625336   2.951190
    17  H    7.006865   6.288128   4.596728   5.790971   4.331496
    18  H    3.979599   3.457027   2.647825   5.307416   5.486845
    19  H    3.423091   3.902312   4.610245   7.636195   8.137671
    20  Br   2.843961   4.150883   6.039567   9.073861  10.317976
    21  H    1.099646   2.154597   4.497802   7.110528   9.032406
    22  H    2.171017   1.097595   2.545630   4.679976   6.875435
                   16         17         18         19         20
    16  Br   0.000000
    17  H    2.992868   0.000000
    18  H    5.630340   3.053995   0.000000
    19  H    8.088501   5.217676   2.654982   0.000000
    20  Br  10.796707   8.067437   5.167783   2.980466   0.000000
    21  H   10.300227   8.099582   5.078395   4.336763   2.967392
    22  H    8.600812   6.952706   4.330134   4.999831   5.014761
                   21         22
    21  H    0.000000
    22  H    2.491716   0.000000
 Stoichiometry    C12H6Br3O(1-)
 Framework group  C1[X(C12H6Br3O)]
 Deg. of freedom    60
 Full point group                 C1      NOp   1
 RotChk:  IX=2 Diff= 4.94D-16
 Largest Abelian subgroup         C1      NOp   1
 Largest concise Abelian subgroup C1      NOp   1
                         Standard orientation:                         
 ---------------------------------------------------------------------
 Center     Atomic      Atomic             Coordinates (Angstroms)
 Number     Number       Type             X           Y           Z
 ---------------------------------------------------------------------
      1          6           0        0.839048    0.382473   -0.000586
      2          6           0        2.080699    1.045199   -0.000095
      3          6           0        3.250053    0.271023    0.000156
      4          6           0        3.168925   -1.119180   -0.000213
      5          6           0        1.918316   -1.756574   -0.000962
      6          6           0        0.758669   -1.012024   -0.001097
      7          6           0       -1.547530    0.647070   -0.000379
      8          6           0       -1.807026   -0.733051   -0.000379
      9          6           0       -3.119968   -1.173325   -0.000140
     10          6           0       -4.176430   -0.252358    0.000031
     11          6           0       -3.913744    1.118064    0.000016
     12          6           0       -2.599736    1.580438   -0.000199
     13          8           0       -0.284971    1.212285   -0.000609
     14         35           0        2.290965    2.920650    0.000190
     15          1           0        4.230215    0.770272    0.000657
     16         35           0        4.762954   -2.132436    0.000344
     17          1           0        1.858407   -2.854143   -0.001516
     18          1           0       -0.817087   -1.381521   -0.000730
     19          1           0       -3.324634   -2.253953   -0.000064
     20         35           0       -5.958358   -0.858719    0.000314
     21          1           0       -4.737896    1.846071    0.000164
     22          1           0       -2.381530    2.656125   -0.000246
 ---------------------------------------------------------------------
 Rotational constants (GHZ):           0.3905969           0.0830329           0.0684762
 Leave Link  202 at Tue Sep 29 16:14:48 2026, MaxMem=  5100273664 cpu:               0.4 elap:               0.0
 (Enter /share/software/user/restricted/gaussian/g16.B01/l301.exe)
 Standard basis: 6-311++G(d) (5D, 7F)
 Ernie: Thresh=  0.10000D-02 Tol=  0.10000D-05 Strict=F.
 There are   476 symmetry adapted cartesian basis functions of A   symmetry.
 There are   454 symmetry adapted basis functions of A   symmetry.
   454 basis functions,   786 primitive gaussians,   476 cartesian basis functions
    96 alpha electrons       96 beta electrons
       nuclear repulsion energy      1983.8486004882 Hartrees.
 IExCor=  402 DFT=T Ex+Corr=B3LYP ExCW=0 ScaHFX=  0.200000
 ScaDFX=  0.800000  0.720000  1.000000  0.810000 ScalE2=  1.000000  1.000000
 IRadAn=      5 IRanWt=     -1 IRanGd=            0 ICorTp=0 IEmpDi=  4
 NAtoms=   22 NActive=   22 NUniq=   22 SFac= 1.00D+00 NAtFMM=   60 NAOKFM=F Big=F
 Integral buffers will be    131072 words long.
 Raffenetti 2 integral format.
 Two-electron integral symmetry is turned on.
 Leave Link  301 at Tue Sep 29 16:14:48 2026, MaxMem=  5100273664 cpu:               0.6 elap:               0.0
 (Enter /share/software/user/restricted/gaussian/g16.B01/l302.exe)
 NPDir=0 NMtPBC=     1 NCelOv=     1 NCel=       1 NClECP=     1 NCelD=      1
         NCelK=      1 NCelE2=     1 NClLst=     1 CellRange=     0.0.
 One-electron integrals computed using PRISM.
 One-electron integral symmetry used in STVInt
 NBasis=   454 RedAO= T EigKep=  1.63D-06  NBF=   454
 NBsUse=   450 1.00D-06 EigRej=  7.94D-07 NBFU=   450
 Precomputing XC quadrature grid using
 IXCGrd= 4 IRadAn=           5 IRanWt=          -1 IRanGd=           0 AccXCQ= 0.00D+00.
 Generated NRdTot=       0 NPtTot=           0 NUsed=           0 NTot=          32
 NSgBfM=   448   448   448   448   448 MxSgAt=    22 MxSgA2=    22.
 Leave Link  302 at Tue Sep 29 16:14:48 2026, MaxMem=  5100273664 cpu:               4.2 elap:               0.3
 (Enter /share/software/user/restricted/gaussian/g16.B01/l303.exe)
 DipDrv:  MaxL=1.
 Leave Link  303 at Tue Sep 29 16:14:48 2026, MaxMem=  5100273664 cpu:               0.8 elap:               0.1
 (Enter /share/software/user/restricted/gaussian/g16.B01/l401.exe)
 ExpMin= 3.50D-02 ExpMax= 4.40D+05 ExpMxC= 1.51D+04 IAcc=3 IRadAn=         5 AccDes= 0.00D+00
 Harris functional with IExCor=  402 and IRadAn=       5 diagonalized for initial guess.
 HarFok:  IExCor=  402 AccDes= 0.00D+00 IRadAn=         5 IDoV= 1 UseB2=F ITyADJ=14
 ICtDFT=  3500011 ScaDFX=  1.000000  1.000000  1.000000  1.000000
 FoFCou: FMM=F IPFlag=           0 FMFlag=      100000 FMFlg1=           0
         NFxFlg=           0 DoJE=T BraDBF=F KetDBF=T FulRan=T
         wScrn=  0.000000 ICntrl=       500 IOpCl=  0 I1Cent=   200000004 NGrid=           0
         NMat0=    1 NMatS0=      1 NMatT0=    0 NMatD0=    1 NMtDS0=    0 NMtDT0=    0
 Petite list used in FoFCou.
 Harris En= -8258.99727482962    
 JPrj=0 DoOrth=F DoCkMO=F.
 Leave Link  401 at Tue Sep 29 16:14:49 2026, MaxMem=  5100273664 cpu:              18.8 elap:               1.2
 (Enter /share/software/user/restricted/gaussian/g16.B01/l502.exe)
 Integral symmetry usage will be decided dynamically.
 Closed shell SCF:
 Using DIIS extrapolation, IDIIS=  1040.
 NGot=  5100273664 LenX=  5099808623 LenY=  5099581571
 Requested convergence on RMS density matrix=1.00D-08 within 128 cycles.
 Requested convergence on MAX density matrix=1.00D-06.
 Requested convergence on             energy=1.00D-06.
 No special actions if energy rises.
 Fock matrices will be formed incrementally for  20 cycles.

 Cycle   1  Pass 1  IDiag  1:
 FoFJK:  IHMeth= 1 ICntrl=       0 DoSepK=F KAlg= 0 I1Cent=           0 FoldK=F
 IRaf= 770000000 NMat=       1 IRICut=       1 DoRegI=T DoRafI=F ISym2E= 0 IDoP0=0 IntGTp=1.
 FoFCou: FMM=F IPFlag=           0 FMFlag=      100000 FMFlg1=           0
         NFxFlg=           0 DoJE=F BraDBF=F KetDBF=F FulRan=T
         wScrn=  0.000000 ICntrl=         0 IOpCl=  0 I1Cent=           0 NGrid=           0
         NMat0=    1 NMatS0=      1 NMatT0=    0 NMatD0=    1 NMtDS0=    0 NMtDT0=    0
 Symmetry not used in FoFCou.
 E= -8258.16984363180    
 DIIS: error= 8.85D-02 at cycle   1 NSaved=   1.
 NSaved= 1 IEnMin= 1 EnMin= -8258.16984363180     IErMin= 1 ErrMin= 8.85D-02
 ErrMax= 8.85D-02  0.00D+00 EMaxC= 1.00D-01 BMatC= 3.93D+00 BMatP= 3.93D+00
 IDIUse=3 WtCom= 1.15D-01 WtEn= 8.85D-01
 Coeff-Com:  0.100D+01
 Coeff-En:   0.100D+01
 Coeff:      0.100D+01
 Gap=     0.057 Goal=   None    Shift=    0.000
 GapD=    0.057 DampG=0.500 DampE=0.500 DampFc=0.2500 IDamp=-1.
 Damping current iteration by 2.50D-01
 RMSDP=5.08D-01 MaxDP=3.57D+01              OVMax= 9.95D-01

 Cycle   2  Pass 1  IDiag  1:
 RMSU=  1.20D-01    CP:  1.86D+00
 E= -8258.28773402293     Delta-E=       -0.117890391122 Rises=F Damp=T
 DIIS: error= 6.60D-02 at cycle   2 NSaved=   2.
 NSaved= 2 IEnMin= 2 EnMin= -8258.28773402293     IErMin= 2 ErrMin= 6.60D-02
 ErrMax= 6.60D-02  0.00D+00 EMaxC= 1.00D-01 BMatC= 1.76D+00 BMatP= 3.93D+00
 IDIUse=3 WtCom= 3.40D-01 WtEn= 6.60D-01
 Coeff-Com: -0.146D+01 0.246D+01
 Coeff-En:   0.181D+00 0.819D+00
 Coeff:     -0.377D+00 0.138D+01
 Gap=    -0.039 Goal=   None    Shift=    0.000
 RMSDP=1.31D-01 MaxDP=8.78D+00 DE=-1.18D-01 OVMax= 9.04D-01

 Cycle   3  Pass 1  IDiag  1:
 RMSU=  1.47D-02    CP:  8.41D-01 -2.13D-03
 E= -8258.35241234808     Delta-E=       -0.064678325156 Rises=F Damp=F
 DIIS: error= 4.00D-02 at cycle   3 NSaved=   3.
 NSaved= 3 IEnMin= 3 EnMin= -8258.35241234808     IErMin= 3 ErrMin= 4.00D-02
 ErrMax= 4.00D-02  0.00D+00 EMaxC= 1.00D-01 BMatC= 2.70D-01 BMatP= 1.76D+00
 IDIUse=3 WtCom= 6.00D-01 WtEn= 4.00D-01
 Coeff-Com: -0.557D+00 0.937D+00 0.620D+00
 Coeff-En:   0.000D+00 0.402D+00 0.598D+00
 Coeff:     -0.334D+00 0.723D+00 0.611D+00
 Gap=     0.246 Goal=   None    Shift=    0.000
 RMSDP=3.12D-02 MaxDP=1.62D+00 DE=-6.47D-02 OVMax= 4.93D-01

 Cycle   4  Pass 1  IDiag  1:
 RMSU=  3.05D-02    CP:  8.18D-01 -1.57D-02  6.05D-01
 E= -8258.33927064790     Delta-E=        0.013141700183 Rises=F Damp=F
 DIIS: error= 4.26D-02 at cycle   4 NSaved=   4.
 NSaved= 4 IEnMin= 3 EnMin= -8258.35241234808     IErMin= 3 ErrMin= 4.00D-02
 ErrMax= 4.26D-02  0.00D+00 EMaxC= 1.00D-01 BMatC= 2.60D-01 BMatP= 2.70D-01
 IDIUse=3 WtCom= 5.74D-01 WtEn= 4.26D-01
 Coeff-Com: -0.118D+00 0.225D+00 0.477D+00 0.415D+00
 Coeff-En:   0.000D+00 0.000D+00 0.508D+00 0.492D+00
 Coeff:     -0.678D-01 0.129D+00 0.490D+00 0.448D+00
 Gap=     0.095 Goal=   None    Shift=    0.000
 RMSDP=2.94D-02 MaxDP=2.04D+00 DE= 1.31D-02 OVMax= 3.59D-01

 Cycle   5  Pass 1  IDiag  1:
 RMSU=  8.16D-03    CP:  7.20D-01 -4.23D-03  5.59D-01  9.10D-02
 E= -8258.62326141560     Delta-E=       -0.283990767701 Rises=F Damp=F
 DIIS: error= 7.42D-03 at cycle   5 NSaved=   5.
 NSaved= 5 IEnMin= 5 EnMin= -8258.62326141560     IErMin= 5 ErrMin= 7.42D-03
 ErrMax= 7.42D-03  0.00D+00 EMaxC= 1.00D-01 BMatC= 2.14D-02 BMatP= 2.60D-01
 IDIUse=3 WtCom= 9.26D-01 WtEn= 7.42D-02
 Coeff-Com: -0.381D-01 0.668D-01 0.205D+00 0.253D+00 0.514D+00
 Coeff-En:   0.000D+00 0.000D+00 0.000D+00 0.588D-01 0.941D+00
 Coeff:     -0.353D-01 0.619D-01 0.190D+00 0.238D+00 0.545D+00
 Gap=     0.120 Goal=   None    Shift=    0.000
 RMSDP=3.42D-03 MaxDP=2.47D-01 DE=-2.84D-01 OVMax= 6.25D-02

 Cycle   6  Pass 1  IDiag  1:
 RMSU=  2.86D-03    CP:  7.17D-01 -4.77D-03  6.43D-01  9.38D-02  8.30D-01
 E= -8258.63992659656     Delta-E=       -0.016665180963 Rises=F Damp=F
 DIIS: error= 3.78D-03 at cycle   6 NSaved=   6.
 NSaved= 6 IEnMin= 6 EnMin= -8258.63992659656     IErMin= 6 ErrMin= 3.78D-03
 ErrMax= 3.78D-03  0.00D+00 EMaxC= 1.00D-01 BMatC= 4.57D-03 BMatP= 2.14D-02
 IDIUse=3 WtCom= 9.62D-01 WtEn= 3.78D-02
 Coeff-Com: -0.450D-01 0.621D-01 0.247D-01 0.557D-01 0.315D+00 0.587D+00
 Coeff-En:   0.000D+00 0.000D+00 0.000D+00 0.000D+00 0.182D+00 0.818D+00
 Coeff:     -0.433D-01 0.598D-01 0.238D-01 0.536D-01 0.310D+00 0.596D+00
 Gap=     0.125 Goal=   None    Shift=    0.000
 RMSDP=1.34D-03 MaxDP=1.32D-01 DE=-1.67D-02 OVMax= 2.52D-02

 Cycle   7  Pass 1  IDiag  1:
 RMSU=  8.74D-04    CP:  7.15D-01 -2.89D-03  6.08D-01  9.54D-02  8.64D-01
                    CP:  7.28D-01
 E= -8258.64375662550     Delta-E=       -0.003830028940 Rises=F Damp=F
 DIIS: error= 1.54D-03 at cycle   7 NSaved=   7.
 NSaved= 7 IEnMin= 7 EnMin= -8258.64375662550     IErMin= 7 ErrMin= 1.54D-03
 ErrMax= 1.54D-03  0.00D+00 EMaxC= 1.00D-01 BMatC= 8.57D-04 BMatP= 4.57D-03
 IDIUse=3 WtCom= 9.85D-01 WtEn= 1.54D-02
 Coeff-Com: -0.322D-01 0.432D-01-0.958D-02 0.103D-01 0.150D+00 0.388D+00
 Coeff-Com:  0.451D+00
 Coeff-En:   0.000D+00 0.000D+00 0.000D+00 0.000D+00 0.000D+00 0.850D-01
 Coeff-En:   0.915D+00
 Coeff:     -0.317D-01 0.425D-01-0.943D-02 0.102D-01 0.147D+00 0.383D+00
 Coeff:      0.458D+00
 Gap=     0.121 Goal=   None    Shift=    0.000
 RMSDP=3.33D-04 MaxDP=1.58D-02 DE=-3.83D-03 OVMax= 1.01D-02

 Cycle   8  Pass 1  IDiag  1:
 RMSU=  2.35D-04    CP:  7.14D-01 -3.62D-03  6.11D-01  9.70D-02  8.77D-01
                    CP:  7.35D-01  7.93D-01
 E= -8258.64456087168     Delta-E=       -0.000804246180 Rises=F Damp=F
 DIIS: error= 6.66D-04 at cycle   8 NSaved=   8.
 NSaved= 8 IEnMin= 8 EnMin= -8258.64456087168     IErMin= 8 ErrMin= 6.66D-04
 ErrMax= 6.66D-04  0.00D+00 EMaxC= 1.00D-01 BMatC= 8.86D-05 BMatP= 8.57D-04
 IDIUse=3 WtCom= 9.93D-01 WtEn= 6.66D-03
 Coeff-Com: -0.191D-01 0.256D-01-0.107D-01 0.367D-02 0.689D-01 0.183D+00
 Coeff-Com:  0.248D+00 0.500D+00
 Coeff-En:   0.000D+00 0.000D+00 0.000D+00 0.000D+00 0.000D+00 0.000D+00
 Coeff-En:   0.000D+00 0.100D+01
 Coeff:     -0.190D-01 0.254D-01-0.106D-01 0.365D-02 0.684D-01 0.182D+00
 Coeff:      0.246D+00 0.504D+00
 Gap=     0.120 Goal=   None    Shift=    0.000
 RMSDP=1.52D-04 MaxDP=1.09D-02 DE=-8.04D-04 OVMax= 2.97D-03

 Cycle   9  Pass 1  IDiag  1:
 RMSU=  1.20D-04    CP:  7.13D-01 -3.79D-03  6.11D-01  9.72D-02  8.81D-01
                    CP:  7.48D-01  7.54D-01  7.95D-01
 E= -8258.64463305128     Delta-E=       -0.000072179595 Rises=F Damp=F
 DIIS: error= 3.29D-04 at cycle   9 NSaved=   9.
 NSaved= 9 IEnMin= 9 EnMin= -8258.64463305128     IErMin= 9 ErrMin= 3.29D-04
 ErrMax= 3.29D-04  0.00D+00 EMaxC= 1.00D-01 BMatC= 2.53D-05 BMatP= 8.86D-05
 IDIUse=3 WtCom= 9.97D-01 WtEn= 3.29D-03
 Coeff-Com: -0.105D-01 0.140D-01-0.741D-02 0.223D-02 0.280D-01 0.744D-01
 Coeff-Com:  0.984D-01 0.330D+00 0.471D+00
 Coeff-En:   0.000D+00 0.000D+00 0.000D+00 0.000D+00 0.000D+00 0.000D+00
 Coeff-En:   0.000D+00 0.000D+00 0.100D+01
 Coeff:     -0.105D-01 0.140D-01-0.739D-02 0.223D-02 0.279D-01 0.742D-01
 Coeff:      0.981D-01 0.329D+00 0.473D+00
 Gap=     0.119 Goal=   None    Shift=    0.000
 RMSDP=6.27D-05 MaxDP=3.43D-03 DE=-7.22D-05 OVMax= 1.23D-03

 Cycle  10  Pass 1  IDiag  1:
 RMSU=  3.08D-05    CP:  7.13D-01 -3.77D-03  6.10D-01  9.77D-02  8.86D-01
                    CP:  7.41D-01  7.42D-01  8.44D-01  9.80D-01
 E= -8258.64465845347     Delta-E=       -0.000025402194 Rises=F Damp=F
 DIIS: error= 1.78D-04 at cycle  10 NSaved=  10.
 NSaved=10 IEnMin=10 EnMin= -8258.64465845347     IErMin=10 ErrMin= 1.78D-04
 ErrMax= 1.78D-04  0.00D+00 EMaxC= 1.00D-01 BMatC= 5.61D-06 BMatP= 2.53D-05
 IDIUse=3 WtCom= 9.98D-01 WtEn= 1.78D-03
 Coeff-Com: -0.270D-02 0.358D-02-0.239D-02 0.957D-03-0.235D-02-0.443D-02
 Coeff-Com: -0.110D-01 0.271D-01 0.185D+00 0.806D+00
 Coeff-En:   0.000D+00 0.000D+00 0.000D+00 0.000D+00 0.000D+00 0.000D+00
 Coeff-En:   0.000D+00 0.000D+00 0.000D+00 0.100D+01
 Coeff:     -0.270D-02 0.358D-02-0.239D-02 0.955D-03-0.235D-02-0.442D-02
 Coeff:     -0.110D-01 0.271D-01 0.185D+00 0.807D+00
 Gap=     0.119 Goal=   None    Shift=    0.000
 RMSDP=4.28D-05 MaxDP=1.65D-03 DE=-2.54D-05 OVMax= 8.29D-04

 Cycle  11  Pass 1  IDiag  1:
 RMSU=  1.67D-05    CP:  7.13D-01 -3.77D-03  6.10D-01  9.83D-02  8.88D-01
                    CP:  7.41D-01  7.44D-01  8.63D-01  1.08D+00  1.27D+00
 E= -8258.64466502975     Delta-E=       -0.000006576283 Rises=F Damp=F
 DIIS: error= 6.26D-05 at cycle  11 NSaved=  11.
 NSaved=11 IEnMin=11 EnMin= -8258.64466502975     IErMin=11 ErrMin= 6.26D-05
 ErrMax= 6.26D-05  0.00D+00 EMaxC= 1.00D-01 BMatC= 6.82D-07 BMatP= 5.61D-06
 IDIUse=1 WtCom= 1.00D+00 WtEn= 0.00D+00
 Coeff-Com: -0.620D-03 0.823D-03-0.773D-03 0.549D-03-0.519D-02-0.126D-01
 Coeff-Com: -0.204D-01-0.206D-01 0.597D-01 0.512D+00 0.487D+00
 Coeff:     -0.620D-03 0.823D-03-0.773D-03 0.549D-03-0.519D-02-0.126D-01
 Coeff:     -0.204D-01-0.206D-01 0.597D-01 0.512D+00 0.487D+00
 Gap=     0.119 Goal=   None    Shift=    0.000
 RMSDP=1.32D-05 MaxDP=5.85D-04 DE=-6.58D-06 OVMax= 3.02D-04

 Cycle  12  Pass 1  IDiag  1:
 RMSU=  6.69D-06    CP:  7.12D-01 -3.81D-03  6.10D-01  9.84D-02  8.89D-01
                    CP:  7.41D-01  7.42D-01  8.66D-01  1.11D+00  1.44D+00
                    CP:  8.94D-01
 E= -8258.64466579292     Delta-E=       -0.000000763166 Rises=F Damp=F
 DIIS: error= 1.07D-05 at cycle  12 NSaved=  12.
 NSaved=12 IEnMin=12 EnMin= -8258.64466579292     IErMin=12 ErrMin= 1.07D-05
 ErrMax= 1.07D-05  0.00D+00 EMaxC= 1.00D-01 BMatC= 3.20D-08 BMatP= 6.82D-07
 IDIUse=1 WtCom= 1.00D+00 WtEn= 0.00D+00
 Coeff-Com:  0.552D-04-0.746D-04-0.392D-04 0.123D-03-0.129D-02-0.322D-02
 Coeff-Com: -0.557D-02-0.752D-02 0.158D-03 0.448D-01 0.198D+00 0.775D+00
 Coeff:      0.552D-04-0.746D-04-0.392D-04 0.123D-03-0.129D-02-0.322D-02
 Coeff:     -0.557D-02-0.752D-02 0.158D-03 0.448D-01 0.198D+00 0.775D+00
 Gap=     0.119 Goal=   None    Shift=    0.000
 RMSDP=6.04D-06 MaxDP=3.28D-04 DE=-7.63D-07 OVMax= 9.74D-05

 Cycle  13  Pass 1  IDiag  1:
 RMSU=  2.16D-06    CP:  7.12D-01 -3.80D-03  6.10D-01  9.85D-02  8.89D-01
                    CP:  7.41D-01  7.44D-01  8.72D-01  1.10D+00  1.47D+00
                    CP:  1.04D+00  1.03D+00
 E= -8258.64466582919     Delta-E=       -0.000000036269 Rises=F Damp=F
 DIIS: error= 2.51D-06 at cycle  13 NSaved=  13.
 NSaved=13 IEnMin=13 EnMin= -8258.64466582919     IErMin=13 ErrMin= 2.51D-06
 ErrMax= 2.51D-06  0.00D+00 EMaxC= 1.00D-01 BMatC= 3.28D-09 BMatP= 3.20D-08
 IDIUse=1 WtCom= 1.00D+00 WtEn= 0.00D+00
 Coeff-Com:  0.464D-04-0.624D-04 0.714D-05 0.523D-04-0.535D-03-0.136D-02
 Coeff-Com: -0.228D-02-0.264D-02-0.121D-03 0.963D-02 0.872D-01 0.411D+00
 Coeff-Com:  0.499D+00
 Coeff:      0.464D-04-0.624D-04 0.714D-05 0.523D-04-0.535D-03-0.136D-02
 Coeff:     -0.228D-02-0.264D-02-0.121D-03 0.963D-02 0.872D-01 0.411D+00
 Coeff:      0.499D+00
 Gap=     0.119 Goal=   None    Shift=    0.000
 RMSDP=7.03D-07 MaxDP=3.62D-05 DE=-3.63D-08 OVMax= 1.82D-05

 Cycle  14  Pass 1  IDiag  1:
 RMSU=  4.21D-07    CP:  7.12D-01 -3.80D-03  6.10D-01  9.85D-02  8.89D-01
                    CP:  7.41D-01  7.44D-01  8.72D-01  1.10D+00  1.48D+00
                    CP:  1.04D+00  1.07D+00  9.51D-01
 E= -8258.64466583190     Delta-E=       -0.000000002708 Rises=F Damp=F
 DIIS: error= 1.97D-06 at cycle  14 NSaved=  14.
 NSaved=14 IEnMin=14 EnMin= -8258.64466583190     IErMin=14 ErrMin= 1.97D-06
 ErrMax= 1.97D-06  0.00D+00 EMaxC= 1.00D-01 BMatC= 5.55D-10 BMatP= 3.28D-09
 IDIUse=1 WtCom= 1.00D+00 WtEn= 0.00D+00
 Coeff-Com:  0.107D-04-0.140D-04 0.111D-04 0.426D-05-0.547D-04-0.131D-03
 Coeff-Com: -0.157D-03 0.280D-04 0.341D-03 0.249D-05 0.135D-01 0.830D-01
 Coeff-Com:  0.258D+00 0.645D+00
 Coeff:      0.107D-04-0.140D-04 0.111D-04 0.426D-05-0.547D-04-0.131D-03
 Coeff:     -0.157D-03 0.280D-04 0.341D-03 0.249D-05 0.135D-01 0.830D-01
 Coeff:      0.258D+00 0.645D+00
 Gap=     0.119 Goal=   None    Shift=    0.000
 RMSDP=4.26D-07 MaxDP=2.59D-05 DE=-2.71D-09 OVMax= 7.78D-06

 Cycle  15  Pass 1  IDiag  1:
 RMSU=  2.03D-07    CP:  7.12D-01 -3.80D-03  6.10D-01  9.85D-02  8.89D-01
                    CP:  7.41D-01  7.44D-01  8.71D-01  1.10D+00  1.47D+00
                    CP:  1.04D+00  1.07D+00  9.58D-01  9.95D-01
 E= -8258.64466583246     Delta-E=       -0.000000000564 Rises=F Damp=F
 DIIS: error= 5.44D-07 at cycle  15 NSaved=  15.
 NSaved=15 IEnMin=15 EnMin= -8258.64466583246     IErMin=15 ErrMin= 5.44D-07
 ErrMax= 5.44D-07  0.00D+00 EMaxC= 1.00D-01 BMatC= 5.65D-11 BMatP= 5.55D-10
 IDIUse=1 WtCom= 1.00D+00 WtEn= 0.00D+00
 Coeff-Com:  0.239D-05-0.299D-05 0.589D-05-0.216D-05 0.229D-04 0.550D-04
 Coeff-Com:  0.113D-03 0.163D-03 0.241D-03-0.272D-03 0.639D-03 0.118D-01
 Coeff-Com:  0.969D-01 0.340D+00 0.550D+00
 Coeff:      0.239D-05-0.299D-05 0.589D-05-0.216D-05 0.229D-04 0.550D-04
 Coeff:      0.113D-03 0.163D-03 0.241D-03-0.272D-03 0.639D-03 0.118D-01
 Coeff:      0.969D-01 0.340D+00 0.550D+00
 Gap=     0.119 Goal=   None    Shift=    0.000
 RMSDP=1.09D-07 MaxDP=5.72D-06 DE=-5.64D-10 OVMax= 2.89D-06

 Cycle  16  Pass 1  IDiag  1:
 RMSU=  4.63D-08    CP:  7.12D-01 -3.80D-03  6.10D-01  9.85D-02  8.89D-01
                    CP:  7.41D-01  7.44D-01  8.71D-01  1.10D+00  1.48D+00
                    CP:  1.04D+00  1.07D+00  9.82D-01  1.03D+00  9.62D-01
 E= -8258.64466583255     Delta-E=       -0.000000000084 Rises=F Damp=F
 DIIS: error= 1.96D-07 at cycle  16 NSaved=  16.
 NSaved=16 IEnMin=16 EnMin= -8258.64466583255     IErMin=16 ErrMin= 1.96D-07
 ErrMax= 1.96D-07  0.00D+00 EMaxC= 1.00D-01 BMatC= 7.90D-12 BMatP= 5.65D-11
 IDIUse=1 WtCom= 1.00D+00 WtEn= 0.00D+00
 Coeff-Com:  0.122D-05-0.159D-05 0.200D-05-0.164D-05 0.136D-04 0.269D-04
 Coeff-Com:  0.503D-04 0.409D-04 0.188D-03 0.324D-03-0.127D-02-0.497D-02
 Coeff-Com:  0.154D-01 0.897D-01 0.320D+00 0.581D+00
 Coeff:      0.122D-05-0.159D-05 0.200D-05-0.164D-05 0.136D-04 0.269D-04
 Coeff:      0.503D-04 0.409D-04 0.188D-03 0.324D-03-0.127D-02-0.497D-02
 Coeff:      0.154D-01 0.897D-01 0.320D+00 0.581D+00
 Gap=     0.119 Goal=   None    Shift=    0.000
 RMSDP=3.64D-08 MaxDP=3.24D-06 DE=-8.37D-11 OVMax= 9.48D-07

 Cycle  17  Pass 1  IDiag  1:
 RMSU=  1.97D-08    CP:  7.12D-01 -3.80D-03  6.10D-01  9.85D-02  8.89D-01
                    CP:  7.41D-01  7.44D-01  8.71D-01  1.10D+00  1.48D+00
                    CP:  1.04D+00  1.07D+00  9.87D-01  1.05D+00  1.04D+00
                    CP:  1.00D+00
 E= -8258.64466583257     Delta-E=       -0.000000000027 Rises=F Damp=F
 DIIS: error= 6.79D-08 at cycle  17 NSaved=  17.
 NSaved=17 IEnMin=17 EnMin= -8258.64466583257     IErMin=17 ErrMin= 6.79D-08
 ErrMax= 6.79D-08  0.00D+00 EMaxC= 1.00D-01 BMatC= 7.50D-13 BMatP= 7.90D-12
 IDIUse=1 WtCom= 1.00D+00 WtEn= 0.00D+00
 Coeff-Com:  0.456D-06-0.602D-06 0.717D-06-0.857D-06 0.499D-05 0.919D-05
 Coeff-Com:  0.157D-04 0.944D-05 0.906D-04 0.106D-03-0.666D-03-0.296D-02
 Coeff-Com: -0.991D-03 0.119D-01 0.115D+00 0.311D+00 0.566D+00
 Coeff:      0.456D-06-0.602D-06 0.717D-06-0.857D-06 0.499D-05 0.919D-05
 Coeff:      0.157D-04 0.944D-05 0.906D-04 0.106D-03-0.666D-03-0.296D-02
 Coeff:     -0.991D-03 0.119D-01 0.115D+00 0.311D+00 0.566D+00
 Gap=     0.119 Goal=   None    Shift=    0.000
 RMSDP=1.35D-08 MaxDP=6.81D-07 DE=-2.73D-11 OVMax= 3.25D-07

 Cycle  18  Pass 1  IDiag  1:
 RMSU=  6.18D-09    CP:  7.12D-01 -3.80D-03  6.10D-01  9.85D-02  8.89D-01
                    CP:  7.41D-01  7.44D-01  8.71D-01  1.10D+00  1.48D+00
                    CP:  1.04D+00  1.07D+00  9.89D-01  1.06D+00  1.06D+00
                    CP:  1.05D+00  9.47D-01
 E= -8258.64466583255     Delta-E=        0.000000000022 Rises=F Damp=F
 DIIS: error= 1.94D-08 at cycle  18 NSaved=  18.
 NSaved=18 IEnMin=17 EnMin= -8258.64466583257     IErMin=18 ErrMin= 1.94D-08
 ErrMax= 1.94D-08  0.00D+00 EMaxC= 1.00D-01 BMatC= 1.31D-13 BMatP= 7.50D-13
 IDIUse=1 WtCom= 1.00D+00 WtEn= 0.00D+00
 Coeff-Com:  0.280D-07-0.299D-07 0.229D-06-0.355D-06 0.110D-05 0.191D-05
 Coeff-Com:  0.339D-05 0.732D-06 0.427D-04 0.574D-04-0.282D-03-0.149D-02
 Coeff-Com: -0.282D-02-0.438D-02 0.301D-01 0.118D+00 0.351D+00 0.509D+00
 Coeff:      0.280D-07-0.299D-07 0.229D-06-0.355D-06 0.110D-05 0.191D-05
 Coeff:      0.339D-05 0.732D-06 0.427D-04 0.574D-04-0.282D-03-0.149D-02
 Coeff:     -0.282D-02-0.438D-02 0.301D-01 0.118D+00 0.351D+00 0.509D+00
 Gap=     0.119 Goal=   None    Shift=    0.000
 RMSDP=5.71D-09 MaxDP=3.09D-07 DE= 2.18D-11 OVMax= 1.13D-07

 SCF Done:  E(RB3LYP) =  -8258.64466583     A.U. after   18 cycles
            NFock= 18  Conv=0.57D-08     -V/T= 2.0014
 KE= 8.247385638813D+03 PE=-2.369790281735D+04 EE= 5.208023912221D+03
 Leave Link  502 at Tue Sep 29 16:15:54 2026, MaxMem=  5100273664 cpu:            1037.1 elap:              64.9
 (Enter /share/software/user/restricted/gaussian/g16.B01/l601.exe)
 Copying SCF densities to generalized density rwf, IOpCl= 0 IROHF=0.

 **********************************************************************

            Population analysis using the SCF Density.

 **********************************************************************

 Orbital symmetries:
       Occupied  (A) (A) (A) (A) (A) (A) (A) (A) (A) (A) (A) (A)
                 (A) (A) (A) (A) (A) (A) (A) (A) (A) (A) (A) (A)
                 (A) (A) (A) (A) (A) (A) (A) (A) (A) (A) (A) (A)
                 (A) (A) (A) (A) (A) (A) (A) (A) (A) (A) (A) (A)
                 (A) (A) (A) (A) (A) (A) (A) (A) (A) (A) (A) (A)
                 (A) (A) (A) (A) (A) (A) (A) (A) (A) (A) (A) (A)
                 (A) (A) (A) (A) (A) (A) (A) (A) (A) (A) (A) (A)
                 (A) (A) (A) (A) (A) (A) (A) (A) (A) (A) (A) (A)
       Virtual   (A) (A) (A) (A) (A) (A) (A) (A) (A) (A) (A) (A)
                 (A) (A) (A) (A) (A) (A) (A) (A) (A) (A) (A) (A)
                 (A) (A) (A) (A) (A) (A) (A) (A) (A) (A) (A) (A)
                 (A) (A) (A) (A) (A) (A) (A) (A) (A) (A) (A) (A)
                 (A) (A) (A) (A) (A) (A) (A) (A) (A) (A) (A) (A)
                 (A) (A) (A) (A) (A) (A) (A) (A) (A) (A) (A) (A)
                 (A) (A) (A) (A) (A) (A) (A) (A) (A) (A) (A) (A)
                 (A) (A) (A) (A) (A) (A) (A) (A) (A) (A) (A) (A)
                 (A) (A) (A) (A) (A) (A) (A) (A) (A) (A) (A) (A)
                 (A) (A) (A) (A) (A) (A) (A) (A) (A) (A) (A) (A)
                 (A) (A) (A) (A) (A) (A) (A) (A) (A) (A) (A) (A)
                 (A) (A) (A) (A) (A) (A) (A) (A) (A) (A) (A) (A)
                 (A) (A) (A) (A) (A) (A) (A) (A) (A) (A) (A) (A)
                 (A) (A) (A) (A) (A) (A) (A) (A) (A) (A) (A) (A)
                 (A) (A) (A) (A) (A) (A) (A) (A) (A) (A) (A) (A)
                 (A) (A) (A) (A) (A) (A) (A) (A) (A) (A) (A) (A)
                 (A) (A) (A) (A) (A) (A) (A) (A) (A) (A) (A) (A)
                 (A) (A) (A) (A) (A) (A) (A) (A) (A) (A) (A) (A)
                 (A) (A) (A) (A) (A) (A) (A) (A) (A) (A) (A) (A)
                 (A) (A) (A) (A) (A) (A) (A) (A) (A) (A) (A) (A)
                 (A) (A) (A) (A) (A) (A) (A) (A) (A) (A) (A) (A)
                 (A) (A) (A) (A) (A) (A) (A) (A) (A) (A) (A) (A)
                 (A) (A) (A) (A) (A) (A) (A) (A) (A) (A) (A) (A)
                 (A) (A) (A) (A) (A) (A) (A) (A) (A) (A) (A) (A)
                 (A) (A) (A) (A) (A) (A) (A) (A) (A) (A) (A) (A)
                 (A) (A) (A) (A) (A) (A) (A) (A) (A) (A) (A) (A)
                 (A) (A) (A) (A) (A) (A) (A) (A) (A) (A) (A) (A)
                 (A) (A) (A) (A) (A) (A) (A) (A) (A) (A) (A) (A)
                 (A) (A) (A) (A) (A) (A) (A) (A) (A) (A) (A) (A)
                 (A) (A) (A) (A) (A) (A)
 The electronic state is 1-A.
 Alpha  occ. eigenvalues -- -482.73204-482.71466-482.71457 -62.38517 -62.36781
 Alpha  occ. eigenvalues --  -62.36763 -56.20519 -56.20174 -56.20168 -56.18775
 Alpha  occ. eigenvalues --  -56.18770 -56.18442 -56.18435 -56.18425 -56.18406
 Alpha  occ. eigenvalues --  -19.04769 -10.12443 -10.11727 -10.11101 -10.10573
 Alpha  occ. eigenvalues --  -10.10027 -10.08283 -10.07419 -10.07386 -10.06836
 Alpha  occ. eigenvalues --  -10.04906 -10.03577  -9.99351  -8.59518  -8.57782
 Alpha  occ. eigenvalues --   -8.57761  -6.42583  -6.41401  -6.41395  -6.40838
 Alpha  occ. eigenvalues --   -6.40823  -6.39682  -6.39669  -6.39658  -6.39608
 Alpha  occ. eigenvalues --   -2.53703  -2.53349  -2.53347  -2.52407  -2.52406
 Alpha  occ. eigenvalues --   -2.51954  -2.51947  -2.51612  -2.51607  -2.51600
 Alpha  occ. eigenvalues --   -2.51576  -2.50692  -2.50691  -2.50638  -2.50637
 Alpha  occ. eigenvalues --   -0.95966  -0.76622  -0.75404  -0.71121  -0.70071
 Alpha  occ. eigenvalues --   -0.66718  -0.64446  -0.62603  -0.60497  -0.58248
 Alpha  occ. eigenvalues --   -0.51442  -0.50133  -0.47133  -0.45658  -0.42137
 Alpha  occ. eigenvalues --   -0.38539  -0.36910  -0.34496  -0.34250  -0.33081
 Alpha  occ. eigenvalues --   -0.32449  -0.31794  -0.30547  -0.28180  -0.27754
 Alpha  occ. eigenvalues --   -0.27369  -0.26523  -0.25779  -0.25057  -0.21962
 Alpha  occ. eigenvalues --   -0.21629  -0.20268  -0.19774  -0.18423  -0.17663
 Alpha  occ. eigenvalues --   -0.17651  -0.15233  -0.13047  -0.12001  -0.09290
 Alpha  occ. eigenvalues --   -0.03954
 Alpha virt. eigenvalues --    0.07925   0.07993   0.08608   0.08648   0.09073
 Alpha virt. eigenvalues --    0.09237   0.09522   0.09959   0.10956   0.11082
 Alpha virt. eigenvalues --    0.11288   0.11602   0.12785   0.13246   0.13605
 Alpha virt. eigenvalues --    0.14096   0.14173   0.14416   0.14601   0.14751
 Alpha virt. eigenvalues --    0.16113   0.16690   0.16918   0.17115   0.17133
 Alpha virt. eigenvalues --    0.17854   0.18279   0.18677   0.20129   0.20154
 Alpha virt. eigenvalues --    0.20712   0.20813   0.21392   0.21799   0.21959
 Alpha virt. eigenvalues --    0.22649   0.22809   0.23212   0.23336   0.23515
 Alpha virt. eigenvalues --    0.24195   0.24578   0.24690   0.25276   0.25882
 Alpha virt. eigenvalues --    0.26300   0.26556   0.27633   0.27894   0.28026
 Alpha virt. eigenvalues --    0.28491   0.28967   0.28972   0.29972   0.30551
 Alpha virt. eigenvalues --    0.30653   0.31278   0.31323   0.32149   0.32529
 Alpha virt. eigenvalues --    0.33048   0.33707   0.34623   0.35416   0.35567
 Alpha virt. eigenvalues --    0.35803   0.36457   0.36775   0.37677   0.37884
 Alpha virt. eigenvalues --    0.38603   0.38809   0.39192   0.39497   0.40205
 Alpha virt. eigenvalues --    0.40781   0.41736   0.41950   0.42975   0.43510
 Alpha virt. eigenvalues --    0.44157   0.44867   0.45972   0.46394   0.47343
 Alpha virt. eigenvalues --    0.47649   0.47958   0.48667   0.50673   0.51029
 Alpha virt. eigenvalues --    0.51605   0.52261   0.53674   0.53754   0.54019
 Alpha virt. eigenvalues --    0.55868   0.56310   0.56631   0.59255   0.60728
 Alpha virt. eigenvalues --    0.62939   0.63469   0.64092   0.64531   0.65180
 Alpha virt. eigenvalues --    0.65494   0.65554   0.66088   0.67261   0.67874
 Alpha virt. eigenvalues --    0.67926   0.69550   0.69661   0.70269   0.70325
 Alpha virt. eigenvalues --    0.71665   0.72108   0.72193   0.72722   0.73855
 Alpha virt. eigenvalues --    0.74190   0.74222   0.74861   0.75474   0.76449
 Alpha virt. eigenvalues --    0.76622   0.77549   0.79059   0.79772   0.81685
 Alpha virt. eigenvalues --    0.82592   0.83281   0.83751   0.83761   0.84996
 Alpha virt. eigenvalues --    0.85563   0.86259   0.86911   0.87142   0.88194
 Alpha virt. eigenvalues --    0.89044   0.89503   0.91850   0.92179   0.92380
 Alpha virt. eigenvalues --    0.93722   0.94850   0.96553   0.97145   0.98066
 Alpha virt. eigenvalues --    0.98175   0.99010   1.00269   1.00804   1.02361
 Alpha virt. eigenvalues --    1.04052   1.05211   1.06053   1.06750   1.07216
 Alpha virt. eigenvalues --    1.09435   1.09881   1.11595   1.11687   1.12890
 Alpha virt. eigenvalues --    1.13196   1.14066   1.15832   1.17179   1.18844
 Alpha virt. eigenvalues --    1.21144   1.21211   1.22830   1.23511   1.24760
 Alpha virt. eigenvalues --    1.25839   1.27124   1.31006   1.31293   1.32235
 Alpha virt. eigenvalues --    1.33489   1.33878   1.36556   1.39278   1.39556
 Alpha virt. eigenvalues --    1.39833   1.41940   1.43801   1.46641   1.48878
 Alpha virt. eigenvalues --    1.52223   1.54152   1.62670   1.64532   1.65871
 Alpha virt. eigenvalues --    1.68041   1.68434   1.69450   1.73686   1.76135
 Alpha virt. eigenvalues --    1.76544   1.86100   1.86404   1.88443   1.89625
 Alpha virt. eigenvalues --    1.89887   1.91473   1.92004   1.94352   1.96195
 Alpha virt. eigenvalues --    1.97971   1.98133   2.01283   2.02199   2.02785
 Alpha virt. eigenvalues --    2.03465   2.04566   2.05185   2.05687   2.08081
 Alpha virt. eigenvalues --    2.12795   2.13069   2.13410   2.15944   2.16223
 Alpha virt. eigenvalues --    2.17912   2.19806   2.22459   2.24178   2.25182
 Alpha virt. eigenvalues --    2.25351   2.32458   2.34241   2.36497   2.37949
 Alpha virt. eigenvalues --    2.39127   2.42219   2.43089   2.43652   2.45596
 Alpha virt. eigenvalues --    2.47148   2.47779   2.49045   2.49361   2.51902
 Alpha virt. eigenvalues --    2.60797   2.61477   2.67204   2.74458   2.75342
 Alpha virt. eigenvalues --    2.76098   2.78127   2.80901   2.85075   2.86220
 Alpha virt. eigenvalues --    2.87117   2.88246   2.90350   2.96899   2.99082
 Alpha virt. eigenvalues --    2.99321   3.00584   3.03289   3.08973   3.11732
 Alpha virt. eigenvalues --    3.16865   3.17473   3.19283   3.21397   3.24639
 Alpha virt. eigenvalues --    3.26370   3.28511   3.30396   3.33090   3.33687
 Alpha virt. eigenvalues --    3.38882   3.40539   3.41588   3.44358   3.47004
 Alpha virt. eigenvalues --    3.50611   3.54115   3.60172   3.66046   3.69124
 Alpha virt. eigenvalues --    3.73217   3.81361   3.82691   4.01159   4.04941
 Alpha virt. eigenvalues --    4.09304   4.12269   4.23927   4.25474   4.26149
 Alpha virt. eigenvalues --    4.27710   4.29524   4.31442   4.32080   4.33193
 Alpha virt. eigenvalues --    4.33586   4.34517   4.35421   4.48326   4.50300
 Alpha virt. eigenvalues --    4.53764   4.66660   4.68325   4.70590   4.90613
 Alpha virt. eigenvalues --    4.94268   5.13125   5.52864   5.96103   6.87447
 Alpha virt. eigenvalues --    6.89494   6.91214   7.65461   7.67135   7.68123
 Alpha virt. eigenvalues --    7.78394   7.80204   7.82625   7.86181   7.87972
 Alpha virt. eigenvalues --    7.88968  23.43560  23.50319  23.95901  23.97939
 Alpha virt. eigenvalues --   23.98582  23.98882  24.10712  24.12458  24.16726
 Alpha virt. eigenvalues --   24.16988  24.24610  24.28281  48.12878  48.14818
 Alpha virt. eigenvalues --   48.16256  50.09751 289.85450 289.87171 289.88139
 Alpha virt. eigenvalues --  289.98537 290.00435 290.02877 290.08606 290.10442
 Alpha virt. eigenvalues --  290.112381020.942351020.962571020.98025
          Condensed to atoms (all electrons):
               1          2          3          4          5          6
     1  C   10.679825  -1.166053  -1.953211  -0.140003  -1.339029   1.125543
     2  C   -1.166053  10.458693   0.108923  -1.716313   1.344393  -2.654599
     3  C   -1.953211   0.108923   8.812108   0.098847  -0.985408  -0.494552
     4  C   -0.140003  -1.716313   0.098847   8.953309  -0.502320  -0.541773
     5  C   -1.339029   1.344393  -0.985408  -0.502320   9.146593  -0.923903
     6  C    1.125543  -2.654599  -0.494552  -0.541773  -0.923903  10.391416
     7  C    0.896488  -0.005024   0.038480  -0.099267  -0.707081  -1.050814
     8  C   -0.800190  -1.541619  -0.120798   0.353588  -0.272551   2.172067
     9  C   -0.415385   0.469082   0.048165  -0.000805   0.091359  -0.902033
    10  C    0.061957  -0.047594  -0.015692   0.021329   0.007799   0.104860
    11  C   -0.195712  -0.143863   0.018396   0.000680  -0.058646   0.245291
    12  C   -0.339901   1.597930   0.158692  -0.162502   0.272978  -1.965936
    13  O    0.169863  -0.451265   0.016742   0.019681   0.038822   0.046883
    14  Br   0.102294  -0.197852   0.003179   0.134821   0.051880  -0.038613
    15  H    0.064311  -0.025679   0.225821  -0.156464   0.058563   0.083958
    16  Br   0.065476  -0.019675  -0.049810   0.069048  -0.011068  -0.001981
    17  H    0.079170   0.039792  -0.000476  -0.326421   0.318394   0.033047
    18  H   -0.199961  -0.103706   0.013038   0.006334   0.053315   0.195663
    19  H   -0.003229   0.004562   0.000901   0.005051   0.005383  -0.004394
    20  Br  -0.001945  -0.000301  -0.000363   0.000485   0.002840   0.009406
    21  H   -0.006582  -0.005319   0.000386  -0.000229  -0.000896   0.003584
    22  H   -0.025616   0.036139   0.007519   0.002565   0.005527  -0.035096
               7          8          9         10         11         12
     1  C    0.896488  -0.800190  -0.415385   0.061957  -0.195712  -0.339901
     2  C   -0.005024  -1.541619   0.469082  -0.047594  -0.143863   1.597930
     3  C    0.038480  -0.120798   0.048165  -0.015692   0.018396   0.158692
     4  C   -0.099267   0.353588  -0.000805   0.021329   0.000680  -0.162502
     5  C   -0.707081  -0.272551   0.091359   0.007799  -0.058646   0.272978
     6  C   -1.050814   2.172067  -0.902033   0.104860   0.245291  -1.965936
     7  C   10.136332   0.680481  -1.383249   0.370943  -0.731102  -1.792525
     8  C    0.680481  10.960758  -2.448426  -0.897279   1.194114  -4.068024
     9  C   -1.383249  -2.448426   9.553611  -0.199041  -1.583284   2.766675
    10  C    0.370943  -0.897279  -0.199041   8.462893  -0.610966  -1.040689
    11  C   -0.731102   1.194114  -1.583284  -0.610966   7.932133  -0.319471
    12  C   -1.792525  -4.068024   2.766675  -1.040689  -0.319471  11.528191
    13  O    0.112263   0.102926   0.027163   0.036177   0.032418  -0.433830
    14  Br  -0.027546  -0.017337   0.001195   0.005460  -0.009419  -0.000544
    15  H   -0.015811  -0.005104  -0.001928  -0.000162   0.001204  -0.000973
    16  Br  -0.003194   0.006704   0.003753   0.001254  -0.000278  -0.002159
    17  H    0.013741  -0.049106   0.003090   0.003774  -0.000868   0.006214
    18  H   -0.299621   0.443352   0.035395   0.094677   0.042675  -0.137686
    19  H    0.004086   0.075992   0.307186  -0.301135   0.044098   0.062196
    20  Br   0.083750  -0.016198   0.024417   0.139356  -0.122201   0.013236
    21  H    0.046898   0.082086  -0.011897  -0.121186   0.420790  -0.141917
    22  H   -0.042130  -0.050103   0.065717  -0.026127  -0.116253   0.456221
              13         14         15         16         17         18
     1  C    0.169863   0.102294   0.064311   0.065476   0.079170  -0.199961
     2  C   -0.451265  -0.197852  -0.025679  -0.019675   0.039792  -0.103706
     3  C    0.016742   0.003179   0.225821  -0.049810  -0.000476   0.013038
     4  C    0.019681   0.134821  -0.156464   0.069048  -0.326421   0.006334
     5  C    0.038822   0.051880   0.058563  -0.011068   0.318394   0.053315
     6  C    0.046883  -0.038613   0.083958  -0.001981   0.033047   0.195663
     7  C    0.112263  -0.027546  -0.015811  -0.003194   0.013741  -0.299621
     8  C    0.102926  -0.017337  -0.005104   0.006704  -0.049106   0.443352
     9  C    0.027163   0.001195  -0.001928   0.003753   0.003090   0.035395
    10  C    0.036177   0.005460  -0.000162   0.001254   0.003774   0.094677
    11  C    0.032418  -0.009419   0.001204  -0.000278  -0.000868   0.042675
    12  C   -0.433830  -0.000544  -0.000973  -0.002159   0.006214  -0.137686
    13  O    8.371630  -0.032223  -0.001327   0.001299   0.001124   0.008821
    14  Br  -0.032223  35.332935  -0.074628   0.012533   0.005281  -0.002082
    15  H   -0.001327  -0.074628   0.560415  -0.075058   0.003904   0.002872
    16  Br   0.001299   0.012533  -0.075058  35.367361  -0.037763   0.009125
    17  H    0.001124   0.005281   0.003904  -0.037763   0.629936   0.001888
    18  H    0.008821  -0.002082   0.002872   0.009125   0.001888   0.432900
    19  H   -0.004645  -0.000816  -0.000142  -0.000342  -0.005372  -0.041307
    20  Br  -0.000601  -0.000060  -0.000011  -0.000008   0.000112   0.005125
    21  H   -0.002277   0.000041   0.000032  -0.000011  -0.000021   0.001290
    22  H   -0.015396  -0.006003  -0.000550  -0.000071  -0.000665  -0.006361
              19         20         21         22
     1  C   -0.003229  -0.001945  -0.006582  -0.025616
     2  C    0.004562  -0.000301  -0.005319   0.036139
     3  C    0.000901  -0.000363   0.000386   0.007519
     4  C    0.005051   0.000485  -0.000229   0.002565
     5  C    0.005383   0.002840  -0.000896   0.005527
     6  C   -0.004394   0.009406   0.003584  -0.035096
     7  C    0.004086   0.083750   0.046898  -0.042130
     8  C    0.075992  -0.016198   0.082086  -0.050103
     9  C    0.307186   0.024417  -0.011897   0.065717
    10  C   -0.301135   0.139356  -0.121186  -0.026127
    11  C    0.044098  -0.122201   0.420790  -0.116253
    12  C    0.062196   0.013236  -0.141917   0.456221
    13  O   -0.004645  -0.000601  -0.002277  -0.015396
    14  Br  -0.000816  -0.000060   0.000041  -0.006003
    15  H   -0.000142  -0.000011   0.000032  -0.000550
    16  Br  -0.000342  -0.000008  -0.000011  -0.000071
    17  H   -0.005372   0.000112  -0.000021  -0.000665
    18  H   -0.041307   0.005125   0.001290  -0.006361
    19  H    0.595957  -0.054126  -0.000021   0.006984
    20  Br  -0.054126  35.271395  -0.055446   0.004784
    21  H   -0.000021  -0.055446   0.527192  -0.027110
    22  H    0.006984   0.004784  -0.027110   0.523490
 Mulliken charges:
               1
     1  C   -0.658111
     2  C    0.019348
     3  C    0.069111
     4  C   -0.019644
     5  C   -0.596945
     6  C    0.201975
     7  C   -0.226097
     8  C    0.214665
     9  C   -0.450763
    10  C   -0.050610
    11  C   -0.039736
    12  C   -0.456178
    13  O   -0.044250
    14  Br  -0.242495
    15  H    0.356756
    16  Br  -0.335136
    17  H    0.281227
    18  H    0.444253
    19  H    0.303131
    20  Br  -0.303648
    21  H    0.290614
    22  H    0.242533
 Sum of Mulliken charges =  -1.00000
 Mulliken charges with hydrogens summed into heavy atoms:
               1
     1  C   -0.658111
     2  C    0.019348
     3  C    0.425867
     4  C   -0.019644
     5  C   -0.315717
     6  C    0.201975
     7  C   -0.226097
     8  C    0.658919
     9  C   -0.147632
    10  C   -0.050610
    11  C    0.250878
    12  C   -0.213646
    13  O   -0.044250
    14  Br  -0.242495
    16  Br  -0.335136
    20  Br  -0.303648
 Electronic spatial extent (au):  <R**2>=          12463.1906
 Charge=             -1.0000 electrons
 Dipole moment (field-independent basis, Debye):
    X=             -1.3230    Y=              1.3801    Z=              0.0015  Tot=              1.9118
 Quadrupole moment (field-independent basis, Debye-Ang):
   XX=           -196.8159   YY=           -147.2785   ZZ=           -139.6780
   XY=              0.4594   XZ=              0.0011   YZ=             -0.0006
 Traceless Quadrupole moment (field-independent basis, Debye-Ang):
   XX=            -35.5585   YY=             13.9790   ZZ=             21.5795
   XY=              0.4594   XZ=              0.0011   YZ=             -0.0006
 Octapole moment (field-independent basis, Debye-Ang**2):
  XXX=            102.3113  YYY=              1.1464  ZZZ=              0.0343  XYY=            -33.4949
  XXY=             68.2218  XXZ=              0.0065  XZZ=             14.3248  YZZ=              3.3837
  YYZ=              0.0096  XYZ=              0.0011
 Hexadecapole moment (field-independent basis, Debye-Ang**3):
 XXXX=         -12068.5478 YYYY=          -2368.8288 ZZZZ=           -176.8226 XXXY=            105.1034
 XXXZ=              0.0475 YYYX=             48.0586 YYYZ=             -0.0094 ZZZX=              0.0106
 ZZZY=             -0.0297 XXYY=          -2266.9658 XXZZ=          -1858.6986 YYZZ=           -440.3407
 XXYZ=              0.0041 YYXZ=             -0.0007 ZZXY=             25.2100
 N-N= 1.983848600488D+03 E-N=-2.369790282360D+04  KE= 8.247385638813D+03
 No NMR shielding tensors so no spin-rotation constants.
 Leave Link  601 at Tue Sep 29 16:15:54 2026, MaxMem=  5100273664 cpu:               2.0 elap:               0.2
 (Enter /share/software/user/restricted/gaussian/g16.B01/l701.exe)
 ... and contract with generalized density number  0.
 Compute integral first derivatives.
 Leave Link  701 at Tue Sep 29 16:15:55 2026, MaxMem=  5100273664 cpu:               2.8 elap:               0.2
 (Enter /share/software/user/restricted/gaussian/g16.B01/l702.exe)
 L702 exits ... SP integral derivatives will be done elsewhere.
 Leave Link  702 at Tue Sep 29 16:15:55 2026, MaxMem=  5100273664 cpu:               0.5 elap:               0.0
 (Enter /share/software/user/restricted/gaussian/g16.B01/l703.exe)
 Integral derivatives from FoFJK, PRISM(SPDF).
 Compute integral first derivatives, UseDBF=F ICtDFT=           0.
 Calling FoFJK, ICntrl=      2127 FMM=F ISym2X=0 I1Cent= 0 IOpClX= 0 NMat=1 NMatS=1 NMatT=0.
 FoFJK:  IHMeth= 1 ICntrl=    2127 DoSepK=F KAlg= 0 I1Cent=           0 FoldK=F
 IRaf=         0 NMat=       1 IRICut=       1 DoRegI=T DoRafI=F ISym2E= 0 IDoP0=0 IntGTp=1.
 FoFCou: FMM=F IPFlag=           0 FMFlag=      100000 FMFlg1=         800
         NFxFlg=           0 DoJE=F BraDBF=F KetDBF=F FulRan=T
         wScrn=  0.000000 ICntrl=      2127 IOpCl=  0 I1Cent=           0 NGrid=           0
         NMat0=    1 NMatS0=      1 NMatT0=    0 NMatD0=    1 NMtDS0=    0 NMtDT0=    0
 Symmetry not used in FoFCou.
 Leave Link  703 at Tue Sep 29 16:16:07 2026, MaxMem=  5100273664 cpu:             197.2 elap:              12.3
 (Enter /share/software/user/restricted/gaussian/g16.B01/l716.exe)
 Dipole        =-5.20497472D-01 5.42977577D-01 6.05821942D-04
 ***** Axes restored to original set *****
 -------------------------------------------------------------------
 Center     Atomic                   Forces (Hartrees/Bohr)
 Number     Number              X              Y              Z
 -------------------------------------------------------------------
      1        6          -0.008630371    0.003043539    0.000872815
      2        6          -0.002990074   -0.033535992   -0.002723538
      3        6          -0.009786926    0.008891452    0.001459371
      4        6           0.026684691    0.007077538   -0.001243635
      5        6          -0.014195026   -0.000385477    0.000958954
      6        6          -0.014531958    0.006929559    0.001647913
      7        6           0.003025552    0.010499525    0.000717836
      8        6          -0.003691916   -0.006079538   -0.000281864
      9        6           0.011496501   -0.003463070   -0.001113158
     10        6          -0.023220290    0.006097800    0.002165373
     11        6           0.009022316    0.007877645    0.000056869
     12        6          -0.003738327   -0.001443543    0.000136552
     13        8           0.004400648   -0.013494352   -0.001496863
     14       35           0.003350682    0.022053953    0.001692813
     15        1           0.009061865   -0.006144515   -0.001168935
     16       35          -0.023114567   -0.009822853    0.000756449
     17        1          -0.003404104    0.005277500    0.000693700
     18        1           0.026494161    0.011866655   -0.000827821
     19        1           0.001153075    0.008246193    0.000643952
     20       35           0.019731533   -0.008934143   -0.002170851
     21        1          -0.007067643   -0.006425493   -0.000065034
     22        1          -0.000049821   -0.008132381   -0.000710899
 -------------------------------------------------------------------
 Cartesian Forces:  Max     0.033535992 RMS     0.010097166
 Leave Link  716 at Tue Sep 29 16:16:07 2026, MaxMem=  5100273664 cpu:               0.4 elap:               0.0
 (Enter /share/software/user/restricted/gaussian/g16.B01/l103.exe)

 GradGradGradGradGradGradGradGradGradGradGradGradGradGradGradGradGradGrad
 Berny optimization.
 FormGI is forming the generalized inverse of G from B-inverse, IUseBI=4.
 Internal  Forces:  Max     0.031197795 RMS     0.008021167
 Search for a local minimum.
 Step number   1 out of a maximum of  116
 All quantities printed in internal units (Hartrees-Bohrs-Radians)
 RMS Force = .80212D-02 SwitMx=.10000D-02 MixMth= 1
 Mixed Optimization -- RFO/linear search
 Second derivative matrix not updated -- first step.
 ITU=  0
     Eigenvalues ---    0.01730   0.01913   0.01996   0.02007   0.02021
     Eigenvalues ---    0.02038   0.02050   0.02091   0.02095   0.02106
     Eigenvalues ---    0.02110   0.02131   0.02132   0.02136   0.02166
     Eigenvalues ---    0.02185   0.02198   0.02233   0.02303   0.08746
     Eigenvalues ---    0.16000   0.16000   0.16000   0.16000   0.16000
     Eigenvalues ---    0.16000   0.18808   0.18891   0.19145   0.22319
     Eigenvalues ---    0.22367   0.23427   0.23492   0.24559   0.24605
     Eigenvalues ---    0.25000   0.25000   0.25000   0.25000   0.25000
     Eigenvalues ---    0.25000   0.33684   0.33700   0.33721   0.33770
     Eigenvalues ---    0.33949   0.41392   0.41420   0.42309   0.42764
     Eigenvalues ---    0.44712   0.44961   0.45501   0.45571   0.46097
     Eigenvalues ---    0.46339   0.46573   0.47760   0.48504   0.48609
 RFO step:  Lambda=-2.96747010D-02 EMin= 1.72957501D-02
 Linear search not attempted -- first point.
 Maximum step size (   0.300) exceeded in Quadratic search.
    -- Step size scaled by   0.787
 Iteration  1 RMS(Cart)=  0.09622815 RMS(Int)=  0.00209934
 Iteration  2 RMS(Cart)=  0.00395512 RMS(Int)=  0.00001271
 Iteration  3 RMS(Cart)=  0.00001100 RMS(Int)=  0.00000942
 Iteration  4 RMS(Cart)=  0.00000000 RMS(Int)=  0.00000942
 ITry= 1 IFail=0 DXMaxC= 3.82D-01 DCOld= 1.00D+10 DXMaxT= 3.00D-01 DXLimC= 3.00D+00 Rises=F
 Variable       Old X    -DE/DX   Delta X   Delta X   Delta X     New X
                                 (Linear)    (Quad)   (Total)
    R1        2.65969  -0.00657   0.00000  -0.01201  -0.01200   2.64769
    R2        2.63959  -0.02095   0.00000  -0.03427  -0.03428   2.60532
    R3        2.64022   0.00220   0.00000   0.00353   0.00353   2.64375
    R4        2.65016  -0.00227   0.00000  -0.00403  -0.00402   2.64614
    R5        3.56629   0.02217   0.00000   0.07979   0.07979   3.64608
    R6        2.63157   0.00011   0.00000   0.00089   0.00089   2.63246
    R7        2.07867  -0.01101   0.00000  -0.02363  -0.02363   2.05504
    R8        2.65256  -0.00271   0.00000  -0.00337  -0.00338   2.64917
    R9        3.56934   0.02511   0.00000   0.09070   0.09070   3.66003
   R10        2.60422   0.01346   0.00000   0.02052   0.02051   2.62472
   R11        2.07719  -0.00505   0.00000  -0.01082  -0.01082   2.06637
   R12        3.05852   0.02076   0.00000   0.13940   0.13940   3.19792
   R13        2.65375   0.00778   0.00000   0.01340   0.01341   2.66716
   R14        2.65795  -0.00459   0.00000  -0.00759  -0.00757   2.65038
   R15        2.61406   0.00664   0.00000   0.01015   0.01015   2.62421
   R16        2.61688   0.00921   0.00000   0.01474   0.01473   2.63161
   R17        2.64851  -0.00596   0.00000  -0.00971  -0.00973   2.63878
   R18        2.07840  -0.00819   0.00000  -0.01757  -0.01757   2.06083
   R19        2.63687  -0.00328   0.00000  -0.00583  -0.00585   2.63102
   R20        3.55697   0.02176   0.00000   0.07742   0.07742   3.63439
   R21        2.63236  -0.00072   0.00000  -0.00174  -0.00173   2.63063
   R22        2.07803  -0.00946   0.00000  -0.02028  -0.02028   2.05775
   R23        2.07415  -0.00814   0.00000  -0.01734  -0.01734   2.05681
    A1        2.11865   0.00316   0.00000   0.00602   0.00602   2.12467
    A2        2.01537   0.00963   0.00000   0.02852   0.02852   2.04389
    A3        2.14916  -0.01279   0.00000  -0.03454  -0.03454   2.11462
    A4        2.06651   0.00344   0.00000   0.00745   0.00747   2.07399
    A5        2.17272  -0.00707   0.00000  -0.01879  -0.01880   2.15392
    A6        2.04395   0.00364   0.00000   0.01133   0.01132   2.05527
    A7        2.09731  -0.00310   0.00000  -0.00868  -0.00866   2.08865
    A8        2.08569   0.00157   0.00000   0.00442   0.00441   2.09010
    A9        2.10019   0.00153   0.00000   0.00426   0.00425   2.10444
   A10        2.10044  -0.00075   0.00000   0.00129   0.00128   2.10172
   A11        2.07873  -0.00148   0.00000  -0.00585  -0.00585   2.07288
   A12        2.10402   0.00223   0.00000   0.00457   0.00457   2.10858
   A13        2.09948  -0.00248   0.00000  -0.00477  -0.00480   2.09468
   A14        2.09668  -0.00270   0.00000  -0.01395  -0.01394   2.08274
   A15        2.08703   0.00518   0.00000   0.01872   0.01873   2.10577
   A16        2.08398  -0.00027   0.00000  -0.00131  -0.00132   2.08266
   A17        1.85870  -0.03093   0.00000  -0.12818  -0.12818   1.73052
   A18        2.34050   0.03120   0.00000   0.12949   0.12950   2.47000
   A19        2.11056  -0.00489   0.00000  -0.01326  -0.01323   2.09733
   A20        2.17757   0.01356   0.00000   0.03790   0.03789   2.21546
   A21        1.99506  -0.00867   0.00000  -0.02464  -0.02466   1.97040
   A22        2.08020  -0.00404   0.00000  -0.00896  -0.00895   2.07125
   A23        2.10106   0.00359   0.00000   0.01187   0.01184   2.11290
   A24        2.08152  -0.00009   0.00000   0.00115   0.00117   2.08269
   A25        2.10060  -0.00350   0.00000  -0.01302  -0.01301   2.08759
   A26        2.09840  -0.00052   0.00000  -0.00315  -0.00318   2.09521
   A27        2.09662   0.00123   0.00000   0.00429   0.00431   2.10092
   A28        2.08817  -0.00070   0.00000  -0.00114  -0.00113   2.08705
   A29        2.09853  -0.00114   0.00000  -0.00667  -0.00668   2.09185
   A30        2.10495  -0.00081   0.00000  -0.00239  -0.00238   2.10256
   A31        2.07971   0.00195   0.00000   0.00906   0.00906   2.08877
   A32        2.07762   0.00700   0.00000   0.02018   0.02020   2.09783
   A33        2.09628  -0.00416   0.00000  -0.01284  -0.01285   2.08342
   A34        2.10928  -0.00284   0.00000  -0.00734  -0.00735   2.10193
   A35        2.08473   0.02731   0.00000   0.07681   0.07681   2.16154
    D1       -0.00023   0.00000   0.00000   0.00001   0.00001  -0.00022
    D2        3.14132   0.00000   0.00000   0.00001   0.00001   3.14133
    D3        3.14143   0.00000   0.00000  -0.00002  -0.00002   3.14141
    D4       -0.00020   0.00000   0.00000  -0.00001  -0.00001  -0.00022
    D5        0.00013   0.00000   0.00000   0.00006   0.00005   0.00019
    D6        3.14106   0.00001   0.00000   0.00005   0.00006   3.14112
    D7       -3.14153   0.00000   0.00000   0.00009   0.00008  -3.14145
    D8       -0.00060   0.00001   0.00000   0.00008   0.00008  -0.00052
    D9       -3.14101   0.00001   0.00000   0.00012   0.00012  -3.14089
   D10        0.00065   0.00001   0.00000   0.00009   0.00009   0.00074
   D11        0.00011  -0.00000   0.00000  -0.00004  -0.00004   0.00007
   D12       -3.14147  -0.00000   0.00000  -0.00002  -0.00002  -3.14149
   D13       -3.14144  -0.00000   0.00000  -0.00004  -0.00004  -3.14148
   D14        0.00016  -0.00000   0.00000  -0.00002  -0.00002   0.00014
   D15        0.00010  -0.00000   0.00000   0.00001   0.00000   0.00011
   D16       -3.14147   0.00000   0.00000   0.00001   0.00001  -3.14146
   D17       -3.14150  -0.00000   0.00000  -0.00002  -0.00002  -3.14152
   D18        0.00011   0.00000   0.00000  -0.00001  -0.00001   0.00010
   D19       -0.00020   0.00001   0.00000   0.00006   0.00006  -0.00014
   D20        3.14131   0.00001   0.00000   0.00005   0.00005   3.14137
   D21        3.14137   0.00000   0.00000   0.00006   0.00006   3.14142
   D22       -0.00030   0.00000   0.00000   0.00005   0.00005  -0.00025
   D23        0.00009  -0.00001   0.00000  -0.00009  -0.00009  -0.00000
   D24       -3.14062   0.00001   0.00000   0.00007   0.00008  -3.14055
   D25       -3.14143  -0.00001   0.00000  -0.00008  -0.00008  -3.14151
   D26        0.00105   0.00001   0.00000   0.00008   0.00008   0.00113
   D27       -0.00005   0.00000   0.00000   0.00004   0.00004  -0.00001
   D28       -3.14159  -0.00000   0.00000  -0.00002  -0.00002   3.14158
   D29        0.00003  -0.00000   0.00000  -0.00003  -0.00003  -0.00000
   D30       -3.14155  -0.00000   0.00000  -0.00004  -0.00004  -3.14158
   D31        3.14157   0.00000   0.00000   0.00002   0.00002  -3.14159
   D32       -0.00000   0.00000   0.00000   0.00002   0.00002   0.00001
   D33       -0.00023   0.00001   0.00000   0.00011   0.00011  -0.00012
   D34        3.14142   0.00000   0.00000   0.00005   0.00005   3.14147
   D35        0.00006  -0.00000   0.00000  -0.00002  -0.00002   0.00003
   D36       -3.14151  -0.00000   0.00000  -0.00004  -0.00004  -3.14155
   D37       -0.00004   0.00000   0.00000   0.00001   0.00001  -0.00004
   D38        3.14157  -0.00000   0.00000  -0.00000  -0.00000   3.14157
   D39        3.14152   0.00000   0.00000   0.00002   0.00002   3.14154
   D40       -0.00005   0.00000   0.00000   0.00001   0.00001  -0.00004
   D41        0.00002  -0.00000   0.00000  -0.00000  -0.00000   0.00002
   D42       -3.14158   0.00000   0.00000   0.00000   0.00000  -3.14157
   D43       -3.14159   0.00000   0.00000   0.00000   0.00000  -3.14158
   D44       -0.00000   0.00000   0.00000   0.00001   0.00001   0.00000
   D45       -0.00002   0.00000   0.00000   0.00001   0.00001  -0.00000
   D46        3.14156   0.00000   0.00000   0.00002   0.00002   3.14158
   D47        3.14158   0.00000   0.00000   0.00001   0.00001  -3.14159
   D48       -0.00002   0.00000   0.00000   0.00001   0.00001  -0.00001
         Item               Value     Threshold  Converged?
 Maximum Force            0.031198     0.000450     NO 
 RMS     Force            0.008021     0.000300     NO 
 Maximum Displacement     0.381763     0.001800     NO 
 RMS     Displacement     0.097794     0.001200     NO 
 Predicted change in Energy=-1.549762D-02
 Lowest energy point so far.  Saving SCF results.
 GradGradGradGradGradGradGradGradGradGradGradGradGradGradGradGradGradGrad

 Leave Link  103 at Tue Sep 29 16:16:07 2026, MaxMem=  5100273664 cpu:               0.9 elap:               0.1
 (Enter /share/software/user/restricted/gaussian/g16.B01/l202.exe)
                          Input orientation:                          
 ---------------------------------------------------------------------
 Center     Atomic      Atomic             Coordinates (Angstroms)
 Number     Number       Type             X           Y           Z
 ---------------------------------------------------------------------
      1          6           0       -1.269076   -0.876873    0.092963
      2          6           0       -2.382675   -0.040084    0.243813
      3          6           0       -3.658921   -0.614930    0.282807
      4          6           0       -3.796515   -1.996712    0.171897
      5          6           0       -2.666558   -2.812789    0.021931
      6          6           0       -1.399598   -2.244937   -0.017071
      7          6           0        1.182658   -0.958164   -0.086503
      8          6           0        1.341911   -2.354174   -0.220103
      9          6           0        2.628304   -2.869994   -0.355844
     10          6           0        3.744268   -2.030657   -0.360742
     11          6           0        3.581892   -0.654205   -0.228646
     12          6           0        2.304954   -0.117044   -0.091717
     13          8           0       -0.011648   -0.264575    0.058326
     14         35           0       -2.256099    1.878632    0.402510
     15          1           0       -4.533713    0.020506    0.399295
     16         35           0       -5.573948   -2.763984    0.228885
     17          1           0       -2.795130   -3.895329   -0.063296
     18          1           0        0.234018   -2.659868   -0.168374
     19          1           0        2.763716   -3.947089   -0.459847
     20         35           0        5.512049   -2.764279   -0.549409
     21          1           0        4.447330    0.006658   -0.231589
     22          1           0        2.167157    0.957603    0.012207
 ---------------------------------------------------------------------
                    Distance matrix (angstroms):
                    1          2          3          4          5
     1  C    0.000000
     2  C    1.401097   0.000000
     3  C    2.411641   1.400276   0.000000
     4  C    2.765541   2.415059   1.393038   0.000000
     5  C    2.388675   2.796017   2.425577   1.401883   0.000000
     6  C    1.378674   2.428143   2.802033   2.417134   1.388943
     7  C    2.459638   3.696428   4.867760   5.092890   4.274091
     8  C    3.016236   4.409396   5.318478   5.165740   4.041872
     9  C    4.400401   5.786008   6.709872   6.505339   5.308630
    10  C    5.164366   6.470494   7.564763   7.559647   6.469687
    11  C    4.866714   6.014684   7.258960   7.510237   6.615543
    12  C    3.658571   4.700252   5.996329   6.389881   5.656491
    13  O    1.399012   2.388843   3.670932   4.163943   3.680118
    14  Br   2.943271   1.929424   2.863579   4.176644   4.724695
    15  H    3.399557   2.157502   1.087479   2.159708   3.414123
    16  Br   4.702295   4.195722   2.879005   1.936807   2.915155
    17  H    3.385902   3.889389   3.409830   2.159360   1.093475
    18  H    2.346628   3.725621   4.420442   4.098873   2.910832
    19  H    5.098552   6.499627   7.273587   6.873114   5.568359
    20  Br   7.068140   8.389106   9.456160   9.367967   8.198682
    21  H    5.793380   6.846689   8.146304   8.493366   7.656432
    22  H    3.896090   4.663688   6.040634   6.657241   6.130313
                    6          7          8          9         10
     6  C    0.000000
     7  C    2.885941   0.000000
     8  C    2.751187   1.411402   0.000000
     9  C    4.090166   2.411956   1.392588   0.000000
    10  C    5.159785   2.790572   2.428118   1.396383   0.000000
    11  C    5.233588   2.422585   2.812025   2.415623   1.392277
    12  C    4.272846   1.402519   2.438993   2.784431   2.409546
    13  O    2.419489   1.388671   2.505209   3.732170   4.171518
    14  Br   4.232430   4.484595   5.590167   6.854337   7.202047
    15  H    3.889508   5.819854   6.367553   7.760137   8.562120
    16  Br   4.213680   7.000870   6.942524   8.223751   9.365605
    17  H    2.161814   4.944722   4.417562   5.527253   6.806555
    18  H    1.692266   1.949979   1.150457   2.410789   3.571381
    19  H    4.519574   3.401882   2.148577   1.090544   2.154998
    20  Br   6.951544   4.713805   4.203175   2.892167   1.923239
    21  H    6.269152   3.407346   3.900934   3.405792   2.159080
    22  H    4.793627   2.156187   3.420945   3.872804   3.399421
                   11         12         13         14         15
    11  C    0.000000
    12  C    1.392071   0.000000
    13  O    3.625975   2.326139   0.000000
    14  Br   6.394979   5.003018   3.122396   0.000000
    15  H    8.167778   6.857652   4.543854   2.939416   0.000000
    16  Br   9.406908   8.317823   6.100436   5.708953   2.977333
    17  H    7.155322   6.347212   4.576564   5.817744   4.309342
    18  H    3.903150   3.280337   2.418507   5.208126   5.498902
    19  H    3.400876   3.874949   4.640265   7.738296   8.350593
    20  Br   2.877639   4.183634   6.093364   9.099829  10.467684
    21  H    1.088912   2.150497   4.476617   6.988728   9.003185
    22  H    2.158103   1.088418   2.498606   4.534955   6.777142
                   16         17         18         19         20
    16  Br   0.000000
    17  H    3.014488   0.000000
    18  H    5.822467   3.273094   0.000000
    19  H    8.449303   5.573212   2.853290   0.000000
    20  Br  11.113283   8.397904   5.292797   2.993393   0.000000
    21  H   10.407425   8.228429   4.986617   4.303345   2.985419
    22  H    8.591964   6.941248   4.105573   4.963337   5.035486
                   21         22
    21  H    0.000000
    22  H    2.482523   0.000000
 Stoichiometry    C12H6Br3O(1-)
 Framework group  C1[X(C12H6Br3O)]
 Deg. of freedom    60
 Full point group                 C1      NOp   1
 RotChk:  IX=2 Diff= 1.77D-02
 Largest Abelian subgroup         C1      NOp   1
 Largest concise Abelian subgroup C1      NOp   1
                         Standard orientation:                         
 ---------------------------------------------------------------------
 Center     Atomic      Atomic             Coordinates (Angstroms)
 Number     Number       Type             X           Y           Z
 ---------------------------------------------------------------------
      1          6           0        0.887380    0.311555   -0.000706
      2          6           0        2.093639    1.024305   -0.000127
      3          6           0        3.299021    0.311685    0.000151
      4          6           0        3.276632   -1.081173   -0.000240
      5          6           0        2.056480   -1.771466   -0.001036
      6          6           0        0.859541   -1.066838   -0.001268
      7          6           0       -1.565163    0.498238   -0.000478
      8          6           0       -1.885049   -0.876435   -0.000269
      9          6           0       -3.226507   -1.250323    0.000006
     10          6           0       -4.241657   -0.291491    0.000036
     11          6           0       -3.920918    1.063338   -0.000163
     12          6           0       -2.586419    1.459537   -0.000421
     13          8           0       -0.294945    1.059447   -0.000743
     14         35           0        2.188999    2.951370    0.000255
     15          1           0        4.244066    0.849736    0.000700
     16         35           0        4.959199   -2.040437    0.000382
     17          1           0        2.059658   -2.864936   -0.001547
     18          1           0       -0.816277   -1.302203   -0.000976
     19          1           0       -3.485815   -2.309589    0.000211
     20         35           0       -6.087967   -0.829994    0.000374
     21          1           0       -4.707026    1.816840   -0.000124
     22          1           0       -2.325019    2.516099   -0.000594
 ---------------------------------------------------------------------
 Rotational constants (GHZ):           0.3993873           0.0793770           0.0662166
 Leave Link  202 at Tue Sep 29 16:16:07 2026, MaxMem=  5100273664 cpu:               0.6 elap:               0.1
 (Enter /share/software/user/restricted/gaussian/g16.B01/l301.exe)
 Standard basis: 6-311++G(d) (5D, 7F)
 Ernie: Thresh=  0.10000D-02 Tol=  0.10000D-05 Strict=F.
 There are   476 symmetry adapted cartesian basis functions of A   symmetry.
 There are   454 symmetry adapted basis functions of A   symmetry.
   454 basis functions,   786 primitive gaussians,   476 cartesian basis functions
    96 alpha electrons       96 beta electrons
       nuclear repulsion energy      1962.6289121669 Hartrees.
 IExCor=  402 DFT=T Ex+Corr=B3LYP ExCW=0 ScaHFX=  0.200000
 ScaDFX=  0.800000  0.720000  1.000000  0.810000 ScalE2=  1.000000  1.000000
 IRadAn=      5 IRanWt=     -1 IRanGd=            0 ICorTp=0 IEmpDi=  4
 NAtoms=   22 NActive=   22 NUniq=   22 SFac= 1.00D+00 NAtFMM=   60 NAOKFM=F Big=F
 Integral buffers will be    131072 words long.
 Raffenetti 2 integral format.
 Two-electron integral symmetry is turned on.
 Leave Link  301 at Tue Sep 29 16:16:07 2026, MaxMem=  5100273664 cpu:               0.5 elap:               0.0
 (Enter /share/software/user/restricted/gaussian/g16.B01/l302.exe)
 NPDir=0 NMtPBC=     1 NCelOv=     1 NCel=       1 NClECP=     1 NCelD=      1
         NCelK=      1 NCelE2=     1 NClLst=     1 CellRange=     0.0.
 One-electron integrals computed using PRISM.
 One-electron integral symmetry used in STVInt
 NBasis=   454 RedAO= T EigKep=  1.71D-06  NBF=   454
 NBsUse=   450 1.00D-06 EigRej=  8.50D-07 NBFU=   450
 Precomputing XC quadrature grid using
 IXCGrd= 4 IRadAn=           5 IRanWt=          -1 IRanGd=           0 AccXCQ= 0.00D+00.
 Generated NRdTot=       0 NPtTot=           0 NUsed=           0 NTot=          32
 NSgBfM=   447   447   447   447   447 MxSgAt=    22 MxSgA2=    22.
 Leave Link  302 at Tue Sep 29 16:16:08 2026, MaxMem=  5100273664 cpu:               4.5 elap:               0.3
 (Enter /share/software/user/restricted/gaussian/g16.B01/l303.exe)
 DipDrv:  MaxL=1.
 Leave Link  303 at Tue Sep 29 16:16:08 2026, MaxMem=  5100273664 cpu:               1.5 elap:               0.1
 (Enter /share/software/user/restricted/gaussian/g16.B01/l401.exe)
 Initial guess from the checkpoint file:  "calcs/b3lyp_gas/chks/BDE_24_2r4_anion.chk"
 B after Tr=     0.000000    0.000000    0.000000
         Rot=    0.999979    0.000007    0.000001   -0.006482 Ang=   0.74 deg.
 Guess basis will be translated and rotated to current coordinates.
 JPrj=2 DoOrth=T DoCkMO=T.
 Generating alternative initial guess.
 ExpMin= 3.50D-02 ExpMax= 4.40D+05 ExpMxC= 1.51D+04 IAcc=3 IRadAn=         5 AccDes= 0.00D+00
 Harris functional with IExCor=  402 and IRadAn=       5 diagonalized for initial guess.
 HarFok:  IExCor=  402 AccDes= 0.00D+00 IRadAn=         5 IDoV= 1 UseB2=F ITyADJ=14
 ICtDFT=  3500011 ScaDFX=  1.000000  1.000000  1.000000  1.000000
 FoFCou: FMM=F IPFlag=           0 FMFlag=      100000 FMFlg1=           0
         NFxFlg=           0 DoJE=T BraDBF=F KetDBF=T FulRan=T
         wScrn=  0.000000 ICntrl=       500 IOpCl=  0 I1Cent=   200000004 NGrid=           0
         NMat0=    1 NMatS0=      1 NMatT0=    0 NMatD0=    1 NMtDS0=    0 NMtDT0=    0
 Petite list used in FoFCou.
 Harris En= -8258.99974153245    
 Leave Link  401 at Tue Sep 29 16:16:09 2026, MaxMem=  5100273664 cpu:              22.0 elap:               1.4
 (Enter /share/software/user/restricted/gaussian/g16.B01/l502.exe)
 Integral symmetry usage will be decided dynamically.
 Closed shell SCF:
 Using DIIS extrapolation, IDIIS=  1040.
 NGot=  5100273664 LenX=  5099808623 LenY=  5099581571
 Requested convergence on RMS density matrix=1.00D-08 within 128 cycles.
 Requested convergence on MAX density matrix=1.00D-06.
 Requested convergence on             energy=1.00D-06.
 No special actions if energy rises.
 Fock matrices will be formed incrementally for  20 cycles.

 Cycle   1  Pass 1  IDiag  1:
 FoFJK:  IHMeth= 1 ICntrl=       0 DoSepK=F KAlg= 0 I1Cent=           0 FoldK=F
 IRaf= 770000000 NMat=       1 IRICut=       1 DoRegI=T DoRafI=F ISym2E= 0 IDoP0=0 IntGTp=1.
 FoFCou: FMM=F IPFlag=           0 FMFlag=      100000 FMFlg1=           0
         NFxFlg=           0 DoJE=F BraDBF=F KetDBF=F FulRan=T
         wScrn=  0.000000 ICntrl=         0 IOpCl=  0 I1Cent=           0 NGrid=           0
         NMat0=    1 NMatS0=      1 NMatT0=    0 NMatD0=    1 NMtDS0=    0 NMtDT0=    0
 Symmetry not used in FoFCou.
 E= -8258.61526245448    
 DIIS: error= 1.34D-02 at cycle   1 NSaved=   1.
 NSaved= 1 IEnMin= 1 EnMin= -8258.61526245448     IErMin= 1 ErrMin= 1.34D-02
 ErrMax= 1.34D-02  0.00D+00 EMaxC= 1.00D-01 BMatC= 8.48D-02 BMatP= 8.48D-02
 IDIUse=3 WtCom= 8.66D-01 WtEn= 1.34D-01
 Coeff-Com:  0.100D+01
 Coeff-En:   0.100D+01
 Coeff:      0.100D+01
 Recover alternate guess density for next cycle.
 RMSDP=1.89D-02 MaxDP=2.15D+00              OVMax= 0.00D+00

 Cycle   2  Pass 1  IDiag  1:
 RMSU=  1.72D-02    CP:  1.21D+00
 E= -8258.19046276962     Delta-E=        0.424799684864 Rises=F Damp=F
 Switch densities from cycles 1 and 2 for lowest energy.
 DIIS: error= 1.24D-01 at cycle   2 NSaved=   2.
 NSaved= 2 IEnMin= 1 EnMin= -8258.61526245448     IErMin= 1 ErrMin= 1.34D-02
 ErrMax= 1.24D-01  0.00D+00 EMaxC= 1.00D+00 BMatC= 3.92D+00 BMatP= 8.48D-02
 IDIUse=1 WtCom= 1.00D+00 WtEn= 0.00D+00
 Coeff-Com:  0.978D+00 0.217D-01
 Coeff:      0.978D+00 0.217D-01
 Gap=     0.144 Goal=   None    Shift=    0.000
 RMSDP=7.00D-03 MaxDP=3.49D-01 DE= 4.25D-01 OVMax= 1.33D-01

 Cycle   3  Pass 1  IDiag  1:
 RMSU=  5.69D-03    CP:  9.67D-01  2.26D-01
 E= -8258.64803434710     Delta-E=       -0.457571577477 Rises=F Damp=F
 DIIS: error= 2.33D-03 at cycle   3 NSaved=   3.
 NSaved= 3 IEnMin= 3 EnMin= -8258.64803434710     IErMin= 3 ErrMin= 2.33D-03
 ErrMax= 2.33D-03  0.00D+00 EMaxC= 1.00D+00 BMatC= 1.87D-03 BMatP= 8.48D-02
 IDIUse=1 WtCom= 1.00D+00 WtEn= 0.00D+00
 Coeff-Com:  0.201D-01 0.795D-02 0.972D+00
 Coeff:      0.201D-01 0.795D-02 0.972D+00
 Gap=     0.121 Goal=   None    Shift=    0.000
 RMSDP=1.19D-03 MaxDP=1.42D-01 DE=-4.58D-01 OVMax= 2.36D-02

 Cycle   4  Pass 1  IDiag  1:
 RMSU=  1.15D-03    CP:  9.60D-01  2.17D-01  1.01D+00
 E= -8258.64526517156     Delta-E=        0.002769175542 Rises=F Damp=F
 DIIS: error= 4.39D-03 at cycle   4 NSaved=   4.
 NSaved= 4 IEnMin= 3 EnMin= -8258.64803434710     IErMin= 3 ErrMin= 2.33D-03
 ErrMax= 4.39D-03  0.00D+00 EMaxC= 1.00D+00 BMatC= 4.44D-03 BMatP= 1.87D-03
 IDIUse=1 WtCom= 1.00D+00 WtEn= 0.00D+00
 Coeff-Com: -0.298D-02 0.267D-02 0.624D+00 0.376D+00
 Coeff:     -0.298D-02 0.267D-02 0.624D+00 0.376D+00
 Gap=     0.126 Goal=   None    Shift=    0.000
 RMSDP=6.17D-04 MaxDP=4.04D-02 DE= 2.77D-03 OVMax= 1.88D-02

 Cycle   5  Pass 1  IDiag  1:
 RMSU=  3.20D-04    CP:  9.62D-01  2.20D-01  1.02D+00  5.48D-01
 E= -8258.64931510555     Delta-E=       -0.004049933996 Rises=F Damp=F
 DIIS: error= 1.04D-03 at cycle   5 NSaved=   5.
 NSaved= 5 IEnMin= 5 EnMin= -8258.64931510555     IErMin= 5 ErrMin= 1.04D-03
 ErrMax= 1.04D-03  0.00D+00 EMaxC= 1.00D+00 BMatC= 2.17D-04 BMatP= 1.87D-03
 IDIUse=1 WtCom= 1.00D+00 WtEn= 0.00D+00
 Coeff-Com: -0.272D-02 0.497D-03 0.323D+00 0.235D+00 0.445D+00
 Coeff:     -0.272D-02 0.497D-03 0.323D+00 0.235D+00 0.445D+00
 Gap=     0.124 Goal=   None    Shift=    0.000
 RMSDP=2.00D-04 MaxDP=1.48D-02 DE=-4.05D-03 OVMax= 5.28D-03

 Cycle   6  Pass 1  IDiag  1:
 RMSU=  1.59D-04    CP:  9.64D-01  2.24D-01  1.02D+00  5.29D-01  7.28D-01
 E= -8258.64951272762     Delta-E=       -0.000197622066 Rises=F Damp=F
 DIIS: error= 2.81D-04 at cycle   6 NSaved=   6.
 NSaved= 6 IEnMin= 6 EnMin= -8258.64951272762     IErMin= 6 ErrMin= 2.81D-04
 ErrMax= 2.81D-04  0.00D+00 EMaxC= 1.00D+00 BMatC= 2.24D-05 BMatP= 2.17D-04
 IDIUse=1 WtCom= 1.00D+00 WtEn= 0.00D+00
 Coeff-Com: -0.122D-02-0.221D-04 0.112D+00 0.948D-01 0.281D+00 0.514D+00
 Coeff:     -0.122D-02-0.221D-04 0.112D+00 0.948D-01 0.281D+00 0.514D+00
 Gap=     0.125 Goal=   None    Shift=    0.000
 RMSDP=6.91D-05 MaxDP=3.00D-03 DE=-1.98D-04 OVMax= 1.76D-03

 Cycle   7  Pass 1  IDiag  1:
 RMSU=  5.67D-05    CP:  9.64D-01  2.25D-01  1.02D+00  5.08D-01  7.84D-01
                    CP:  9.58D-01
 E= -8258.64953172489     Delta-E=       -0.000018997274 Rises=F Damp=F
 DIIS: error= 6.22D-05 at cycle   7 NSaved=   7.
 NSaved= 7 IEnMin= 7 EnMin= -8258.64953172489     IErMin= 7 ErrMin= 6.22D-05
 ErrMax= 6.22D-05  0.00D+00 EMaxC= 1.00D+00 BMatC= 2.22D-06 BMatP= 2.24D-05
 IDIUse=1 WtCom= 1.00D+00 WtEn= 0.00D+00
 Coeff-Com: -0.357D-03 0.185D-04 0.167D-01 0.201D-01 0.960D-01 0.292D+00
 Coeff-Com:  0.576D+00
 Coeff:     -0.357D-03 0.185D-04 0.167D-01 0.201D-01 0.960D-01 0.292D+00
 Coeff:      0.576D+00
 Gap=     0.125 Goal=   None    Shift=    0.000
 RMSDP=2.92D-05 MaxDP=3.38D-03 DE=-1.90D-05 OVMax= 5.44D-04

 Cycle   8  Pass 1  IDiag  1:
 RMSU=  1.51D-05    CP:  9.64D-01  2.24D-01  1.03D+00  5.22D-01  8.07D-01
                    CP:  9.54D-01  7.59D-01
 E= -8258.64953319775     Delta-E=       -0.000001472861 Rises=F Damp=F
 DIIS: error= 2.71D-05 at cycle   8 NSaved=   8.
 NSaved= 8 IEnMin= 8 EnMin= -8258.64953319775     IErMin= 8 ErrMin= 2.71D-05
 ErrMax= 2.71D-05  0.00D+00 EMaxC= 1.00D+00 BMatC= 3.03D-07 BMatP= 2.22D-06
 IDIUse=1 WtCom= 1.00D+00 WtEn= 0.00D+00
 Coeff-Com: -0.722D-04 0.106D-04-0.292D-02 0.108D-02 0.245D-01 0.116D+00
 Coeff-Com:  0.342D+00 0.519D+00
 Coeff:     -0.722D-04 0.106D-04-0.292D-02 0.108D-02 0.245D-01 0.116D+00
 Coeff:      0.342D+00 0.519D+00
 Gap=     0.125 Goal=   None    Shift=    0.000
 RMSDP=8.27D-06 MaxDP=6.13D-04 DE=-1.47D-06 OVMax= 2.52D-04

 Cycle   9  Pass 1  IDiag  1:
 RMSU=  4.30D-06    CP:  9.64D-01  2.24D-01  1.02D+00  5.21D-01  8.10D-01
                    CP:  9.78D-01  8.26D-01  8.13D-01
 E= -8258.64953344869     Delta-E=       -0.000000250941 Rises=F Damp=F
 DIIS: error= 1.25D-05 at cycle   9 NSaved=   9.
 NSaved= 9 IEnMin= 9 EnMin= -8258.64953344869     IErMin= 9 ErrMin= 1.25D-05
 ErrMax= 1.25D-05  0.00D+00 EMaxC= 1.00D+00 BMatC= 5.13D-08 BMatP= 3.03D-07
 IDIUse=1 WtCom= 1.00D+00 WtEn= 0.00D+00
 Coeff-Com:  0.154D-05-0.639D-05-0.388D-02-0.160D-02 0.521D-02 0.433D-01
 Coeff-Com:  0.157D+00 0.339D+00 0.461D+00
 Coeff:      0.154D-05-0.639D-05-0.388D-02-0.160D-02 0.521D-02 0.433D-01
 Coeff:      0.157D+00 0.339D+00 0.461D+00
 Gap=     0.125 Goal=   None    Shift=    0.000
 RMSDP=3.58D-06 MaxDP=2.26D-04 DE=-2.51D-07 OVMax= 1.09D-04

 Cycle  10  Pass 1  IDiag  1:
 RMSU=  1.65D-06    CP:  9.64D-01  2.24D-01  1.02D+00  5.21D-01  8.11D-01
                    CP:  9.84D-01  8.10D-01  8.80D-01  5.16D-01
 E= -8258.64953349729     Delta-E=       -0.000000048592 Rises=F Damp=F
 DIIS: error= 4.24D-06 at cycle  10 NSaved=  10.
 NSaved=10 IEnMin=10 EnMin= -8258.64953349729     IErMin=10 ErrMin= 4.24D-06
 ErrMax= 4.24D-06  0.00D+00 EMaxC= 1.00D+00 BMatC= 4.78D-09 BMatP= 5.13D-08
 IDIUse=1 WtCom= 1.00D+00 WtEn= 0.00D+00
 Coeff-Com:  0.746D-05-0.444D-05-0.209D-02-0.115D-02 0.504D-03 0.142D-01
 Coeff-Com:  0.593D-01 0.157D+00 0.294D+00 0.479D+00
 Coeff:      0.746D-05-0.444D-05-0.209D-02-0.115D-02 0.504D-03 0.142D-01
 Coeff:      0.593D-01 0.157D+00 0.294D+00 0.479D+00
 Gap=     0.125 Goal=   None    Shift=    0.000
 RMSDP=1.23D-06 MaxDP=9.95D-05 DE=-4.86D-08 OVMax= 3.04D-05

 Cycle  11  Pass 1  IDiag  1:
 RMSU=  4.56D-07    CP:  9.64D-01  2.24D-01  1.02D+00  5.21D-01  8.12D-01
                    CP:  9.86D-01  8.21D-01  8.69D-01  6.12D-01  7.80D-01
 E= -8258.64953350192     Delta-E=       -0.000000004631 Rises=F Damp=F
 DIIS: error= 1.01D-06 at cycle  11 NSaved=  11.
 NSaved=11 IEnMin=11 EnMin= -8258.64953350192     IErMin=11 ErrMin= 1.01D-06
 ErrMax= 1.01D-06  0.00D+00 EMaxC= 1.00D+00 BMatC= 3.11D-10 BMatP= 4.78D-09
 IDIUse=1 WtCom= 1.00D+00 WtEn= 0.00D+00
 Coeff-Com:  0.359D-05-0.111D-05-0.602D-03-0.389D-03-0.281D-03 0.210D-02
 Coeff-Com:  0.102D-01 0.362D-01 0.875D-01 0.244D+00 0.621D+00
 Coeff:      0.359D-05-0.111D-05-0.602D-03-0.389D-03-0.281D-03 0.210D-02
 Coeff:      0.102D-01 0.362D-01 0.875D-01 0.244D+00 0.621D+00
 Gap=     0.125 Goal=   None    Shift=    0.000
 RMSDP=5.65D-07 MaxDP=3.49D-05 DE=-4.63D-09 OVMax= 6.43D-06

 Cycle  12  Pass 1  IDiag  1:
 RMSU=  2.62D-07    CP:  9.64D-01  2.24D-01  1.02D+00  5.21D-01  8.12D-01
                    CP:  9.88D-01  8.22D-01  8.71D-01  6.10D-01  8.93D-01
                    CP:  8.77D-01
 E= -8258.64953350216     Delta-E=       -0.000000000247 Rises=F Damp=F
 DIIS: error= 5.11D-07 at cycle  12 NSaved=  12.
 NSaved=12 IEnMin=12 EnMin= -8258.64953350216     IErMin=12 ErrMin= 5.11D-07
 ErrMax= 5.11D-07  0.00D+00 EMaxC= 1.00D+00 BMatC= 5.26D-11 BMatP= 3.11D-10
 IDIUse=1 WtCom= 1.00D+00 WtEn= 0.00D+00
 Coeff-Com:  0.118D-05-0.342D-07-0.114D-03-0.935D-04-0.202D-03-0.352D-03
 Coeff-Com: -0.771D-03 0.411D-02 0.174D-01 0.827D-01 0.349D+00 0.548D+00
 Coeff:      0.118D-05-0.342D-07-0.114D-03-0.935D-04-0.202D-03-0.352D-03
 Coeff:     -0.771D-03 0.411D-02 0.174D-01 0.827D-01 0.349D+00 0.548D+00
 Gap=     0.125 Goal=   None    Shift=    0.000
 RMSDP=1.96D-07 MaxDP=1.86D-05 DE=-2.47D-10 OVMax= 2.86D-06

 Cycle  13  Pass 1  IDiag  1:
 RMSU=  5.67D-08    CP:  9.64D-01  2.24D-01  1.02D+00  5.21D-01  8.12D-01
                    CP:  9.88D-01  8.23D-01  8.76D-01  6.16D-01  8.77D-01
                    CP:  9.75D-01  7.31D-01
 E= -8258.64953350228     Delta-E=       -0.000000000113 Rises=F Damp=F
 DIIS: error= 1.63D-07 at cycle  13 NSaved=  13.
 NSaved=13 IEnMin=13 EnMin= -8258.64953350228     IErMin=13 ErrMin= 1.63D-07
 ErrMax= 1.63D-07  0.00D+00 EMaxC= 1.00D+00 BMatC= 7.49D-12 BMatP= 5.26D-11
 IDIUse=1 WtCom= 1.00D+00 WtEn= 0.00D+00
 Coeff-Com:  0.188D-06 0.690D-07 0.326D-04 0.965D-05-0.819D-04-0.616D-03
 Coeff-Com: -0.241D-02-0.374D-02-0.479D-02 0.998D-02 0.118D+00 0.320D+00
 Coeff-Com:  0.564D+00
 Coeff:      0.188D-06 0.690D-07 0.326D-04 0.965D-05-0.819D-04-0.616D-03
 Coeff:     -0.241D-02-0.374D-02-0.479D-02 0.998D-02 0.118D+00 0.320D+00
 Coeff:      0.564D+00
 Gap=     0.125 Goal=   None    Shift=    0.000
 RMSDP=4.84D-08 MaxDP=3.22D-06 DE=-1.13D-10 OVMax= 9.82D-07

 Cycle  14  Pass 1  IDiag  1:
 RMSU=  1.75D-08    CP:  9.64D-01  2.24D-01  1.02D+00  5.21D-01  8.12D-01
                    CP:  9.88D-01  8.23D-01  8.77D-01  6.16D-01  8.91D-01
                    CP:  9.78D-01  7.81D-01  8.55D-01
 E= -8258.64953350228     Delta-E=       -0.000000000007 Rises=F Damp=F
 DIIS: error= 3.99D-08 at cycle  14 NSaved=  14.
 NSaved=14 IEnMin=14 EnMin= -8258.64953350228     IErMin=14 ErrMin= 3.99D-08
 ErrMax= 3.99D-08  0.00D+00 EMaxC= 1.00D+00 BMatC= 4.87D-13 BMatP= 7.49D-12
 IDIUse=1 WtCom= 1.00D+00 WtEn= 0.00D+00
 Coeff-Com: -0.768D-08 0.394D-07 0.265D-04 0.144D-04-0.187D-04-0.260D-03
 Coeff-Com: -0.110D-02-0.212D-02-0.399D-02-0.251D-02 0.294D-01 0.111D+00
 Coeff-Com:  0.275D+00 0.595D+00
 Coeff:     -0.768D-08 0.394D-07 0.265D-04 0.144D-04-0.187D-04-0.260D-03
 Coeff:     -0.110D-02-0.212D-02-0.399D-02-0.251D-02 0.294D-01 0.111D+00
 Coeff:      0.275D+00 0.595D+00
 Gap=     0.125 Goal=   None    Shift=    0.000
 RMSDP=1.36D-08 MaxDP=8.51D-07 DE=-7.28D-12 OVMax= 2.70D-07

 Cycle  15  Pass 1  IDiag  1:
 RMSU=  6.43D-09    CP:  9.64D-01  2.24D-01  1.02D+00  5.21D-01  8.12D-01
                    CP:  9.88D-01  8.23D-01  8.77D-01  6.16D-01  8.94D-01
                    CP:  9.83D-01  8.08D-01  8.93D-01  9.58D-01
 E= -8258.64953350223     Delta-E=        0.000000000051 Rises=F Damp=F
 DIIS: error= 1.20D-08 at cycle  15 NSaved=  15.
 NSaved=15 IEnMin=14 EnMin= -8258.64953350228     IErMin=15 ErrMin= 1.20D-08
 ErrMax= 1.20D-08  0.00D+00 EMaxC= 1.00D+00 BMatC= 8.48D-14 BMatP= 4.87D-13
 IDIUse=1 WtCom= 1.00D+00 WtEn= 0.00D+00
 Coeff-Com: -0.359D-07 0.192D-07 0.113D-04 0.756D-05 0.941D-06-0.685D-04
 Coeff-Com: -0.321D-03-0.730D-03-0.172D-02-0.304D-02 0.117D-02 0.213D-01
 Coeff-Com:  0.808D-01 0.332D+00 0.570D+00
 Coeff:     -0.359D-07 0.192D-07 0.113D-04 0.756D-05 0.941D-06-0.685D-04
 Coeff:     -0.321D-03-0.730D-03-0.172D-02-0.304D-02 0.117D-02 0.213D-01
 Coeff:      0.808D-01 0.332D+00 0.570D+00
 Gap=     0.125 Goal=   None    Shift=    0.000
 RMSDP=5.26D-09 MaxDP=2.58D-07 DE= 5.09D-11 OVMax= 9.86D-08

 SCF Done:  E(RB3LYP) =  -8258.64953350     A.U. after   15 cycles
            NFock= 15  Conv=0.53D-08     -V/T= 2.0014
 KE= 8.247238983603D+03 PE=-2.365504783176D+04 EE= 5.186530402492D+03
 Leave Link  502 at Tue Sep 29 16:17:02 2026, MaxMem=  5100273664 cpu:             843.0 elap:              52.7
 (Enter /share/software/user/restricted/gaussian/g16.B01/l701.exe)
 ... and contract with generalized density number  0.
 Compute integral first derivatives.
 Leave Link  701 at Tue Sep 29 16:17:02 2026, MaxMem=  5100273664 cpu:               2.2 elap:               0.2
 (Enter /share/software/user/restricted/gaussian/g16.B01/l702.exe)
 L702 exits ... SP integral derivatives will be done elsewhere.
 Leave Link  702 at Tue Sep 29 16:17:02 2026, MaxMem=  5100273664 cpu:               0.4 elap:               0.0
 (Enter /share/software/user/restricted/gaussian/g16.B01/l703.exe)
 Integral derivatives from FoFJK, PRISM(SPDF).
 Compute integral first derivatives, UseDBF=F ICtDFT=           0.
 Calling FoFJK, ICntrl=      2127 FMM=F ISym2X=0 I1Cent= 0 IOpClX= 0 NMat=1 NMatS=1 NMatT=0.
 FoFJK:  IHMeth= 1 ICntrl=    2127 DoSepK=F KAlg= 0 I1Cent=           0 FoldK=F
 IRaf=         0 NMat=       1 IRICut=       1 DoRegI=T DoRafI=F ISym2E= 0 IDoP0=0 IntGTp=1.
 FoFCou: FMM=F IPFlag=           0 FMFlag=      100000 FMFlg1=         800
         NFxFlg=           0 DoJE=F BraDBF=F KetDBF=F FulRan=T
         wScrn=  0.000000 ICntrl=      2127 IOpCl=  0 I1Cent=           0 NGrid=           0
         NMat0=    1 NMatS0=      1 NMatT0=    0 NMatD0=    1 NMtDS0=    0 NMtDT0=    0
 Symmetry not used in FoFCou.
 Leave Link  703 at Tue Sep 29 16:17:14 2026, MaxMem=  5100273664 cpu:             194.0 elap:              12.1
 (Enter /share/software/user/restricted/gaussian/g16.B01/l716.exe)
 Dipole        =-6.69864741D-01 5.91271286D-01 6.19257922D-04
 ***** Axes restored to original set *****
 -------------------------------------------------------------------
 Center     Atomic                   Forces (Hartrees/Bohr)
 Number     Number              X              Y              Z
 -------------------------------------------------------------------
      1        6           0.003335521    0.005067019    0.000205366
      2        6          -0.002258588   -0.016343940   -0.001270145
      3        6          -0.004948903    0.006406095    0.000903387
      4        6           0.016844013    0.002711651   -0.000939438
      5        6          -0.009676312    0.000832037    0.000752117
      6        6          -0.008359372   -0.006391136    0.000044101
      7        6           0.012303532    0.014040215    0.000358926
      8        6          -0.016319584    0.031542059    0.003939180
      9        6          -0.000672150   -0.010233950   -0.000849144
     10        6          -0.013160991    0.002490968    0.001137287
     11        6           0.004727988    0.004241239    0.000040502
     12        6          -0.000757817    0.001307010    0.000166209
     13        8           0.005109321   -0.004999661   -0.000799866
     14       35           0.001462863    0.007987050    0.000593848
     15        1           0.002752395   -0.001757485   -0.000344833
     16       35          -0.007297475   -0.002508748    0.000291755
     17        1          -0.001032554    0.002317014    0.000271042
     18        1           0.015036836   -0.033438239   -0.004013406
     19        1           0.000399198    0.002375904    0.000185300
     20       35           0.004104483   -0.002014194   -0.000465825
     21        1          -0.002073931   -0.001901298   -0.000020187
     22        1           0.000481527   -0.001729611   -0.000186177
 -------------------------------------------------------------------
 Cartesian Forces:  Max     0.033438239 RMS     0.008185969
 Leave Link  716 at Tue Sep 29 16:17:15 2026, MaxMem=  5100273664 cpu:               0.4 elap:               0.0
 (Enter /share/software/user/restricted/gaussian/g16.B01/l103.exe)

 GradGradGradGradGradGradGradGradGradGradGradGradGradGradGradGradGradGrad
 Berny optimization.
 Using GEDIIS/GDIIS optimizer.
 FormGI is forming the generalized inverse of G from B-inverse, IUseBI=4.
 GSVD:  received Info=                   1 from GESDD.
 Internal  Forces:  Max     0.055978309 RMS     0.013162912
 Search for a local minimum.
 Step number   2 out of a maximum of  116
 All quantities printed in internal units (Hartrees-Bohrs-Radians)
 RMS Force = .13163D-01 SwitMx=.10000D-02 MixMth= 1
 Mixed Optimization -- RFO/linear search
 Update second derivatives using D2CorX and points    1    2
 DE= -4.87D-03 DEPred=-1.55D-02 R= 3.14D-01
 Trust test= 3.14D-01 RLast= 3.00D-01 DXMaxT set to 3.00D-01
 ITU=  0  0
 Use linear search instead of GDIIS.
     Eigenvalues ---    0.01730   0.01913   0.01996   0.02006   0.02021
     Eigenvalues ---    0.02038   0.02049   0.02091   0.02094   0.02106
     Eigenvalues ---    0.02110   0.02131   0.02132   0.02136   0.02166
     Eigenvalues ---    0.02186   0.02200   0.02234   0.02320   0.06381
     Eigenvalues ---    0.14550   0.16000   0.16000   0.16000   0.16000
     Eigenvalues ---    0.16153   0.18837   0.18946   0.19072   0.22181
     Eigenvalues ---    0.22584   0.23388   0.23459   0.23960   0.24564
     Eigenvalues ---    0.24620   0.25000   0.25000   0.25000   0.25000
     Eigenvalues ---    0.33101   0.33693   0.33712   0.33764   0.33916
     Eigenvalues ---    0.37315   0.41311   0.41539   0.42552   0.44512
     Eigenvalues ---    0.44620   0.44969   0.45451   0.46029   0.46234
     Eigenvalues ---    0.46335   0.47649   0.47932   0.48323   1.11696
 RFO step:  Lambda=-2.21378644D-02 EMin= 1.72957529D-02
 Quartic linear search produced a step of -0.36857.
 Maximum step size (   0.300) exceeded in Quadratic search.
    -- Step size scaled by   0.695
 Iteration  1 RMS(Cart)=  0.11320657 RMS(Int)=  0.00218602
 Iteration  2 RMS(Cart)=  0.00826280 RMS(Int)=  0.00002416
 Iteration  3 RMS(Cart)=  0.00002795 RMS(Int)=  0.00001523
 Iteration  4 RMS(Cart)=  0.00000000 RMS(Int)=  0.00001523
 ITry= 1 IFail=0 DXMaxC= 5.77D-01 DCOld= 1.00D+10 DXMaxT= 3.00D-01 DXLimC= 3.00D+00 Rises=F
 Variable       Old X    -DE/DX   Delta X   Delta X   Delta X     New X
                                 (Linear)    (Quad)   (Total)
    R1        2.64769  -0.00026   0.00442  -0.01090  -0.00645   2.64124
    R2        2.60532   0.04443   0.01263   0.00553   0.01820   2.62351
    R3        2.64375   0.01002  -0.00130   0.01170   0.01040   2.65415
    R4        2.64614  -0.00903   0.00148  -0.01239  -0.01093   2.63521
    R5        3.64608   0.00809  -0.02941   0.08957   0.06016   3.70625
    R6        2.63246  -0.00849  -0.00033  -0.00772  -0.00808   2.62438
    R7        2.05504  -0.00328   0.00871  -0.02618  -0.01747   2.03757
    R8        2.64917  -0.00704   0.00125  -0.01003  -0.00880   2.64037
    R9        3.66003   0.00770  -0.03343   0.09902   0.06559   3.72562
   R10        2.62472   0.00883  -0.00756   0.02741   0.01987   2.64459
   R11        2.06637  -0.00219   0.00399  -0.01276  -0.00877   2.05760
   R12        3.19792   0.02307  -0.05138   0.20693   0.15555   3.35347
   R13        2.66716  -0.03040  -0.00494  -0.01376  -0.01871   2.64845
   R14        2.65038  -0.00255   0.00279  -0.00982  -0.00703   2.64334
   R15        2.62421  -0.02992  -0.00374  -0.01387  -0.01761   2.60660
   R16        2.63161  -0.00340  -0.00543   0.01107   0.00564   2.63725
   R17        2.63878  -0.00135   0.00359  -0.01013  -0.00654   2.63224
   R18        2.06083  -0.00231   0.00647  -0.01932  -0.01285   2.04798
   R19        2.63102   0.00321   0.00215  -0.00219  -0.00003   2.63099
   R20        3.63439   0.00459  -0.02853   0.08067   0.05213   3.68653
   R21        2.63063  -0.00087   0.00064  -0.00195  -0.00131   2.62932
   R22        2.05775  -0.00280   0.00748  -0.02245  -0.01498   2.04277
   R23        2.05681  -0.00179   0.00639  -0.01851  -0.01212   2.04470
    A1        2.12467  -0.00902  -0.00222  -0.00291  -0.00507   2.11960
    A2        2.04389  -0.04696  -0.01051  -0.04461  -0.05515   1.98874
    A3        2.11462   0.05598   0.01273   0.04752   0.06022   2.17484
    A4        2.07399   0.01455  -0.00275   0.02859   0.02584   2.09983
    A5        2.15392  -0.00898   0.00693  -0.03100  -0.02408   2.12984
    A6        2.05527  -0.00557  -0.00417   0.00241  -0.00176   2.05351
    A7        2.08865  -0.00389   0.00319  -0.01941  -0.01627   2.07237
    A8        2.09010   0.00174  -0.00163   0.00934   0.00774   2.09784
    A9        2.10444   0.00215  -0.00157   0.01007   0.00853   2.11297
   A10        2.10172   0.00523  -0.00047   0.00479   0.00425   2.10597
   A11        2.07288  -0.00370   0.00216  -0.00890  -0.00671   2.06617
   A12        2.10858  -0.00153  -0.00168   0.00411   0.00246   2.11104
   A13        2.09468   0.01146   0.00177   0.01501   0.01677   2.11145
   A14        2.08274  -0.00707   0.00514  -0.02552  -0.02038   2.06236
   A15        2.10577  -0.00438  -0.00690   0.01051   0.00361   2.10937
   A16        2.08266  -0.01832   0.00049  -0.02607  -0.02553   2.05714
   A17        1.73052   0.05517   0.04724  -0.00446   0.04275   1.77328
   A18        2.47000  -0.03685  -0.04773   0.03053  -0.01723   2.45277
   A19        2.09733   0.01261   0.00488   0.00471   0.00958   2.10691
   A20        2.21546  -0.03856  -0.01396  -0.02037  -0.03434   2.18112
   A21        1.97040   0.02595   0.00909   0.01566   0.02475   1.99515
   A22        2.07125   0.00265   0.00330  -0.00684  -0.00354   2.06770
   A23        2.11290  -0.00705  -0.00436   0.00001  -0.00435   2.10854
   A24        2.08269   0.00424  -0.00043   0.00810   0.00767   2.09036
   A25        2.08759   0.00281   0.00479  -0.00811  -0.00331   2.08428
   A26        2.09521   0.00422   0.00117   0.00592   0.00710   2.10231
   A27        2.10092  -0.00263  -0.00159  -0.00117  -0.00276   2.09817
   A28        2.08705  -0.00159   0.00042  -0.00475  -0.00434   2.08271
   A29        2.09185  -0.00438   0.00246  -0.01032  -0.00785   2.08400
   A30        2.10256   0.00193   0.00088  -0.00069   0.00019   2.10275
   A31        2.08877   0.00245  -0.00334   0.01101   0.00767   2.09643
   A32        2.09783  -0.00805  -0.00745   0.00652  -0.00093   2.09690
   A33        2.08342   0.00429   0.00474  -0.00521  -0.00047   2.08295
   A34        2.10193   0.00376   0.00271  -0.00131   0.00140   2.10334
   A35        2.16154   0.01214  -0.02831   0.09027   0.06196   2.22350
    D1       -0.00022   0.00000  -0.00000   0.00008   0.00008  -0.00014
    D2        3.14133   0.00000  -0.00000   0.00003   0.00003   3.14136
    D3        3.14141   0.00001   0.00001   0.00013   0.00013   3.14155
    D4       -0.00022   0.00001   0.00000   0.00008   0.00008  -0.00014
    D5        0.00019  -0.00001  -0.00002  -0.00007  -0.00009   0.00010
    D6        3.14112  -0.00004  -0.00002  -0.00016  -0.00019   3.14093
    D7       -3.14145  -0.00001  -0.00003  -0.00012  -0.00015   3.14158
    D8       -0.00052  -0.00005  -0.00003  -0.00022  -0.00025  -0.00077
    D9       -3.14089  -0.00006  -0.00004  -0.00051  -0.00055  -3.14145
   D10        0.00074  -0.00005  -0.00003  -0.00046  -0.00050   0.00024
   D11        0.00007   0.00000   0.00001  -0.00003  -0.00002   0.00006
   D12       -3.14149  -0.00000   0.00001  -0.00004  -0.00004  -3.14153
   D13       -3.14148   0.00000   0.00002   0.00002   0.00004  -3.14145
   D14        0.00014   0.00000   0.00001   0.00001   0.00001   0.00015
   D15        0.00011  -0.00000  -0.00000  -0.00004  -0.00004   0.00007
   D16       -3.14146  -0.00000  -0.00000  -0.00001  -0.00002  -3.14148
   D17       -3.14152   0.00000   0.00001  -0.00002  -0.00002  -3.14154
   D18        0.00010  -0.00000   0.00000   0.00000   0.00000   0.00010
   D19       -0.00014  -0.00000  -0.00002   0.00005   0.00003  -0.00011
   D20        3.14137   0.00000  -0.00002   0.00011   0.00009   3.14146
   D21        3.14142   0.00000  -0.00002   0.00003   0.00001   3.14143
   D22       -0.00025   0.00000  -0.00002   0.00009   0.00007  -0.00018
   D23       -0.00000   0.00000   0.00003  -0.00000   0.00003   0.00003
   D24       -3.14055   0.00000  -0.00003   0.00019   0.00016  -3.14039
   D25       -3.14151   0.00000   0.00003  -0.00006  -0.00003  -3.14154
   D26        0.00113  -0.00000  -0.00003   0.00013   0.00010   0.00123
   D27       -0.00001  -0.00001  -0.00001  -0.00002  -0.00004  -0.00005
   D28        3.14158   0.00001   0.00001   0.00004   0.00005  -3.14156
   D29       -0.00000   0.00001   0.00001   0.00004   0.00005   0.00005
   D30       -3.14158   0.00000   0.00001   0.00002   0.00003  -3.14155
   D31       -3.14159  -0.00000  -0.00001  -0.00002  -0.00003   3.14157
   D32        0.00001  -0.00001  -0.00001  -0.00004  -0.00005  -0.00003
   D33       -0.00012  -0.00004  -0.00004  -0.00036  -0.00040  -0.00051
   D34        3.14147  -0.00003  -0.00002  -0.00029  -0.00031   3.14116
   D35        0.00003  -0.00000   0.00001  -0.00002  -0.00001   0.00002
   D36       -3.14155  -0.00000   0.00001  -0.00004  -0.00003  -3.14157
   D37       -0.00004   0.00000  -0.00000   0.00004   0.00004   0.00000
   D38        3.14157   0.00000   0.00000   0.00001   0.00001   3.14157
   D39        3.14154   0.00001  -0.00001   0.00006   0.00006  -3.14159
   D40       -0.00004   0.00000  -0.00000   0.00003   0.00002  -0.00001
   D41        0.00002  -0.00000   0.00000  -0.00002  -0.00002  -0.00000
   D42       -3.14157  -0.00000  -0.00000  -0.00003  -0.00003   3.14158
   D43       -3.14158   0.00000  -0.00000   0.00001   0.00001  -3.14157
   D44        0.00000   0.00000  -0.00000   0.00001   0.00000   0.00001
   D45       -0.00000  -0.00000  -0.00001  -0.00002  -0.00002  -0.00002
   D46        3.14158  -0.00000  -0.00001   0.00001   0.00000   3.14158
   D47       -3.14159  -0.00000  -0.00000  -0.00001  -0.00002   3.14158
   D48       -0.00001   0.00000  -0.00001   0.00001   0.00001  -0.00000
         Item               Value     Threshold  Converged?
 Maximum Force            0.055978     0.000450     NO 
 RMS     Force            0.013163     0.000300     NO 
 Maximum Displacement     0.576959     0.001800     NO 
 RMS     Displacement     0.119917     0.001200     NO 
 Predicted change in Energy=-1.357120D-02
 Lowest energy point so far.  Saving SCF results.
 GradGradGradGradGradGradGradGradGradGradGradGradGradGradGradGradGradGrad

 Leave Link  103 at Tue Sep 29 16:17:15 2026, MaxMem=  5100273664 cpu:               0.9 elap:               0.1
 (Enter /share/software/user/restricted/gaussian/g16.B01/l202.exe)
                          Input orientation:                          
 ---------------------------------------------------------------------
 Center     Atomic      Atomic             Coordinates (Angstroms)
 Number     Number       Type             X           Y           Z
 ---------------------------------------------------------------------
      1          6           0       -1.275812   -0.995894    0.082768
      2          6           0       -2.343009   -0.106353    0.235478
      3          6           0       -3.653249   -0.581067    0.285783
      4          6           0       -3.872503   -1.948441    0.181510
      5          6           0       -2.801163   -2.832326    0.029156
      6          6           0       -1.483190   -2.364592   -0.022355
      7          6           0        1.213800   -0.982800   -0.090880
      8          6           0        1.417188   -2.362911   -0.225532
      9          6           0        2.724502   -2.832865   -0.358549
     10          6           0        3.803077   -1.951442   -0.357606
     11          6           0        3.594676   -0.581421   -0.223451
     12          6           0        2.296948   -0.097688   -0.089908
     13          8           0       -0.016482   -0.374927    0.048778
     14         35           0       -2.069844    1.829950    0.386004
     15          1           0       -4.475160    0.106815    0.403575
     16         35           0       -5.728978   -2.608105    0.253723
     17          1           0       -3.019651   -3.896186   -0.048487
     18          1           0        0.177963   -2.965182   -0.192660
     19          1           0        2.905968   -3.896091   -0.464045
     20         35           0        5.623494   -2.627322   -0.544669
     21          1           0        4.431414    0.102979   -0.222656
     22          1           0        2.114387    0.963583    0.015514
 ---------------------------------------------------------------------
                    Distance matrix (angstroms):
                    1          2          3          4          5
     1  C    0.000000
     2  C    1.397682   0.000000
     3  C    2.421880   1.394493   0.000000
     4  C    2.767652   2.394901   1.388761   0.000000
     5  C    2.387897   2.771896   2.420759   1.397224   0.000000
     6  C    1.388304   2.430105   2.825786   2.433837   1.399458
     7  C    2.495695   3.677712   4.898105   5.184317   4.422113
     8  C    3.035792   4.409497   5.398679   5.321494   4.252023
     9  C    4.423996   5.785016   6.794223   6.677900   5.539250
    10  C    5.186725   6.444414   7.608460   7.694491   6.673944
    11  C    4.897675   5.974313   7.265792   7.602072   6.785068
    12  C    3.687981   4.651360   5.981608   6.446788   5.786463
    13  O    1.404517   2.349408   3.650306   4.166828   3.713979
    14  Br   2.950904   1.961261   2.886211   4.191376   4.732756
    15  H    3.399222   2.149363   1.078236   2.153272   3.403087
    16  Br   4.739107   4.209974   2.901476   1.971515   2.944963
    17  H    3.386723   3.860223   3.391637   2.138684   1.088836
    18  H    2.463213   3.835558   4.537741   4.192856   2.990325
    19  H    5.118342   6.511775   7.387486   7.082214   5.826336
    20  Br   7.117279   8.392204   9.535972   9.547889   8.446665
    21  H    5.820072   6.793123   8.129465   8.563102   7.809584
    22  H    3.916315   4.589284   5.977007   6.659601   6.210615
                    6          7          8          9         10
     6  C    0.000000
     7  C    3.031138   0.000000
     8  C    2.907485   1.401501   0.000000
     9  C    4.246996   2.403458   1.395572   0.000000
    10  C    5.312975   2.777366   2.424710   1.392922   0.000000
    11  C    5.385616   2.418109   2.813391   2.417530   1.392258
    12  C    4.408271   1.398797   2.433847   2.781397   2.403433
    13  O    2.472864   1.379351   2.466320   3.704102   4.152057
    14  Br   4.255008   4.349862   5.487572   6.729187   7.024463
    15  H    3.903992   5.813434   6.419897   7.813942   8.564171
    16  Br   4.261718   7.138805   7.166414   8.478604   9.574185
    17  H    2.169603   5.139234   4.697639   5.849965   7.101211
    18  H    1.774582   2.239008   1.378219   2.555365   3.767802
    19  H    4.669613   3.389682   2.150348   1.083747   2.144247
    20  Br   7.130694   4.728190   4.226674   2.912223   1.950827
    21  H    6.411830   3.398429   3.894378   3.398705   2.152594
    22  H    4.901095   2.147273   3.407309   3.863312   3.389434
                   11         12         13         14         15
    11  C    0.000000
    12  C    1.391378   0.000000
    13  O    3.627288   2.334107   0.000000
    14  Br   6.186512   4.796993   3.031748   0.000000
    15  H    8.123367   6.793143   4.498640   2.958893   0.000000
    16  Br   9.553307   8.416399   6.136913   5.753528   2.994212
    17  H    7.400514   6.534258   4.629012   5.820614   4.283326
    18  H    4.166196   3.566957   2.608739   5.327361   5.607514
    19  H    3.394000   3.865068   4.604595   7.633402   8.441390
    20  Br   2.899136   4.203780   6.102032   8.939847  10.505117
    21  H    1.080988   2.147984   4.481724   6.754202   8.928563
    22  H    2.152998   1.082006   2.516609   4.289014   6.656333
                   16         17         18         19         20
    16  Br   0.000000
    17  H    3.015119   0.000000
    18  H    5.934536   3.333510   0.000000
    19  H    8.759931   5.940172   2.895212   0.000000
    20  Br  11.380529   8.749867   5.467346   3.000204   0.000000
    21  H   10.526656   8.458252   5.244650   4.286935   2.996546
    22  H    8.621605   7.069639   4.385005   4.947020   5.051954
                   21         22
    21  H    0.000000
    22  H    2.483139   0.000000
 Stoichiometry    C12H6Br3O(1-)
 Framework group  C1[X(C12H6Br3O)]
 Deg. of freedom    60
 Full point group                 C1      NOp   1
 RotChk:  IX=2 Diff= 2.66D-02
 Largest Abelian subgroup         C1      NOp   1
 Largest concise Abelian subgroup C1      NOp   1
                         Standard orientation:                         
 ---------------------------------------------------------------------
 Center     Atomic      Atomic             Coordinates (Angstroms)
 Number     Number       Type             X           Y           Z
 ---------------------------------------------------------------------
      1          6           0        0.898359    0.168655   -0.000153
      2          6           0        2.049837    0.960876   -0.000027
      3          6           0        3.312021    0.367999    0.000045
      4          6           0        3.398682   -1.018055   -0.000081
      5          6           0        2.243627   -1.804238   -0.000357
      6          6           0        0.973043   -1.217639   -0.000378
      7          6           0       -1.585928    0.407004   -0.000105
      8          6           0       -1.922420   -0.953502   -0.000631
      9          6           0       -3.273060   -1.304778   -0.000547
     10          6           0       -4.264672   -0.326547    0.000020
     11          6           0       -3.924149    1.023426    0.000512
     12          6           0       -2.581748    1.389337    0.000435
     13          8           0       -0.298859    0.903050   -0.000155
     14         35           0        1.964391    2.920274   -0.000095
     15          1           0        4.199107    0.980920    0.000205
     16         35           0        5.188306   -1.845171    0.000220
     17          1           0        2.358885   -2.886956   -0.000578
     18          1           0       -0.743570   -1.667505    0.000708
     19          1           0       -3.557029   -2.350660   -0.000930
     20         35           0       -6.147492   -0.837147    0.000095
     21          1           0       -4.693363    1.782928    0.000941
     22          1           0       -2.296872    2.433168    0.000798
 ---------------------------------------------------------------------
 Rotational constants (GHZ):           0.4248510           0.0769830           0.0651736
 Leave Link  202 at Tue Sep 29 16:17:15 2026, MaxMem=  5100273664 cpu:               0.4 elap:               0.1
 (Enter /share/software/user/restricted/gaussian/g16.B01/l301.exe)
 Standard basis: 6-311++G(d) (5D, 7F)
 Ernie: Thresh=  0.10000D-02 Tol=  0.10000D-05 Strict=F.
 There are   476 symmetry adapted cartesian basis functions of A   symmetry.
 There are   454 symmetry adapted basis functions of A   symmetry.
   454 basis functions,   786 primitive gaussians,   476 cartesian basis functions
    96 alpha electrons       96 beta electrons
       nuclear repulsion energy      1953.8135927660 Hartrees.
 IExCor=  402 DFT=T Ex+Corr=B3LYP ExCW=0 ScaHFX=  0.200000
 ScaDFX=  0.800000  0.720000  1.000000  0.810000 ScalE2=  1.000000  1.000000
 IRadAn=      5 IRanWt=     -1 IRanGd=            0 ICorTp=0 IEmpDi=  4
 NAtoms=   22 NActive=   22 NUniq=   22 SFac= 1.00D+00 NAtFMM=   60 NAOKFM=F Big=F
 Integral buffers will be    131072 words long.
 Raffenetti 2 integral format.
 Two-electron integral symmetry is turned on.
 Leave Link  301 at Tue Sep 29 16:17:15 2026, MaxMem=  5100273664 cpu:               0.6 elap:               0.1
 (Enter /share/software/user/restricted/gaussian/g16.B01/l302.exe)
 NPDir=0 NMtPBC=     1 NCelOv=     1 NCel=       1 NClECP=     1 NCelD=      1
         NCelK=      1 NCelE2=     1 NClLst=     1 CellRange=     0.0.
 One-electron integrals computed using PRISM.
 One-electron integral symmetry used in STVInt
 NBasis=   454 RedAO= T EigKep=  1.64D-06  NBF=   454
 NBsUse=   450 1.00D-06 EigRej=  8.96D-07 NBFU=   450
 Precomputing XC quadrature grid using
 IXCGrd= 4 IRadAn=           5 IRanWt=          -1 IRanGd=           0 AccXCQ= 0.00D+00.
 Generated NRdTot=       0 NPtTot=           0 NUsed=           0 NTot=          32
 NSgBfM=   448   448   448   448   448 MxSgAt=    22 MxSgA2=    22.
 Leave Link  302 at Tue Sep 29 16:17:15 2026, MaxMem=  5100273664 cpu:               4.1 elap:               0.3
 (Enter /share/software/user/restricted/gaussian/g16.B01/l303.exe)
 DipDrv:  MaxL=1.
 Leave Link  303 at Tue Sep 29 16:17:15 2026, MaxMem=  5100273664 cpu:               1.2 elap:               0.1
 (Enter /share/software/user/restricted/gaussian/g16.B01/l401.exe)
 Initial guess from the checkpoint file:  "calcs/b3lyp_gas/chks/BDE_24_2r4_anion.chk"
 B after Tr=    -0.000000   -0.000000   -0.000000
         Rot=    0.999933    0.000008    0.000000   -0.011591 Ang=   1.33 deg.
 Guess basis will be translated and rotated to current coordinates.
 JPrj=2 DoOrth=T DoCkMO=T.
 Generating alternative initial guess.
 ExpMin= 3.50D-02 ExpMax= 4.40D+05 ExpMxC= 1.51D+04 IAcc=3 IRadAn=         5 AccDes= 0.00D+00
 Harris functional with IExCor=  402 and IRadAn=       5 diagonalized for initial guess.
 HarFok:  IExCor=  402 AccDes= 0.00D+00 IRadAn=         5 IDoV= 1 UseB2=F ITyADJ=14
 ICtDFT=  3500011 ScaDFX=  1.000000  1.000000  1.000000  1.000000
 FoFCou: FMM=F IPFlag=           0 FMFlag=      100000 FMFlg1=           0
         NFxFlg=           0 DoJE=T BraDBF=F KetDBF=T FulRan=T
         wScrn=  0.000000 ICntrl=       500 IOpCl=  0 I1Cent=   200000004 NGrid=           0
         NMat0=    1 NMatS0=      1 NMatT0=    0 NMatD0=    1 NMtDS0=    0 NMtDT0=    0
 Petite list used in FoFCou.
 Harris En= -8258.98397215747    
 Leave Link  401 at Tue Sep 29 16:17:17 2026, MaxMem=  5100273664 cpu:              22.2 elap:               1.4
 (Enter /share/software/user/restricted/gaussian/g16.B01/l502.exe)
 Integral symmetry usage will be decided dynamically.
 Closed shell SCF:
 Using DIIS extrapolation, IDIIS=  1040.
 NGot=  5100273664 LenX=  5099808623 LenY=  5099581571
 Requested convergence on RMS density matrix=1.00D-08 within 128 cycles.
 Requested convergence on MAX density matrix=1.00D-06.
 Requested convergence on             energy=1.00D-06.
 No special actions if energy rises.
 Fock matrices will be formed incrementally for  20 cycles.

 Cycle   1  Pass 1  IDiag  1:
 FoFJK:  IHMeth= 1 ICntrl=       0 DoSepK=F KAlg= 0 I1Cent=           0 FoldK=F
 IRaf= 770000000 NMat=       1 IRICut=       1 DoRegI=T DoRafI=F ISym2E= 0 IDoP0=0 IntGTp=1.
 FoFCou: FMM=F IPFlag=           0 FMFlag=      100000 FMFlg1=           0
         NFxFlg=           0 DoJE=F BraDBF=F KetDBF=F FulRan=T
         wScrn=  0.000000 ICntrl=         0 IOpCl=  0 I1Cent=           0 NGrid=           0
         NMat0=    1 NMatS0=      1 NMatT0=    0 NMatD0=    1 NMtDS0=    0 NMtDT0=    0
 Symmetry not used in FoFCou.
 E= -8258.58855339602    
 DIIS: error= 1.45D-02 at cycle   1 NSaved=   1.
 NSaved= 1 IEnMin= 1 EnMin= -8258.58855339602     IErMin= 1 ErrMin= 1.45D-02
 ErrMax= 1.45D-02  0.00D+00 EMaxC= 1.00D-01 BMatC= 1.33D-01 BMatP= 1.33D-01
 IDIUse=3 WtCom= 8.55D-01 WtEn= 1.45D-01
 Coeff-Com:  0.100D+01
 Coeff-En:   0.100D+01
 Coeff:      0.100D+01
 Recover alternate guess density for next cycle.
 RMSDP=1.91D-02 MaxDP=2.39D+00              OVMax= 0.00D+00

 Cycle   2  Pass 1  IDiag  1:
 RMSU=  1.74D-02    CP:  1.22D+00
 E= -8258.20503535555     Delta-E=        0.383518040471 Rises=F Damp=F
 Switch densities from cycles 1 and 2 for lowest energy.
 DIIS: error= 1.24D-01 at cycle   2 NSaved=   2.
 NSaved= 2 IEnMin= 1 EnMin= -8258.58855339602     IErMin= 1 ErrMin= 1.45D-02
 ErrMax= 1.24D-01  0.00D+00 EMaxC= 1.00D+00 BMatC= 3.90D+00 BMatP= 1.33D-01
 IDIUse=1 WtCom= 1.00D+00 WtEn= 0.00D+00
 Coeff-Com:  0.968D+00 0.317D-01
 Coeff:      0.968D+00 0.317D-01
 Gap=     0.150 Goal=   None    Shift=    0.000
 RMSDP=5.85D-03 MaxDP=3.49D-01 DE= 3.84D-01 OVMax= 1.38D-01

 Cycle   3  Pass 1  IDiag  1:
 RMSU=  4.72D-03    CP:  9.77D-01  1.93D-01
 E= -8258.63777409255     Delta-E=       -0.432738737001 Rises=F Damp=F
 DIIS: error= 5.61D-03 at cycle   3 NSaved=   3.
 NSaved= 3 IEnMin= 3 EnMin= -8258.63777409255     IErMin= 3 ErrMin= 5.61D-03
 ErrMax= 5.61D-03  0.00D+00 EMaxC= 1.00D+00 BMatC= 5.47D-03 BMatP= 1.33D-01
 IDIUse=1 WtCom= 1.00D+00 WtEn= 0.00D+00
 Coeff-Com:  0.408D-01 0.137D-01 0.946D+00
 Coeff:      0.408D-01 0.137D-01 0.946D+00
 Gap=     0.156 Goal=   None    Shift=    0.000
 RMSDP=2.72D-03 MaxDP=1.63D-01 DE=-4.33D-01 OVMax= 7.00D-02

 Cycle   4  Pass 1  IDiag  1:
 RMSU=  2.56D-03    CP:  1.00D+00  1.80D-01  9.96D-01
 E= -8258.62695000383     Delta-E=        0.010824088717 Rises=F Damp=F
 DIIS: error= 1.07D-02 at cycle   4 NSaved=   4.
 NSaved= 4 IEnMin= 3 EnMin= -8258.63777409255     IErMin= 3 ErrMin= 5.61D-03
 ErrMax= 1.07D-02  0.00D+00 EMaxC= 1.00D+00 BMatC= 1.45D-02 BMatP= 5.47D-03
 IDIUse=1 WtCom= 1.00D+00 WtEn= 0.00D+00
 Coeff-Com: -0.292D-02 0.434D-02 0.634D+00 0.364D+00
 Coeff:     -0.292D-02 0.434D-02 0.634D+00 0.364D+00
 Gap=     0.129 Goal=   None    Shift=    0.000
 RMSDP=1.49D-03 MaxDP=8.59D-02 DE= 1.08D-02 OVMax= 4.71D-02

 Cycle   5  Pass 1  IDiag  1:
 RMSU=  5.69D-04    CP:  9.89D-01  1.80D-01  1.00D+00  4.88D-01
 E= -8258.64275049219     Delta-E=       -0.015800488354 Rises=F Damp=F
 DIIS: error= 1.64D-03 at cycle   5 NSaved=   5.
 NSaved= 5 IEnMin= 5 EnMin= -8258.64275049219     IErMin= 5 ErrMin= 1.64D-03
 ErrMax= 1.64D-03  0.00D+00 EMaxC= 1.00D+00 BMatC= 4.61D-04 BMatP= 5.47D-03
 IDIUse=1 WtCom= 1.00D+00 WtEn= 0.00D+00
 Coeff-Com: -0.283D-02 0.115D-02 0.343D+00 0.226D+00 0.433D+00
 Coeff:     -0.283D-02 0.115D-02 0.343D+00 0.226D+00 0.433D+00
 Gap=     0.131 Goal=   None    Shift=    0.000
 RMSDP=3.59D-04 MaxDP=4.33D-02 DE=-1.58D-02 OVMax= 7.04D-03

 Cycle   6  Pass 1  IDiag  1:
 RMSU=  2.61D-04    CP:  9.88D-01  1.87D-01  1.01D+00  4.74D-01  6.43D-01
 E= -8258.64320509695     Delta-E=       -0.000454604760 Rises=F Damp=F
 DIIS: error= 3.38D-04 at cycle   6 NSaved=   6.
 NSaved= 6 IEnMin= 6 EnMin= -8258.64320509695     IErMin= 6 ErrMin= 3.38D-04
 ErrMax= 3.38D-04  0.00D+00 EMaxC= 1.00D+00 BMatC= 3.53D-05 BMatP= 4.61D-04
 IDIUse=1 WtCom= 1.00D+00 WtEn= 0.00D+00
 Coeff-Com: -0.115D-02 0.582D-04 0.103D+00 0.764D-01 0.250D+00 0.572D+00
 Coeff:     -0.115D-02 0.582D-04 0.103D+00 0.764D-01 0.250D+00 0.572D+00
 Gap=     0.131 Goal=   None    Shift=    0.000
 RMSDP=6.61D-05 MaxDP=6.19D-03 DE=-4.55D-04 OVMax= 2.08D-03

 Cycle   7  Pass 1  IDiag  1:
 RMSU=  5.86D-05    CP:  9.88D-01  1.87D-01  1.01D+00  4.75D-01  6.68D-01
                    CP:  9.06D-01
 E= -8258.64323609967     Delta-E=       -0.000031002723 Rises=F Damp=F
 DIIS: error= 1.72D-04 at cycle   7 NSaved=   7.
 NSaved= 7 IEnMin= 7 EnMin= -8258.64323609967     IErMin= 7 ErrMin= 1.72D-04
 ErrMax= 1.72D-04  0.00D+00 EMaxC= 1.00D+00 BMatC= 5.69D-06 BMatP= 3.53D-05
 IDIUse=1 WtCom= 1.00D+00 WtEn= 0.00D+00
 Coeff-Com: -0.413D-03-0.115D-04 0.250D-01 0.209D-01 0.106D+00 0.352D+00
 Coeff-Com:  0.497D+00
 Coeff:     -0.413D-03-0.115D-04 0.250D-01 0.209D-01 0.106D+00 0.352D+00
 Coeff:      0.497D+00
 Gap=     0.131 Goal=   None    Shift=    0.000
 RMSDP=2.74D-05 MaxDP=1.10D-03 DE=-3.10D-05 OVMax= 9.23D-04

 Cycle   8  Pass 1  IDiag  1:
 RMSU=  2.17D-05    CP:  9.89D-01  1.87D-01  1.01D+00  4.79D-01  6.78D-01
                    CP:  9.40D-01  1.05D+00
 E= -8258.64324134020     Delta-E=       -0.000005240532 Rises=F Damp=F
 DIIS: error= 5.65D-05 at cycle   8 NSaved=   8.
 NSaved= 8 IEnMin= 8 EnMin= -8258.64324134020     IErMin= 8 ErrMin= 5.65D-05
 ErrMax= 5.65D-05  0.00D+00 EMaxC= 1.00D+00 BMatC= 6.62D-07 BMatP= 5.69D-06
 IDIUse=1 WtCom= 1.00D+00 WtEn= 0.00D+00
 Coeff-Com: -0.595D-04-0.703D-05-0.246D-02-0.118D-02 0.200D-01 0.110D+00
 Coeff-Com:  0.298D+00 0.576D+00
 Coeff:     -0.595D-04-0.703D-05-0.246D-02-0.118D-02 0.200D-01 0.110D+00
 Coeff:      0.298D+00 0.576D+00
 Gap=     0.131 Goal=   None    Shift=    0.000
 RMSDP=1.53D-05 MaxDP=8.32D-04 DE=-5.24D-06 OVMax= 2.58D-04

 Cycle   9  Pass 1  IDiag  1:
 RMSU=  9.72D-06    CP:  9.89D-01  1.87D-01  1.01D+00  4.81D-01  6.87D-01
                    CP:  9.37D-01  1.02D+00  6.88D-01
 E= -8258.64324199918     Delta-E=       -0.000000658974 Rises=F Damp=F
 DIIS: error= 1.12D-05 at cycle   9 NSaved=   9.
 NSaved= 9 IEnMin= 9 EnMin= -8258.64324199918     IErMin= 9 ErrMin= 1.12D-05
 ErrMax= 1.12D-05  0.00D+00 EMaxC= 1.00D+00 BMatC= 4.70D-08 BMatP= 6.62D-07
 IDIUse=1 WtCom= 1.00D+00 WtEn= 0.00D+00
 Coeff-Com: -0.178D-05-0.732D-05-0.303D-02-0.221D-02 0.408D-02 0.371D-01
 Coeff-Com:  0.133D+00 0.318D+00 0.514D+00
 Coeff:     -0.178D-05-0.732D-05-0.303D-02-0.221D-02 0.408D-02 0.371D-01
 Coeff:      0.133D+00 0.318D+00 0.514D+00
 Gap=     0.131 Goal=   None    Shift=    0.000
 RMSDP=4.81D-06 MaxDP=4.29D-04 DE=-6.59D-07 OVMax= 7.36D-05

 Cycle  10  Pass 1  IDiag  1:
 RMSU=  2.23D-06    CP:  9.89D-01  1.87D-01  1.01D+00  4.81D-01  6.88D-01
                    CP:  9.50D-01  1.04D+00  7.41D-01  8.90D-01
 E= -8258.64324204495     Delta-E=       -0.000000045775 Rises=F Damp=F
 DIIS: error= 4.32D-06 at cycle  10 NSaved=  10.
 NSaved=10 IEnMin=10 EnMin= -8258.64324204495     IErMin=10 ErrMin= 4.32D-06
 ErrMax= 4.32D-06  0.00D+00 EMaxC= 1.00D+00 BMatC= 4.51D-09 BMatP= 4.70D-08
 IDIUse=1 WtCom= 1.00D+00 WtEn= 0.00D+00
 Coeff-Com:  0.464D-05-0.245D-05-0.136D-02-0.108D-02 0.169D-03 0.768D-02
 Coeff-Com:  0.374D-01 0.100D+00 0.277D+00 0.580D+00
 Coeff:      0.464D-05-0.245D-05-0.136D-02-0.108D-02 0.169D-03 0.768D-02
 Coeff:      0.374D-01 0.100D+00 0.277D+00 0.580D+00
 Gap=     0.131 Goal=   None    Shift=    0.000
 RMSDP=2.04D-06 MaxDP=2.26D-04 DE=-4.58D-08 OVMax= 2.95D-05

 Cycle  11  Pass 1  IDiag  1:
 RMSU=  8.02D-07    CP:  9.89D-01  1.87D-01  1.01D+00  4.81D-01  6.87D-01
                    CP:  9.54D-01  1.05D+00  7.56D-01  8.72D-01  9.24D-01
 E= -8258.64324204851     Delta-E=       -0.000000003560 Rises=F Damp=F
 DIIS: error= 2.73D-06 at cycle  11 NSaved=  11.
 NSaved=11 IEnMin=11 EnMin= -8258.64324204851     IErMin=11 ErrMin= 2.73D-06
 ErrMax= 2.73D-06  0.00D+00 EMaxC= 1.00D+00 BMatC= 1.33D-09 BMatP= 4.51D-09
 IDIUse=1 WtCom= 1.00D+00 WtEn= 0.00D+00
 Coeff-Com:  0.379D-05-0.105D-05-0.596D-03-0.506D-03-0.417D-03 0.525D-03
 Coeff-Com:  0.946D-02 0.299D-01 0.132D+00 0.397D+00 0.432D+00
 Coeff:      0.379D-05-0.105D-05-0.596D-03-0.506D-03-0.417D-03 0.525D-03
 Coeff:      0.946D-02 0.299D-01 0.132D+00 0.397D+00 0.432D+00
 Gap=     0.131 Goal=   None    Shift=    0.000
 RMSDP=5.75D-07 MaxDP=3.90D-05 DE=-3.56D-09 OVMax= 1.37D-05

 Cycle  12  Pass 1  IDiag  1:
 RMSU=  3.75D-07    CP:  9.89D-01  1.87D-01  1.01D+00  4.81D-01  6.88D-01
                    CP:  9.54D-01  1.06D+00  7.62D-01  8.89D-01  9.21D-01
                    CP:  8.53D-01
 E= -8258.64324204982     Delta-E=       -0.000000001310 Rises=F Damp=F
 DIIS: error= 5.72D-07 at cycle  12 NSaved=  12.
 NSaved=12 IEnMin=12 EnMin= -8258.64324204982     IErMin=12 ErrMin= 5.72D-07
 ErrMax= 5.72D-07  0.00D+00 EMaxC= 1.00D+00 BMatC= 8.03D-11 BMatP= 1.33D-09
 IDIUse=1 WtCom= 1.00D+00 WtEn= 0.00D+00
 Coeff-Com:  0.107D-05-0.113D-06-0.411D-04-0.658D-04-0.258D-03-0.134D-02
 Coeff-Com: -0.250D-02-0.438D-02 0.180D-01 0.100D+00 0.223D+00 0.667D+00
 Coeff:      0.107D-05-0.113D-06-0.411D-04-0.658D-04-0.258D-03-0.134D-02
 Coeff:     -0.250D-02-0.438D-02 0.180D-01 0.100D+00 0.223D+00 0.667D+00
 Gap=     0.131 Goal=   None    Shift=    0.000
 RMSDP=3.61D-07 MaxDP=2.34D-05 DE=-1.31D-09 OVMax= 4.41D-06

 Cycle  13  Pass 1  IDiag  1:
 RMSU=  1.05D-07    CP:  9.89D-01  1.87D-01  1.01D+00  4.81D-01  6.88D-01
                    CP:  9.54D-01  1.06D+00  7.62D-01  9.09D-01  9.37D-01
                    CP:  8.95D-01  9.67D-01
 E= -8258.64324204990     Delta-E=       -0.000000000078 Rises=F Damp=F
 DIIS: error= 1.30D-07 at cycle  13 NSaved=  13.
 NSaved=13 IEnMin=13 EnMin= -8258.64324204990     IErMin=13 ErrMin= 1.30D-07
 ErrMax= 1.30D-07  0.00D+00 EMaxC= 1.00D+00 BMatC= 1.07D-11 BMatP= 8.03D-11
 IDIUse=1 WtCom= 1.00D+00 WtEn= 0.00D+00
 Coeff-Com:  0.304D-06-0.387D-08 0.319D-04 0.616D-05-0.103D-03-0.739D-03
 Coeff-Com: -0.207D-02-0.461D-02-0.142D-02 0.190D-01 0.786D-01 0.362D+00
 Coeff-Com:  0.550D+00
 Coeff:      0.304D-06-0.387D-08 0.319D-04 0.616D-05-0.103D-03-0.739D-03
 Coeff:     -0.207D-02-0.461D-02-0.142D-02 0.190D-01 0.786D-01 0.362D+00
 Coeff:      0.550D+00
 Gap=     0.131 Goal=   None    Shift=    0.000
 RMSDP=8.60D-08 MaxDP=1.04D-05 DE=-7.82D-11 OVMax= 1.26D-06

 Cycle  14  Pass 1  IDiag  1:
 RMSU=  3.08D-08    CP:  9.89D-01  1.87D-01  1.01D+00  4.81D-01  6.88D-01
                    CP:  9.54D-01  1.06D+00  7.62D-01  9.11D-01  9.40D-01
                    CP:  9.18D-01  9.94D-01  7.51D-01
 E= -8258.64324204993     Delta-E=       -0.000000000027 Rises=F Damp=F
 DIIS: error= 8.19D-08 at cycle  14 NSaved=  14.
 NSaved=14 IEnMin=14 EnMin= -8258.64324204993     IErMin=14 ErrMin= 8.19D-08
 ErrMax= 8.19D-08  0.00D+00 EMaxC= 1.00D+00 BMatC= 1.28D-12 BMatP= 1.07D-11
 IDIUse=1 WtCom= 1.00D+00 WtEn= 0.00D+00
 Coeff-Com: -0.110D-07 0.851D-07 0.231D-04 0.124D-04-0.195D-04-0.209D-03
 Coeff-Com: -0.816D-03-0.198D-02-0.373D-02-0.404D-02 0.125D-01 0.112D+00
 Coeff-Com:  0.298D+00 0.589D+00
 Coeff:     -0.110D-07 0.851D-07 0.231D-04 0.124D-04-0.195D-04-0.209D-03
 Coeff:     -0.816D-03-0.198D-02-0.373D-02-0.404D-02 0.125D-01 0.112D+00
 Coeff:      0.298D+00 0.589D+00
 Gap=     0.131 Goal=   None    Shift=    0.000
 RMSDP=3.57D-08 MaxDP=3.48D-06 DE=-2.73D-11 OVMax= 4.59D-07

 Cycle  15  Pass 1  IDiag  1:
 RMSU=  8.75D-09    CP:  9.89D-01  1.87D-01  1.01D+00  4.81D-01  6.88D-01
                    CP:  9.54D-01  1.06D+00  7.63D-01  9.10D-01  9.43D-01
                    CP:  9.27D-01  1.01D+00  8.33D-01  7.83D-01
 E= -8258.64324204998     Delta-E=       -0.000000000056 Rises=F Damp=F
 DIIS: error= 2.56D-08 at cycle  15 NSaved=  15.
 NSaved=15 IEnMin=15 EnMin= -8258.64324204998     IErMin=15 ErrMin= 2.56D-08
 ErrMax= 2.56D-08  0.00D+00 EMaxC= 1.00D+00 BMatC= 1.10D-13 BMatP= 1.28D-12
 IDIUse=1 WtCom= 1.00D+00 WtEn= 0.00D+00
 Coeff-Com: -0.228D-07 0.317D-07 0.834D-05 0.512D-05-0.156D-05-0.410D-04
 Coeff-Com: -0.216D-03-0.511D-03-0.156D-02-0.343D-02-0.141D-03 0.250D-01
 Coeff-Com:  0.100D+00 0.288D+00 0.593D+00
 Coeff:     -0.228D-07 0.317D-07 0.834D-05 0.512D-05-0.156D-05-0.410D-04
 Coeff:     -0.216D-03-0.511D-03-0.156D-02-0.343D-02-0.141D-03 0.250D-01
 Coeff:      0.100D+00 0.288D+00 0.593D+00
 Gap=     0.131 Goal=   None    Shift=    0.000
 RMSDP=6.42D-09 MaxDP=5.02D-07 DE=-5.64D-11 OVMax= 1.53D-07

 SCF Done:  E(RB3LYP) =  -8258.64324205     A.U. after   15 cycles
            NFock= 15  Conv=0.64D-08     -V/T= 2.0014
 KE= 8.246952376254D+03 PE=-2.363703052221D+04 EE= 5.177621311136D+03
 Leave Link  502 at Tue Sep 29 16:18:09 2026, MaxMem=  5100273664 cpu:             842.4 elap:              52.7
 (Enter /share/software/user/restricted/gaussian/g16.B01/l701.exe)
 ... and contract with generalized density number  0.
 Compute integral first derivatives.
 Leave Link  701 at Tue Sep 29 16:18:10 2026, MaxMem=  5100273664 cpu:               2.2 elap:               0.2
 (Enter /share/software/user/restricted/gaussian/g16.B01/l702.exe)
 L702 exits ... SP integral derivatives will be done elsewhere.
 Leave Link  702 at Tue Sep 29 16:18:10 2026, MaxMem=  5100273664 cpu:               0.5 elap:               0.0
 (Enter /share/software/user/restricted/gaussian/g16.B01/l703.exe)
 Integral derivatives from FoFJK, PRISM(SPDF).
 Compute integral first derivatives, UseDBF=F ICtDFT=           0.
 Calling FoFJK, ICntrl=      2127 FMM=F ISym2X=0 I1Cent= 0 IOpClX= 0 NMat=1 NMatS=1 NMatT=0.
 FoFJK:  IHMeth= 1 ICntrl=    2127 DoSepK=F KAlg= 0 I1Cent=           0 FoldK=F
 IRaf=         0 NMat=       1 IRICut=       1 DoRegI=T DoRafI=F ISym2E= 0 IDoP0=0 IntGTp=1.
 FoFCou: FMM=F IPFlag=           0 FMFlag=      100000 FMFlg1=         800
         NFxFlg=           0 DoJE=F BraDBF=F KetDBF=F FulRan=T
         wScrn=  0.000000 ICntrl=      2127 IOpCl=  0 I1Cent=           0 NGrid=           0
         NMat0=    1 NMatS0=      1 NMatT0=    0 NMatD0=    1 NMtDS0=    0 NMtDT0=    0
 Symmetry not used in FoFCou.
 Leave Link  703 at Tue Sep 29 16:18:22 2026, MaxMem=  5100273664 cpu:             193.9 elap:              12.1
 (Enter /share/software/user/restricted/gaussian/g16.B01/l716.exe)
 Dipole        =-4.51989590D-01 7.03493965D-01 5.91850027D-04
 ***** Axes restored to original set *****
 -------------------------------------------------------------------
 Center     Atomic                   Forces (Hartrees/Bohr)
 Number     Number              X              Y              Z
 -------------------------------------------------------------------
      1        6           0.011113475    0.005992255   -0.000241705
      2        6          -0.004047026   -0.003514013   -0.000018432
      3        6          -0.001633920    0.004753684    0.000527707
      4        6           0.008202050   -0.001007381   -0.000660191
      5        6          -0.004806486   -0.000782640    0.000267145
      6        6           0.002905056   -0.007459172   -0.000899780
      7        6          -0.005164351   -0.001954562    0.000213379
      8        6          -0.049765547   -0.018151512    0.001756444
      9        6          -0.000655565   -0.004501589   -0.000346960
     10        6          -0.004648263    0.001785472    0.000498750
     11        6           0.002267332   -0.000933108   -0.000240159
     12        6           0.000394912   -0.000554017   -0.000067735
     13        8          -0.000063450   -0.002470930   -0.000224283
     14       35          -0.000949429   -0.001771789   -0.000092130
     15        1          -0.001837839    0.001924525    0.000298081
     16       35           0.002931206    0.001001797   -0.000114618
     17        1           0.001117989   -0.000367092   -0.000115624
     18        1           0.045922216    0.024852095   -0.000893509
     19        1           0.000176206   -0.001866103   -0.000184891
     20       35          -0.002652233    0.000901673    0.000266011
     21        1           0.001569511    0.001665658    0.000033908
     22        1          -0.000375846    0.002456751    0.000238592
 -------------------------------------------------------------------
 Cartesian Forces:  Max     0.049765547 RMS     0.009567819
 Leave Link  716 at Tue Sep 29 16:18:22 2026, MaxMem=  5100273664 cpu:               0.6 elap:               0.1
 (Enter /share/software/user/restricted/gaussian/g16.B01/l103.exe)

 GradGradGradGradGradGradGradGradGradGradGradGradGradGradGradGradGradGrad
 Berny optimization.
 Using GEDIIS/GDIIS optimizer.
 FormGI is forming the generalized inverse of G from B-inverse, IUseBI=4.
 Internal  Forces:  Max     0.271079437 RMS     0.036650189
 Search for a local minimum.
 Step number   3 out of a maximum of  116
 All quantities printed in internal units (Hartrees-Bohrs-Radians)
 RMS Force = .36650D-01 SwitMx=.10000D-02 MixMth= 1
 Mixed Optimization -- RFO/linear search
 Update second derivatives using D2CorX and points    1    3    2
 DE=  6.29D-03 DEPred=-1.36D-02 R=-4.64D-01
 Trust test=-4.64D-01 RLast= 2.36D-01 DXMaxT set to 1.50D-01
 ITU= -1  0  0
 Use linear search instead of GDIIS.
     Eigenvalues ---    0.01730   0.01913   0.01996   0.02009   0.02021
     Eigenvalues ---    0.02038   0.02049   0.02091   0.02094   0.02106
     Eigenvalues ---    0.02110   0.02131   0.02132   0.02136   0.02166
     Eigenvalues ---    0.02186   0.02201   0.02235   0.02317   0.04113
     Eigenvalues ---    0.14517   0.16000   0.16000   0.16000   0.16000
     Eigenvalues ---    0.16136   0.18777   0.18863   0.19073   0.22188
     Eigenvalues ---    0.22506   0.23364   0.23451   0.24366   0.24626
     Eigenvalues ---    0.24668   0.25000   0.25000   0.25000   0.28761
     Eigenvalues ---    0.33690   0.33709   0.33745   0.33764   0.33974
     Eigenvalues ---    0.41020   0.41455   0.41510   0.42941   0.44543
     Eigenvalues ---    0.44951   0.45091   0.45415   0.45925   0.46327
     Eigenvalues ---    0.46828   0.47551   0.47978   0.49433   4.22062
 RFO step:  Lambda=-4.19628269D-02 EMin= 1.72958995D-02
 Quartic linear search produced a step of -0.64901.
 Maximum step size (   0.150) exceeded in Quadratic search.
    -- Step size scaled by   0.288
 Iteration  1 RMS(Cart)=  0.12658623 RMS(Int)=  0.00250130
 Iteration  2 RMS(Cart)=  0.00784402 RMS(Int)=  0.00001040
 Iteration  3 RMS(Cart)=  0.00001008 RMS(Int)=  0.00000978
 Iteration  4 RMS(Cart)=  0.00000000 RMS(Int)=  0.00000978
 ITry= 1 IFail=0 DXMaxC= 4.68D-01 DCOld= 1.00D+10 DXMaxT= 1.50D-01 DXLimC= 3.00D+00 Rises=F
 Variable       Old X    -DE/DX   Delta X   Delta X   Delta X     New X
                                 (Linear)    (Quad)   (Total)
    R1        2.64124  -0.00855   0.00419  -0.00453  -0.00036   2.64088
    R2        2.62351  -0.04067  -0.01181   0.01736   0.00553   2.62904
    R3        2.65415  -0.06332  -0.00675  -0.00142  -0.00817   2.64598
    R4        2.63521   0.00115   0.00709  -0.00834  -0.00124   2.63397
    R5        3.70625  -0.00189  -0.03905   0.02875  -0.01030   3.69595
    R6        2.62438   0.01636   0.00525  -0.00444   0.00083   2.62521
    R7        2.03757   0.00266   0.01134  -0.00894   0.00240   2.03997
    R8        2.64037   0.00731   0.00571  -0.00553   0.00021   2.64058
    R9        3.72562  -0.00310  -0.04257   0.03020  -0.01236   3.71326
   R10        2.64459  -0.00666  -0.01290   0.01172  -0.00118   2.64341
   R11        2.05760   0.00014   0.00569  -0.00496   0.00073   2.05833
   R12        3.35347   0.03466  -0.10096   0.08820  -0.01276   3.34072
   R13        2.64845   0.00567   0.01214  -0.01866  -0.00651   2.64194
   R14        2.64334  -0.00599   0.00456  -0.00534  -0.00077   2.64257
   R15        2.60660  -0.04339   0.01143  -0.02440  -0.01297   2.59363
   R16        2.63725  -0.00247  -0.00366   0.00117  -0.00249   2.63476
   R17        2.63224   0.00669   0.00424  -0.00247   0.00177   2.63402
   R18        2.04798   0.00188   0.00834  -0.00655   0.00179   2.04977
   R19        2.63099   0.00725   0.00002   0.00242   0.00244   2.63343
   R20        3.68653  -0.00281  -0.03384   0.02294  -0.01089   3.67564
   R21        2.62932  -0.00014   0.00085  -0.00077   0.00008   2.62940
   R22        2.04277   0.00227   0.00972  -0.00766   0.00206   2.04483
   R23        2.04470   0.00250   0.00786  -0.00586   0.00200   2.04670
    A1        2.11960   0.03607   0.00329   0.00305   0.00630   2.12591
    A2        1.98874   0.11102   0.03580  -0.02036   0.01546   2.00419
    A3        2.17484  -0.14709  -0.03909   0.01730  -0.02176   2.15308
    A4        2.09983  -0.02471  -0.01677   0.01246  -0.00433   2.09550
    A5        2.12984   0.01364   0.01563  -0.01164   0.00399   2.13384
    A6        2.05351   0.01107   0.00114  -0.00082   0.00033   2.05384
    A7        2.07237  -0.00458   0.01056  -0.01113  -0.00053   2.07184
    A8        2.09784   0.00199  -0.00502   0.00514   0.00011   2.09795
    A9        2.11297   0.00259  -0.00554   0.00598   0.00043   2.11340
   A10        2.10597   0.01071  -0.00276   0.00723   0.00451   2.11048
   A11        2.06617  -0.00528   0.00436  -0.00617  -0.00184   2.06433
   A12        2.11104  -0.00542  -0.00160  -0.00106  -0.00268   2.10837
   A13        2.11145  -0.01777  -0.01089   0.00911  -0.00176   2.10969
   A14        2.06236   0.01009   0.01323  -0.00960   0.00362   2.06598
   A15        2.10937   0.00768  -0.00234   0.00049  -0.00186   2.10751
   A16        2.05714   0.00027   0.01657  -0.02073  -0.00419   2.05295
   A17        1.77328  -0.06563  -0.02775   0.03166   0.00392   1.77720
   A18        2.45277   0.06536   0.01118  -0.01093   0.00027   2.45304
   A19        2.10691   0.02959  -0.00622   0.01854   0.01233   2.11924
   A20        2.18112  -0.09158   0.02228  -0.06013  -0.03785   2.14327
   A21        1.99515   0.06198  -0.01606   0.04159   0.02552   2.02067
   A22        2.06770  -0.01695   0.00230  -0.00532  -0.00301   2.06469
   A23        2.10854  -0.00412   0.00283  -0.00711  -0.00428   2.10426
   A24        2.09036   0.00192  -0.00498   0.00610   0.00112   2.09148
   A25        2.08428   0.00220   0.00215   0.00101   0.00316   2.08744
   A26        2.10231   0.01130  -0.00461   0.00934   0.00473   2.10704
   A27        2.09817  -0.00579   0.00179  -0.00465  -0.00286   2.09531
   A28        2.08271  -0.00551   0.00282  -0.00469  -0.00187   2.08084
   A29        2.08400  -0.00276   0.00510  -0.00558  -0.00048   2.08352
   A30        2.10275   0.00169  -0.00012   0.00131   0.00119   2.10394
   A31        2.09643   0.00108  -0.00497   0.00427  -0.00071   2.09573
   A32        2.09690  -0.01706   0.00060  -0.00989  -0.00928   2.08762
   A33        2.08295   0.00858   0.00031   0.00482   0.00512   2.08807
   A34        2.10334   0.00848  -0.00091   0.00507   0.00416   2.10750
   A35        2.22350  -0.27108  -0.04021  -0.03866  -0.07887   2.14463
    D1       -0.00014  -0.00003  -0.00005  -0.00004  -0.00009  -0.00023
    D2        3.14136  -0.00001  -0.00002  -0.00000  -0.00002   3.14134
    D3        3.14155  -0.00004  -0.00009  -0.00007  -0.00015   3.14139
    D4       -0.00014  -0.00002  -0.00005  -0.00003  -0.00008  -0.00022
    D5        0.00010   0.00004   0.00006   0.00004   0.00010   0.00020
    D6        3.14093   0.00015   0.00012   0.00009   0.00022   3.14114
    D7        3.14158   0.00007   0.00010   0.00007   0.00017  -3.14143
    D8       -0.00077   0.00018   0.00017   0.00012   0.00029  -0.00049
    D9       -3.14145   0.00030   0.00036   0.00035   0.00071  -3.14074
   D10        0.00024   0.00028   0.00032   0.00032   0.00065   0.00089
   D11        0.00006   0.00000   0.00001   0.00001   0.00002   0.00007
   D12       -3.14153   0.00001   0.00002   0.00001   0.00004  -3.14149
   D13       -3.14145  -0.00002  -0.00002  -0.00003  -0.00005  -3.14150
   D14        0.00015  -0.00001  -0.00001  -0.00002  -0.00003   0.00012
   D15        0.00007   0.00001   0.00003   0.00002   0.00004   0.00011
   D16       -3.14148  -0.00000   0.00001  -0.00001   0.00000  -3.14147
   D17       -3.14154   0.00001   0.00001   0.00001   0.00002  -3.14151
   D18        0.00010  -0.00001  -0.00000  -0.00001  -0.00002   0.00009
   D19       -0.00011  -0.00000  -0.00002  -0.00001  -0.00003  -0.00014
   D20        3.14146  -0.00003  -0.00006  -0.00004  -0.00010   3.14136
   D21        3.14143   0.00001  -0.00001   0.00002   0.00001   3.14144
   D22       -0.00018  -0.00001  -0.00004  -0.00002  -0.00006  -0.00025
   D23        0.00003  -0.00002  -0.00002  -0.00002  -0.00004  -0.00001
   D24       -3.14039  -0.00008  -0.00010  -0.00012  -0.00022  -3.14061
   D25       -3.14154   0.00001   0.00002   0.00001   0.00003  -3.14151
   D26        0.00123  -0.00006  -0.00006  -0.00008  -0.00015   0.00108
   D27       -0.00005   0.00004   0.00002   0.00004   0.00006   0.00002
   D28       -3.14156  -0.00004  -0.00003  -0.00004  -0.00007   3.14156
   D29        0.00005  -0.00004  -0.00003  -0.00004  -0.00007  -0.00003
   D30       -3.14155  -0.00003  -0.00002  -0.00003  -0.00005   3.14158
   D31        3.14157   0.00002   0.00002   0.00003   0.00005  -3.14157
   D32       -0.00003   0.00003   0.00003   0.00004   0.00007   0.00004
   D33       -0.00051   0.00024   0.00026   0.00026   0.00052   0.00000
   D34        3.14116   0.00017   0.00020   0.00019   0.00039   3.14155
   D35        0.00002  -0.00001   0.00001  -0.00001  -0.00001   0.00002
   D36       -3.14157  -0.00001   0.00002  -0.00001   0.00001  -3.14157
   D37        0.00000  -0.00001  -0.00003  -0.00001  -0.00004  -0.00004
   D38        3.14157   0.00000  -0.00000   0.00000  -0.00000   3.14157
   D39       -3.14159  -0.00002  -0.00004  -0.00002  -0.00005   3.14155
   D40       -0.00001  -0.00000  -0.00001  -0.00000  -0.00002  -0.00003
   D41       -0.00000   0.00001   0.00002   0.00001   0.00002   0.00002
   D42        3.14158   0.00001   0.00002   0.00001   0.00003  -3.14157
   D43       -3.14157  -0.00000  -0.00001  -0.00000  -0.00001  -3.14158
   D44        0.00001   0.00000  -0.00000   0.00000  -0.00000   0.00001
   D45       -0.00002   0.00001   0.00001   0.00002   0.00003   0.00001
   D46        3.14158   0.00001  -0.00000   0.00001   0.00001   3.14158
   D47        3.14158   0.00001   0.00001   0.00001   0.00002  -3.14158
   D48       -0.00000   0.00000  -0.00000   0.00000  -0.00000  -0.00000
         Item               Value     Threshold  Converged?
 Maximum Force            0.271079     0.000450     NO 
 RMS     Force            0.036650     0.000300     NO 
 Maximum Displacement     0.468412     0.001800     NO 
 RMS     Displacement     0.132663     0.001200     NO 
 Predicted change in Energy=-1.428779D-02
 GradGradGradGradGradGradGradGradGradGradGradGradGradGradGradGradGradGrad

 Leave Link  103 at Tue Sep 29 16:18:22 2026, MaxMem=  5100273664 cpu:               1.0 elap:               0.1
 (Enter /share/software/user/restricted/gaussian/g16.B01/l202.exe)
                          Input orientation:                          
 ---------------------------------------------------------------------
 Center     Atomic      Atomic             Coordinates (Angstroms)
 Number     Number       Type             X           Y           Z
 ---------------------------------------------------------------------
      1          6           0       -1.244593   -0.902429    0.089106
      2          6           0       -2.361376   -0.075828    0.239133
      3          6           0       -3.639717   -0.629858    0.280026
      4          6           0       -3.773485   -2.008158    0.169248
      5          6           0       -2.652356   -2.828668    0.019670
      6          6           0       -1.364635   -2.283952   -0.022726
      7          6           0        1.184756   -0.881264   -0.079872
      8          6           0        1.283895   -2.269828   -0.208780
      9          6           0        2.552296   -2.831878   -0.347376
     10          6           0        3.688315   -2.024271   -0.356368
     11          6           0        3.579525   -0.640984   -0.227269
     12          6           0        2.320418   -0.065364   -0.088148
     13          8           0       -0.015898   -0.231542    0.061614
     14         35           0       -2.208009    1.867482    0.397942
     15          1           0       -4.503968    0.006549    0.395744
     16         35           0       -5.581390   -2.775695    0.228270
     17          1           0       -2.805234   -3.903921   -0.063144
     18          1           0        0.323705   -2.782372   -0.184941
     19          1           0        2.658095   -3.906586   -0.449217
     20         35           0        5.450605   -2.824201   -0.550565
     21          1           0        4.463361   -0.016747   -0.234644
     22          1           0        2.210068    1.007231    0.013792
 ---------------------------------------------------------------------
                    Distance matrix (angstroms):
                    1          2          3          4          5
     1  C    0.000000
     2  C    1.397491   0.000000
     3  C    2.418133   1.393836   0.000000
     4  C    2.761224   2.394334   1.389200   0.000000
     5  C    2.386842   2.776861   2.424341   1.397333   0.000000
     6  C    1.391231   2.436775   2.829079   2.432175   1.398835
     7  C    2.435311   3.650417   4.844406   5.090787   4.304152
     8  C    2.889942   4.278114   5.212522   5.078235   3.982282
     9  C    4.281315   5.664272   6.601784   6.400072   5.217580
    10  C    5.078440   6.383557   7.486617   7.480307   6.402544
    11  C    4.841545   5.985920   7.237053   7.489536   6.609333
    12  C    3.666251   4.693230   5.998117   6.401278   5.689987
    13  O    1.400192   2.357335   3.652181   4.157814   3.701045
    14  Br   2.948891   1.955811   2.881041   4.186120   4.732267
    15  H    3.397616   2.149887   1.079507   2.154983   3.407103
    16  Br   4.726130   4.202129   2.894372   1.964972   2.936930
    17  H    3.386405   3.865576   3.396118   2.141362   1.089220
    18  H    2.463503   3.835997   4.534118   4.184713   2.983446
    19  H    4.954364   6.351662   7.136608   6.734371   5.438994
    20  Br   6.994859   8.318907   9.388236   9.288051   8.123002
    21  H    5.785324   6.841417   8.142522   8.483777   7.655390
    22  H    3.948057   4.703391   6.080372   6.702212   6.193328
                    6          7          8          9         10
     6  C    0.000000
     7  C    2.910360   0.000000
     8  C    2.655094   1.398055   0.000000
     9  C    3.968371   2.397211   1.394256   0.000000
    10  C    5.070606   2.765993   2.421428   1.393861   0.000000
    11  C    5.214010   2.411303   2.814852   2.422735   1.393551
    12  C    4.301863   1.398387   2.438973   2.788291   2.404246
    13  O    2.457355   1.372489   2.432526   3.677586   4.136396
    14  Br   4.257070   4.392581   5.447829   6.730527   7.105023
    15  H    3.908571   5.777197   6.248736   7.641974   8.473689
    16  Br   4.252745   7.033104   6.897757   8.154224   9.318469
    17  H    2.168239   5.005673   4.405956   5.471124   6.766479
    18  H    1.767831   2.089656   1.088685   2.235052   3.453216
    19  H    4.358576   3.385221   2.150631   1.084694   2.147809
    20  Br   6.856965   4.711053   4.217299   2.905432   1.945062
    21  H    6.257049   3.394200   3.896927   3.404385   2.155380
    22  H    4.859189   2.150918   3.412689   3.871217   3.392968
                   11         12         13         14         15
    11  C    0.000000
    12  C    1.391418   0.000000
    13  O    3.630174   2.347001   0.000000
    14  Br   6.338679   4.947608   3.053583   0.000000
    15  H    8.133284   6.841898   4.506784   2.955419   0.000000
    16  Br   9.417371   8.359700   6.121699   5.741740   2.988272
    17  H    7.172089   6.403706   4.613278   5.820513   4.288129
    18  H    3.897141   3.373183   2.585122   5.326394   5.605507
    19  H    3.400360   3.872903   4.573525   7.598454   8.204982
    20  Br   2.893423   4.197985   6.081060   9.031385  10.392409
    21  H    1.082077   2.148495   4.494181   6.961154   8.989489
    22  H    2.156418   1.083065   2.547895   4.517411   6.798936
                   16         17         18         19         20
    16  Br   0.000000
    17  H    3.010790   0.000000
    18  H    5.919538   3.326104   0.000000
    19  H    8.344281   5.476955   2.604434   0.000000
    20  Br  11.059559   8.340399   5.140091   2.996654   0.000000
    21  H   10.427037   8.244514   4.978745   4.293701   2.992700
    22  H    8.663910   7.019871   4.237800   4.955875   5.049698
                   21         22
    21  H    0.000000
    22  H    2.487485   0.000000
 Stoichiometry    C12H6Br3O(1-)
 Framework group  C1[X(C12H6Br3O)]
 Deg. of freedom    60
 Full point group                 C1      NOp   1
 RotChk:  IX=2 Diff= 2.57D-02
 Largest Abelian subgroup         C1      NOp   1
 Largest concise Abelian subgroup C1      NOp   1
                         Standard orientation:                         
 ---------------------------------------------------------------------
 Center     Atomic      Atomic             Coordinates (Angstroms)
 Number     Number       Type             X           Y           Z
 ---------------------------------------------------------------------
      1          6           0        0.856215    0.299950   -0.000896
      2          6           0        2.064035    1.002910   -0.000163
      3          6           0        3.274320    0.311543    0.000195
      4          6           0        3.249366   -1.077433   -0.000281
      5          6           0        2.037933   -1.773828   -0.001235
      6          6           0        0.817228   -1.090734   -0.001564
      7          6           0       -1.562368    0.584890   -0.000629
      8          6           0       -1.820676   -0.789094   -0.000233
      9          6           0       -3.149294   -1.211853    0.000109
     10          6           0       -4.188645   -0.283092    0.000037
     11          6           0       -3.921328    1.084580   -0.000335
     12          6           0       -2.600414    1.521879   -0.000667
     13          8           0       -0.291198    1.102434   -0.000943
     14         35           0        2.134346    2.957456    0.000365
     15          1           0        4.208638    0.852269    0.000859
     16         35           0        4.962844   -2.039260    0.000436
     17          1           0        2.066837   -2.862664   -0.001806
     18          1           0       -0.922553   -1.404406   -0.001515
     19          1           0       -3.378187   -2.272122    0.000445
     20         35           0       -6.036782   -0.889439    0.000481
     21          1           0       -4.730426    1.803086   -0.000371
     22          1           0       -2.367230    2.579544   -0.000967
 ---------------------------------------------------------------------
 Rotational constants (GHZ):           0.3952174           0.0804704           0.0668575
 Leave Link  202 at Tue Sep 29 16:18:22 2026, MaxMem=  5100273664 cpu:               0.3 elap:               0.0
 (Enter /share/software/user/restricted/gaussian/g16.B01/l301.exe)
 Standard basis: 6-311++G(d) (5D, 7F)
 Ernie: Thresh=  0.10000D-02 Tol=  0.10000D-05 Strict=F.
 There are   476 symmetry adapted cartesian basis functions of A   symmetry.
 There are   454 symmetry adapted basis functions of A   symmetry.
   454 basis functions,   786 primitive gaussians,   476 cartesian basis functions
    96 alpha electrons       96 beta electrons
       nuclear repulsion energy      1964.9608833218 Hartrees.
 IExCor=  402 DFT=T Ex+Corr=B3LYP ExCW=0 ScaHFX=  0.200000
 ScaDFX=  0.800000  0.720000  1.000000  0.810000 ScalE2=  1.000000  1.000000
 IRadAn=      5 IRanWt=     -1 IRanGd=            0 ICorTp=0 IEmpDi=  4
 NAtoms=   22 NActive=   22 NUniq=   22 SFac= 1.00D+00 NAtFMM=   60 NAOKFM=F Big=F
 Integral buffers will be    131072 words long.
 Raffenetti 2 integral format.
 Two-electron integral symmetry is turned on.
 Leave Link  301 at Tue Sep 29 16:18:22 2026, MaxMem=  5100273664 cpu:               0.7 elap:               0.1
 (Enter /share/software/user/restricted/gaussian/g16.B01/l302.exe)
 NPDir=0 NMtPBC=     1 NCelOv=     1 NCel=       1 NClECP=     1 NCelD=      1
         NCelK=      1 NCelE2=     1 NClLst=     1 CellRange=     0.0.
 One-electron integrals computed using PRISM.
 One-electron integral symmetry used in STVInt
 NBasis=   454 RedAO= T EigKep=  1.53D-06  NBF=   454
 NBsUse=   450 1.00D-06 EigRej=  7.75D-07 NBFU=   450
 Precomputing XC quadrature grid using
 IXCGrd= 4 IRadAn=           5 IRanWt=          -1 IRanGd=           0 AccXCQ= 0.00D+00.
 Generated NRdTot=       0 NPtTot=           0 NUsed=           0 NTot=          32
 NSgBfM=   448   448   448   448   448 MxSgAt=    22 MxSgA2=    22.
 Leave Link  302 at Tue Sep 29 16:18:23 2026, MaxMem=  5100273664 cpu:               4.2 elap:               0.3
 (Enter /share/software/user/restricted/gaussian/g16.B01/l303.exe)
 DipDrv:  MaxL=1.
 Leave Link  303 at Tue Sep 29 16:18:23 2026, MaxMem=  5100273664 cpu:               0.6 elap:               0.1
 (Enter /share/software/user/restricted/gaussian/g16.B01/l401.exe)
 Lowest energy guess from the checkpoint file:  "calcs/b3lyp_gas/chks/BDE_24_2r4_anion.chk"
 B after Tr=    -0.000000    0.000000   -0.000000
         Rot=    0.999997   -0.000002   -0.000000   -0.002427 Ang=  -0.28 deg.
 Guess basis will be translated and rotated to current coordinates.
 B after Tr=     0.000000    0.000000    0.000000
         Rot=    0.999957   -0.000011   -0.000000    0.009249 Ang=  -1.06 deg.
 Guess basis will be translated and rotated to current coordinates.
 CkInt1:  FT= 3.51D-01
 Max alpha theta=  6.702 degrees.
 JPrj=2 DoOrth=T DoCkMO=T.
 Leave Link  401 at Tue Sep 29 16:18:23 2026, MaxMem=  5100273664 cpu:               6.7 elap:               0.4
 (Enter /share/software/user/restricted/gaussian/g16.B01/l502.exe)
 Integral symmetry usage will be decided dynamically.
 Closed shell SCF:
 Using DIIS extrapolation, IDIIS=  1040.
 NGot=  5100273664 LenX=  5099808623 LenY=  5099581571
 Requested convergence on RMS density matrix=1.00D-08 within 128 cycles.
 Requested convergence on MAX density matrix=1.00D-06.
 Requested convergence on             energy=1.00D-06.
 No special actions if energy rises.
 Fock matrices will be formed incrementally for  20 cycles.

 Cycle   1  Pass 1  IDiag  1:
 FoFJK:  IHMeth= 1 ICntrl=       0 DoSepK=F KAlg= 0 I1Cent=           0 FoldK=F
 IRaf= 770000000 NMat=       1 IRICut=       1 DoRegI=T DoRafI=F ISym2E= 0 IDoP0=0 IntGTp=1.
 FoFCou: FMM=F IPFlag=           0 FMFlag=      100000 FMFlg1=           0
         NFxFlg=           0 DoJE=F BraDBF=F KetDBF=F FulRan=T
         wScrn=  0.000000 ICntrl=         0 IOpCl=  0 I1Cent=           0 NGrid=           0
         NMat0=    1 NMatS0=      1 NMatT0=    0 NMatD0=    1 NMtDS0=    0 NMtDT0=    0
 Symmetry not used in FoFCou.
 E= -8258.63827753275    
 DIIS: error= 7.84D-03 at cycle   1 NSaved=   1.
 NSaved= 1 IEnMin= 1 EnMin= -8258.63827753275     IErMin= 1 ErrMin= 7.84D-03
 ErrMax= 7.84D-03  0.00D+00 EMaxC= 1.00D-01 BMatC= 4.81D-02 BMatP= 4.81D-02
 IDIUse=3 WtCom= 9.22D-01 WtEn= 7.84D-02
 Coeff-Com:  0.100D+01
 Coeff-En:   0.100D+01
 Coeff:      0.100D+01
 Gap=   481.660 Goal=   None    Shift=    0.000
 GapD=  481.660 DampG=2.000 DampE=1.000 DampFc=2.0000 IDamp=-1.
 RMSDP=6.43D-03 MaxDP=4.00D-01              OVMax= 4.86D-02

 Cycle   2  Pass 1  IDiag  1:
 RMSU=  5.85D-03    CP:  1.08D+00
 E= -8258.65762669377     Delta-E=       -0.019349161021 Rises=F Damp=F
 DIIS: error= 2.70D-03 at cycle   2 NSaved=   2.
 NSaved= 2 IEnMin= 2 EnMin= -8258.65762669377     IErMin= 2 ErrMin= 2.70D-03
 ErrMax= 2.70D-03  0.00D+00 EMaxC= 1.00D-01 BMatC= 2.22D-03 BMatP= 4.81D-02
 IDIUse=3 WtCom= 9.73D-01 WtEn= 2.70D-02
 Coeff-Com:  0.610D-01 0.939D+00
 Coeff-En:   0.000D+00 0.100D+01
 Coeff:      0.593D-01 0.941D+00
 Gap=     0.124 Goal=   None    Shift=    0.000
 RMSDP=1.43D-03 MaxDP=8.64D-02 DE=-1.93D-02 OVMax= 3.46D-02

 Cycle   3  Pass 1  IDiag  1:
 RMSU=  1.38D-03    CP:  1.09D+00  1.04D+00
 E= -8258.65399871447     Delta-E=        0.003627979298 Rises=F Damp=F
 DIIS: error= 4.70D-03 at cycle   3 NSaved=   3.
 NSaved= 3 IEnMin= 2 EnMin= -8258.65762669377     IErMin= 2 ErrMin= 2.70D-03
 ErrMax= 4.70D-03  0.00D+00 EMaxC= 1.00D-01 BMatC= 5.62D-03 BMatP= 2.22D-03
 IDIUse=3 WtCom= 1.27D-01 WtEn= 8.73D-01
 Coeff-Com: -0.206D-02 0.618D+00 0.385D+00
 Coeff-En:   0.000D+00 0.683D+00 0.317D+00
 Coeff:     -0.263D-03 0.675D+00 0.326D+00
 Gap=     0.119 Goal=   None    Shift=    0.000
 RMSDP=8.58D-04 MaxDP=5.08D-02 DE= 3.63D-03 OVMax= 2.06D-02

 Cycle   4  Pass 1  IDiag  1:
 RMSU=  2.58D-04    CP:  1.08D+00  1.03D+00  4.32D-01
 E= -8258.65982658692     Delta-E=       -0.005827872446 Rises=F Damp=F
 DIIS: error= 7.02D-04 at cycle   4 NSaved=   4.
 NSaved= 4 IEnMin= 4 EnMin= -8258.65982658692     IErMin= 4 ErrMin= 7.02D-04
 ErrMax= 7.02D-04  0.00D+00 EMaxC= 1.00D-01 BMatC= 1.57D-04 BMatP= 2.22D-03
 IDIUse=3 WtCom= 9.93D-01 WtEn= 7.02D-03
 Coeff-Com: -0.287D-02 0.327D+00 0.130D+00 0.546D+00
 Coeff-En:   0.000D+00 0.000D+00 0.000D+00 0.100D+01
 Coeff:     -0.285D-02 0.325D+00 0.129D+00 0.549D+00
 Gap=     0.119 Goal=   None    Shift=    0.000
 RMSDP=1.67D-04 MaxDP=6.92D-03 DE=-5.83D-03 OVMax= 4.41D-03

 Cycle   5  Pass 1  IDiag  1:
 RMSU=  1.33D-04    CP:  1.08D+00  1.03D+00  3.65D-01  8.46D-01
 E= -8258.65996882950     Delta-E=       -0.000142242581 Rises=F Damp=F
 DIIS: error= 2.98D-04 at cycle   5 NSaved=   5.
 NSaved= 5 IEnMin= 5 EnMin= -8258.65996882950     IErMin= 5 ErrMin= 2.98D-04
 ErrMax= 2.98D-04  0.00D+00 EMaxC= 1.00D-01 BMatC= 1.82D-05 BMatP= 1.57D-04
 IDIUse=3 WtCom= 9.97D-01 WtEn= 2.98D-03
 Coeff-Com: -0.140D-02 0.103D+00 0.155D-01 0.362D+00 0.521D+00
 Coeff-En:   0.000D+00 0.000D+00 0.000D+00 0.215D-01 0.979D+00
 Coeff:     -0.140D-02 0.103D+00 0.155D-01 0.361D+00 0.523D+00
 Gap=     0.119 Goal=   None    Shift=    0.000
 RMSDP=8.54D-05 MaxDP=7.19D-03 DE=-1.42D-04 OVMax= 2.23D-03

 Cycle   6  Pass 1  IDiag  1:
 RMSU=  5.34D-05    CP:  1.08D+00  1.02D+00  3.60D-01  8.73D-01  6.35D-01
 E= -8258.65998524181     Delta-E=       -0.000016412314 Rises=F Damp=F
 DIIS: error= 1.58D-04 at cycle   6 NSaved=   6.
 NSaved= 6 IEnMin= 6 EnMin= -8258.65998524181     IErMin= 6 ErrMin= 1.58D-04
 ErrMax= 1.58D-04  0.00D+00 EMaxC= 1.00D-01 BMatC= 3.61D-06 BMatP= 1.82D-05
 IDIUse=3 WtCom= 9.98D-01 WtEn= 1.58D-03
 Coeff-Com: -0.621D-03 0.285D-01-0.651D-02 0.183D+00 0.359D+00 0.436D+00
 Coeff-En:   0.000D+00 0.000D+00 0.000D+00 0.000D+00 0.162D+00 0.838D+00
 Coeff:     -0.620D-03 0.284D-01-0.650D-02 0.183D+00 0.359D+00 0.437D+00
 Gap=     0.119 Goal=   None    Shift=    0.000
 RMSDP=2.43D-05 MaxDP=1.25D-03 DE=-1.64D-05 OVMax= 6.72D-04

 Cycle   7  Pass 1  IDiag  1:
 RMSU=  1.52D-05    CP:  1.08D+00  1.02D+00  3.64D-01  8.61D-01  7.60D-01
                    CP:  9.02D-01
 E= -8258.65998893411     Delta-E=       -0.000003692299 Rises=F Damp=F
 DIIS: error= 2.99D-05 at cycle   7 NSaved=   7.
 NSaved= 7 IEnMin= 7 EnMin= -8258.65998893411     IErMin= 7 ErrMin= 2.99D-05
 ErrMax= 2.99D-05  0.00D+00 EMaxC= 1.00D-01 BMatC= 1.81D-07 BMatP= 3.61D-06
 IDIUse=1 WtCom= 1.00D+00 WtEn= 0.00D+00
 Coeff-Com: -0.105D-03-0.878D-03-0.608D-02 0.446D-01 0.109D+00 0.224D+00
 Coeff-Com:  0.630D+00
 Coeff:     -0.105D-03-0.878D-03-0.608D-02 0.446D-01 0.109D+00 0.224D+00
 Coeff:      0.630D+00
 Gap=     0.119 Goal=   None    Shift=    0.000
 RMSDP=1.37D-05 MaxDP=9.62D-04 DE=-3.69D-06 OVMax= 2.43D-04

 Cycle   8  Pass 1  IDiag  1:
 RMSU=  4.94D-06    CP:  1.08D+00  1.02D+00  3.60D-01  8.93D-01  7.40D-01
                    CP:  8.42D-01  5.62D-01
 E= -8258.65998909394     Delta-E=       -0.000000159824 Rises=F Damp=F
 DIIS: error= 1.46D-05 at cycle   8 NSaved=   8.
 NSaved= 8 IEnMin= 8 EnMin= -8258.65998909394     IErMin= 8 ErrMin= 1.46D-05
 ErrMax= 1.46D-05  0.00D+00 EMaxC= 1.00D-01 BMatC= 4.94D-08 BMatP= 1.81D-07
 IDIUse=1 WtCom= 1.00D+00 WtEn= 0.00D+00
 Coeff-Com: -0.631D-05-0.330D-02-0.309D-02 0.101D-01 0.341D-01 0.965D-01
 Coeff-Com:  0.415D+00 0.450D+00
 Coeff:     -0.631D-05-0.330D-02-0.309D-02 0.101D-01 0.341D-01 0.965D-01
 Coeff:      0.415D+00 0.450D+00
 Gap=     0.119 Goal=   None    Shift=    0.000
 RMSDP=3.59D-06 MaxDP=2.28D-04 DE=-1.60D-07 OVMax= 7.60D-05

 Cycle   9  Pass 1  IDiag  1:
 RMSU=  1.93D-06    CP:  1.08D+00  1.02D+00  3.61D-01  8.93D-01  7.46D-01
                    CP:  8.67D-01  6.37D-01  8.01D-01
 E= -8258.65998914082     Delta-E=       -0.000000046883 Rises=F Damp=F
 DIIS: error= 3.81D-06 at cycle   9 NSaved=   9.
 NSaved= 9 IEnMin= 9 EnMin= -8258.65998914082     IErMin= 9 ErrMin= 3.81D-06
 ErrMax= 3.81D-06  0.00D+00 EMaxC= 1.00D-01 BMatC= 3.01D-09 BMatP= 4.94D-08
 IDIUse=1 WtCom= 1.00D+00 WtEn= 0.00D+00
 Coeff-Com:  0.674D-05-0.190D-02-0.120D-02 0.145D-02 0.955D-02 0.306D-01
 Coeff-Com:  0.178D+00 0.248D+00 0.535D+00
 Coeff:      0.674D-05-0.190D-02-0.120D-02 0.145D-02 0.955D-02 0.306D-01
 Coeff:      0.178D+00 0.248D+00 0.535D+00
 Gap=     0.119 Goal=   None    Shift=    0.000
 RMSDP=1.46D-06 MaxDP=6.55D-05 DE=-4.69D-08 OVMax= 2.40D-05

 Cycle  10  Pass 1  IDiag  1:
 RMSU=  8.04D-07    CP:  1.08D+00  1.02D+00  3.61D-01  8.92D-01  7.51D-01
                    CP:  8.81D-01  6.57D-01  7.99D-01  8.47D-01
 E= -8258.65998914362     Delta-E=       -0.000000002801 Rises=F Damp=F
 DIIS: error= 1.78D-06 at cycle  10 NSaved=  10.
 NSaved=10 IEnMin=10 EnMin= -8258.65998914362     IErMin=10 ErrMin= 1.78D-06
 ErrMax= 1.78D-06  0.00D+00 EMaxC= 1.00D-01 BMatC= 5.37D-10 BMatP= 3.01D-09
 IDIUse=1 WtCom= 1.00D+00 WtEn= 0.00D+00
 Coeff-Com:  0.513D-05-0.748D-03-0.329D-03-0.430D-03 0.143D-02 0.612D-02
 Coeff-Com:  0.619D-01 0.931D-01 0.327D+00 0.512D+00
 Coeff:      0.513D-05-0.748D-03-0.329D-03-0.430D-03 0.143D-02 0.612D-02
 Coeff:      0.619D-01 0.931D-01 0.327D+00 0.512D+00
 Gap=     0.119 Goal=   None    Shift=    0.000
 RMSDP=3.22D-07 MaxDP=1.96D-05 DE=-2.80D-09 OVMax= 9.33D-06

 Cycle  11  Pass 1  IDiag  1:
 RMSU=  2.30D-07    CP:  1.08D+00  1.02D+00  3.61D-01  8.93D-01  7.51D-01
                    CP:  8.80D-01  6.56D-01  8.08D-01  8.09D-01  9.24D-01
 E= -8258.65998914412     Delta-E=       -0.000000000500 Rises=F Damp=F
 DIIS: error= 5.04D-07 at cycle  11 NSaved=  11.
 NSaved=11 IEnMin=11 EnMin= -8258.65998914412     IErMin=11 ErrMin= 5.04D-07
 ErrMax= 5.04D-07  0.00D+00 EMaxC= 1.00D-01 BMatC= 8.58D-11 BMatP= 5.37D-10
 IDIUse=1 WtCom= 1.00D+00 WtEn= 0.00D+00
 Coeff-Com:  0.242D-05-0.222D-03-0.439D-04-0.477D-03-0.512D-03-0.764D-03
 Coeff-Com:  0.147D-01 0.232D-01 0.133D+00 0.324D+00 0.507D+00
 Coeff:      0.242D-05-0.222D-03-0.439D-04-0.477D-03-0.512D-03-0.764D-03
 Coeff:      0.147D-01 0.232D-01 0.133D+00 0.324D+00 0.507D+00
 Gap=     0.119 Goal=   None    Shift=    0.000
 RMSDP=1.61D-07 MaxDP=1.34D-05 DE=-5.00D-10 OVMax= 3.57D-06

 Cycle  12  Pass 1  IDiag  1:
 RMSU=  9.02D-08    CP:  1.08D+00  1.02D+00  3.61D-01  8.93D-01  7.51D-01
                    CP:  8.82D-01  6.59D-01  8.06D-01  8.38D-01  9.40D-01
                    CP:  8.16D-01
 E= -8258.65998914418     Delta-E=       -0.000000000060 Rises=F Damp=F
 DIIS: error= 1.70D-07 at cycle  12 NSaved=  12.
 NSaved=12 IEnMin=12 EnMin= -8258.65998914418     IErMin=12 ErrMin= 1.70D-07
 ErrMax= 1.70D-07  0.00D+00 EMaxC= 1.00D-01 BMatC= 1.04D-11 BMatP= 8.58D-11
 IDIUse=1 WtCom= 1.00D+00 WtEn= 0.00D+00
 Coeff-Com:  0.511D-06 0.125D-04 0.409D-04-0.201D-03-0.629D-03-0.179D-02
 Coeff-Com: -0.303D-02-0.364D-02 0.217D-01 0.102D+00 0.295D+00 0.591D+00
 Coeff:      0.511D-06 0.125D-04 0.409D-04-0.201D-03-0.629D-03-0.179D-02
 Coeff:     -0.303D-02-0.364D-02 0.217D-01 0.102D+00 0.295D+00 0.591D+00
 Gap=     0.119 Goal=   None    Shift=    0.000
 RMSDP=5.51D-08 MaxDP=4.12D-06 DE=-6.00D-11 OVMax= 1.35D-06

 Cycle  13  Pass 1  IDiag  1:
 RMSU=  2.50D-08    CP:  1.08D+00  1.02D+00  3.61D-01  8.93D-01  7.51D-01
                    CP:  8.82D-01  6.59D-01  8.10D-01  8.45D-01  9.41D-01
                    CP:  8.51D-01  8.70D-01
 E= -8258.65998914419     Delta-E=       -0.000000000004 Rises=F Damp=F
 DIIS: error= 9.33D-08 at cycle  13 NSaved=  13.
 NSaved=13 IEnMin=13 EnMin= -8258.65998914419     IErMin=13 ErrMin= 9.33D-08
 ErrMax= 9.33D-08  0.00D+00 EMaxC= 1.00D-01 BMatC= 1.79D-12 BMatP= 1.04D-11
 IDIUse=1 WtCom= 1.00D+00 WtEn= 0.00D+00
 Coeff-Com:  0.447D-07 0.309D-04 0.284D-04-0.576D-04-0.315D-03-0.939D-03
 Coeff-Com: -0.331D-02-0.495D-02-0.172D-02 0.256D-01 0.120D+00 0.361D+00
 Coeff-Com:  0.505D+00
 Coeff:      0.447D-07 0.309D-04 0.284D-04-0.576D-04-0.315D-03-0.939D-03
 Coeff:     -0.331D-02-0.495D-02-0.172D-02 0.256D-01 0.120D+00 0.361D+00
 Coeff:      0.505D+00
 Gap=     0.119 Goal=   None    Shift=    0.000
 RMSDP=3.03D-08 MaxDP=1.56D-06 DE=-3.64D-12 OVMax= 4.53D-07

 Cycle  14  Pass 1  IDiag  1:
 RMSU=  8.98D-09    CP:  1.08D+00  1.02D+00  3.61D-01  8.93D-01  7.51D-01
                    CP:  8.81D-01  6.58D-01  8.11D-01  8.43D-01  9.48D-01
                    CP:  8.76D-01  9.32D-01  6.62D-01
 E= -8258.65998914417     Delta-E=        0.000000000013 Rises=F Damp=F
 DIIS: error= 2.00D-08 at cycle  14 NSaved=  14.
 NSaved=14 IEnMin=13 EnMin= -8258.65998914419     IErMin=14 ErrMin= 2.00D-08
 ErrMax= 2.00D-08  0.00D+00 EMaxC= 1.00D-01 BMatC= 1.61D-13 BMatP= 1.79D-12
 IDIUse=1 WtCom= 1.00D+00 WtEn= 0.00D+00
 Coeff-Com: -0.413D-07 0.157D-04 0.110D-04-0.559D-05-0.101D-03-0.289D-03
 Coeff-Com: -0.139D-02-0.240D-02-0.354D-02 0.183D-02 0.276D-01 0.119D+00
 Coeff-Com:  0.279D+00 0.581D+00
 Coeff:     -0.413D-07 0.157D-04 0.110D-04-0.559D-05-0.101D-03-0.289D-03
 Coeff:     -0.139D-02-0.240D-02-0.354D-02 0.183D-02 0.276D-01 0.119D+00
 Coeff:      0.279D+00 0.581D+00
 Gap=     0.119 Goal=   None    Shift=    0.000
 RMSDP=1.06D-08 MaxDP=1.03D-06 DE= 1.27D-11 OVMax= 1.11D-07

 Cycle  15  Pass 1  IDiag  1:
 RMSU=  2.92D-09    CP:  1.08D+00  1.02D+00  3.61D-01  8.93D-01  7.51D-01
                    CP:  8.82D-01  6.58D-01  8.11D-01  8.44D-01  9.53D-01
                    CP:  8.75D-01  9.33D-01  7.45D-01  8.87D-01
 E= -8258.65998914419     Delta-E=       -0.000000000013 Rises=F Damp=F
 DIIS: error= 5.80D-09 at cycle  15 NSaved=  15.
 NSaved=15 IEnMin=13 EnMin= -8258.65998914419     IErMin=15 ErrMin= 5.80D-09
 ErrMax= 5.80D-09  0.00D+00 EMaxC= 1.00D-01 BMatC= 1.53D-14 BMatP= 1.61D-13
 IDIUse=1 WtCom= 1.00D+00 WtEn= 0.00D+00
 Coeff-Com: -0.250D-07 0.492D-05 0.285D-05 0.324D-05-0.227D-04-0.545D-04
 Coeff-Com: -0.355D-03-0.741D-03-0.167D-02-0.200D-02 0.171D-02 0.234D-01
 Coeff-Com:  0.935D-01 0.301D+00 0.585D+00
 Coeff:     -0.250D-07 0.492D-05 0.285D-05 0.324D-05-0.227D-04-0.545D-04
 Coeff:     -0.355D-03-0.741D-03-0.167D-02-0.200D-02 0.171D-02 0.234D-01
 Coeff:      0.935D-01 0.301D+00 0.585D+00
 Gap=     0.119 Goal=   None    Shift=    0.000
 RMSDP=2.20D-09 MaxDP=1.19D-07 DE=-1.27D-11 OVMax= 4.42D-08

 SCF Done:  E(RB3LYP) =  -8258.65998914     A.U. after   15 cycles
            NFock= 15  Conv=0.22D-08     -V/T= 2.0014
 KE= 8.247336001516D+03 PE=-2.365993685986D+04 EE= 5.188979985875D+03
 Leave Link  502 at Tue Sep 29 16:19:16 2026, MaxMem=  5100273664 cpu:             843.1 elap:              52.7
 (Enter /share/software/user/restricted/gaussian/g16.B01/l701.exe)
 ... and contract with generalized density number  0.
 Compute integral first derivatives.
 Leave Link  701 at Tue Sep 29 16:19:16 2026, MaxMem=  5100273664 cpu:               2.3 elap:               0.2
 (Enter /share/software/user/restricted/gaussian/g16.B01/l702.exe)
 L702 exits ... SP integral derivatives will be done elsewhere.
 Leave Link  702 at Tue Sep 29 16:19:16 2026, MaxMem=  5100273664 cpu:               0.5 elap:               0.0
 (Enter /share/software/user/restricted/gaussian/g16.B01/l703.exe)
 Integral derivatives from FoFJK, PRISM(SPDF).
 Compute integral first derivatives, UseDBF=F ICtDFT=           0.
 Calling FoFJK, ICntrl=      2127 FMM=F ISym2X=0 I1Cent= 0 IOpClX= 0 NMat=1 NMatS=1 NMatT=0.
 FoFJK:  IHMeth= 1 ICntrl=    2127 DoSepK=F KAlg= 0 I1Cent=           0 FoldK=F
 IRaf=         0 NMat=       1 IRICut=       1 DoRegI=T DoRafI=F ISym2E= 0 IDoP0=0 IntGTp=1.
 FoFCou: FMM=F IPFlag=           0 FMFlag=      100000 FMFlg1=         800
         NFxFlg=           0 DoJE=F BraDBF=F KetDBF=F FulRan=T
         wScrn=  0.000000 ICntrl=      2127 IOpCl=  0 I1Cent=           0 NGrid=           0
         NMat0=    1 NMatS0=      1 NMatT0=    0 NMatD0=    1 NMtDS0=    0 NMtDT0=    0
 Symmetry not used in FoFCou.
 Leave Link  703 at Tue Sep 29 16:19:28 2026, MaxMem=  5100273664 cpu:             195.0 elap:              12.2
 (Enter /share/software/user/restricted/gaussian/g16.B01/l716.exe)
 Dipole        =-9.92131358D-01 5.79918496D-01 6.70210682D-04
 ***** Axes restored to original set *****
 -------------------------------------------------------------------
 Center     Atomic                   Forces (Hartrees/Bohr)
 Number     Number              X              Y              Z
 -------------------------------------------------------------------
      1        6           0.000187600    0.000107771   -0.000010122
      2        6          -0.001524523   -0.008308220   -0.000621562
      3        6          -0.002533947    0.004829513    0.000598023
      4        6           0.010212535   -0.000541108   -0.000761610
      5        6          -0.006172025    0.002548846    0.000656689
      6        6          -0.023733523    0.000849329    0.001770114
      7        6          -0.010933185    0.003180934    0.001035806
      8        6           0.027599124    0.007455093   -0.001221298
      9        6           0.004460831   -0.001583286   -0.000457423
     10        6          -0.004562434    0.000781321    0.000373325
     11        6           0.001583415   -0.000940625   -0.000192046
     12        6           0.000700173   -0.002253747   -0.000255167
     13        8           0.006506968   -0.000731968   -0.000511130
     14       35          -0.000318948    0.003011349    0.000284508
     15        1          -0.001377300    0.001170269    0.000198225
     16       35          -0.001703972   -0.000370710    0.000087532
     17        1           0.000142646   -0.000661141   -0.000068898
     18        1           0.002305735   -0.010139391   -0.001115154
     19        1          -0.000320905   -0.000939802   -0.000049224
     20       35          -0.001224816    0.000551373    0.000133802
     21        1           0.001213452    0.000830749   -0.000011303
     22        1          -0.000506900    0.001153450    0.000136913
 -------------------------------------------------------------------
 Cartesian Forces:  Max     0.027599124 RMS     0.005500848
 Leave Link  716 at Tue Sep 29 16:19:29 2026, MaxMem=  5100273664 cpu:               0.4 elap:               0.0
 (Enter /share/software/user/restricted/gaussian/g16.B01/l103.exe)

 GradGradGradGradGradGradGradGradGradGradGradGradGradGradGradGradGradGrad
 Berny optimization.
 Using GEDIIS/GDIIS optimizer.
 FormGI is forming the generalized inverse of G from B-inverse, IUseBI=4.
 Internal  Forces:  Max     0.113268855 RMS     0.014826665
 Search for a local minimum.
 Step number   4 out of a maximum of  116
 All quantities printed in internal units (Hartrees-Bohrs-Radians)
 RMS Force = .14827D-01 SwitMx=.10000D-02 MixMth= 1
 Mixed Optimization -- RFO/linear search
 Update second derivatives using D2CorX and points    1    3    2    4
 DE= -1.05D-02 DEPred=-1.43D-02 R= 7.32D-01
 TightC=F SS=  1.41D+00  RLast= 2.20D-01 DXNew= 2.5227D-01 6.6102D-01
 Trust test= 7.32D-01 RLast= 2.20D-01 DXMaxT set to 2.52D-01
 ITU=  1 -1  0  0
 Use linear search instead of GDIIS.
     Eigenvalues ---    0.01730   0.01913   0.01996   0.02009   0.02021
     Eigenvalues ---    0.02038   0.02049   0.02091   0.02094   0.02106
     Eigenvalues ---    0.02110   0.02131   0.02132   0.02136   0.02166
     Eigenvalues ---    0.02185   0.02201   0.02234   0.02317   0.05152
     Eigenvalues ---    0.14919   0.16000   0.16000   0.16000   0.16006
     Eigenvalues ---    0.16068   0.18856   0.19020   0.19807   0.22257
     Eigenvalues ---    0.22582   0.23418   0.23899   0.24616   0.24634
     Eigenvalues ---    0.24982   0.25000   0.25000   0.25771   0.33668
     Eigenvalues ---    0.33697   0.33719   0.33779   0.33993   0.37586
     Eigenvalues ---    0.41274   0.41596   0.42566   0.44379   0.44495
     Eigenvalues ---    0.44951   0.45338   0.45488   0.46322   0.46533
     Eigenvalues ---    0.47194   0.47746   0.48531   0.96051   6.16272
 RFO step:  Lambda=-8.76105764D-03 EMin= 1.72959890D-02
 Quartic linear search produced a step of -0.02090.
 Maximum step size (   0.252) exceeded in Quadratic search.
    -- Step size scaled by   0.887
 Iteration  1 RMS(Cart)=  0.06641251 RMS(Int)=  0.00216762
 Iteration  2 RMS(Cart)=  0.00249223 RMS(Int)=  0.00000967
 Iteration  3 RMS(Cart)=  0.00000061 RMS(Int)=  0.00000967
 ITry= 1 IFail=0 DXMaxC= 2.48D-01 DCOld= 1.00D+10 DXMaxT= 2.52D-01 DXLimC= 3.00D+00 Rises=F
 Variable       Old X    -DE/DX   Delta X   Delta X   Delta X     New X
                                 (Linear)    (Quad)   (Total)
    R1        2.64088   0.00478   0.00014  -0.00153  -0.00137   2.63950
    R2        2.62904   0.01491  -0.00050   0.00570   0.00520   2.63424
    R3        2.64598   0.02513  -0.00005   0.00421   0.00416   2.65014
    R4        2.63397  -0.00423   0.00025  -0.01238  -0.01210   2.62187
    R5        3.69595   0.00299  -0.00104   0.03958   0.03854   3.73449
    R6        2.62521  -0.00510   0.00015  -0.00148  -0.00132   2.62388
    R7        2.03997   0.00181   0.00031  -0.00300  -0.00269   2.03729
    R8        2.64058  -0.00712   0.00018  -0.01206  -0.01189   2.62869
    R9        3.71326   0.00172  -0.00111   0.03516   0.03405   3.74731
   R10        2.64341   0.00276  -0.00039   0.01124   0.01083   2.65424
   R11        2.05833   0.00064   0.00017  -0.00326  -0.00309   2.05524
   R12        3.34072   0.00516  -0.00299   0.22311   0.22012   3.56084
   R13        2.64194  -0.00043   0.00053  -0.00622  -0.00570   2.63624
   R14        2.64257   0.00372   0.00016  -0.00156  -0.00141   2.64116
   R15        2.59363   0.01191   0.00064  -0.01889  -0.01825   2.57538
   R16        2.63476   0.00080  -0.00007   0.00309   0.00303   2.63779
   R17        2.63402  -0.00593   0.00010  -0.00951  -0.00940   2.62461
   R18        2.04977   0.00090   0.00023  -0.00329  -0.00305   2.04672
   R19        2.63343  -0.00383  -0.00005  -0.00181  -0.00185   2.63158
   R20        3.67564  -0.00135  -0.00086   0.01663   0.01577   3.69141
   R21        2.62940   0.00074   0.00003   0.00041   0.00043   2.62983
   R22        2.04483   0.00147   0.00027  -0.00279  -0.00252   2.04231
   R23        2.04670   0.00121   0.00021  -0.00165  -0.00144   2.04526
    A1        2.12591  -0.01513  -0.00003  -0.00331  -0.00333   2.12257
    A2        2.00419  -0.04220   0.00083  -0.01781  -0.01698   1.98722
    A3        2.15308   0.05733  -0.00080   0.02111   0.02031   2.17339
    A4        2.09550   0.01295  -0.00045   0.02300   0.02258   2.11808
    A5        2.13384  -0.00545   0.00042  -0.01265  -0.01225   2.12159
    A6        2.05384  -0.00750   0.00003  -0.01035  -0.01033   2.04351
    A7        2.07184  -0.00389   0.00035  -0.02737  -0.02699   2.04485
    A8        2.09795   0.00182  -0.00016   0.01230   0.01212   2.11006
    A9        2.11340   0.00207  -0.00019   0.01508   0.01487   2.12827
   A10        2.11048   0.00161  -0.00018   0.02152   0.02133   2.13182
   A11        2.06433  -0.00141   0.00018  -0.01500  -0.01482   2.04952
   A12        2.10837  -0.00020   0.00000  -0.00652  -0.00652   2.10185
   A13        2.10969   0.00462  -0.00031  -0.00073  -0.00107   2.10862
   A14        2.06598  -0.00207   0.00035  -0.00201  -0.00164   2.06434
   A15        2.10751  -0.00255  -0.00004   0.00274   0.00271   2.11023
   A16        2.05295  -0.00017   0.00062  -0.01310  -0.01251   2.04043
   A17        1.77720   0.01527  -0.00098  -0.03457  -0.03554   1.74167
   A18        2.45304  -0.01511   0.00035   0.04768   0.04805   2.50109
   A19        2.11924  -0.01528  -0.00046  -0.00422  -0.00470   2.11454
   A20        2.14327   0.04375   0.00151   0.00206   0.00358   2.14686
   A21        2.02067  -0.02847  -0.00105   0.00215   0.00111   2.02179
   A22        2.06469   0.01067   0.00014   0.01043   0.01055   2.07525
   A23        2.10426  -0.00219   0.00018  -0.01578  -0.01558   2.08868
   A24        2.09148   0.00067  -0.00018   0.00828   0.00809   2.09957
   A25        2.08744   0.00152   0.00000   0.00750   0.00749   2.09494
   A26        2.10704  -0.00041  -0.00025   0.01624   0.01602   2.12306
   A27        2.09531   0.00019   0.00012  -0.00788  -0.00778   2.08753
   A28        2.08084   0.00021   0.00013  -0.00836  -0.00824   2.07259
   A29        2.08352  -0.00039   0.00017  -0.00943  -0.00925   2.07427
   A30        2.10394   0.00017  -0.00003   0.00336   0.00333   2.10727
   A31        2.09573   0.00022  -0.00015   0.00606   0.00591   2.10164
   A32        2.08762   0.00761   0.00021   0.00275   0.00295   2.09056
   A33        2.08807  -0.00420  -0.00010  -0.00363  -0.00372   2.08435
   A34        2.10750  -0.00341  -0.00012   0.00088   0.00077   2.10827
   A35        2.14463   0.11327   0.00035   0.04020   0.04055   2.18519
    D1       -0.00023   0.00001   0.00000   0.00003   0.00003  -0.00021
    D2        3.14134   0.00000  -0.00000   0.00003   0.00003   3.14137
    D3        3.14139   0.00002   0.00000   0.00006   0.00006   3.14146
    D4       -0.00022   0.00001   0.00000   0.00006   0.00006  -0.00015
    D5        0.00020  -0.00002  -0.00000   0.00000   0.00000   0.00020
    D6        3.14114  -0.00005  -0.00000  -0.00001  -0.00001   3.14114
    D7       -3.14143  -0.00003  -0.00000  -0.00004  -0.00004  -3.14147
    D8       -0.00049  -0.00006  -0.00000  -0.00005  -0.00005  -0.00053
    D9       -3.14074  -0.00011  -0.00000   0.00007   0.00006  -3.14067
   D10        0.00089  -0.00010  -0.00000   0.00011   0.00010   0.00099
   D11        0.00007  -0.00000   0.00000  -0.00002  -0.00002   0.00005
   D12       -3.14149  -0.00000   0.00000  -0.00003  -0.00003  -3.14152
   D13       -3.14150   0.00001   0.00000  -0.00003  -0.00003  -3.14153
   D14        0.00012   0.00001   0.00000  -0.00003  -0.00003   0.00009
   D15        0.00011  -0.00001  -0.00000  -0.00001  -0.00001   0.00010
   D16       -3.14147   0.00000   0.00000  -0.00003  -0.00003  -3.14150
   D17       -3.14151  -0.00000  -0.00000  -0.00000  -0.00000  -3.14152
   D18        0.00009   0.00000   0.00000  -0.00003  -0.00003   0.00006
   D19       -0.00014   0.00000  -0.00000   0.00004   0.00004  -0.00010
   D20        3.14136   0.00001   0.00000   0.00006   0.00006   3.14142
   D21        3.14144  -0.00000  -0.00000   0.00006   0.00006   3.14150
   D22       -0.00025   0.00001  -0.00000   0.00008   0.00008  -0.00016
   D23       -0.00001   0.00000   0.00000  -0.00004  -0.00004  -0.00005
   D24       -3.14061   0.00004   0.00000   0.00005   0.00005  -3.14056
   D25       -3.14151  -0.00001  -0.00000  -0.00006  -0.00006  -3.14157
   D26        0.00108   0.00003   0.00000   0.00003   0.00003   0.00111
   D27        0.00002  -0.00001  -0.00000  -0.00001  -0.00001   0.00001
   D28        3.14156   0.00000   0.00000  -0.00023  -0.00023   3.14133
   D29       -0.00003   0.00002   0.00000   0.00004   0.00004   0.00001
   D30        3.14158   0.00001   0.00000  -0.00005  -0.00005   3.14153
   D31       -3.14157  -0.00000  -0.00000   0.00024   0.00024  -3.14133
   D32        0.00004  -0.00001  -0.00000   0.00016   0.00016   0.00020
   D33        0.00000  -0.00010  -0.00000  -0.00034  -0.00035  -0.00034
   D34        3.14155  -0.00009  -0.00000  -0.00055  -0.00056   3.14099
   D35        0.00002   0.00000   0.00000  -0.00006  -0.00006  -0.00004
   D36       -3.14157  -0.00000   0.00000  -0.00011  -0.00011   3.14151
   D37       -0.00004   0.00001  -0.00000   0.00010   0.00010   0.00006
   D38        3.14157   0.00000  -0.00000   0.00002   0.00002   3.14159
   D39        3.14155   0.00001  -0.00000   0.00015   0.00015  -3.14149
   D40       -0.00003   0.00000  -0.00000   0.00007   0.00007   0.00004
   D41        0.00002  -0.00001  -0.00000  -0.00007  -0.00007  -0.00005
   D42       -3.14157  -0.00001  -0.00000  -0.00004  -0.00004   3.14157
   D43       -3.14158   0.00000  -0.00000   0.00001   0.00001  -3.14157
   D44        0.00001   0.00000  -0.00000   0.00004   0.00004   0.00004
   D45        0.00001  -0.00001  -0.00000   0.00000   0.00000   0.00001
   D46        3.14158   0.00000  -0.00000   0.00009   0.00009  -3.14151
   D47       -3.14158  -0.00001  -0.00000  -0.00003  -0.00003   3.14158
   D48       -0.00000   0.00000  -0.00000   0.00006   0.00006   0.00005
         Item               Value     Threshold  Converged?
 Maximum Force            0.113269     0.000450     NO 
 RMS     Force            0.014827     0.000300     NO 
 Maximum Displacement     0.248334     0.001800     NO 
 RMS     Displacement     0.066663     0.001200     NO 
 Predicted change in Energy=-4.580609D-03
 Lowest energy point so far.  Saving SCF results.
 GradGradGradGradGradGradGradGradGradGradGradGradGradGradGradGradGradGrad

 Leave Link  103 at Tue Sep 29 16:19:29 2026, MaxMem=  5100273664 cpu:               1.2 elap:               0.1
 (Enter /share/software/user/restricted/gaussian/g16.B01/l202.exe)
                          Input orientation:                          
 ---------------------------------------------------------------------
 Center     Atomic      Atomic             Coordinates (Angstroms)
 Number     Number       Type             X           Y           Z
 ---------------------------------------------------------------------
      1          6           0       -1.257085   -0.968647    0.084350
      2          6           0       -2.350090   -0.112192    0.235258
      3          6           0       -3.648145   -0.599760    0.283185
      4          6           0       -3.813399   -1.974127    0.174846
      5          6           0       -2.734880   -2.839657    0.024336
      6          6           0       -1.419778   -2.348818   -0.024491
      7          6           0        1.191774   -0.918211   -0.083171
      8          6           0        1.337555   -2.299381   -0.214504
      9          6           0        2.620326   -2.832355   -0.351828
     10          6           0        3.720396   -1.984513   -0.355293
     11          6           0        3.580132   -0.605212   -0.224490
     12          6           0        2.302767   -0.070223   -0.087351
     13          8           0       -0.019625   -0.309432    0.055446
     14         35           0       -2.117494    1.844185    0.389777
     15          1           0       -4.486406    0.068063    0.399807
     16         35           0       -5.665434   -2.679595    0.242215
     17          1           0       -2.936647   -3.905458   -0.054387
     18          1           0        0.382446   -2.871297   -0.196688
     19          1           0        2.759608   -3.901447   -0.455275
     20         35           0        5.514673   -2.732443   -0.547584
     21          1           0        4.446381    0.041006   -0.229076
     22          1           0        2.157302    0.997229    0.016413
 ---------------------------------------------------------------------
                    Distance matrix (angstroms):
                    1          2          3          4          5
     1  C    0.000000
     2  C    1.396764   0.000000
     3  C    2.427506   1.387432   0.000000
     4  C    2.748440   2.368908   1.388500   0.000000
     5  C    2.384986   2.762538   2.432735   1.391042   0.000000
     6  C    1.393982   2.436277   2.849472   2.430957   1.404565
     7  C    2.455100   3.646349   4.864201   5.121844   4.372885
     8  C    2.931266   4.311010   5.290899   5.175878   4.115054
     9  C    4.324115   5.696402   6.684419   6.512047   5.368406
    10  C    5.099077   6.380058   7.524666   7.552432   6.522728
    11  C    4.860672   5.968414   7.246085   7.529787   6.703285
    12  C    3.675486   4.664217   5.985906   6.411013   5.749794
    13  O    1.402393   2.345698   3.647233   4.144657   3.711552
    14  Br   2.957299   1.976205   2.885675   4.183515   4.738469
    15  H    3.406288   2.150213   1.078086   2.161964   3.415210
    16  Br   4.731364   4.193222   2.897731   1.982992   2.942998
    17  H    3.386006   3.849261   3.398210   2.133373   1.087584
    18  H    2.527275   3.907171   4.651433   4.306746   3.125312
    19  H    5.002632   6.398774   7.246086   6.878665   5.616656
    20  Br   7.026166   8.326647   9.444350   9.386685   8.270049
    21  H    5.800617   6.814037   8.135991   8.511632   7.741638
    22  H    3.940473   4.647073   6.027003   6.671082   6.217331
                    6          7          8          9         10
     6  C    0.000000
     7  C    2.978302   0.000000
     8  C    2.764314   1.395038   0.000000
     9  C    4.082082   2.403515   1.395858   0.000000
    10  C    5.163675   2.757713   2.407674   1.388886   0.000000
    11  C    5.298986   2.412922   2.810597   2.428499   1.392571
    12  C    4.365007   1.397643   2.432478   2.792878   2.397076
    13  O    2.475058   1.362833   2.423780   3.674283   4.118539
    14  Br   4.270796   4.336561   5.428780   6.698279   7.021041
    15  H    3.927538   5.783402   6.316700   7.712524   8.493224
    16  Br   4.266866   7.087288   7.028159   8.308432   9.430481
    17  H    2.173687   5.095914   4.568799   5.667448   6.935186
    18  H    1.884316   2.117178   1.113391   2.243589   3.457377
    19  H    4.479230   3.390614   2.155649   1.083078   2.146566
    20  Br   6.964725   4.711111   4.212694   2.902679   1.953408
    21  H    6.337581   3.396153   3.891327   3.406722   2.155391
    22  H    4.898286   2.147341   3.404842   3.875011   3.387066
                   11         12         13         14         15
    11  C    0.000000
    12  C    1.391647   0.000000
    13  O    3.622720   2.339042   0.000000
    14  Br   6.232159   4.840590   3.025045   0.000000
    15  H    8.118625   6.808033   4.495911   2.960820   0.000000
    16  Br   9.486905   8.391047   6.125986   5.751021   2.994089
    17  H    7.306775   6.493195   4.631682   5.824662   4.289163
    18  H    3.919325   3.397882   2.605453   5.369302   5.718510
    19  H    3.404656   3.875868   4.570289   7.583701   8.306196
    20  Br   2.893432   4.197091   6.071497   8.948415  10.428900
    21  H    1.080744   2.151172   4.488761   6.835122   8.954938
    22  H    2.156455   1.082304   2.539272   4.373856   6.719316
                   16         17         18         19         20
    16  Br   0.000000
    17  H    3.006159   0.000000
    18  H    6.066814   3.479385   0.000000
    19  H    8.541707   5.710346   2.603647   0.000000
    20  Br  11.208093   8.546579   5.146082   2.994239   0.000000
    21  H   10.482013   8.373423   4.999813   4.294101   2.989099
    22  H    8.646689   7.070338   4.261575   4.958053   5.049801
                   21         22
    21  H    0.000000
    22  H    2.492892   0.000000
 Stoichiometry    C12H6Br3O(1-)
 Framework group  C1[X(C12H6Br3O)]
 Deg. of freedom    60
 Full point group                 C1      NOp   1
 RotChk:  IX=2 Diff= 1.39D-02
 Largest Abelian subgroup         C1      NOp   1
 Largest concise Abelian subgroup C1      NOp   1
                         Standard orientation:                         
 ---------------------------------------------------------------------
 Center     Atomic      Atomic             Coordinates (Angstroms)
 Number     Number       Type             X           Y           Z
 ---------------------------------------------------------------------
      1          6           0        0.867539    0.216389   -0.001106
      2          6           0        2.047822    0.963303   -0.000212
      3          6           0        3.291462    0.348222    0.000276
      4          6           0        3.311938   -1.040127   -0.000226
      5          6           0        2.145167   -1.797519   -0.001295
      6          6           0        0.884865   -1.177485   -0.001793
      7          6           0       -1.570088    0.508778   -0.001120
      8          6           0       -1.860652   -0.855664   -0.001068
      9          6           0       -3.196362   -1.261001   -0.000531
     10          6           0       -4.204719   -0.305898   -0.000011
     11          6           0       -3.919853    1.057225   -0.000085
     12          6           0       -2.589323    1.465109   -0.000639
     13          8           0       -0.297637    0.996819   -0.001321
     14         35           0        2.021315    2.939331    0.000386
     15          1           0        4.197806    0.932009    0.001038
     16         35           0        5.085291   -1.927525    0.000621
     17          1           0        2.234492   -2.881429   -0.001806
     18          1           0       -0.967883   -1.520949   -0.001934
     19          1           0       -3.447644   -2.314526   -0.000558
     20         35           0       -6.073300   -0.875291    0.000736
     21          1           0       -4.716132    1.787942    0.000306
     22          1           0       -2.332044    2.516388   -0.000639
 ---------------------------------------------------------------------
 Rotational constants (GHZ):           0.4106481           0.0790258           0.0662723
 Leave Link  202 at Tue Sep 29 16:19:29 2026, MaxMem=  5100273664 cpu:               0.3 elap:               0.0
 (Enter /share/software/user/restricted/gaussian/g16.B01/l301.exe)
 Standard basis: 6-311++G(d) (5D, 7F)
 Ernie: Thresh=  0.10000D-02 Tol=  0.10000D-05 Strict=F.
 There are   476 symmetry adapted cartesian basis functions of A   symmetry.
 There are   454 symmetry adapted basis functions of A   symmetry.
   454 basis functions,   786 primitive gaussians,   476 cartesian basis functions
    96 alpha electrons       96 beta electrons
       nuclear repulsion energy      1961.3026316154 Hartrees.
 IExCor=  402 DFT=T Ex+Corr=B3LYP ExCW=0 ScaHFX=  0.200000
 ScaDFX=  0.800000  0.720000  1.000000  0.810000 ScalE2=  1.000000  1.000000
 IRadAn=      5 IRanWt=     -1 IRanGd=            0 ICorTp=0 IEmpDi=  4
 NAtoms=   22 NActive=   22 NUniq=   22 SFac= 1.00D+00 NAtFMM=   60 NAOKFM=F Big=F
 Integral buffers will be    131072 words long.
 Raffenetti 2 integral format.
 Two-electron integral symmetry is turned on.
 Leave Link  301 at Tue Sep 29 16:19:29 2026, MaxMem=  5100273664 cpu:               0.5 elap:               0.0
 (Enter /share/software/user/restricted/gaussian/g16.B01/l302.exe)
 NPDir=0 NMtPBC=     1 NCelOv=     1 NCel=       1 NClECP=     1 NCelD=      1
         NCelK=      1 NCelE2=     1 NClLst=     1 CellRange=     0.0.
 One-electron integrals computed using PRISM.
 One-electron integral symmetry used in STVInt
 NBasis=   454 RedAO= T EigKep=  1.52D-06  NBF=   454
 NBsUse=   450 1.00D-06 EigRej=  7.79D-07 NBFU=   450
 Precomputing XC quadrature grid using
 IXCGrd= 4 IRadAn=           5 IRanWt=          -1 IRanGd=           0 AccXCQ= 0.00D+00.
 Generated NRdTot=       0 NPtTot=           0 NUsed=           0 NTot=          32
 NSgBfM=   448   448   448   448   448 MxSgAt=    22 MxSgA2=    22.
 Leave Link  302 at Tue Sep 29 16:19:29 2026, MaxMem=  5100273664 cpu:               4.2 elap:               0.3
 (Enter /share/software/user/restricted/gaussian/g16.B01/l303.exe)
 DipDrv:  MaxL=1.
 Leave Link  303 at Tue Sep 29 16:19:29 2026, MaxMem=  5100273664 cpu:               0.7 elap:               0.1
 (Enter /share/software/user/restricted/gaussian/g16.B01/l401.exe)
 Initial guess from the checkpoint file:  "calcs/b3lyp_gas/chks/BDE_24_2r4_anion.chk"
 B after Tr=    -0.000000   -0.000000   -0.000000
         Rot=    0.999982    0.000010    0.000001   -0.005921 Ang=   0.68 deg.
 Guess basis will be translated and rotated to current coordinates.
 JPrj=2 DoOrth=T DoCkMO=T.
 Generating alternative initial guess.
 ExpMin= 3.50D-02 ExpMax= 4.40D+05 ExpMxC= 1.51D+04 IAcc=3 IRadAn=         5 AccDes= 0.00D+00
 Harris functional with IExCor=  402 and IRadAn=       5 diagonalized for initial guess.
 HarFok:  IExCor=  402 AccDes= 0.00D+00 IRadAn=         5 IDoV= 1 UseB2=F ITyADJ=14
 ICtDFT=  3500011 ScaDFX=  1.000000  1.000000  1.000000  1.000000
 FoFCou: FMM=F IPFlag=           0 FMFlag=      100000 FMFlg1=           0
         NFxFlg=           0 DoJE=T BraDBF=F KetDBF=T FulRan=T
         wScrn=  0.000000 ICntrl=       500 IOpCl=  0 I1Cent=   200000004 NGrid=           0
         NMat0=    1 NMatS0=      1 NMatT0=    0 NMatD0=    1 NMtDS0=    0 NMtDT0=    0
 Petite list used in FoFCou.
 Harris En= -8259.01571089156    
 Leave Link  401 at Tue Sep 29 16:19:31 2026, MaxMem=  5100273664 cpu:              22.1 elap:               1.4
 (Enter /share/software/user/restricted/gaussian/g16.B01/l502.exe)
 Integral symmetry usage will be decided dynamically.
 Closed shell SCF:
 Using DIIS extrapolation, IDIIS=  1040.
 NGot=  5100273664 LenX=  5099808623 LenY=  5099581571
 Requested convergence on RMS density matrix=1.00D-08 within 128 cycles.
 Requested convergence on MAX density matrix=1.00D-06.
 Requested convergence on             energy=1.00D-06.
 No special actions if energy rises.
 Fock matrices will be formed incrementally for  20 cycles.

 Cycle   1  Pass 1  IDiag  1:
 FoFJK:  IHMeth= 1 ICntrl=       0 DoSepK=F KAlg= 0 I1Cent=           0 FoldK=F
 IRaf= 770000000 NMat=       1 IRICut=       1 DoRegI=T DoRafI=F ISym2E= 0 IDoP0=0 IntGTp=1.
 FoFCou: FMM=F IPFlag=           0 FMFlag=      100000 FMFlg1=           0
         NFxFlg=           0 DoJE=F BraDBF=F KetDBF=F FulRan=T
         wScrn=  0.000000 ICntrl=         0 IOpCl=  0 I1Cent=           0 NGrid=           0
         NMat0=    1 NMatS0=      1 NMatT0=    0 NMatD0=    1 NMtDS0=    0 NMtDT0=    0
 Symmetry not used in FoFCou.
 E= -8258.64729976467    
 DIIS: error= 7.65D-03 at cycle   1 NSaved=   1.
 NSaved= 1 IEnMin= 1 EnMin= -8258.64729976467     IErMin= 1 ErrMin= 7.65D-03
 ErrMax= 7.65D-03  0.00D+00 EMaxC= 1.00D-01 BMatC= 5.18D-02 BMatP= 5.18D-02
 IDIUse=3 WtCom= 9.23D-01 WtEn= 7.65D-02
 Coeff-Com:  0.100D+01
 Coeff-En:   0.100D+01
 Coeff:      0.100D+01
 Gap=     0.310 Goal=   None    Shift=    0.000
 GapD=    0.310 DampG=1.000 DampE=1.000 DampFc=1.0000 IDamp=-1.
 RMSDP=3.34D-03 MaxDP=2.83D-01              OVMax= 3.36D-02

 Cycle   2  Pass 1  IDiag  1:
 RMSU=  3.19D-03    CP:  9.74D-01
 E= -8258.66476915968     Delta-E=       -0.017469395007 Rises=F Damp=F
 DIIS: error= 9.74D-04 at cycle   2 NSaved=   2.
 NSaved= 2 IEnMin= 2 EnMin= -8258.66476915968     IErMin= 2 ErrMin= 9.74D-04
 ErrMax= 9.74D-04  0.00D+00 EMaxC= 1.00D-01 BMatC= 3.87D-04 BMatP= 5.18D-02
 IDIUse=3 WtCom= 9.90D-01 WtEn= 9.74D-03
 Coeff-Com:  0.359D-02 0.996D+00
 Coeff-En:   0.000D+00 0.100D+01
 Coeff:      0.356D-02 0.996D+00
 Gap=     0.130 Goal=   None    Shift=    0.000
 RMSDP=1.06D-03 MaxDP=7.65D-02 DE=-1.75D-02 OVMax= 2.63D-02

 Cycle   3  Pass 1  IDiag  1:
 RMSU=  1.00D-03    CP:  9.79D-01  9.07D-01
 E= -8258.66354134962     Delta-E=        0.001227810055 Rises=F Damp=F
 DIIS: error= 2.25D-03 at cycle   3 NSaved=   3.
 NSaved= 3 IEnMin= 2 EnMin= -8258.66476915968     IErMin= 2 ErrMin= 9.74D-04
 ErrMax= 2.25D-03  0.00D+00 EMaxC= 1.00D-01 BMatC= 1.53D-03 BMatP= 3.87D-04
 IDIUse=3 WtCom= 1.74D-01 WtEn= 8.26D-01
 Coeff-Com: -0.427D-02 0.676D+00 0.328D+00
 Coeff-En:   0.000D+00 0.757D+00 0.243D+00
 Coeff:     -0.743D-03 0.743D+00 0.258D+00
 Gap=     0.123 Goal=   None    Shift=    0.000
 RMSDP=4.59D-04 MaxDP=2.27D-02 DE= 1.23D-03 OVMax= 1.55D-02

 Cycle   4  Pass 1  IDiag  1:
 RMSU=  2.55D-04    CP:  9.76D-01  9.21D-01  6.33D-01
 E= -8258.66514886009     Delta-E=       -0.001607510465 Rises=F Damp=F
 DIIS: error= 3.38D-04 at cycle   4 NSaved=   4.
 NSaved= 4 IEnMin= 4 EnMin= -8258.66514886009     IErMin= 4 ErrMin= 3.38D-04
 ErrMax= 3.38D-04  0.00D+00 EMaxC= 1.00D-01 BMatC= 5.33D-05 BMatP= 3.87D-04
 IDIUse=3 WtCom= 9.97D-01 WtEn= 3.38D-03
 Coeff-Com: -0.259D-02 0.321D+00 0.581D-01 0.624D+00
 Coeff-En:   0.000D+00 0.290D-01 0.000D+00 0.971D+00
 Coeff:     -0.258D-02 0.320D+00 0.579D-01 0.625D+00
 Gap=     0.122 Goal=   None    Shift=    0.000
 RMSDP=2.15D-04 MaxDP=2.68D-02 DE=-1.61D-03 OVMax= 1.84D-03

 Cycle   5  Pass 1  IDiag  1:
 RMSU=  1.17D-04    CP:  9.77D-01  9.46D-01  4.84D-01  7.65D-01
 E= -8258.66518970583     Delta-E=       -0.000040845745 Rises=F Damp=F
 DIIS: error= 1.46D-04 at cycle   5 NSaved=   5.
 NSaved= 5 IEnMin= 5 EnMin= -8258.66518970583     IErMin= 5 ErrMin= 1.46D-04
 ErrMax= 1.46D-04  0.00D+00 EMaxC= 1.00D-01 BMatC= 7.58D-06 BMatP= 5.33D-05
 IDIUse=3 WtCom= 9.99D-01 WtEn= 1.46D-03
 Coeff-Com: -0.698D-03 0.589D-01-0.339D-01 0.398D+00 0.578D+00
 Coeff-En:   0.000D+00 0.000D+00 0.000D+00 0.183D-02 0.998D+00
 Coeff:     -0.697D-03 0.588D-01-0.339D-01 0.397D+00 0.579D+00
 Gap=     0.122 Goal=   None    Shift=    0.000
 RMSDP=4.61D-05 MaxDP=1.81D-03 DE=-4.08D-05 OVMax= 6.30D-04

 Cycle   6  Pass 1  IDiag  1:
 RMSU=  3.71D-05    CP:  9.77D-01  9.49D-01  4.62D-01  7.43D-01  1.11D+00
 E= -8258.66519630035     Delta-E=       -0.000006594517 Rises=F Damp=F
 DIIS: error= 3.27D-05 at cycle   6 NSaved=   6.
 NSaved= 6 IEnMin= 6 EnMin= -8258.66519630035     IErMin= 6 ErrMin= 3.27D-05
 ErrMax= 3.27D-05  0.00D+00 EMaxC= 1.00D-01 BMatC= 4.62D-07 BMatP= 7.58D-06
 IDIUse=1 WtCom= 1.00D+00 WtEn= 0.00D+00
 Coeff-Com: -0.110D-03-0.182D-02-0.227D-01 0.138D+00 0.288D+00 0.599D+00
 Coeff:     -0.110D-03-0.182D-02-0.227D-01 0.138D+00 0.288D+00 0.599D+00
 Gap=     0.122 Goal=   None    Shift=    0.000
 RMSDP=3.07D-05 MaxDP=3.31D-03 DE=-6.59D-06 OVMax= 2.34D-04

 Cycle   7  Pass 1  IDiag  1:
 RMSU=  7.48D-06    CP:  9.77D-01  9.46D-01  4.79D-01  8.10D-01  1.05D+00
                    CP:  6.84D-01
 E= -8258.66519671326     Delta-E=       -0.000000412914 Rises=F Damp=F
 DIIS: error= 1.26D-05 at cycle   7 NSaved=   7.
 NSaved= 7 IEnMin= 7 EnMin= -8258.66519671326     IErMin= 7 ErrMin= 1.26D-05
 ErrMax= 1.26D-05  0.00D+00 EMaxC= 1.00D-01 BMatC= 6.84D-08 BMatP= 4.62D-07
 IDIUse=1 WtCom= 1.00D+00 WtEn= 0.00D+00
 Coeff-Com: -0.113D-04-0.599D-02-0.115D-01 0.552D-01 0.129D+00 0.345D+00
 Coeff-Com:  0.489D+00
 Coeff:     -0.113D-04-0.599D-02-0.115D-01 0.552D-01 0.129D+00 0.345D+00
 Coeff:      0.489D+00
 Gap=     0.122 Goal=   None    Shift=    0.000
 RMSDP=2.59D-06 MaxDP=1.35D-04 DE=-4.13D-07 OVMax= 9.62D-05

 Cycle   8  Pass 1  IDiag  1:
 RMSU=  1.63D-06    CP:  9.77D-01  9.45D-01  4.79D-01  8.14D-01  1.06D+00
                    CP:  7.16D-01  8.63D-01
 E= -8258.66519676751     Delta-E=       -0.000000054246 Rises=F Damp=F
 DIIS: error= 4.77D-06 at cycle   8 NSaved=   8.
 NSaved= 8 IEnMin= 8 EnMin= -8258.66519676751     IErMin= 8 ErrMin= 4.77D-06
 ErrMax= 4.77D-06  0.00D+00 EMaxC= 1.00D-01 BMatC= 5.90D-09 BMatP= 6.84D-08
 IDIUse=1 WtCom= 1.00D+00 WtEn= 0.00D+00
 Coeff-Com:  0.549D-05-0.319D-02-0.394D-02 0.150D-01 0.385D-01 0.122D+00
 Coeff-Com:  0.270D+00 0.562D+00
 Coeff:      0.549D-05-0.319D-02-0.394D-02 0.150D-01 0.385D-01 0.122D+00
 Coeff:      0.270D+00 0.562D+00
 Gap=     0.122 Goal=   None    Shift=    0.000
 RMSDP=1.51D-06 MaxDP=9.81D-05 DE=-5.42D-08 OVMax= 3.27D-05

 Cycle   9  Pass 1  IDiag  1:
 RMSU=  6.97D-07    CP:  9.77D-01  9.45D-01  4.79D-01  8.12D-01  1.06D+00
                    CP:  7.29D-01  8.73D-01  7.30D-01
 E= -8258.66519677203     Delta-E=       -0.000000004522 Rises=F Damp=F
 DIIS: error= 2.87D-06 at cycle   9 NSaved=   9.
 NSaved= 9 IEnMin= 9 EnMin= -8258.66519677203     IErMin= 9 ErrMin= 2.87D-06
 ErrMax= 2.87D-06  0.00D+00 EMaxC= 1.00D-01 BMatC= 1.57D-09 BMatP= 5.90D-09
 IDIUse=1 WtCom= 1.00D+00 WtEn= 0.00D+00
 Coeff-Com:  0.622D-05-0.148D-02-0.123D-02 0.281D-02 0.891D-02 0.361D-01
 Coeff-Com:  0.115D+00 0.378D+00 0.461D+00
 Coeff:      0.622D-05-0.148D-02-0.123D-02 0.281D-02 0.891D-02 0.361D-01
 Coeff:      0.115D+00 0.378D+00 0.461D+00
 Gap=     0.122 Goal=   None    Shift=    0.000
 RMSDP=8.23D-07 MaxDP=6.36D-05 DE=-4.52D-09 OVMax= 1.30D-05

 Cycle  10  Pass 1  IDiag  1:
 RMSU=  3.02D-07    CP:  9.77D-01  9.45D-01  4.78D-01  8.12D-01  1.07D+00
                    CP:  7.30D-01  8.90D-01  8.10D-01  6.39D-01
 E= -8258.66519677359     Delta-E=       -0.000000001561 Rises=F Damp=F
 DIIS: error= 6.44D-07 at cycle  10 NSaved=  10.
 NSaved=10 IEnMin=10 EnMin= -8258.66519677359     IErMin=10 ErrMin= 6.44D-07
 ErrMax= 6.44D-07  0.00D+00 EMaxC= 1.00D-01 BMatC= 9.87D-11 BMatP= 1.57D-09
 IDIUse=1 WtCom= 1.00D+00 WtEn= 0.00D+00
 Coeff-Com:  0.275D-05-0.412D-03-0.179D-03-0.454D-03-0.132D-03 0.484D-02
 Coeff-Com:  0.321D-01 0.141D+00 0.244D+00 0.579D+00
 Coeff:      0.275D-05-0.412D-03-0.179D-03-0.454D-03-0.132D-03 0.484D-02
 Coeff:      0.321D-01 0.141D+00 0.244D+00 0.579D+00
 Gap=     0.122 Goal=   None    Shift=    0.000
 RMSDP=1.66D-07 MaxDP=8.48D-06 DE=-1.56D-09 OVMax= 4.93D-06

 Cycle  11  Pass 1  IDiag  1:
 RMSU=  1.17D-07    CP:  9.77D-01  9.45D-01  4.78D-01  8.12D-01  1.07D+00
                    CP:  7.28D-01  8.94D-01  8.33D-01  6.97D-01  8.89D-01
 E= -8258.66519677367     Delta-E=       -0.000000000080 Rises=F Damp=F
 DIIS: error= 3.52D-07 at cycle  11 NSaved=  11.
 NSaved=11 IEnMin=11 EnMin= -8258.66519677367     IErMin=11 ErrMin= 3.52D-07
 ErrMax= 3.52D-07  0.00D+00 EMaxC= 1.00D-01 BMatC= 2.55D-11 BMatP= 9.87D-11
 IDIUse=1 WtCom= 1.00D+00 WtEn= 0.00D+00
 Coeff-Com:  0.679D-06-0.290D-05 0.950D-04-0.751D-03-0.168D-02-0.318D-02
 Coeff-Com:  0.148D-02 0.274D-01 0.738D-01 0.366D+00 0.537D+00
 Coeff:      0.679D-06-0.290D-05 0.950D-04-0.751D-03-0.168D-02-0.318D-02
 Coeff:      0.148D-02 0.274D-01 0.738D-01 0.366D+00 0.537D+00
 Gap=     0.122 Goal=   None    Shift=    0.000
 RMSDP=8.71D-08 MaxDP=9.69D-06 DE=-8.00D-11 OVMax= 2.48D-06

 Cycle  12  Pass 1  IDiag  1:
 RMSU=  4.25D-08    CP:  9.77D-01  9.45D-01  4.78D-01  8.12D-01  1.07D+00
                    CP:  7.29D-01  8.96D-01  8.32D-01  7.12D-01  9.08D-01
                    CP:  6.82D-01
 E= -8258.66519677372     Delta-E=       -0.000000000044 Rises=F Damp=F
 DIIS: error= 1.18D-07 at cycle  12 NSaved=  12.
 NSaved=12 IEnMin=12 EnMin= -8258.66519677372     IErMin=12 ErrMin= 1.18D-07
 ErrMax= 1.18D-07  0.00D+00 EMaxC= 1.00D-01 BMatC= 3.97D-12 BMatP= 2.55D-11
 IDIUse=1 WtCom= 1.00D+00 WtEn= 0.00D+00
 Coeff-Com: -0.299D-07 0.726D-04 0.944D-04-0.414D-03-0.111D-02-0.298D-02
 Coeff-Com: -0.468D-02-0.632D-02 0.681D-02 0.141D+00 0.337D+00 0.531D+00
 Coeff:     -0.299D-07 0.726D-04 0.944D-04-0.414D-03-0.111D-02-0.298D-02
 Coeff:     -0.468D-02-0.632D-02 0.681D-02 0.141D+00 0.337D+00 0.531D+00
 Gap=     0.122 Goal=   None    Shift=    0.000
 RMSDP=3.25D-08 MaxDP=2.67D-06 DE=-4.37D-11 OVMax= 5.77D-07

 Cycle  13  Pass 1  IDiag  1:
 RMSU=  1.05D-08    CP:  9.77D-01  9.45D-01  4.78D-01  8.12D-01  1.07D+00
                    CP:  7.29D-01  8.97D-01  8.33D-01  7.09D-01  9.33D-01
                    CP:  7.73D-01  7.66D-01
 E= -8258.66519677367     Delta-E=        0.000000000044 Rises=F Damp=F
 DIIS: error= 2.94D-08 at cycle  13 NSaved=  13.
 NSaved=13 IEnMin=12 EnMin= -8258.66519677372     IErMin=13 ErrMin= 2.94D-08
 ErrMax= 2.94D-08  0.00D+00 EMaxC= 1.00D-01 BMatC= 2.84D-13 BMatP= 3.97D-12
 IDIUse=1 WtCom= 1.00D+00 WtEn= 0.00D+00
 Coeff-Com: -0.787D-07 0.363D-04 0.371D-04-0.130D-03-0.384D-03-0.109D-02
 Coeff-Com: -0.236D-02-0.600D-02-0.472D-02 0.345D-01 0.124D+00 0.278D+00
 Coeff-Com:  0.578D+00
 Coeff:     -0.787D-07 0.363D-04 0.371D-04-0.130D-03-0.384D-03-0.109D-02
 Coeff:     -0.236D-02-0.600D-02-0.472D-02 0.345D-01 0.124D+00 0.278D+00
 Coeff:      0.578D+00
 Gap=     0.122 Goal=   None    Shift=    0.000
 RMSDP=8.27D-09 MaxDP=1.08D-06 DE= 4.37D-11 OVMax= 2.10D-07

 Cycle  14  Pass 1  IDiag  1:
 RMSU=  3.84D-09    CP:  9.77D-01  9.45D-01  4.78D-01  8.12D-01  1.07D+00
                    CP:  7.29D-01  8.97D-01  8.34D-01  7.10D-01  9.37D-01
                    CP:  7.90D-01  8.08D-01  7.86D-01
 E= -8258.66519677370     Delta-E=       -0.000000000029 Rises=F Damp=F
 DIIS: error= 1.55D-08 at cycle  14 NSaved=  14.
 NSaved=14 IEnMin=12 EnMin= -8258.66519677372     IErMin=14 ErrMin= 1.55D-08
 ErrMax= 1.55D-08  0.00D+00 EMaxC= 1.00D-01 BMatC= 4.53D-14 BMatP= 2.84D-13
 IDIUse=1 WtCom= 1.00D+00 WtEn= 0.00D+00
 Coeff-Com: -0.380D-07 0.103D-04 0.879D-05-0.232D-04-0.757D-04-0.201D-03
 Coeff-Com: -0.620D-03-0.226D-02-0.356D-02 0.548D-03 0.256D-01 0.856D-01
 Coeff-Com:  0.333D+00 0.562D+00
 Coeff:     -0.380D-07 0.103D-04 0.879D-05-0.232D-04-0.757D-04-0.201D-03
 Coeff:     -0.620D-03-0.226D-02-0.356D-02 0.548D-03 0.256D-01 0.856D-01
 Coeff:      0.333D+00 0.562D+00
 Gap=     0.122 Goal=   None    Shift=    0.000
 RMSDP=2.54D-09 MaxDP=1.48D-07 DE=-2.91D-11 OVMax= 7.54D-08

 SCF Done:  E(RB3LYP) =  -8258.66519677     A.U. after   14 cycles
            NFock= 14  Conv=0.25D-08     -V/T= 2.0014
 KE= 8.247262259773D+03 PE=-2.365250826603D+04 EE= 5.185278177873D+03
 Leave Link  502 at Tue Sep 29 16:20:20 2026, MaxMem=  5100273664 cpu:             782.3 elap:              48.9
 (Enter /share/software/user/restricted/gaussian/g16.B01/l701.exe)
 ... and contract with generalized density number  0.
 Compute integral first derivatives.
 Leave Link  701 at Tue Sep 29 16:20:20 2026, MaxMem=  5100273664 cpu:               2.9 elap:               0.2
 (Enter /share/software/user/restricted/gaussian/g16.B01/l702.exe)
 L702 exits ... SP integral derivatives will be done elsewhere.
 Leave Link  702 at Tue Sep 29 16:20:20 2026, MaxMem=  5100273664 cpu:               0.6 elap:               0.0
 (Enter /share/software/user/restricted/gaussian/g16.B01/l703.exe)
 Integral derivatives from FoFJK, PRISM(SPDF).
 Compute integral first derivatives, UseDBF=F ICtDFT=           0.
 Calling FoFJK, ICntrl=      2127 FMM=F ISym2X=0 I1Cent= 0 IOpClX= 0 NMat=1 NMatS=1 NMatT=0.
 FoFJK:  IHMeth= 1 ICntrl=    2127 DoSepK=F KAlg= 0 I1Cent=           0 FoldK=F
 IRaf=         0 NMat=       1 IRICut=       1 DoRegI=T DoRafI=F ISym2E= 0 IDoP0=0 IntGTp=1.
 FoFCou: FMM=F IPFlag=           0 FMFlag=      100000 FMFlg1=         800
         NFxFlg=           0 DoJE=F BraDBF=F KetDBF=F FulRan=T
         wScrn=  0.000000 ICntrl=      2127 IOpCl=  0 I1Cent=           0 NGrid=           0
         NMat0=    1 NMatS0=      1 NMatT0=    0 NMatD0=    1 NMtDS0=    0 NMtDT0=    0
 Symmetry not used in FoFCou.
 Leave Link  703 at Tue Sep 29 16:20:32 2026, MaxMem=  5100273664 cpu:             194.3 elap:              12.2
 (Enter /share/software/user/restricted/gaussian/g16.B01/l716.exe)
 Dipole        =-1.11307290D+00 6.28384301D-01 8.82367866D-04
 ***** Axes restored to original set *****
 -------------------------------------------------------------------
 Center     Atomic                   Forces (Hartrees/Bohr)
 Number     Number              X              Y              Z
 -------------------------------------------------------------------
      1        6           0.000469904   -0.001722554   -0.000182454
      2        6           0.001847247    0.001505817    0.000000802
      3        6          -0.000556645    0.000842872    0.000111958
      4        6           0.000198136   -0.001925229   -0.000181856
      5        6          -0.001025658    0.002593353    0.000301326
      6        6          -0.015054135    0.001913549    0.001229190
      7        6          -0.010421181   -0.000472061    0.000661794
      8        6           0.005615309   -0.007322311   -0.000993392
      9        6           0.000219360    0.001228892    0.000093506
     10        6           0.003677850   -0.000370486   -0.000292554
     11        6          -0.001791094   -0.001881585   -0.000036369
     12        6           0.002691884   -0.000765229   -0.000257335
     13        8           0.002543703    0.002617542    0.000066245
     14       35          -0.001072103   -0.000697290    0.000012927
     15        1          -0.001727897    0.001137217    0.000219696
     16       35           0.001604180    0.000520195   -0.000065393
     17        1           0.000581281   -0.001331457   -0.000157763
     18        1           0.014418086    0.001506742   -0.000916206
     19        1          -0.000454829   -0.001405502   -0.000090803
     20       35          -0.002837429    0.001126975    0.000298536
     21        1           0.001607312    0.001267251   -0.000002534
     22        1          -0.000533281    0.001633299    0.000180678
 -------------------------------------------------------------------
 Cartesian Forces:  Max     0.015054135 RMS     0.003332076
 Leave Link  716 at Tue Sep 29 16:20:32 2026, MaxMem=  5100273664 cpu:               0.5 elap:               0.0
 (Enter /share/software/user/restricted/gaussian/g16.B01/l103.exe)

 GradGradGradGradGradGradGradGradGradGradGradGradGradGradGradGradGradGrad
 Berny optimization.
 Using GEDIIS/GDIIS optimizer.
 FormGI is forming the generalized inverse of G from B-inverse, IUseBI=4.
 GSVD:  received Info=                   1 from GESDD.
 Internal  Forces:  Max     0.013455739 RMS     0.002835142
 Search for a local minimum.
 Step number   5 out of a maximum of  116
 All quantities printed in internal units (Hartrees-Bohrs-Radians)
 RMS Force = .28351D-02 SwitMx=.10000D-02 MixMth= 1
 Mixed Optimization -- RFO/linear search
 Update second derivatives using D2CorX and points    3    2    4    5
 DE= -5.21D-03 DEPred=-4.58D-03 R= 1.14D+00
 TightC=F SS=  1.41D+00  RLast= 2.49D-01 DXNew= 4.2426D-01 7.4719D-01
 Trust test= 1.14D+00 RLast= 2.49D-01 DXMaxT set to 4.24D-01
 ITU=  1  1 -1  0  0
 Use linear search instead of GDIIS.
     Eigenvalues ---    0.01729   0.01912   0.01996   0.02009   0.02021
     Eigenvalues ---    0.02038   0.02048   0.02092   0.02094   0.02106
     Eigenvalues ---    0.02109   0.02131   0.02132   0.02136   0.02166
     Eigenvalues ---    0.02185   0.02199   0.02215   0.02234   0.02324
     Eigenvalues ---    0.15964   0.16000   0.16000   0.16003   0.16045
     Eigenvalues ---    0.16346   0.18854   0.19022   0.19817   0.22264
     Eigenvalues ---    0.22565   0.23444   0.24452   0.24630   0.24831
     Eigenvalues ---    0.24993   0.25000   0.25050   0.25240   0.33434
     Eigenvalues ---    0.33693   0.33713   0.33771   0.33937   0.37762
     Eigenvalues ---    0.41210   0.41469   0.42574   0.44428   0.44838
     Eigenvalues ---    0.44962   0.45470   0.45638   0.46315   0.46422
     Eigenvalues ---    0.47101   0.47712   0.48451   1.12314   8.22810
 RFO step:  Lambda=-7.30670891D-03 EMin= 1.72893473D-02
 Quartic linear search produced a step of  0.68947.
 Iteration  1 RMS(Cart)=  0.07963052 RMS(Int)=  0.03242221
 Iteration  2 RMS(Cart)=  0.01898296 RMS(Int)=  0.01297176
 Iteration  3 RMS(Cart)=  0.01262803 RMS(Int)=  0.00002492
 Iteration  4 RMS(Cart)=  0.00000391 RMS(Int)=  0.00002488
 Iteration  5 RMS(Cart)=  0.00000000 RMS(Int)=  0.00002488
 ITry= 1 IFail=0 DXMaxC= 4.03D-01 DCOld= 1.00D+10 DXMaxT= 4.24D-01 DXLimC= 3.00D+00 Rises=F
 Variable       Old X    -DE/DX   Delta X   Delta X   Delta X     New X
                                 (Linear)    (Quad)   (Total)
    R1        2.63950   0.00095  -0.00095   0.00070  -0.00022   2.63928
    R2        2.63424  -0.00582   0.00358   0.00495   0.00851   2.64275
    R3        2.65014  -0.00176   0.00287   0.00485   0.00772   2.65786
    R4        2.62187   0.00186  -0.00834  -0.00367  -0.01197   2.60990
    R5        3.73449  -0.00082   0.02657   0.03215   0.05872   3.79321
    R6        2.62388   0.00247  -0.00091   0.00195   0.00106   2.62495
    R7        2.03729   0.00207  -0.00185   0.00054  -0.00132   2.03597
    R8        2.62869  -0.00030  -0.00820  -0.01121  -0.01943   2.60926
    R9        3.74731  -0.00169   0.02348   0.02482   0.04830   3.79561
   R10        2.65424  -0.00163   0.00747   0.00905   0.01646   2.67070
   R11        2.05524   0.00121  -0.00213   0.00050  -0.00163   2.05360
   R12        3.56084   0.01346   0.15177   0.38175   0.53351   4.09435
   R13        2.63624   0.00785  -0.00393   0.00960   0.00566   2.64190
   R14        2.64116   0.00249  -0.00097   0.00598   0.00500   2.64616
   R15        2.57538   0.00118  -0.01258  -0.01782  -0.03040   2.54498
   R16        2.63779  -0.00002   0.00209   0.00234   0.00443   2.64222
   R17        2.62461   0.00036  -0.00648  -0.00516  -0.01163   2.61298
   R18        2.04672   0.00134  -0.00211  -0.00078  -0.00289   2.04383
   R19        2.63158  -0.00043  -0.00128  -0.00176  -0.00303   2.62855
   R20        3.69141  -0.00307   0.01087   0.00026   0.01113   3.70254
   R21        2.62983   0.00043   0.00030   0.00063   0.00092   2.63076
   R22        2.04231   0.00205  -0.00174   0.00181   0.00008   2.04239
   R23        2.04526   0.00170  -0.00099   0.00200   0.00101   2.04626
    A1        2.12257   0.00182  -0.00230   0.00103  -0.00127   2.12131
    A2        1.98722   0.00790  -0.01170  -0.01141  -0.02311   1.96411
    A3        2.17339  -0.00971   0.01400   0.01037   0.02438   2.19777
    A4        2.11808  -0.00209   0.01557   0.01457   0.03021   2.14829
    A5        2.12159   0.00288  -0.00844  -0.00056  -0.00905   2.11255
    A6        2.04351  -0.00079  -0.00712  -0.01401  -0.02117   2.02235
    A7        2.04485  -0.00092  -0.01861  -0.02096  -0.03949   2.00535
    A8        2.11006   0.00065   0.00835   0.01188   0.02019   2.13026
    A9        2.12827   0.00027   0.01026   0.00908   0.01930   2.14757
   A10        2.13182   0.00074   0.01471   0.01542   0.03013   2.16194
   A11        2.04952  -0.00021  -0.01022  -0.01026  -0.02047   2.02904
   A12        2.10185  -0.00053  -0.00449  -0.00516  -0.00965   2.09220
   A13        2.10862  -0.00157  -0.00074   0.00324   0.00243   2.11105
   A14        2.06434   0.00163  -0.00113   0.00113   0.00003   2.06437
   A15        2.11023  -0.00006   0.00187  -0.00437  -0.00246   2.10777
   A16        2.04043   0.00202  -0.00863  -0.01330  -0.02200   2.01843
   A17        1.74167  -0.01075  -0.02450  -0.03975  -0.06421   1.67745
   A18        2.50109   0.00873   0.03313   0.05305   0.08621   2.58730
   A19        2.11454  -0.00395  -0.00324  -0.01618  -0.01943   2.09511
   A20        2.14686   0.00779   0.00247   0.01940   0.02188   2.16874
   A21        2.02179  -0.00384   0.00077  -0.00322  -0.00245   2.01934
   A22        2.07525   0.00103   0.00728   0.01291   0.02019   2.09543
   A23        2.08868   0.00040  -0.01074  -0.00855  -0.01927   2.06941
   A24        2.09957  -0.00085   0.00557   0.00008   0.00565   2.10521
   A25        2.09494   0.00045   0.00517   0.00847   0.01363   2.10856
   A26        2.12306   0.00000   0.01105   0.00662   0.01769   2.14075
   A27        2.08753  -0.00010  -0.00536  -0.00395  -0.00932   2.07821
   A28        2.07259   0.00010  -0.00568  -0.00267  -0.00836   2.06423
   A29        2.07427   0.00110  -0.00637  -0.00181  -0.00819   2.06609
   A30        2.10727  -0.00049   0.00230  -0.00044   0.00186   2.10913
   A31        2.10164  -0.00061   0.00408   0.00225   0.00633   2.10797
   A32        2.09056   0.00143   0.00203   0.00700   0.00902   2.09958
   A33        2.08435  -0.00103  -0.00257  -0.00748  -0.01004   2.07432
   A34        2.10827  -0.00040   0.00053   0.00048   0.00102   2.10929
   A35        2.18519  -0.00699   0.02796   0.01257   0.04053   2.22571
    D1       -0.00021   0.00001   0.00002   0.00083   0.00087   0.00067
    D2        3.14137   0.00000   0.00002   0.00027   0.00029  -3.14152
    D3        3.14146   0.00002   0.00004   0.00108   0.00115  -3.14058
    D4       -0.00015   0.00001   0.00004   0.00052   0.00057   0.00042
    D5        0.00020  -0.00001   0.00000  -0.00088  -0.00089  -0.00069
    D6        3.14114  -0.00002  -0.00001  -0.00175  -0.00166   3.13947
    D7       -3.14147  -0.00001  -0.00003  -0.00115  -0.00121   3.14051
    D8       -0.00053  -0.00002  -0.00003  -0.00202  -0.00198  -0.00252
    D9       -3.14067  -0.00007   0.00004  -0.00628  -0.00624   3.13628
   D10        0.00099  -0.00007   0.00007  -0.00602  -0.00594  -0.00495
   D11        0.00005  -0.00000  -0.00002  -0.00018  -0.00020  -0.00015
   D12       -3.14152  -0.00000  -0.00002  -0.00033  -0.00036   3.14131
   D13       -3.14153   0.00001  -0.00002   0.00036   0.00035  -3.14118
   D14        0.00009   0.00000  -0.00002   0.00021   0.00020   0.00029
   D15        0.00010  -0.00001  -0.00001  -0.00038  -0.00040  -0.00030
   D16       -3.14150   0.00000  -0.00002   0.00000  -0.00002  -3.14152
   D17       -3.14152  -0.00000  -0.00000  -0.00023  -0.00024   3.14142
   D18        0.00006   0.00000  -0.00002   0.00015   0.00014   0.00020
   D19       -0.00010   0.00000   0.00003   0.00031   0.00034   0.00024
   D20        3.14142   0.00001   0.00004   0.00087   0.00094  -3.14083
   D21        3.14150  -0.00000   0.00004  -0.00008  -0.00005   3.14146
   D22       -0.00016   0.00001   0.00006   0.00048   0.00055   0.00038
   D23       -0.00005   0.00000  -0.00003   0.00032   0.00031   0.00026
   D24       -3.14056   0.00003   0.00003   0.00184   0.00193  -3.13863
   D25       -3.14157  -0.00000  -0.00004  -0.00026  -0.00030   3.14132
   D26        0.00111   0.00002   0.00002   0.00126   0.00132   0.00243
   D27        0.00001  -0.00001  -0.00001  -0.00079  -0.00079  -0.00079
   D28        3.14133   0.00001  -0.00016   0.00100   0.00085  -3.14101
   D29        0.00001   0.00001   0.00003   0.00078   0.00080   0.00081
   D30        3.14153   0.00001  -0.00003   0.00068   0.00064  -3.14101
   D31       -3.14133  -0.00001   0.00017  -0.00089  -0.00071   3.14114
   D32        0.00020  -0.00001   0.00011  -0.00099  -0.00087  -0.00068
   D33       -0.00034  -0.00006  -0.00024  -0.00481  -0.00506  -0.00540
   D34        3.14099  -0.00004  -0.00038  -0.00311  -0.00348   3.13751
   D35       -0.00004   0.00000  -0.00004   0.00030   0.00027   0.00023
   D36        3.14151   0.00000  -0.00008   0.00020   0.00013  -3.14155
   D37        0.00006   0.00000   0.00007   0.00019   0.00026   0.00032
   D38        3.14159  -0.00000   0.00001  -0.00001   0.00000   3.14159
   D39       -3.14149   0.00000   0.00010   0.00029   0.00040  -3.14109
   D40        0.00004   0.00000   0.00005   0.00009   0.00014   0.00018
   D41       -0.00005  -0.00000  -0.00005  -0.00021  -0.00026  -0.00030
   D42        3.14157  -0.00000  -0.00003  -0.00027  -0.00030   3.14127
   D43       -3.14157  -0.00000   0.00001  -0.00001  -0.00000  -3.14158
   D44        0.00004  -0.00000   0.00003  -0.00007  -0.00005  -0.00000
   D45        0.00001  -0.00000   0.00000  -0.00027  -0.00028  -0.00027
   D46       -3.14151  -0.00000   0.00006  -0.00017  -0.00012   3.14156
   D47        3.14158  -0.00000  -0.00002  -0.00021  -0.00023   3.14134
   D48        0.00005  -0.00000   0.00004  -0.00011  -0.00007  -0.00002
         Item               Value     Threshold  Converged?
 Maximum Force            0.013456     0.000450     NO 
 RMS     Force            0.002835     0.000300     NO 
 Maximum Displacement     0.402804     0.001800     NO 
 RMS     Displacement     0.090163     0.001200     NO 
 Predicted change in Energy=-4.127178D-03
 Lowest energy point so far.  Saving SCF results.
 GradGradGradGradGradGradGradGradGradGradGradGradGradGradGradGradGradGrad

 Leave Link  103 at Tue Sep 29 16:20:32 2026, MaxMem=  5100273664 cpu:               0.9 elap:               0.1
 (Enter /share/software/user/restricted/gaussian/g16.B01/l202.exe)
                          Input orientation:                          
 ---------------------------------------------------------------------
 Center     Atomic      Atomic             Coordinates (Angstroms)
 Number     Number       Type             X           Y           Z
 ---------------------------------------------------------------------
      1          6           0       -1.279172   -1.049460    0.075766
      2          6           0       -2.341051   -0.156097    0.233700
      3          6           0       -3.661316   -0.557130    0.292918
      4          6           0       -3.861830   -1.927237    0.182952
      5          6           0       -2.841498   -2.844076    0.025374
      6          6           0       -1.492443   -2.427176   -0.034575
      7          6           0        1.183785   -0.969470   -0.087915
      8          6           0        1.400711   -2.344627   -0.215916
      9          6           0        2.701822   -2.839023   -0.348768
     10          6           0        3.753450   -1.941234   -0.349635
     11          6           0        3.568428   -0.568416   -0.223431
     12          6           0        2.269523   -0.085181   -0.091630
     13          8           0       -0.030596   -0.402691    0.045360
     14         35           0       -2.017624    1.818741    0.390465
     15          1           0       -4.467765    0.146717    0.415420
     16         35           0       -5.767840   -2.555616    0.263825
     17          1           0       -3.102148   -3.896229   -0.052049
     18          1           0        0.595601   -2.968177   -0.238819
     19          1           0        2.880052   -3.901119   -0.448429
     20         35           0        5.582818   -2.617939   -0.534913
     21          1           0        4.412076    0.107110   -0.227507
     22          1           0        2.079394    0.976044    0.009299
 ---------------------------------------------------------------------
                    Distance matrix (angstroms):
                    1          2          3          4          5
     1  C    0.000000
     2  C    1.396648   0.000000
     3  C    2.442162   1.381099   0.000000
     4  C    2.729854   2.335013   1.389062   0.000000
     5  C    2.379926   2.742093   2.444136   1.380761   0.000000
     6  C    1.398485   2.439243   2.882418   2.431306   1.413276
     7  C    2.469686   3.631732   4.877506   5.142851   4.441834
     8  C    2.990704   4.358050   5.392419   5.294115   4.278319
     9  C    4.385326   5.741771   6.790312   6.647978   5.555935
    10  C    5.128695   6.377298   7.570163   7.633894   6.667016
    11  C    4.880589   5.941457   7.248169   7.564409   6.806445
    12  C    3.681181   4.622582   5.962002   6.407969   5.809280
    13  O    1.406477   2.331197   3.642426   4.125715   3.723161
    14  Br   2.978410   2.007278   2.890675   4.180492   4.749097
    15  H    3.422475   2.155837   1.077389   2.173129   3.426620
    16  Br   4.738355   4.183477   2.903831   2.008550   2.950177
    17  H    3.382850   3.827468   3.403124   2.123504   1.086720
    18  H    2.700964   4.093285   4.921101   4.596752   3.449471
    19  H    5.070097   6.461455   7.383858   7.053214   5.837634
    20  Br   7.065406   8.333014   9.507169   9.497040   8.445955
    21  H    5.815491   6.773973   8.117372   8.530215   7.835036
    22  H    3.922633   4.568635   5.948682   6.614933   6.229667
                    6          7          8          9         10
     6  C    0.000000
     7  C    3.047942   0.000000
     8  C    2.900007   1.398033   0.000000
     9  C    4.226133   2.422336   1.398202   0.000000
    10  C    5.277764   2.759710   2.390813   1.382732   0.000000
    11  C    5.394726   2.421927   2.802495   2.433592   1.390967
    12  C    4.431771   1.400289   2.423918   2.799402   2.390300
    13  O    2.498385   1.346745   2.426524   3.682005   4.103917
    14  Br   4.299336   4.272235   5.420917   6.671912   6.927514
    15  H    3.959793   5.782668   6.406590   7.803949   8.516644
    16  Br   4.287722   7.138954   7.187684   8.496515   9.560793
    17  H    2.179351   5.190032   4.765508   5.906928   7.135110
    18  H    2.166639   2.088913   1.018598   2.113040   3.322485
    19  H    4.632764   3.406150   2.159903   1.081548   2.147961
    20  Br   7.095495   4.718977   4.203150   2.895456   1.959297
    21  H    6.428311   3.405932   3.883229   3.408720   2.155091
    22  H    4.933746   2.143966   3.396790   3.882057   3.382574
                   11         12         13         14         15
    11  C    0.000000
    12  C    1.392136   0.000000
    13  O    3.612850   2.325968   0.000000
    14  Br   6.105683   4.715608   3.000356   0.000000
    15  H    8.093204   6.760321   4.486342   2.966392   0.000000
    16  Br   9.557839   8.415973   6.131784   5.763259   3.002629
    17  H    7.456561   6.586389   4.652819   5.833772   4.292884
    18  H    3.820575   3.336967   2.656049   5.489947   5.980658
    19  H    3.410483   3.880907   4.577630   7.576792   8.433365
    20  Br   2.890559   4.193958   6.062545   8.849134  10.467124
    21  H    1.080784   2.155451   4.480144   6.682261   8.903174
    22  H    2.157949   1.082836   2.520767   4.200116   6.611959
                   16         17         18         19         20
    16  Br   0.000000
    17  H    3.000489   0.000000
    18  H    6.396580   3.817003   0.000000
    19  H    8.780873   5.995321   2.476497   0.000000
    20  Br  11.378897   8.791804   5.008261   2.993154   0.000000
    21  H   10.533860   8.515931   4.901327   4.296720   2.981783
    22  H    8.609093   7.112748   4.221384   4.963596   5.048451
                   21         22
    21  H    0.000000
    22  H    2.500506   0.000000
 Stoichiometry    C12H6Br3O(1-)
 Framework group  C1[X(C12H6Br3O)]
 Deg. of freedom    60
 Full point group                 C1      NOp   1
 RotChk:  IX=0 Diff= 1.36D-02
 Largest Abelian subgroup         C1      NOp   1
 Largest concise Abelian subgroup C1      NOp   1
                         Standard orientation:                         
 ---------------------------------------------------------------------
 Center     Atomic      Atomic             Coordinates (Angstroms)
 Number     Number       Type             X           Y           Z
 ---------------------------------------------------------------------
      1          6           0        0.884218    0.110311    0.005567
      2          6           0        2.030202    0.908639    0.001089
      3          6           0        3.310284    0.390160   -0.001222
      4          6           0        3.379322   -0.997183    0.001439
      5          6           0        2.272541   -1.822719    0.006387
      6          6           0        0.965222   -1.285823    0.008819
      7          6           0       -1.567178    0.410313    0.003962
      8          6           0       -1.914520   -0.943854   -0.004933
      9          6           0       -3.260731   -1.321585   -0.006911
     10          6           0       -4.225449   -0.331019   -0.000190
     11          6           0       -3.910137    1.023713    0.008065
     12          6           0       -2.567189    1.390493    0.009952
     13          8           0       -0.300639    0.868131    0.005856
     14         35           0        1.896384    2.911447   -0.003413
     15          1           0        4.183056    1.021842   -0.004932
     16         35           0        5.222578   -1.795101   -0.001657
     17          1           0        2.432029   -2.897669    0.008869
     18          1           0       -1.172108   -1.640846    0.018953
     19          1           0       -3.539674   -2.366520   -0.013729
     20         35           0       -6.116477   -0.843713   -0.002853
     21          1           0       -4.688292    1.773743    0.012883
     22          1           0       -2.276407    2.433537    0.016261
 ---------------------------------------------------------------------
 Rotational constants (GHZ):           0.4309560           0.0773559           0.0655839
 Leave Link  202 at Tue Sep 29 16:20:33 2026, MaxMem=  5100273664 cpu:               0.4 elap:               0.0
 (Enter /share/software/user/restricted/gaussian/g16.B01/l301.exe)
 Standard basis: 6-311++G(d) (5D, 7F)
 Ernie: Thresh=  0.10000D-02 Tol=  0.10000D-05 Strict=F.
 There are   476 symmetry adapted cartesian basis functions of A   symmetry.
 There are   454 symmetry adapted basis functions of A   symmetry.
   454 basis functions,   786 primitive gaussians,   476 cartesian basis functions
    96 alpha electrons       96 beta electrons
       nuclear repulsion energy      1956.8324725057 Hartrees.
 IExCor=  402 DFT=T Ex+Corr=B3LYP ExCW=0 ScaHFX=  0.200000
 ScaDFX=  0.800000  0.720000  1.000000  0.810000 ScalE2=  1.000000  1.000000
 IRadAn=      5 IRanWt=     -1 IRanGd=            0 ICorTp=0 IEmpDi=  4
 NAtoms=   22 NActive=   22 NUniq=   22 SFac= 1.00D+00 NAtFMM=   60 NAOKFM=F Big=F
 Integral buffers will be    131072 words long.
 Raffenetti 2 integral format.
 Two-electron integral symmetry is turned on.
 Leave Link  301 at Tue Sep 29 16:20:33 2026, MaxMem=  5100273664 cpu:               0.5 elap:               0.0
 (Enter /share/software/user/restricted/gaussian/g16.B01/l302.exe)
 NPDir=0 NMtPBC=     1 NCelOv=     1 NCel=       1 NClECP=     1 NCelD=      1
         NCelK=      1 NCelE2=     1 NClLst=     1 CellRange=     0.0.
 One-electron integrals computed using PRISM.
 One-electron integral symmetry used in STVInt
 NBasis=   454 RedAO= T EigKep=  1.53D-06  NBF=   454
 NBsUse=   450 1.00D-06 EigRej=  8.20D-07 NBFU=   450
 Precomputing XC quadrature grid using
 IXCGrd= 4 IRadAn=           5 IRanWt=          -1 IRanGd=           0 AccXCQ= 0.00D+00.
 Generated NRdTot=       0 NPtTot=           0 NUsed=           0 NTot=          32
 NSgBfM=   449   449   449   449   449 MxSgAt=    22 MxSgA2=    22.
 Leave Link  302 at Tue Sep 29 16:20:33 2026, MaxMem=  5100273664 cpu:               4.2 elap:               0.3
 (Enter /share/software/user/restricted/gaussian/g16.B01/l303.exe)
 DipDrv:  MaxL=1.
 Leave Link  303 at Tue Sep 29 16:20:33 2026, MaxMem=  5100273664 cpu:               0.6 elap:               0.1
 (Enter /share/software/user/restricted/gaussian/g16.B01/l401.exe)
 Initial guess from the checkpoint file:  "calcs/b3lyp_gas/chks/BDE_24_2r4_anion.chk"
 B after Tr=     0.000000    0.000000    0.000000
         Rot=    0.999981   -0.000020   -0.000005   -0.006156 Ang=  -0.71 deg.
 Guess basis will be translated and rotated to current coordinates.
 JPrj=2 DoOrth=T DoCkMO=T.
 Generating alternative initial guess.
 ExpMin= 3.50D-02 ExpMax= 4.40D+05 ExpMxC= 1.51D+04 IAcc=3 IRadAn=         5 AccDes= 0.00D+00
 Harris functional with IExCor=  402 and IRadAn=       5 diagonalized for initial guess.
 HarFok:  IExCor=  402 AccDes= 0.00D+00 IRadAn=         5 IDoV= 1 UseB2=F ITyADJ=14
 ICtDFT=  3500011 ScaDFX=  1.000000  1.000000  1.000000  1.000000
 FoFCou: FMM=F IPFlag=           0 FMFlag=      100000 FMFlg1=           0
         NFxFlg=           0 DoJE=T BraDBF=F KetDBF=T FulRan=T
         wScrn=  0.000000 ICntrl=       500 IOpCl=  0 I1Cent=   200000004 NGrid=           0
         NMat0=    1 NMatS0=      1 NMatT0=    0 NMatD0=    1 NMtDS0=    0 NMtDT0=    0
 Petite list used in FoFCou.
 Harris En= -8259.01871360783    
 Leave Link  401 at Tue Sep 29 16:20:34 2026, MaxMem=  5100273664 cpu:              22.3 elap:               1.4
 (Enter /share/software/user/restricted/gaussian/g16.B01/l502.exe)
 Integral symmetry usage will be decided dynamically.
 Closed shell SCF:
 Using DIIS extrapolation, IDIIS=  1040.
 NGot=  5100273664 LenX=  5099808623 LenY=  5099581571
 Requested convergence on RMS density matrix=1.00D-08 within 128 cycles.
 Requested convergence on MAX density matrix=1.00D-06.
 Requested convergence on             energy=1.00D-06.
 No special actions if energy rises.
 Fock matrices will be formed incrementally for  20 cycles.

 Cycle   1  Pass 1  IDiag  1:
 FoFJK:  IHMeth= 1 ICntrl=       0 DoSepK=F KAlg= 0 I1Cent=           0 FoldK=F
 IRaf= 770000000 NMat=       1 IRICut=       1 DoRegI=T DoRafI=F ISym2E= 0 IDoP0=0 IntGTp=1.
 FoFCou: FMM=F IPFlag=           0 FMFlag=      100000 FMFlg1=           0
         NFxFlg=           0 DoJE=F BraDBF=F KetDBF=F FulRan=T
         wScrn=  0.000000 ICntrl=         0 IOpCl=  0 I1Cent=           0 NGrid=           0
         NMat0=    1 NMatS0=      1 NMatT0=    0 NMatD0=    1 NMtDS0=    0 NMtDT0=    0
 Symmetry not used in FoFCou.
 E= -8258.63190747484    
 DIIS: error= 1.13D-02 at cycle   1 NSaved=   1.
 NSaved= 1 IEnMin= 1 EnMin= -8258.63190747484     IErMin= 1 ErrMin= 1.13D-02
 ErrMax= 1.13D-02  0.00D+00 EMaxC= 1.00D-01 BMatC= 8.53D-02 BMatP= 8.53D-02
 IDIUse=3 WtCom= 8.87D-01 WtEn= 1.13D-01
 Coeff-Com:  0.100D+01
 Coeff-En:   0.100D+01
 Coeff:      0.100D+01
 Recover alternate guess density for next cycle.
 RMSDP=1.84D-02 MaxDP=3.02D+00              OVMax= 0.00D+00

 Cycle   2  Pass 1  IDiag  1:
 RMSU=  1.70D-02    CP:  1.18D+00
 E= -8258.21723292771     Delta-E=        0.414674547130 Rises=F Damp=F
 Switch densities from cycles 1 and 2 for lowest energy.
 DIIS: error= 1.29D-01 at cycle   2 NSaved=   2.
 NSaved= 2 IEnMin= 1 EnMin= -8258.63190747484     IErMin= 1 ErrMin= 1.13D-02
 ErrMax= 1.29D-01  0.00D+00 EMaxC= 1.00D+00 BMatC= 3.90D+00 BMatP= 8.53D-02
 IDIUse=1 WtCom= 1.00D+00 WtEn= 0.00D+00
 Coeff-Com:  0.978D+00 0.221D-01
 Coeff:      0.978D+00 0.221D-01
 Gap=     0.128 Goal=   None    Shift=    0.000
 RMSDP=4.60D-03 MaxDP=4.06D-01 DE= 4.15D-01 OVMax= 1.64D-01

 Cycle   3  Pass 1  IDiag  1:
 RMSU=  3.75D-03    CP:  9.57D-01  1.21D-01
 E= -8258.66137553778     Delta-E=       -0.444142610066 Rises=F Damp=F
 DIIS: error= 2.93D-03 at cycle   3 NSaved=   3.
 NSaved= 3 IEnMin= 3 EnMin= -8258.66137553778     IErMin= 3 ErrMin= 2.93D-03
 ErrMax= 2.93D-03  0.00D+00 EMaxC= 1.00D+00 BMatC= 3.28D-03 BMatP= 8.53D-02
 IDIUse=1 WtCom= 1.00D+00 WtEn= 0.00D+00
 Coeff-Com:  0.407D-01 0.916D-02 0.950D+00
 Coeff:      0.407D-01 0.916D-02 0.950D+00
 Gap=     0.143 Goal=   None    Shift=    0.000
 RMSDP=2.50D-03 MaxDP=2.42D-01 DE=-4.44D-01 OVMax= 7.69D-02

 Cycle   4  Pass 1  IDiag  1:
 RMSU=  2.16D-03    CP:  9.72D-01  9.08D-02  7.35D-01
 E= -8258.65365026513     Delta-E=        0.007725272653 Rises=F Damp=F
 DIIS: error= 6.37D-03 at cycle   4 NSaved=   4.
 NSaved= 4 IEnMin= 3 EnMin= -8258.66137553778     IErMin= 3 ErrMin= 2.93D-03
 ErrMax= 6.37D-03  0.00D+00 EMaxC= 1.00D+00 BMatC= 9.89D-03 BMatP= 3.28D-03
 IDIUse=1 WtCom= 1.00D+00 WtEn= 0.00D+00
 Coeff-Com: -0.114D-02 0.229D-02 0.645D+00 0.354D+00
 Coeff:     -0.114D-02 0.229D-02 0.645D+00 0.354D+00
 Gap=     0.122 Goal=   None    Shift=    0.000
 RMSDP=1.46D-03 MaxDP=8.86D-02 DE= 7.73D-03 OVMax= 5.30D-02

 Cycle   5  Pass 1  IDiag  1:
 RMSU=  5.08D-04    CP:  9.62D-01  8.72D-02  8.80D-01  4.45D-01
 E= -8258.66457017999     Delta-E=       -0.010919914866 Rises=F Damp=F
 DIIS: error= 1.20D-03 at cycle   5 NSaved=   5.
 NSaved= 5 IEnMin= 5 EnMin= -8258.66457017999     IErMin= 5 ErrMin= 1.20D-03
 ErrMax= 1.20D-03  0.00D+00 EMaxC= 1.00D+00 BMatC= 3.01D-04 BMatP= 3.28D-03
 IDIUse=1 WtCom= 1.00D+00 WtEn= 0.00D+00
 Coeff-Com: -0.247D-02 0.757D-03 0.363D+00 0.219D+00 0.419D+00
 Coeff:     -0.247D-02 0.757D-03 0.363D+00 0.219D+00 0.419D+00
 Gap=     0.125 Goal=   None    Shift=    0.000
 RMSDP=3.65D-04 MaxDP=5.96D-02 DE=-1.09D-02 OVMax= 7.30D-03

 Cycle   6  Pass 1  IDiag  1:
 RMSU=  1.96D-04    CP:  9.63D-01  9.72D-02  8.89D-01  4.21D-01  5.24D-01
 E= -8258.66484640993     Delta-E=       -0.000276229941 Rises=F Damp=F
 DIIS: error= 4.56D-04 at cycle   6 NSaved=   6.
 NSaved= 6 IEnMin= 6 EnMin= -8258.66484640993     IErMin= 6 ErrMin= 4.56D-04
 ErrMax= 4.56D-04  0.00D+00 EMaxC= 1.00D+00 BMatC= 3.57D-05 BMatP= 3.01D-04
 IDIUse=1 WtCom= 1.00D+00 WtEn= 0.00D+00
 Coeff-Com: -0.112D-02 0.221D-04 0.109D+00 0.679D-01 0.273D+00 0.551D+00
 Coeff:     -0.112D-02 0.221D-04 0.109D+00 0.679D-01 0.273D+00 0.551D+00
 Gap=     0.124 Goal=   None    Shift=    0.000
 RMSDP=1.12D-04 MaxDP=6.42D-03 DE=-2.76D-04 OVMax= 2.07D-03

 Cycle   7  Pass 1  IDiag  1:
 RMSU=  9.86D-05    CP:  9.63D-01  9.82D-02  8.94D-01  4.18D-01  5.04D-01
                    CP:  7.68D-01
 E= -8258.66488335046     Delta-E=       -0.000036940524 Rises=F Damp=F
 DIIS: error= 1.10D-04 at cycle   7 NSaved=   7.
 NSaved= 7 IEnMin= 7 EnMin= -8258.66488335046     IErMin= 7 ErrMin= 1.10D-04
 ErrMax= 1.10D-04  0.00D+00 EMaxC= 1.00D+00 BMatC= 2.78D-06 BMatP= 3.57D-05
 IDIUse=1 WtCom= 1.00D+00 WtEn= 0.00D+00
 Coeff-Com: -0.409D-03 0.140D-04 0.228D-01 0.137D-01 0.111D+00 0.300D+00
 Coeff-Com:  0.553D+00
 Coeff:     -0.409D-03 0.140D-04 0.228D-01 0.137D-01 0.111D+00 0.300D+00
 Coeff:      0.553D+00
 Gap=     0.124 Goal=   None    Shift=    0.000
 RMSDP=3.58D-05 MaxDP=4.02D-03 DE=-3.69D-05 OVMax= 6.78D-04

 Cycle   8  Pass 1  IDiag  1:
 RMSU=  1.56D-05    CP:  9.63D-01  9.72D-02  8.91D-01  4.24D-01  5.38D-01
                    CP:  7.83D-01  8.39D-01
 E= -8258.66488570146     Delta-E=       -0.000002351000 Rises=F Damp=F
 DIIS: error= 3.55D-05 at cycle   8 NSaved=   8.
 NSaved= 8 IEnMin= 8 EnMin= -8258.66488570146     IErMin= 8 ErrMin= 3.55D-05
 ErrMax= 3.55D-05  0.00D+00 EMaxC= 1.00D+00 BMatC= 3.66D-07 BMatP= 2.78D-06
 IDIUse=1 WtCom= 1.00D+00 WtEn= 0.00D+00
 Coeff-Com: -0.892D-04 0.187D-05-0.778D-03-0.894D-03 0.306D-01 0.104D+00
 Coeff-Com:  0.318D+00 0.549D+00
 Coeff:     -0.892D-04 0.187D-05-0.778D-03-0.894D-03 0.306D-01 0.104D+00
 Coeff:      0.318D+00 0.549D+00
 Gap=     0.124 Goal=   None    Shift=    0.000
 RMSDP=1.13D-05 MaxDP=5.89D-04 DE=-2.35D-06 OVMax= 2.16D-04

 Cycle   9  Pass 1  IDiag  1:
 RMSU=  5.38D-06    CP:  9.63D-01  9.72D-02  8.92D-01  4.21D-01  5.46D-01
                    CP:  8.01D-01  8.30D-01  6.30D-01
 E= -8258.66488605132     Delta-E=       -0.000000349859 Rises=F Damp=F
 DIIS: error= 1.01D-05 at cycle   9 NSaved=   9.
 NSaved= 9 IEnMin= 9 EnMin= -8258.66488605132     IErMin= 9 ErrMin= 1.01D-05
 ErrMax= 1.01D-05  0.00D+00 EMaxC= 1.00D+00 BMatC= 3.87D-08 BMatP= 3.66D-07
 IDIUse=1 WtCom= 1.00D+00 WtEn= 0.00D+00
 Coeff-Com: -0.110D-04-0.346D-05-0.261D-02-0.182D-02 0.680D-02 0.294D-01
 Coeff-Com:  0.127D+00 0.314D+00 0.527D+00
 Coeff:     -0.110D-04-0.346D-05-0.261D-02-0.182D-02 0.680D-02 0.294D-01
 Coeff:      0.127D+00 0.314D+00 0.527D+00
 Gap=     0.124 Goal=   None    Shift=    0.000
 RMSDP=3.42D-06 MaxDP=2.14D-04 DE=-3.50D-07 OVMax= 7.18D-05

 Cycle  10  Pass 1  IDiag  1:
 RMSU=  1.61D-06    CP:  9.63D-01  9.72D-02  8.91D-01  4.22D-01  5.45D-01
                    CP:  8.00D-01  8.48D-01  6.98D-01  8.89D-01
 E= -8258.66488608192     Delta-E=       -0.000000030599 Rises=F Damp=F
 DIIS: error= 5.47D-06 at cycle  10 NSaved=  10.
 NSaved=10 IEnMin=10 EnMin= -8258.66488608192     IErMin=10 ErrMin= 5.47D-06
 ErrMax= 5.47D-06  0.00D+00 EMaxC= 1.00D+00 BMatC= 7.65D-09 BMatP= 3.87D-08
 IDIUse=1 WtCom= 1.00D+00 WtEn= 0.00D+00
 Coeff-Com:  0.525D-05-0.345D-05-0.164D-02-0.111D-02 0.248D-03 0.455D-02
 Coeff-Com:  0.402D-01 0.134D+00 0.347D+00 0.477D+00
 Coeff:      0.525D-05-0.345D-05-0.164D-02-0.111D-02 0.248D-03 0.455D-02
 Coeff:      0.402D-01 0.134D+00 0.347D+00 0.477D+00
 Gap=     0.124 Goal=   None    Shift=    0.000
 RMSDP=1.46D-06 MaxDP=1.97D-04 DE=-3.06D-08 OVMax= 2.94D-05

 Cycle  11  Pass 1  IDiag  1:
 RMSU=  6.82D-07    CP:  9.63D-01  9.72D-02  8.91D-01  4.22D-01  5.44D-01
                    CP:  8.03D-01  8.50D-01  6.95D-01  9.16D-01  8.04D-01
 E= -8258.66488608906     Delta-E=       -0.000000007147 Rises=F Damp=F
 DIIS: error= 2.28D-06 at cycle  11 NSaved=  11.
 NSaved=11 IEnMin=11 EnMin= -8258.66488608906     IErMin=11 ErrMin= 2.28D-06
 ErrMax= 2.28D-06  0.00D+00 EMaxC= 1.00D+00 BMatC= 6.99D-10 BMatP= 7.65D-09
 IDIUse=1 WtCom= 1.00D+00 WtEn= 0.00D+00
 Coeff-Com:  0.463D-05-0.165D-05-0.772D-03-0.525D-03-0.433D-03-0.166D-03
 Coeff-Com:  0.121D-01 0.502D-01 0.156D+00 0.290D+00 0.493D+00
 Coeff:      0.463D-05-0.165D-05-0.772D-03-0.525D-03-0.433D-03-0.166D-03
 Coeff:      0.121D-01 0.502D-01 0.156D+00 0.290D+00 0.493D+00
 Gap=     0.124 Goal=   None    Shift=    0.000
 RMSDP=5.16D-07 MaxDP=6.90D-05 DE=-7.15D-09 OVMax= 1.18D-05

 Cycle  12  Pass 1  IDiag  1:
 RMSU=  2.58D-07    CP:  9.63D-01  9.72D-02  8.92D-01  4.22D-01  5.44D-01
                    CP:  8.03D-01  8.52D-01  6.97D-01  9.27D-01  8.62D-01
                    CP:  9.08D-01
 E= -8258.66488608974     Delta-E=       -0.000000000680 Rises=F Damp=F
 DIIS: error= 4.69D-07 at cycle  12 NSaved=  12.
 NSaved=12 IEnMin=12 EnMin= -8258.66488608974     IErMin=12 ErrMin= 4.69D-07
 ErrMax= 4.69D-07  0.00D+00 EMaxC= 1.00D+00 BMatC= 9.75D-11 BMatP= 6.99D-10
 IDIUse=1 WtCom= 1.00D+00 WtEn= 0.00D+00
 Coeff-Com:  0.143D-05 0.125D-06-0.140D-03-0.104D-03-0.316D-03-0.124D-02
 Coeff-Com: -0.834D-03 0.359D-02 0.265D-01 0.800D-01 0.295D+00 0.598D+00
 Coeff:      0.143D-05 0.125D-06-0.140D-03-0.104D-03-0.316D-03-0.124D-02
 Coeff:     -0.834D-03 0.359D-02 0.265D-01 0.800D-01 0.295D+00 0.598D+00
 Gap=     0.124 Goal=   None    Shift=    0.000
 RMSDP=2.61D-07 MaxDP=3.05D-05 DE=-6.80D-10 OVMax= 4.12D-06

 Cycle  13  Pass 1  IDiag  1:
 RMSU=  1.13D-07    CP:  9.63D-01  9.72D-02  8.92D-01  4.22D-01  5.44D-01
                    CP:  8.03D-01  8.52D-01  7.03D-01  9.32D-01  8.58D-01
                    CP:  9.09D-01  7.34D-01
 E= -8258.66488608984     Delta-E=       -0.000000000095 Rises=F Damp=F
 DIIS: error= 1.72D-07 at cycle  13 NSaved=  13.
 NSaved=13 IEnMin=13 EnMin= -8258.66488608984     IErMin=13 ErrMin= 1.72D-07
 ErrMax= 1.72D-07  0.00D+00 EMaxC= 1.00D+00 BMatC= 1.15D-11 BMatP= 9.75D-11
 IDIUse=1 WtCom= 1.00D+00 WtEn= 0.00D+00
 Coeff-Com:  0.320D-06 0.504D-07 0.315D-04 0.125D-04-0.106D-03-0.714D-03
 Coeff-Com: -0.201D-02-0.485D-02-0.623D-02 0.335D-02 0.904D-01 0.316D+00
 Coeff-Com:  0.604D+00
 Coeff:      0.320D-06 0.504D-07 0.315D-04 0.125D-04-0.106D-03-0.714D-03
 Coeff:     -0.201D-02-0.485D-02-0.623D-02 0.335D-02 0.904D-01 0.316D+00
 Coeff:      0.604D+00
 Gap=     0.124 Goal=   None    Shift=    0.000
 RMSDP=7.78D-08 MaxDP=7.74D-06 DE=-9.46D-11 OVMax= 1.20D-06

 Cycle  14  Pass 1  IDiag  1:
 RMSU=  2.56D-08    CP:  9.63D-01  9.72D-02  8.92D-01  4.22D-01  5.44D-01
                    CP:  8.03D-01  8.52D-01  7.02D-01  9.37D-01  8.63D-01
                    CP:  9.24D-01  8.36D-01  9.49D-01
 E= -8258.66488608983     Delta-E=        0.000000000009 Rises=F Damp=F
 DIIS: error= 4.88D-08 at cycle  14 NSaved=  14.
 NSaved=14 IEnMin=13 EnMin= -8258.66488608984     IErMin=14 ErrMin= 4.88D-08
 ErrMax= 4.88D-08  0.00D+00 EMaxC= 1.00D+00 BMatC= 8.58D-13 BMatP= 1.15D-11
 IDIUse=1 WtCom= 1.00D+00 WtEn= 0.00D+00
 Coeff-Com:  0.135D-07 0.337D-07 0.289D-04 0.152D-04-0.203D-04-0.238D-03
 Coeff-Com: -0.847D-03-0.270D-02-0.552D-02-0.647D-02 0.137D-01 0.972D-01
 Coeff-Com:  0.291D+00 0.614D+00
 Coeff:      0.135D-07 0.337D-07 0.289D-04 0.152D-04-0.203D-04-0.238D-03
 Coeff:     -0.847D-03-0.270D-02-0.552D-02-0.647D-02 0.137D-01 0.972D-01
 Coeff:      0.291D+00 0.614D+00
 Gap=     0.124 Goal=   None    Shift=    0.000
 RMSDP=2.71D-08 MaxDP=4.03D-06 DE= 9.09D-12 OVMax= 2.97D-07

 Cycle  15  Pass 1  IDiag  1:
 RMSU=  9.60D-09    CP:  9.63D-01  9.72D-02  8.92D-01  4.22D-01  5.44D-01
                    CP:  8.03D-01  8.52D-01  7.02D-01  9.37D-01  8.67D-01
                    CP:  9.31D-01  8.42D-01  9.65D-01  9.93D-01
 E= -8258.66488608984     Delta-E=       -0.000000000015 Rises=F Damp=F
 DIIS: error= 1.69D-08 at cycle  15 NSaved=  15.
 NSaved=15 IEnMin=15 EnMin= -8258.66488608984     IErMin=15 ErrMin= 1.69D-08
 ErrMax= 1.69D-08  0.00D+00 EMaxC= 1.00D+00 BMatC= 1.13D-13 BMatP= 8.58D-13
 IDIUse=1 WtCom= 1.00D+00 WtEn= 0.00D+00
 Coeff-Com: -0.221D-07 0.208D-07 0.117D-04 0.627D-05-0.149D-06-0.589D-04
 Coeff-Com: -0.246D-03-0.932D-03-0.213D-02-0.340D-02-0.403D-03 0.241D-01
 Coeff-Com:  0.102D+00 0.332D+00 0.549D+00
 Coeff:     -0.221D-07 0.208D-07 0.117D-04 0.627D-05-0.149D-06-0.589D-04
 Coeff:     -0.246D-03-0.932D-03-0.213D-02-0.340D-02-0.403D-03 0.241D-01
 Coeff:      0.102D+00 0.332D+00 0.549D+00
 Gap=     0.124 Goal=   None    Shift=    0.000
 RMSDP=9.02D-09 MaxDP=1.49D-06 DE=-1.46D-11 OVMax= 1.01D-07

 Cycle  16  Pass 1  IDiag  1:
 RMSU=  3.07D-09    CP:  9.63D-01  9.72D-02  8.92D-01  4.22D-01  5.44D-01
                    CP:  8.03D-01  8.52D-01  7.02D-01  9.37D-01  8.66D-01
                    CP:  9.33D-01  8.51D-01  9.68D-01  1.04D+00  9.70D-01
 E= -8258.66488608983     Delta-E=        0.000000000015 Rises=F Damp=F
 DIIS: error= 1.13D-08 at cycle  16 NSaved=  16.
 NSaved=16 IEnMin=15 EnMin= -8258.66488608984     IErMin=16 ErrMin= 1.13D-08
 ErrMax= 1.13D-08  0.00D+00 EMaxC= 1.00D+00 BMatC= 1.65D-14 BMatP= 1.13D-13
 IDIUse=1 WtCom= 1.00D+00 WtEn= 0.00D+00
 Coeff-Com: -0.141D-07 0.510D-08 0.228D-05 0.135D-05 0.240D-05 0.127D-05
 Coeff-Com: -0.160D-04-0.115D-03-0.358D-03-0.933D-03-0.254D-02-0.176D-02
 Coeff-Com:  0.121D-01 0.910D-01 0.312D+00 0.590D+00
 Coeff:     -0.141D-07 0.510D-08 0.228D-05 0.135D-05 0.240D-05 0.127D-05
 Coeff:     -0.160D-04-0.115D-03-0.358D-03-0.933D-03-0.254D-02-0.176D-02
 Coeff:      0.121D-01 0.910D-01 0.312D+00 0.590D+00
 Gap=     0.124 Goal=   None    Shift=    0.000
 RMSDP=2.41D-09 MaxDP=1.78D-07 DE= 1.46D-11 OVMax= 5.59D-08

 SCF Done:  E(RB3LYP) =  -8258.66488609     A.U. after   16 cycles
            NFock= 16  Conv=0.24D-08     -V/T= 2.0014
 KE= 8.247319264204D+03 PE=-2.364349938988D+04 EE= 5.180682767082D+03
 Leave Link  502 at Tue Sep 29 16:21:30 2026, MaxMem=  5100273664 cpu:             894.7 elap:              55.9
 (Enter /share/software/user/restricted/gaussian/g16.B01/l701.exe)
 ... and contract with generalized density number  0.
 Compute integral first derivatives.
 Leave Link  701 at Tue Sep 29 16:21:31 2026, MaxMem=  5100273664 cpu:               2.3 elap:               0.2
 (Enter /share/software/user/restricted/gaussian/g16.B01/l702.exe)
 L702 exits ... SP integral derivatives will be done elsewhere.
 Leave Link  702 at Tue Sep 29 16:21:31 2026, MaxMem=  5100273664 cpu:               0.6 elap:               0.0
 (Enter /share/software/user/restricted/gaussian/g16.B01/l703.exe)
 Integral derivatives from FoFJK, PRISM(SPDF).
 Compute integral first derivatives, UseDBF=F ICtDFT=           0.
 Calling FoFJK, ICntrl=      2127 FMM=F ISym2X=0 I1Cent= 0 IOpClX= 0 NMat=1 NMatS=1 NMatT=0.
 FoFJK:  IHMeth= 1 ICntrl=    2127 DoSepK=F KAlg= 0 I1Cent=           0 FoldK=F
 IRaf=         0 NMat=       1 IRICut=       1 DoRegI=T DoRafI=F ISym2E= 0 IDoP0=0 IntGTp=1.
 FoFCou: FMM=F IPFlag=           0 FMFlag=      100000 FMFlg1=         800
         NFxFlg=           0 DoJE=F BraDBF=F KetDBF=F FulRan=T
         wScrn=  0.000000 ICntrl=      2127 IOpCl=  0 I1Cent=           0 NGrid=           0
         NMat0=    1 NMatS0=      1 NMatT0=    0 NMatD0=    1 NMtDS0=    0 NMtDT0=    0
 Symmetry not used in FoFCou.
 Leave Link  703 at Tue Sep 29 16:21:43 2026, MaxMem=  5100273664 cpu:             193.5 elap:              12.1
 (Enter /share/software/user/restricted/gaussian/g16.B01/l716.exe)
 Dipole        =-1.41920372D+00 6.63505354D-01 9.45703682D-04
 ***** Axes restored to original set *****
 -------------------------------------------------------------------
 Center     Atomic                   Forces (Hartrees/Bohr)
 Number     Number              X              Y              Z
 -------------------------------------------------------------------
      1        6          -0.001893126   -0.004359546   -0.000115341
      2        6           0.005848964    0.012197256    0.000742252
      3        6           0.002525460   -0.005186012   -0.000675424
      4        6          -0.013557821   -0.000711320    0.000927857
      5        6           0.007297844   -0.000444374   -0.000616117
      6        6          -0.008379024    0.007395758    0.001090610
      7        6          -0.003262131   -0.007148883    0.000022963
      8        6           0.047555735    0.023411982   -0.002288888
      9        6          -0.003344119    0.007432242    0.001035777
     10        6           0.013557587   -0.001875752   -0.000707927
     11        6          -0.005590328   -0.001971466    0.000206503
     12        6           0.003526371    0.000571154    0.000050905
     13        8          -0.002898548    0.004367667    0.000239285
     14       35          -0.001824379   -0.004680724   -0.000307655
     15        1          -0.001361684    0.000730183    0.000166634
     16       35           0.005313779    0.001177030   -0.000274794
     17        1           0.000697599   -0.001540806   -0.000180634
     18        1          -0.040538570   -0.031689943    0.000522651
     19        1          -0.000625921   -0.001523904   -0.000343274
     20       35          -0.003913253    0.001410969    0.000416574
     21        1           0.001132089    0.001265076   -0.000003632
     22        1          -0.000266524    0.001173417    0.000091674
 -------------------------------------------------------------------
 Cartesian Forces:  Max     0.047555735 RMS     0.009958493
 Leave Link  716 at Tue Sep 29 16:21:43 2026, MaxMem=  5100273664 cpu:               0.5 elap:               0.0
 (Enter /share/software/user/restricted/gaussian/g16.B01/l103.exe)

 GradGradGradGradGradGradGradGradGradGradGradGradGradGradGradGradGradGrad
 Berny optimization.
 Using GEDIIS/GDIIS optimizer.
 FormGI is forming the generalized inverse of G from B-inverse, IUseBI=4.
 GSVD:  received Info=                   1 from GESDD.
 Internal  Forces:  Max     0.254937105 RMS     0.036163845
 Search for a local minimum.
 Step number   6 out of a maximum of  116
 All quantities printed in internal units (Hartrees-Bohrs-Radians)
 RMS Force = .36164D-01 SwitMx=.10000D-02 MixMth= 1
 Mixed Optimization -- RFO/linear search
 Update second derivatives using D2CorX and points    3    2    4    6    5
 DE=  3.11D-04 DEPred=-4.13D-03 R=-7.53D-02
 Trust test=-7.53D-02 RLast= 5.62D-01 DXMaxT set to 2.12D-01
 ITU= -1  1  1 -1  0  0
 Use linear search instead of GDIIS.
     Eigenvalues ---    0.01711   0.01872   0.01995   0.02011   0.02021
     Eigenvalues ---    0.02036   0.02046   0.02091   0.02093   0.02107
     Eigenvalues ---    0.02107   0.02129   0.02132   0.02135   0.02166
     Eigenvalues ---    0.02185   0.02196   0.02234   0.02289   0.02363
     Eigenvalues ---    0.15993   0.16000   0.16000   0.16004   0.16050
     Eigenvalues ---    0.18159   0.18854   0.19153   0.20117   0.22304
     Eigenvalues ---    0.22579   0.23470   0.24579   0.24633   0.24934
     Eigenvalues ---    0.24996   0.25000   0.25036   0.26477   0.33338
     Eigenvalues ---    0.33694   0.33713   0.33776   0.33929   0.38125
     Eigenvalues ---    0.41049   0.41596   0.42582   0.44458   0.44869
     Eigenvalues ---    0.45118   0.45625   0.45990   0.46316   0.46414
     Eigenvalues ---    0.47165   0.47703   0.48465   1.06459  16.06957
 RFO step:  Lambda=-5.79997942D-03 EMin= 1.71133639D-02
 Quartic linear search produced a step of -0.49870.
 Maximum step size (   0.212) exceeded in Quadratic search.
    -- Step size scaled by   0.644
 Iteration  1 RMS(Cart)=  0.02689893 RMS(Int)=  0.00035778
 Iteration  2 RMS(Cart)=  0.00052364 RMS(Int)=  0.00001156
 Iteration  3 RMS(Cart)=  0.00000022 RMS(Int)=  0.00001156
 ITry= 1 IFail=0 DXMaxC= 1.06D-01 DCOld= 1.00D+10 DXMaxT= 2.12D-01 DXLimC= 3.00D+00 Rises=F
 Variable       Old X    -DE/DX   Delta X   Delta X   Delta X     New X
                                 (Linear)    (Quad)   (Total)
    R1        2.63928   0.01247   0.00011   0.00411   0.00422   2.64350
    R2        2.64275   0.04914  -0.00424   0.00237  -0.00187   2.64089
    R3        2.65786   0.05322  -0.00385  -0.00139  -0.00523   2.65262
    R4        2.60990  -0.00055   0.00597   0.00144   0.00739   2.61729
    R5        3.79321  -0.00492  -0.02928   0.00414  -0.02515   3.76806
    R6        2.62495  -0.01638  -0.00053   0.00186   0.00132   2.62627
    R7        2.03597   0.00152   0.00066   0.00484   0.00550   2.04147
    R8        2.60926  -0.00831   0.00969  -0.00526   0.00443   2.61369
    R9        3.79561  -0.00542  -0.02409  -0.00175  -0.02584   3.76977
   R10        2.67070   0.00148  -0.00821  -0.00066  -0.00885   2.66185
   R11        2.05360   0.00134   0.00081   0.00244   0.00325   2.05686
   R12        4.09435  -0.03120  -0.26607   0.20583  -0.06023   4.03412
   R13        2.64190  -0.01256  -0.00282   0.00719   0.00436   2.64626
   R14        2.64616   0.00998  -0.00249   0.00728   0.00478   2.65095
   R15        2.54498   0.03455   0.01516  -0.00555   0.00961   2.55459
   R16        2.64222   0.00046  -0.00221   0.00037  -0.00184   2.64037
   R17        2.61298  -0.00328   0.00580  -0.00004   0.00576   2.61874
   R18        2.04383   0.00142   0.00144   0.00315   0.00460   2.04842
   R19        2.62855  -0.00756   0.00151  -0.00207  -0.00056   2.62799
   R20        3.70254  -0.00418  -0.00555  -0.01123  -0.01678   3.68575
   R21        2.63076  -0.00101  -0.00046  -0.00014  -0.00060   2.63015
   R22        2.04239   0.00167  -0.00004   0.00526   0.00522   2.04761
   R23        2.04626   0.00121  -0.00050   0.00475   0.00425   2.05051
    A1        2.12131  -0.03668   0.00063  -0.00116  -0.00052   2.12079
    A2        1.96411  -0.11304   0.01153  -0.00703   0.00449   1.96860
    A3        2.19777   0.14973  -0.01216   0.00819  -0.00397   2.19380
    A4        2.14829   0.02416  -0.01507   0.00528  -0.00981   2.13849
    A5        2.11255  -0.01009   0.00451   0.00531   0.00983   2.12238
    A6        2.02235  -0.01407   0.01056  -0.01059  -0.00003   2.02232
    A7        2.00535   0.00293   0.01970  -0.00949   0.01018   2.01553
    A8        2.13026  -0.00111  -0.01007   0.00590  -0.00416   2.12610
    A9        2.14757  -0.00182  -0.00963   0.00360  -0.00601   2.14156
   A10        2.16194  -0.00807  -0.01502   0.00691  -0.00812   2.15382
   A11        2.02904   0.00508   0.01021  -0.00301   0.00720   2.03624
   A12        2.09220   0.00299   0.00481  -0.00389   0.00092   2.09312
   A13        2.11105   0.01937  -0.00121   0.00201   0.00082   2.11186
   A14        2.06437  -0.00861  -0.00002   0.00454   0.00451   2.06888
   A15        2.10777  -0.01077   0.00123  -0.00655  -0.00533   2.10244
   A16        2.01843  -0.00171   0.01097  -0.00355   0.00745   2.02588
   A17        1.67745   0.08462   0.03202   0.00282   0.03483   1.71229
   A18        2.58730  -0.08290  -0.04299   0.00073  -0.04228   2.54502
   A19        2.09511  -0.02672   0.00969  -0.01280  -0.00311   2.09200
   A20        2.16874   0.08830  -0.01091   0.02886   0.01795   2.18668
   A21        2.01934  -0.06158   0.00122  -0.01606  -0.01483   2.00451
   A22        2.09543   0.01608  -0.01007   0.00652  -0.00355   2.09188
   A23        2.06941   0.00474   0.00961  -0.00017   0.00945   2.07885
   A24        2.10521  -0.00325  -0.00282  -0.00415  -0.00697   2.09825
   A25        2.10856  -0.00150  -0.00680   0.00432  -0.00248   2.10608
   A26        2.14075  -0.01151  -0.00882  -0.00053  -0.00935   2.13140
   A27        2.07821   0.00570   0.00465  -0.00019   0.00446   2.08267
   A28        2.06423   0.00582   0.00417   0.00072   0.00489   2.06911
   A29        2.06609   0.00162   0.00408  -0.00001   0.00408   2.07017
   A30        2.10913  -0.00053  -0.00093   0.00024  -0.00069   2.10844
   A31        2.10797  -0.00110  -0.00316  -0.00023  -0.00339   2.10458
   A32        2.09958   0.01579  -0.00450   0.00698   0.00249   2.10207
   A33        2.07432  -0.00795   0.00500  -0.00577  -0.00076   2.07355
   A34        2.10929  -0.00784  -0.00051  -0.00122  -0.00172   2.10756
   A35        2.22571   0.25494  -0.02021   0.01366  -0.00655   2.21916
    D1        0.00067  -0.00015  -0.00044  -0.00135  -0.00178  -0.00111
    D2       -3.14152  -0.00002  -0.00015  -0.00007  -0.00021   3.14145
    D3       -3.14058  -0.00025  -0.00057  -0.00202  -0.00258   3.14003
    D4        0.00042  -0.00011  -0.00029  -0.00074  -0.00101  -0.00059
    D5       -0.00069   0.00017   0.00044   0.00144   0.00187   0.00118
    D6        3.13947   0.00018   0.00083   0.00312   0.00401  -3.13970
    D7        3.14051   0.00022   0.00060   0.00220   0.00278  -3.13990
    D8       -0.00252   0.00022   0.00099   0.00388   0.00492   0.00240
    D9        3.13628   0.00107   0.00311   0.01332   0.01643  -3.13048
   D10       -0.00495   0.00103   0.00296   0.01262   0.01559   0.01064
   D11       -0.00015   0.00002   0.00010   0.00032   0.00042   0.00026
   D12        3.14131   0.00006   0.00018   0.00052   0.00069  -3.14118
   D13       -3.14118  -0.00011  -0.00017  -0.00091  -0.00107   3.14094
   D14        0.00029  -0.00008  -0.00010  -0.00070  -0.00079  -0.00050
   D15       -0.00030   0.00006   0.00020   0.00054   0.00073   0.00043
   D16       -3.14152  -0.00002   0.00001  -0.00023  -0.00022   3.14144
   D17        3.14142   0.00003   0.00012   0.00033   0.00045  -3.14132
   D18        0.00020  -0.00005  -0.00007  -0.00044  -0.00051  -0.00031
   D19        0.00024  -0.00004  -0.00017  -0.00038  -0.00055  -0.00030
   D20       -3.14083  -0.00018  -0.00047  -0.00156  -0.00202   3.14033
   D21        3.14146   0.00004   0.00002   0.00042   0.00044  -3.14129
   D22        0.00038  -0.00010  -0.00027  -0.00077  -0.00104  -0.00066
   D23        0.00026  -0.00006  -0.00015  -0.00062  -0.00077  -0.00051
   D24       -3.13863  -0.00047  -0.00096  -0.00379  -0.00471   3.13984
   D25        3.14132   0.00008   0.00015   0.00060   0.00074  -3.14113
   D26        0.00243  -0.00033  -0.00066  -0.00257  -0.00320  -0.00078
   D27       -0.00079   0.00015   0.00039   0.00164   0.00203   0.00125
   D28       -3.14101   0.00030  -0.00042   0.00288   0.00245  -3.13856
   D29        0.00081  -0.00021  -0.00040  -0.00215  -0.00255  -0.00174
   D30       -3.14101  -0.00008  -0.00032  -0.00059  -0.00091   3.14127
   D31        3.14114  -0.00023   0.00036  -0.00325  -0.00290   3.13824
   D32       -0.00068  -0.00009   0.00043  -0.00169  -0.00126  -0.00193
   D33       -0.00540   0.00134   0.00252   0.01552   0.01805   0.01265
   D34        3.13751   0.00146   0.00174   0.01671   0.01844  -3.12724
   D35        0.00023   0.00005  -0.00013   0.00033   0.00019   0.00042
   D36       -3.14155   0.00011  -0.00006   0.00116   0.00109  -3.14046
   D37        0.00032  -0.00018  -0.00013  -0.00186  -0.00199  -0.00166
   D38        3.14159  -0.00003  -0.00000  -0.00029  -0.00029   3.14130
   D39       -3.14109  -0.00025  -0.00020  -0.00269  -0.00289   3.13921
   D40        0.00018  -0.00010  -0.00007  -0.00112  -0.00119  -0.00101
   D41       -0.00030   0.00012   0.00013   0.00135   0.00148   0.00118
   D42        3.14127   0.00011   0.00015   0.00113   0.00128  -3.14063
   D43       -3.14158  -0.00002   0.00000  -0.00020  -0.00020   3.14141
   D44       -0.00000  -0.00003   0.00002  -0.00042  -0.00040  -0.00040
   D45       -0.00027   0.00007   0.00014   0.00068   0.00081   0.00055
   D46        3.14156  -0.00007   0.00006  -0.00092  -0.00086   3.14069
   D47        3.14134   0.00008   0.00012   0.00090   0.00101  -3.14083
   D48       -0.00002  -0.00006   0.00004  -0.00070  -0.00067  -0.00069
         Item               Value     Threshold  Converged?
 Maximum Force            0.254937     0.000450     NO 
 RMS     Force            0.036164     0.000300     NO 
 Maximum Displacement     0.105579     0.001800     NO 
 RMS     Displacement     0.026813     0.001200     NO 
 Predicted change in Energy=-4.705306D-03
 GradGradGradGradGradGradGradGradGradGradGradGradGradGradGradGradGradGrad

 Leave Link  103 at Tue Sep 29 16:21:43 2026, MaxMem=  5100273664 cpu:               1.3 elap:               0.1
 (Enter /share/software/user/restricted/gaussian/g16.B01/l202.exe)
                          Input orientation:                          
 ---------------------------------------------------------------------
 Center     Atomic      Atomic             Coordinates (Angstroms)
 Number     Number       Type             X           Y           Z
 ---------------------------------------------------------------------
      1          6           0       -1.278264   -1.036427    0.081595
      2          6           0       -2.341825   -0.139103    0.224820
      3          6           0       -3.662514   -0.552477    0.281000
      4          6           0       -3.864235   -1.924212    0.185690
      5          6           0       -2.834964   -2.837228    0.044343
      6          6           0       -1.492594   -2.414192   -0.012350
      7          6           0        1.182536   -0.980875   -0.094602
      8          6           0        1.406020   -2.354826   -0.247139
      9          6           0        2.710718   -2.836742   -0.380409
     10          6           0        3.766417   -1.939301   -0.358424
     11          6           0        3.570387   -0.570576   -0.209653
     12          6           0        2.269355   -0.094057   -0.077751
     13          8           0       -0.028842   -0.397615    0.046147
     14         35           0       -2.039124    1.827162    0.359348
     15          1           0       -4.475172    0.150682    0.391449
     16         35           0       -5.753911   -2.558800    0.262928
     17          1           0       -3.083453   -3.894865   -0.021707
     18          1           0        0.545008   -3.024047   -0.195326
     19          1           0        2.890436   -3.899024   -0.499867
     20         35           0        5.590308   -2.605120   -0.543438
     21          1           0        4.411607    0.112245   -0.196251
     22          1           0        2.076484    0.967115    0.041094
 ---------------------------------------------------------------------
                    Distance matrix (angstroms):
                    1          2          3          4          5
     1  C    0.000000
     2  C    1.398880   0.000000
     3  C    2.441028   1.385011   0.000000
     4  C    2.736100   2.346461   1.389760   0.000000
     5  C    2.380669   2.748752   2.441502   1.383104   0.000000
     6  C    1.397497   2.439974   2.874124   2.429811   1.408591
     7  C    2.467726   3.637545   4.878434   5.141824   4.427828
     8  C    3.008591   4.379328   5.405315   5.305503   4.278272
     9  C    4.400745   5.759491   6.802456   6.662071   5.561924
    10  C    5.143696   6.394646   7.584271   7.650042   6.674333
    11  C    4.879678   5.943836   7.249547   7.567182   6.799319
    12  C    3.674106   4.621316   5.960363   6.406232   5.796030
    13  O    1.403707   2.334232   3.644545   4.130401   3.718337
    14  Br   2.975936   1.993971   2.881703   4.175404   4.742269
    15  H    3.424246   2.159378   1.080298   2.172733   3.426131
    16  Br   4.730953   4.183147   2.898206   1.994879   2.940333
    17  H    3.382314   3.836214   3.405657   2.129814   1.088442
    18  H    2.711390   4.102831   4.902936   4.560289   3.393604
    19  H    5.090247   6.483728   7.399343   7.070746   5.848399
    20  Br   7.073100   8.342074   9.513557   9.507032   8.448939
    21  H    5.811306   6.771212   8.115482   8.531272   7.827519
    22  H    3.907704   4.558390   5.941617   6.608542   6.212515
                    6          7          8          9         10
     6  C    0.000000
     7  C    3.036031   0.000000
     8  C    2.908713   1.400340   0.000000
     9  C    4.240501   2.421005   1.397226   0.000000
    10  C    5.291737   2.768505   2.399275   1.385779   0.000000
    11  C    5.391811   2.425575   2.805252   2.429752   1.390672
    12  C    4.420358   1.402820   2.425925   2.794409   2.392675
    13  O    2.492504   1.351829   2.444488   3.692761   4.116366
    14  Br   4.292544   4.297701   5.452142   6.697778   6.957424
    15  H    3.954416   5.790193   6.424467   7.820325   8.535463
    16  Br   4.272647   7.122638   7.180974   8.493590   9.560675
    17  H    2.173318   5.166751   4.751621   5.900907   7.131502
    18  H    2.134766   2.142694   1.091734   2.181659   3.403050
    19  H    4.653316   3.405400   2.156829   1.083980   2.151247
    20  Br   7.105351   4.718906   4.202227   2.893488   1.950417
    21  H    6.424663   3.410592   3.888776   3.409320   2.156713
    22  H    4.916748   2.147608   3.401160   3.879335   3.385667
                   11         12         13         14         15
    11  C    0.000000
    12  C    1.391816   0.000000
    13  O    3.612451   2.321467   0.000000
    14  Br   6.126950   4.737629   3.014790   0.000000
    15  H    8.100158   6.765256   4.493296   2.957354   0.000000
    16  Br   9.545622   8.400227   6.123245   5.748530   2.998830
    17  H    7.440417   6.565199   4.643922   5.829015   4.298143
    18  H    3.895207   3.401769   2.699214   5.524457   5.968703
    19  H    3.409564   3.878362   4.591316   7.604473   8.452617
    20  Br   2.886323   4.189395   6.065933   8.869520  10.477707
    21  H    1.083547   2.155422   4.476193   6.697877   8.906274
    22  H    2.158498   1.085085   2.508966   4.216538   6.611619
                   16         17         18         19         20
    16  Br   0.000000
    17  H    2.999572   0.000000
    18  H    6.332680   3.735532   0.000000
    19  H    8.780819   5.992996   2.521777   0.000000
    20  Br  11.372937   8.784633   5.074617   2.994227   0.000000
    21  H   10.520603   8.500783   4.978645   4.300747   2.982272
    22  H    8.590481   7.089974   4.281434   4.963311   5.044750
                   21         22
    21  H    0.000000
    22  H    2.497986   0.000000
 Stoichiometry    C12H6Br3O(1-)
 Framework group  C1[X(C12H6Br3O)]
 Deg. of freedom    60
 Full point group                 C1      NOp   1
 RotChk:  IX=2 Diff= 7.60D-03
 Largest Abelian subgroup         C1      NOp   1
 Largest concise Abelian subgroup C1      NOp   1
                         Standard orientation:                         
 ---------------------------------------------------------------------
 Center     Atomic      Atomic             Coordinates (Angstroms)
 Number     Number       Type             X           Y           Z
 ---------------------------------------------------------------------
      1          6           0        0.886072    0.119657   -0.007676
      2          6           0        2.033412    0.919930   -0.001190
      3          6           0        3.312270    0.388169    0.001470
      4          6           0        3.382678   -0.999799   -0.003076
      5          6           0        2.268131   -1.818767   -0.010319
      6          6           0        0.968568   -1.275392   -0.013192
      7          6           0       -1.566157    0.395684   -0.000645
      8          6           0       -1.922605   -0.958347    0.021670
      9          6           0       -3.271518   -1.322590    0.022720
     10          6           0       -4.237954   -0.329658    0.000991
     11          6           0       -3.909526    1.021514   -0.019940
     12          6           0       -2.564842    1.380645   -0.020334
     13          8           0       -0.300278    0.869968   -0.007299
     14         35           0        1.918870    2.910594    0.006454
     15          1           0        4.190586    1.017118    0.006870
     16         35           0        5.208406   -1.803694    0.000292
     17          1           0        2.415300   -2.897205   -0.014692
     18          1           0       -1.123385   -1.700624   -0.024753
     19          1           0       -3.554107   -2.368927    0.041001
     20         35           0       -6.122853   -0.830937    0.001828
     21          1           0       -4.682821    1.780353   -0.035833
     22          1           0       -2.269338    2.424581   -0.037173
 ---------------------------------------------------------------------
 Rotational constants (GHZ):           0.4308560           0.0773099           0.0655490
 Leave Link  202 at Tue Sep 29 16:21:43 2026, MaxMem=  5100273664 cpu:               0.2 elap:               0.0
 (Enter /share/software/user/restricted/gaussian/g16.B01/l301.exe)
 Standard basis: 6-311++G(d) (5D, 7F)
 Ernie: Thresh=  0.10000D-02 Tol=  0.10000D-05 Strict=F.
 There are   476 symmetry adapted cartesian basis functions of A   symmetry.
 There are   454 symmetry adapted basis functions of A   symmetry.
   454 basis functions,   786 primitive gaussians,   476 cartesian basis functions
    96 alpha electrons       96 beta electrons
       nuclear repulsion energy      1957.0694607798 Hartrees.
 IExCor=  402 DFT=T Ex+Corr=B3LYP ExCW=0 ScaHFX=  0.200000
 ScaDFX=  0.800000  0.720000  1.000000  0.810000 ScalE2=  1.000000  1.000000
 IRadAn=      5 IRanWt=     -1 IRanGd=            0 ICorTp=0 IEmpDi=  4
 NAtoms=   22 NActive=   22 NUniq=   22 SFac= 1.00D+00 NAtFMM=   60 NAOKFM=F Big=F
 Integral buffers will be    131072 words long.
 Raffenetti 2 integral format.
 Two-electron integral symmetry is turned on.
 Leave Link  301 at Tue Sep 29 16:21:43 2026, MaxMem=  5100273664 cpu:               0.6 elap:               0.1
 (Enter /share/software/user/restricted/gaussian/g16.B01/l302.exe)
 NPDir=0 NMtPBC=     1 NCelOv=     1 NCel=       1 NClECP=     1 NCelD=      1
         NCelK=      1 NCelE2=     1 NClLst=     1 CellRange=     0.0.
 One-electron integrals computed using PRISM.
 One-electron integral symmetry used in STVInt
 NBasis=   454 RedAO= T EigKep=  1.57D-06  NBF=   454
 NBsUse=   450 1.00D-06 EigRej=  8.68D-07 NBFU=   450
 Precomputing XC quadrature grid using
 IXCGrd= 4 IRadAn=           5 IRanWt=          -1 IRanGd=           0 AccXCQ= 0.00D+00.
 Generated NRdTot=       0 NPtTot=           0 NUsed=           0 NTot=          32
 NSgBfM=   448   448   448   448   448 MxSgAt=    22 MxSgA2=    22.
 Leave Link  302 at Tue Sep 29 16:21:44 2026, MaxMem=  5100273664 cpu:               4.0 elap:               0.3
 (Enter /share/software/user/restricted/gaussian/g16.B01/l303.exe)
 DipDrv:  MaxL=1.
 Leave Link  303 at Tue Sep 29 16:21:44 2026, MaxMem=  5100273664 cpu:               0.7 elap:               0.1
 (Enter /share/software/user/restricted/gaussian/g16.B01/l401.exe)
 Lowest energy guess from the checkpoint file:  "calcs/b3lyp_gas/chks/BDE_24_2r4_anion.chk"
 B after Tr=     0.000000    0.000000    0.000000
         Rot=    0.999987    0.000024    0.000012   -0.005118 Ang=   0.59 deg.
 Guess basis will be translated and rotated to current coordinates.
 B after Tr=    -0.000000    0.000000    0.000000
         Rot=    0.999999   -0.000001   -0.000000    0.001022 Ang=  -0.12 deg.
 Guess basis will be translated and rotated to current coordinates.
 CkInt1:  FT= 5.01D-01
 Max alpha theta=  4.727 degrees.
 JPrj=2 DoOrth=T DoCkMO=T.
 Leave Link  401 at Tue Sep 29 16:21:44 2026, MaxMem=  5100273664 cpu:               6.7 elap:               0.4
 (Enter /share/software/user/restricted/gaussian/g16.B01/l502.exe)
 Integral symmetry usage will be decided dynamically.
 Closed shell SCF:
 Using DIIS extrapolation, IDIIS=  1040.
 NGot=  5100273664 LenX=  5099808623 LenY=  5099581571
 Requested convergence on RMS density matrix=1.00D-08 within 128 cycles.
 Requested convergence on MAX density matrix=1.00D-06.
 Requested convergence on             energy=1.00D-06.
 No special actions if energy rises.
 Fock matrices will be formed incrementally for  20 cycles.

 Cycle   1  Pass 1  IDiag  1:
 FoFJK:  IHMeth= 1 ICntrl=       0 DoSepK=F KAlg= 0 I1Cent=           0 FoldK=F
 IRaf= 770000000 NMat=       1 IRICut=       1 DoRegI=T DoRafI=F ISym2E= 0 IDoP0=0 IntGTp=1.
 FoFCou: FMM=F IPFlag=           0 FMFlag=      100000 FMFlg1=           0
         NFxFlg=           0 DoJE=F BraDBF=F KetDBF=F FulRan=T
         wScrn=  0.000000 ICntrl=         0 IOpCl=  0 I1Cent=           0 NGrid=           0
         NMat0=    1 NMatS0=      1 NMatT0=    0 NMatD0=    1 NMtDS0=    0 NMtDT0=    0
 Symmetry not used in FoFCou.
 E= -8258.66002298220    
 DIIS: error= 5.98D-03 at cycle   1 NSaved=   1.
 NSaved= 1 IEnMin= 1 EnMin= -8258.66002298220     IErMin= 1 ErrMin= 5.98D-03
 ErrMax= 5.98D-03  0.00D+00 EMaxC= 1.00D-01 BMatC= 2.40D-02 BMatP= 2.40D-02
 IDIUse=3 WtCom= 9.40D-01 WtEn= 5.98D-02
 Coeff-Com:  0.100D+01
 Coeff-En:   0.100D+01
 Coeff:      0.100D+01
 Gap=   482.111 Goal=   None    Shift=    0.000
 GapD=  482.111 DampG=2.000 DampE=1.000 DampFc=2.0000 IDamp=-1.
 RMSDP=2.63D-03 MaxDP=1.63D-01              OVMax= 2.15D-02

 Cycle   2  Pass 1  IDiag  1:
 RMSU=  2.59D-03    CP:  9.88D-01
 E= -8258.66855681705     Delta-E=       -0.008533834845 Rises=F Damp=F
 DIIS: error= 8.38D-04 at cycle   2 NSaved=   2.
 NSaved= 2 IEnMin= 2 EnMin= -8258.66855681705     IErMin= 2 ErrMin= 8.38D-04
 ErrMax= 8.38D-04  0.00D+00 EMaxC= 1.00D-01 BMatC= 2.20D-04 BMatP= 2.40D-02
 IDIUse=3 WtCom= 9.92D-01 WtEn= 8.38D-03
 Coeff-Com:  0.598D-02 0.994D+00
 Coeff-En:   0.000D+00 0.100D+01
 Coeff:      0.593D-02 0.994D+00
 Gap=     0.130 Goal=   None    Shift=    0.000
 RMSDP=6.53D-04 MaxDP=4.19D-02 DE=-8.53D-03 OVMax= 1.98D-02

 Cycle   3  Pass 1  IDiag  1:
 RMSU=  6.06D-04    CP:  9.94D-01  9.46D-01
 E= -8258.66773511790     Delta-E=        0.000821699145 Rises=F Damp=F
 DIIS: error= 1.95D-03 at cycle   3 NSaved=   3.
 NSaved= 3 IEnMin= 2 EnMin= -8258.66855681705     IErMin= 2 ErrMin= 8.38D-04
 ErrMax= 1.95D-03  0.00D+00 EMaxC= 1.00D-01 BMatC= 9.51D-04 BMatP= 2.20D-04
 IDIUse=3 WtCom= 1.84D-01 WtEn= 8.16D-01
 Coeff-Com: -0.413D-02 0.686D+00 0.318D+00
 Coeff-En:   0.000D+00 0.766D+00 0.234D+00
 Coeff:     -0.763D-03 0.751D+00 0.250D+00
 Gap=     0.124 Goal=   None    Shift=    0.000
 RMSDP=2.99D-04 MaxDP=1.33D-02 DE= 8.22D-04 OVMax= 1.16D-02

 Cycle   4  Pass 1  IDiag  1:
 RMSU=  1.72D-04    CP:  9.92D-01  9.67D-01  6.21D-01
 E= -8258.66878882611     Delta-E=       -0.001053708205 Rises=F Damp=F
 DIIS: error= 3.01D-04 at cycle   4 NSaved=   4.
 NSaved= 4 IEnMin= 4 EnMin= -8258.66878882611     IErMin= 4 ErrMin= 3.01D-04
 ErrMax= 3.01D-04  0.00D+00 EMaxC= 1.00D-01 BMatC= 2.96D-05 BMatP= 2.20D-04
 IDIUse=3 WtCom= 9.97D-01 WtEn= 3.01D-03
 Coeff-Com: -0.263D-02 0.294D+00 0.313D-01 0.677D+00
 Coeff-En:   0.000D+00 0.480D-01 0.000D+00 0.952D+00
 Coeff:     -0.263D-02 0.293D+00 0.312D-01 0.678D+00
 Gap=     0.124 Goal=   None    Shift=    0.000
 RMSDP=1.26D-04 MaxDP=1.62D-02 DE=-1.05D-03 OVMax= 1.73D-03

 Cycle   5  Pass 1  IDiag  1:
 RMSU=  7.71D-05    CP:  9.92D-01  9.83D-01  4.82D-01  7.90D-01
 E= -8258.66881600859     Delta-E=       -0.000027182485 Rises=F Damp=F
 DIIS: error= 1.25D-04 at cycle   5 NSaved=   5.
 NSaved= 5 IEnMin= 5 EnMin= -8258.66881600859     IErMin= 5 ErrMin= 1.25D-04
 ErrMax= 1.25D-04  0.00D+00 EMaxC= 1.00D-01 BMatC= 3.48D-06 BMatP= 2.96D-05
 IDIUse=3 WtCom= 9.99D-01 WtEn= 1.25D-03
 Coeff-Com: -0.897D-03 0.670D-01-0.321D-01 0.405D+00 0.561D+00
 Coeff-En:   0.000D+00 0.000D+00 0.000D+00 0.000D+00 0.100D+01
 Coeff:     -0.895D-03 0.669D-01-0.320D-01 0.404D+00 0.562D+00
 Gap=     0.124 Goal=   None    Shift=    0.000
 RMSDP=2.53D-05 MaxDP=1.71D-03 DE=-2.72D-05 OVMax= 6.71D-04

 Cycle   6  Pass 1  IDiag  1:
 RMSU=  2.32D-05    CP:  9.92D-01  9.82D-01  4.69D-01  8.19D-01  9.59D-01
 E= -8258.66881909176     Delta-E=       -0.000003083167 Rises=F Damp=F
 DIIS: error= 4.47D-05 at cycle   6 NSaved=   6.
 NSaved= 6 IEnMin= 6 EnMin= -8258.66881909176     IErMin= 6 ErrMin= 4.47D-05
 ErrMax= 4.47D-05  0.00D+00 EMaxC= 1.00D-01 BMatC= 4.14D-07 BMatP= 3.48D-06
 IDIUse=1 WtCom= 1.00D+00 WtEn= 0.00D+00
 Coeff-Com: -0.212D-03 0.421D-02-0.222D-01 0.152D+00 0.321D+00 0.546D+00
 Coeff:     -0.212D-03 0.421D-02-0.222D-01 0.152D+00 0.321D+00 0.546D+00
 Gap=     0.124 Goal=   None    Shift=    0.000
 RMSDP=1.41D-05 MaxDP=9.36D-04 DE=-3.08D-06 OVMax= 2.94D-04

 Cycle   7  Pass 1  IDiag  1:
 RMSU=  6.23D-06    CP:  9.92D-01  9.81D-01  4.83D-01  8.54D-01  9.38D-01
                    CP:  7.24D-01
 E= -8258.66881944176     Delta-E=       -0.000000349999 Rises=F Damp=F
 DIIS: error= 2.44D-05 at cycle   7 NSaved=   7.
 NSaved= 7 IEnMin= 7 EnMin= -8258.66881944176     IErMin= 7 ErrMin= 2.44D-05
 ErrMax= 2.44D-05  0.00D+00 EMaxC= 1.00D-01 BMatC= 1.08D-07 BMatP= 4.14D-07
 IDIUse=1 WtCom= 1.00D+00 WtEn= 0.00D+00
 Coeff-Com: -0.189D-04-0.729D-02-0.118D-01 0.513D-01 0.146D+00 0.375D+00
 Coeff-Com:  0.448D+00
 Coeff:     -0.189D-04-0.729D-02-0.118D-01 0.513D-01 0.146D+00 0.375D+00
 Coeff:      0.448D+00
 Gap=     0.124 Goal=   None    Shift=    0.000
 RMSDP=3.64D-06 MaxDP=1.51D-04 DE=-3.50D-07 OVMax= 1.01D-04

 Cycle   8  Pass 1  IDiag  1:
 RMSU=  2.23D-06    CP:  9.92D-01  9.81D-01  4.82D-01  8.64D-01  9.42D-01
                    CP:  7.39D-01  7.00D-01
 E= -8258.66881954872     Delta-E=       -0.000000106964 Rises=F Damp=F
 DIIS: error= 4.10D-06 at cycle   8 NSaved=   8.
 NSaved= 8 IEnMin= 8 EnMin= -8258.66881954872     IErMin= 8 ErrMin= 4.10D-06
 ErrMax= 4.10D-06  0.00D+00 EMaxC= 1.00D-01 BMatC= 5.46D-09 BMatP= 1.08D-07
 IDIUse=1 WtCom= 1.00D+00 WtEn= 0.00D+00
 Coeff-Com:  0.880D-05-0.444D-02-0.457D-02 0.140D-01 0.502D-01 0.156D+00
 Coeff-Com:  0.244D+00 0.545D+00
 Coeff:      0.880D-05-0.444D-02-0.457D-02 0.140D-01 0.502D-01 0.156D+00
 Coeff:      0.244D+00 0.545D+00
 Gap=     0.124 Goal=   None    Shift=    0.000
 RMSDP=1.46D-06 MaxDP=8.48D-05 DE=-1.07D-07 OVMax= 2.64D-05

 Cycle   9  Pass 1  IDiag  1:
 RMSU=  7.15D-07    CP:  9.92D-01  9.81D-01  4.82D-01  8.62D-01  9.52D-01
                    CP:  7.53D-01  6.74D-01  7.61D-01
 E= -8258.66881955296     Delta-E=       -0.000000004238 Rises=F Damp=F
 DIIS: error= 2.06D-06 at cycle   9 NSaved=   9.
 NSaved= 9 IEnMin= 9 EnMin= -8258.66881955296     IErMin= 9 ErrMin= 2.06D-06
 ErrMax= 2.06D-06  0.00D+00 EMaxC= 1.00D-01 BMatC= 1.10D-09 BMatP= 5.46D-09
 IDIUse=1 WtCom= 1.00D+00 WtEn= 0.00D+00
 Coeff-Com:  0.874D-05-0.204D-02-0.156D-02 0.271D-02 0.144D-01 0.535D-01
 Coeff-Com:  0.988D-01 0.343D+00 0.491D+00
 Coeff:      0.874D-05-0.204D-02-0.156D-02 0.271D-02 0.144D-01 0.535D-01
 Coeff:      0.988D-01 0.343D+00 0.491D+00
 Gap=     0.124 Goal=   None    Shift=    0.000
 RMSDP=5.88D-07 MaxDP=5.53D-05 DE=-4.24D-09 OVMax= 1.35D-05

 Cycle  10  Pass 1  IDiag  1:
 RMSU=  3.33D-07    CP:  9.92D-01  9.81D-01  4.81D-01  8.62D-01  9.55D-01
                    CP:  7.60D-01  6.87D-01  8.07D-01  7.31D-01
 E= -8258.66881955396     Delta-E=       -0.000000000997 Rises=F Damp=F
 DIIS: error= 8.37D-07 at cycle  10 NSaved=  10.
 NSaved=10 IEnMin=10 EnMin= -8258.66881955396     IErMin=10 ErrMin= 8.37D-07
 ErrMax= 8.37D-07  0.00D+00 EMaxC= 1.00D-01 BMatC= 1.41D-10 BMatP= 1.10D-09
 IDIUse=1 WtCom= 1.00D+00 WtEn= 0.00D+00
 Coeff-Com:  0.442D-05-0.674D-03-0.340D-03-0.415D-03 0.187D-02 0.116D-01
 Coeff-Com:  0.277D-01 0.139D+00 0.307D+00 0.514D+00
 Coeff:      0.442D-05-0.674D-03-0.340D-03-0.415D-03 0.187D-02 0.116D-01
 Coeff:      0.277D-01 0.139D+00 0.307D+00 0.514D+00
 Gap=     0.124 Goal=   None    Shift=    0.000
 RMSDP=1.43D-07 MaxDP=6.28D-06 DE=-9.97D-10 OVMax= 4.89D-06

 Cycle  11  Pass 1  IDiag  1:
 RMSU=  1.04D-07    CP:  9.92D-01  9.81D-01  4.81D-01  8.62D-01  9.55D-01
                    CP:  7.59D-01  6.91D-01  8.27D-01  7.87D-01  8.23D-01
 E= -8258.66881955401     Delta-E=       -0.000000000051 Rises=F Damp=F
 DIIS: error= 1.79D-07 at cycle  11 NSaved=  11.
 NSaved=11 IEnMin=11 EnMin= -8258.66881955401     IErMin=11 ErrMin= 1.79D-07
 ErrMax= 1.79D-07  0.00D+00 EMaxC= 1.00D-01 BMatC= 1.03D-11 BMatP= 1.41D-10
 IDIUse=1 WtCom= 1.00D+00 WtEn= 0.00D+00
 Coeff-Com:  0.775D-06 0.611D-05 0.871D-04-0.672D-03-0.154D-02-0.325D-02
 Coeff-Com: -0.288D-02 0.183D-01 0.781D-01 0.251D+00 0.661D+00
 Coeff:      0.775D-06 0.611D-05 0.871D-04-0.672D-03-0.154D-02-0.325D-02
 Coeff:     -0.288D-02 0.183D-01 0.781D-01 0.251D+00 0.661D+00
 Gap=     0.124 Goal=   None    Shift=    0.000
 RMSDP=6.59D-08 MaxDP=7.86D-06 DE=-5.09D-11 OVMax= 1.27D-06

 Cycle  12  Pass 1  IDiag  1:
 RMSU=  4.40D-08    CP:  9.92D-01  9.81D-01  4.81D-01  8.62D-01  9.55D-01
                    CP:  7.59D-01  6.92D-01  8.32D-01  7.99D-01  8.01D-01
                    CP:  8.68D-01
 E= -8258.66881955402     Delta-E=       -0.000000000011 Rises=F Damp=F
 DIIS: error= 5.67D-08 at cycle  12 NSaved=  12.
 NSaved=12 IEnMin=12 EnMin= -8258.66881955402     IErMin=12 ErrMin= 5.67D-08
 ErrMax= 5.67D-08  0.00D+00 EMaxC= 1.00D-01 BMatC= 1.58D-12 BMatP= 1.03D-11
 IDIUse=1 WtCom= 1.00D+00 WtEn= 0.00D+00
 Coeff-Com:  0.931D-08 0.656D-04 0.736D-04-0.302D-03-0.954D-03-0.270D-02
 Coeff-Com: -0.424D-02-0.276D-02 0.130D-01 0.811D-01 0.354D+00 0.563D+00
 Coeff:      0.931D-08 0.656D-04 0.736D-04-0.302D-03-0.954D-03-0.270D-02
 Coeff:     -0.424D-02-0.276D-02 0.130D-01 0.811D-01 0.354D+00 0.563D+00
 Gap=     0.124 Goal=   None    Shift=    0.000
 RMSDP=3.24D-08 MaxDP=3.32D-06 DE=-1.09D-11 OVMax= 3.74D-07

 Cycle  13  Pass 1  IDiag  1:
 RMSU=  1.27D-08    CP:  9.92D-01  9.81D-01  4.81D-01  8.62D-01  9.55D-01
                    CP:  7.59D-01  6.92D-01  8.35D-01  8.04D-01  8.41D-01
                    CP:  8.98D-01  6.72D-01
 E= -8258.66881955405     Delta-E=       -0.000000000031 Rises=F Damp=F
 DIIS: error= 1.37D-08 at cycle  13 NSaved=  13.
 NSaved=13 IEnMin=13 EnMin= -8258.66881955405     IErMin=13 ErrMin= 1.37D-08
 ErrMax= 1.37D-08  0.00D+00 EMaxC= 1.00D-01 BMatC= 1.44D-13 BMatP= 1.58D-12
 IDIUse=1 WtCom= 1.00D+00 WtEn= 0.00D+00
 Coeff-Com: -0.725D-07 0.333D-04 0.291D-04-0.898D-04-0.330D-03-0.988D-03
 Coeff-Com: -0.186D-02-0.321D-02-0.173D-02 0.149D-01 0.117D+00 0.292D+00
 Coeff-Com:  0.583D+00
 Coeff:     -0.725D-07 0.333D-04 0.291D-04-0.898D-04-0.330D-03-0.988D-03
 Coeff:     -0.186D-02-0.321D-02-0.173D-02 0.149D-01 0.117D+00 0.292D+00
 Coeff:      0.583D+00
 Gap=     0.124 Goal=   None    Shift=    0.000
 RMSDP=8.90D-09 MaxDP=5.30D-07 DE=-3.09D-11 OVMax= 1.28D-07

 SCF Done:  E(RB3LYP) =  -8258.66881955     A.U. after   13 cycles
            NFock= 13  Conv=0.89D-08     -V/T= 2.0014
 KE= 8.247198934771D+03 PE=-2.364389592724D+04 EE= 5.180958712138D+03
 Leave Link  502 at Tue Sep 29 16:22:29 2026, MaxMem=  5100273664 cpu:             724.6 elap:              45.3
 (Enter /share/software/user/restricted/gaussian/g16.B01/l701.exe)
 ... and contract with generalized density number  0.
 Compute integral first derivatives.
 Leave Link  701 at Tue Sep 29 16:22:30 2026, MaxMem=  5100273664 cpu:               2.2 elap:               0.2
 (Enter /share/software/user/restricted/gaussian/g16.B01/l702.exe)
 L702 exits ... SP integral derivatives will be done elsewhere.
 Leave Link  702 at Tue Sep 29 16:22:30 2026, MaxMem=  5100273664 cpu:               0.3 elap:               0.0
 (Enter /share/software/user/restricted/gaussian/g16.B01/l703.exe)
 Integral derivatives from FoFJK, PRISM(SPDF).
 Compute integral first derivatives, UseDBF=F ICtDFT=           0.
 Calling FoFJK, ICntrl=      2127 FMM=F ISym2X=0 I1Cent= 0 IOpClX= 0 NMat=1 NMatS=1 NMatT=0.
 FoFJK:  IHMeth= 1 ICntrl=    2127 DoSepK=F KAlg= 0 I1Cent=           0 FoldK=F
 IRaf=         0 NMat=       1 IRICut=       1 DoRegI=T DoRafI=F ISym2E= 0 IDoP0=0 IntGTp=1.
 FoFCou: FMM=F IPFlag=           0 FMFlag=      100000 FMFlg1=         800
         NFxFlg=           0 DoJE=F BraDBF=F KetDBF=F FulRan=T
         wScrn=  0.000000 ICntrl=      2127 IOpCl=  0 I1Cent=           0 NGrid=           0
         NMat0=    1 NMatS0=      1 NMatT0=    0 NMatD0=    1 NMtDS0=    0 NMtDT0=    0
 Symmetry not used in FoFCou.
 Leave Link  703 at Tue Sep 29 16:22:42 2026, MaxMem=  5100273664 cpu:             195.4 elap:              12.2
 (Enter /share/software/user/restricted/gaussian/g16.B01/l716.exe)
 Dipole        =-1.36198514D+00 6.63645908D-01-3.50315836D-03
 ***** Axes restored to original set *****
 -------------------------------------------------------------------
 Center     Atomic                   Forces (Hartrees/Bohr)
 Number     Number              X              Y              Z
 -------------------------------------------------------------------
      1        6          -0.003528802   -0.003113960   -0.000321980
      2        6           0.003303127    0.007354283    0.000244881
      3        6           0.002073339   -0.003455049   -0.000359407
      4        6          -0.009689755    0.000007702    0.000617670
      5        6           0.004981570   -0.001272180   -0.000337713
      6        6          -0.005817264    0.006351990    0.001336518
      7        6          -0.002196687   -0.003592632   -0.000413380
      8        6           0.002705474   -0.007935555    0.003399007
      9        6          -0.001862728    0.004514501    0.000206595
     10        6           0.008144113   -0.001938353   -0.001596917
     11        6          -0.003403634    0.000075139    0.000241457
     12        6           0.002318734    0.000270430   -0.000683708
     13        8          -0.000468195    0.001292057    0.000569251
     14       35          -0.000755136   -0.002865487   -0.000148726
     15        1           0.000096407   -0.000323280   -0.000036033
     16       35           0.003039138    0.000695019   -0.000161793
     17        1           0.000144065   -0.000412358   -0.000048163
     18        1           0.003685976    0.004046533   -0.003356386
     19        1          -0.000399211   -0.000102883    0.000577338
     20       35          -0.002089185    0.000660853    0.000162576
     21        1          -0.000144382    0.000108035    0.000083852
     22        1          -0.000136964   -0.000364804    0.000025062
 -------------------------------------------------------------------
 Cartesian Forces:  Max     0.009689755 RMS     0.002969878
 Leave Link  716 at Tue Sep 29 16:22:42 2026, MaxMem=  5100273664 cpu:               0.4 elap:               0.0
 (Enter /share/software/user/restricted/gaussian/g16.B01/l103.exe)

 GradGradGradGradGradGradGradGradGradGradGradGradGradGradGradGradGradGrad
 Berny optimization.
 Using GEDIIS/GDIIS optimizer.
 FormGI is forming the generalized inverse of G from B-inverse, IUseBI=4.
 Internal  Forces:  Max     0.012506755 RMS     0.003339944
 Search for a local minimum.
 Step number   7 out of a maximum of  116
 All quantities printed in internal units (Hartrees-Bohrs-Radians)
 RMS Force = .33399D-02 SwitMx=.10000D-02 MixMth= 1
 Mixed Optimization -- RFO/linear search
 Update second derivatives using D2CorX and points    6    5    7
 DE= -3.62D-03 DEPred=-4.71D-03 R= 7.70D-01
 TightC=F SS=  1.41D+00  RLast= 4.89D-01 DXNew= 3.5676D-01 1.4656D+00
 Trust test= 7.70D-01 RLast= 4.89D-01 DXMaxT set to 3.57D-01
 ITU=  1 -1  1  1 -1  0  0
 Use linear search instead of GDIIS.
     Eigenvalues ---    0.00768   0.01846   0.01996   0.02010   0.02020
     Eigenvalues ---    0.02031   0.02042   0.02092   0.02093   0.02102
     Eigenvalues ---    0.02107   0.02130   0.02132   0.02136   0.02166
     Eigenvalues ---    0.02186   0.02191   0.02234   0.02301   0.06761
     Eigenvalues ---    0.15992   0.16000   0.16000   0.16004   0.16060
     Eigenvalues ---    0.17340   0.18854   0.19119   0.20215   0.22324
     Eigenvalues ---    0.22911   0.23466   0.24623   0.24660   0.24953
     Eigenvalues ---    0.24989   0.25000   0.25730   0.26200   0.33673
     Eigenvalues ---    0.33700   0.33728   0.33787   0.34021   0.38105
     Eigenvalues ---    0.41335   0.41716   0.42645   0.44449   0.44776
     Eigenvalues ---    0.45008   0.45834   0.45915   0.46320   0.46588
     Eigenvalues ---    0.47186   0.47705   0.48458   1.03240  19.04864
 RFO step:  Lambda=-8.43051912D-03 EMin= 7.68143640D-03
 Quartic linear search produced a step of  0.07669.
 Maximum step size (   0.357) exceeded in Quadratic search.
    -- Step size scaled by   0.831
 Iteration  1 RMS(Cart)=  0.19970412 RMS(Int)=  0.01825805
 Iteration  2 RMS(Cart)=  0.02806034 RMS(Int)=  0.00026613
 Iteration  3 RMS(Cart)=  0.00035994 RMS(Int)=  0.00014868
 Iteration  4 RMS(Cart)=  0.00000017 RMS(Int)=  0.00014868
 ITry= 1 IFail=0 DXMaxC= 1.06D+00 DCOld= 1.00D+10 DXMaxT= 3.57D-01 DXLimC= 3.00D+00 Rises=F
 Variable       Old X    -DE/DX   Delta X   Delta X   Delta X     New X
                                 (Linear)    (Quad)   (Total)
    R1        2.64350  -0.00078   0.00031   0.00651   0.00680   2.65030
    R2        2.64089  -0.01047   0.00051  -0.00091  -0.00040   2.64049
    R3        2.65262  -0.00106   0.00019  -0.00078  -0.00059   2.65203
    R4        2.61729   0.00341  -0.00035   0.00595   0.00559   2.62288
    R5        3.76806  -0.00295   0.00257  -0.00469  -0.00212   3.76594
    R6        2.62627   0.00185   0.00018   0.00405   0.00424   2.63050
    R7        2.04147  -0.00029   0.00032   0.00821   0.00853   2.05000
    R8        2.61369   0.00317  -0.00115  -0.00504  -0.00617   2.60752
    R9        3.76977  -0.00311   0.00172  -0.01548  -0.01376   3.75601
   R10        2.66185  -0.00262   0.00058  -0.00473  -0.00414   2.65772
   R11        2.05686   0.00037   0.00012   0.00490   0.00502   2.06188
   R12        4.03412   0.00265   0.03630   0.34240   0.37869   4.41282
   R13        2.64626   0.00541   0.00077   0.01343   0.01423   2.66049
   R14        2.65095   0.00126   0.00075   0.01404   0.01482   2.66577
   R15        2.55459   0.00600  -0.00159  -0.00493  -0.00652   2.54806
   R16        2.64037   0.00022   0.00020  -0.00050  -0.00031   2.64007
   R17        2.61874   0.00152  -0.00045   0.00222   0.00173   2.62048
   R18        2.04842  -0.00003   0.00013   0.00576   0.00589   2.05431
   R19        2.62799  -0.00002  -0.00028  -0.00289  -0.00319   2.62480
   R20        3.68575  -0.00219  -0.00043  -0.02790  -0.02833   3.65742
   R21        2.63015  -0.00111   0.00002  -0.00187  -0.00184   2.62831
   R22        2.04761  -0.00004   0.00041   0.00920   0.00961   2.05722
   R23        2.05051  -0.00033   0.00040   0.00785   0.00826   2.05877
    A1        2.12079   0.00228  -0.00014  -0.00223  -0.00239   2.11840
    A2        1.96860   0.01023  -0.00143  -0.00614  -0.00757   1.96103
    A3        2.19380  -0.01251   0.00157   0.00837   0.00993   2.20373
    A4        2.13849  -0.00476   0.00156   0.00139   0.00288   2.14137
    A5        2.12238   0.00297   0.00006   0.01402   0.01406   2.13643
    A6        2.02232   0.00179  -0.00163  -0.01539  -0.01704   2.00528
    A7        2.01553   0.00314  -0.00225  -0.00660  -0.00887   2.00666
    A8        2.12610  -0.00138   0.00123   0.00568   0.00691   2.13301
    A9        2.14156  -0.00176   0.00102   0.00092   0.00194   2.14350
   A10        2.15382  -0.00328   0.00169   0.00467   0.00636   2.16018
   A11        2.03624   0.00223  -0.00102  -0.00013  -0.00117   2.03507
   A12        2.09312   0.00105  -0.00067  -0.00454  -0.00523   2.08789
   A13        2.11186  -0.00243   0.00025   0.00099   0.00123   2.11310
   A14        2.06888   0.00146   0.00035   0.00947   0.00976   2.07865
   A15        2.10244   0.00097  -0.00060  -0.01045  -0.01110   2.09134
   A16        2.02588   0.00505  -0.00112   0.00180   0.00054   2.02642
   A17        1.71229  -0.01211  -0.00225  -0.00212  -0.00454   1.70775
   A18        2.54502   0.00706   0.00337   0.00034   0.00354   2.54856
   A19        2.09200  -0.00236  -0.00173  -0.02362  -0.02539   2.06660
   A20        2.18668   0.00695   0.00305   0.05565   0.05855   2.24523
   A21        2.00451  -0.00459  -0.00133  -0.03208  -0.03352   1.97099
   A22        2.09188  -0.00181   0.00128   0.00820   0.00950   2.10138
   A23        2.07885   0.00366  -0.00075   0.00695   0.00615   2.08500
   A24        2.09825  -0.00228  -0.00010  -0.01197  -0.01205   2.08620
   A25        2.10608  -0.00138   0.00085   0.00502   0.00590   2.11198
   A26        2.13140  -0.00313   0.00064  -0.00816  -0.00761   2.12379
   A27        2.08267   0.00139  -0.00037   0.00259   0.00224   2.08491
   A28        2.06911   0.00175  -0.00027   0.00559   0.00535   2.07446
   A29        2.07017   0.00149  -0.00031   0.00249   0.00214   2.07230
   A30        2.10844  -0.00055   0.00009   0.00009   0.00020   2.10864
   A31        2.10458  -0.00093   0.00023  -0.00259  -0.00234   2.10224
   A32        2.10207   0.00216   0.00088   0.01417   0.01506   2.11713
   A33        2.07355  -0.00129  -0.00083  -0.01122  -0.01206   2.06149
   A34        2.10756  -0.00087  -0.00005  -0.00294  -0.00302   2.10455
   A35        2.21916  -0.00401   0.00261   0.02577   0.02837   2.24754
    D1       -0.00111   0.00103  -0.00007   0.02252   0.02247   0.02136
    D2        3.14145   0.00022   0.00001   0.00507   0.00494  -3.13679
    D3        3.14003   0.00140  -0.00011   0.03081   0.03072  -3.11243
    D4       -0.00059   0.00059  -0.00003   0.01336   0.01320   0.01261
    D5        0.00118  -0.00114   0.00008  -0.02452  -0.02446  -0.02328
    D6       -3.13970  -0.00243   0.00018  -0.04948  -0.04915   3.09433
    D7       -3.13990  -0.00157   0.00012  -0.03393  -0.03393   3.10936
    D8        0.00240  -0.00286   0.00023  -0.05890  -0.05862  -0.05621
    D9       -3.13048  -0.00803   0.00078  -0.19385  -0.19311   2.95959
   D10        0.01064  -0.00764   0.00074  -0.18515  -0.18437  -0.17373
   D11        0.00026  -0.00019   0.00002  -0.00448  -0.00450  -0.00424
   D12       -3.14118  -0.00038   0.00003  -0.00848  -0.00843   3.13358
   D13        3.14094   0.00057  -0.00006   0.01205   0.01182  -3.13042
   D14       -0.00050   0.00038  -0.00005   0.00805   0.00789   0.00739
   D15        0.00043  -0.00047   0.00003  -0.01009  -0.01008  -0.00965
   D16        3.14144   0.00008  -0.00002   0.00153   0.00159  -3.14016
   D17       -3.14132  -0.00027   0.00002  -0.00605  -0.00612   3.13575
   D18       -0.00031   0.00027  -0.00003   0.00557   0.00554   0.00524
   D19       -0.00030   0.00030  -0.00002   0.00709   0.00711   0.00680
   D20        3.14033   0.00111  -0.00008   0.02368   0.02375  -3.11910
   D21       -3.14129  -0.00026   0.00003  -0.00490  -0.00489   3.13700
   D22       -0.00066   0.00055  -0.00004   0.01170   0.01175   0.01110
   D23       -0.00051   0.00051  -0.00004   0.01035   0.01038   0.00987
   D24        3.13984   0.00278  -0.00021   0.05434   0.05415  -3.08920
   D25       -3.14113  -0.00032   0.00003  -0.00657  -0.00639   3.13567
   D26       -0.00078   0.00195  -0.00014   0.03742   0.03737   0.03659
   D27        0.00125  -0.00090   0.00010  -0.01895  -0.01877  -0.01753
   D28       -3.13856   0.00026   0.00025   0.00971   0.01074  -3.12782
   D29       -0.00174   0.00098  -0.00013   0.02032   0.01997   0.01823
   D30        3.14127   0.00061  -0.00002   0.01359   0.01326  -3.12866
   D31        3.13824  -0.00005  -0.00028  -0.00537  -0.00496   3.13328
   D32       -0.00193  -0.00042  -0.00016  -0.01210  -0.01167  -0.01360
   D33        0.01265  -0.00653   0.00100  -0.14019  -0.13952  -0.12687
   D34       -3.12724  -0.00543   0.00115  -0.11281  -0.11134   3.04461
   D35        0.00042   0.00020   0.00004   0.00499   0.00531   0.00573
   D36       -3.14046  -0.00005   0.00009   0.00038   0.00064  -3.13982
   D37       -0.00166   0.00044  -0.00013   0.00800   0.00778   0.00612
   D38        3.14130  -0.00000  -0.00002  -0.00035  -0.00047   3.14083
   D39        3.13921   0.00069  -0.00019   0.01263   0.01252  -3.13145
   D40       -0.00101   0.00024  -0.00008   0.00428   0.00427   0.00326
   D41        0.00118  -0.00036   0.00009  -0.00673  -0.00672  -0.00555
   D42       -3.14063  -0.00040   0.00008  -0.00797  -0.00788   3.13467
   D43        3.14141   0.00008  -0.00002   0.00156   0.00148  -3.14030
   D44       -0.00040   0.00004  -0.00003   0.00031   0.00032  -0.00009
   D45        0.00055  -0.00036   0.00004  -0.00754  -0.00744  -0.00689
   D46        3.14069   0.00002  -0.00008  -0.00068  -0.00057   3.14013
   D47       -3.14083  -0.00032   0.00006  -0.00630  -0.00628   3.13607
   D48       -0.00069   0.00006  -0.00006   0.00056   0.00059  -0.00010
         Item               Value     Threshold  Converged?
 Maximum Force            0.012507     0.000450     NO 
 RMS     Force            0.003340     0.000300     NO 
 Maximum Displacement     1.064904     0.001800     NO 
 RMS     Displacement     0.219810     0.001200     NO 
 Predicted change in Energy=-5.116327D-03
 Lowest energy point so far.  Saving SCF results.
 GradGradGradGradGradGradGradGradGradGradGradGradGradGradGradGradGradGrad

 Leave Link  103 at Tue Sep 29 16:22:42 2026, MaxMem=  5100273664 cpu:               0.8 elap:               0.1
 (Enter /share/software/user/restricted/gaussian/g16.B01/l202.exe)
                          Input orientation:                          
 ---------------------------------------------------------------------
 Center     Atomic      Atomic             Coordinates (Angstroms)
 Number     Number       Type             X           Y           Z
 ---------------------------------------------------------------------
      1          6           0       -1.305801   -1.072115   -0.001711
      2          6           0       -2.323298   -0.158156    0.308655
      3          6           0       -3.655316   -0.530369    0.425435
      4          6           0       -3.909448   -1.881272    0.206006
      5          6           0       -2.934232   -2.802685   -0.116336
      6          6           0       -1.586208   -2.420484   -0.237677
      7          6           0        1.173747   -1.058045   -0.098733
      8          6           0        1.492799   -2.427285   -0.024699
      9          6           0        2.822590   -2.848526   -0.102137
     10          6           0        3.829370   -1.905848   -0.245935
     11          6           0        3.552245   -0.546226   -0.308389
     12          6           0        2.227576   -0.129564   -0.230413
     13          8           0       -0.038017   -0.470845   -0.028428
     14         35           0       -1.959375    1.772467    0.642889
     15          1           0       -4.435196    0.181880    0.673037
     16         35           0       -5.802640   -2.466986    0.358667
     17          1           0       -3.222130   -3.840186   -0.292984
     18          1           0        0.582875   -3.110731   -0.758849
     19          1           0        3.052761   -3.909442   -0.045073
     20         35           0        5.671646   -2.489501   -0.351924
     21          1           0        4.354307    0.182094   -0.415010
     22          1           0        1.976124    0.929542   -0.274894
 ---------------------------------------------------------------------
                    Distance matrix (angstroms):
                    1          2          3          4          5
     1  C    0.000000
     2  C    1.402479   0.000000
     3  C    2.448706   1.387967   0.000000
     4  C    2.734385   2.344256   1.392002   0.000000
     5  C    2.379033   2.747252   2.444769   1.379838   0.000000
     6  C    1.397286   2.441293   2.879837   2.425912   1.406403
     7  C    2.481485   3.633880   4.886004   5.158433   4.463134
     8  C    3.109530   4.452265   5.504906   5.434669   4.443863
     9  C    4.495479   5.821254   6.900394   6.808147   5.757021
    10  C    5.208142   6.420072   7.639582   7.752042   6.824033
    11  C    4.896041   5.920587   7.244838   7.597619   6.870434
    12  C    3.664077   4.582779   5.932891   6.397031   5.814022
    13  O    1.403394   2.331074   3.646146   4.127013   3.719309
    14  Br   2.989032   1.992851   2.868197   4.164547   4.739069
    15  H    3.438154   2.169911   1.084813   2.179707   3.432730
    16  Br   4.721981   4.176005   2.892395   1.987597   2.926788
    17  H    3.379257   3.837606   3.414478   2.135121   1.091100
    18  H    2.880332   4.278213   5.101280   4.756414   3.588558
    19  H    5.200901   6.565004   7.525809   7.255954   6.088848
    20  Br   7.128562   8.354081   9.562149   9.616579   8.614796
    21  H    5.812114   6.725315   8.085048   8.540069   7.881681
    22  H    3.853866   4.473102   5.859600   6.540022   6.169785
                    6          7          8          9         10
     6  C    0.000000
     7  C    3.081054   0.000000
     8  C    3.086372   1.407869   0.000000
     9  C    4.431601   2.434033   1.397062   0.000000
    10  C    5.439982   2.791554   2.404248   1.386696   0.000000
    11  C    5.470059   2.441960   2.803601   2.423947   1.388982
    12  C    4.448968   1.410664   2.421103   2.786261   2.391897
    13  O    2.498354   1.348376   2.484164   3.720466   4.130767
    14  Br   4.300638   4.286987   5.477326   6.691474   6.915894
    15  H    3.964648   5.795972   6.514269   7.903146   8.573575
    16  Br   4.258648   7.131921   7.305613   8.645953   9.667267
    17  H    2.166761   5.205937   4.929384   6.128495   7.312150
    18  H    2.335162   2.235711   1.354267   2.348690   3.500651
    19  H    4.875871   3.415266   2.151903   1.087097   2.158207
    20  Br   7.259081   4.726973   4.192101   2.882432   1.935424
    21  H    6.488033   3.428401   3.892226   3.410088   2.159548
    22  H    4.890222   2.150661   3.400659   3.875583   3.387447
                   11         12         13         14         15
    11  C    0.000000
    12  C    1.390840   0.000000
    13  O    3.601950   2.300040   0.000000
    14  Br   6.054687   4.680912   3.028982   0.000000
    15  H    8.080381   6.730955   4.500365   2.942884   0.000000
    16  Br   9.573304   8.384207   6.112716   5.729261   2.997536
    17  H    7.532766   6.593325   4.643385   5.828574   4.310654
    18  H    3.949273   3.445526   2.808562   5.680980   6.170302
    19  H    3.410285   3.873340   4.623542   7.607818   8.562949
    20  Br   2.875774   4.176804   6.064642   8.796961  10.504051
    21  H    1.088633   2.157357   4.457386   6.596288   8.856591
    22  H    2.159438   1.089454   2.465481   4.128075   6.524002
                   16         17         18         19         20
    16  Br   0.000000
    17  H    2.994888   0.000000
    18  H    6.514449   3.902204   0.000000
    19  H    8.981192   6.280168   2.692165   0.000000
    20  Br  11.496290   8.995948   5.142675   2.994821   0.000000
    21  H   10.525197   8.578812   5.018428   4.309471   2.979393
    22  H    8.511578   7.054961   4.301065   4.962634   5.035144
                   21         22
    21  H    0.000000
    22  H    2.496811   0.000000
 Stoichiometry    C12H6Br3O(1-)
 Framework group  C1[X(C12H6Br3O)]
 Deg. of freedom    60
 Full point group                 C1      NOp   1
 RotChk:  IX=0 Diff= 4.94D-02
 Largest Abelian subgroup         C1      NOp   1
 Largest concise Abelian subgroup C1      NOp   1
                         Standard orientation:                         
 ---------------------------------------------------------------------
 Center     Atomic      Atomic             Coordinates (Angstroms)
 Number     Number       Type             X           Y           Z
 ---------------------------------------------------------------------
      1          6           0        0.912423    0.045857    0.173701
      2          6           0        2.020846    0.894111    0.036546
      3          6           0        3.323150    0.419833   -0.037719
      4          6           0        3.449851   -0.964241    0.039453
      5          6           0        2.381972   -1.824958    0.190302
      6          6           0        1.064236   -1.339869    0.269227
      7          6           0       -1.558198    0.269988    0.114011
      8          6           0       -1.981253   -1.048909   -0.138238
      9          6           0       -3.342981   -1.355971   -0.194734
     10          6           0       -4.277593   -0.348913   -0.006953
     11          6           0       -3.896148    0.965471    0.230041
     12          6           0       -2.539843    1.268516    0.285148
     13          8           0       -0.300815    0.751068    0.189304
     14         35           0        1.840556    2.874476   -0.094249
     15          1           0        4.174387    1.082672   -0.151116
     16         35           0        5.295227   -1.695914   -0.059464
     17          1           0        2.570851   -2.897088    0.263514
     18          1           0       -1.186099   -1.887265    0.568110
     19          1           0       -3.653859   -2.379431   -0.388804
     20         35           0       -6.164026   -0.774241   -0.086512
     21          1           0       -4.641978    1.746182    0.369144
     22          1           0       -2.207038    2.289672    0.467886
 ---------------------------------------------------------------------
 Rotational constants (GHZ):           0.4503195           0.0759038           0.0650759
 Leave Link  202 at Tue Sep 29 16:22:42 2026, MaxMem=  5100273664 cpu:               0.5 elap:               0.1
 (Enter /share/software/user/restricted/gaussian/g16.B01/l301.exe)
 Standard basis: 6-311++G(d) (5D, 7F)
 Ernie: Thresh=  0.10000D-02 Tol=  0.10000D-05 Strict=F.
 There are   476 symmetry adapted cartesian basis functions of A   symmetry.
 There are   454 symmetry adapted basis functions of A   symmetry.
   454 basis functions,   786 primitive gaussians,   476 cartesian basis functions
    96 alpha electrons       96 beta electrons
       nuclear repulsion energy      1953.9455054696 Hartrees.
 IExCor=  402 DFT=T Ex+Corr=B3LYP ExCW=0 ScaHFX=  0.200000
 ScaDFX=  0.800000  0.720000  1.000000  0.810000 ScalE2=  1.000000  1.000000
 IRadAn=      5 IRanWt=     -1 IRanGd=            0 ICorTp=0 IEmpDi=  4
 NAtoms=   22 NActive=   22 NUniq=   22 SFac= 1.00D+00 NAtFMM=   60 NAOKFM=F Big=F
 Integral buffers will be    131072 words long.
 Raffenetti 2 integral format.
 Two-electron integral symmetry is turned on.
 Leave Link  301 at Tue Sep 29 16:22:42 2026, MaxMem=  5100273664 cpu:               0.5 elap:               0.0
 (Enter /share/software/user/restricted/gaussian/g16.B01/l302.exe)
 NPDir=0 NMtPBC=     1 NCelOv=     1 NCel=       1 NClECP=     1 NCelD=      1
         NCelK=      1 NCelE2=     1 NClLst=     1 CellRange=     0.0.
 One-electron integrals computed using PRISM.
 One-electron integral symmetry used in STVInt
 NBasis=   454 RedAO= T EigKep=  2.03D-06  NBF=   454
 NBsUse=   451 1.00D-06 EigRej=  8.99D-07 NBFU=   451
 Precomputing XC quadrature grid using
 IXCGrd= 4 IRadAn=           5 IRanWt=          -1 IRanGd=           0 AccXCQ= 0.00D+00.
 Generated NRdTot=       0 NPtTot=           0 NUsed=           0 NTot=          32
 NSgBfM=   445   445   445   445   445 MxSgAt=    22 MxSgA2=    22.
 Leave Link  302 at Tue Sep 29 16:22:43 2026, MaxMem=  5100273664 cpu:               4.5 elap:               0.3
 (Enter /share/software/user/restricted/gaussian/g16.B01/l303.exe)
 DipDrv:  MaxL=1.
 Leave Link  303 at Tue Sep 29 16:22:43 2026, MaxMem=  5100273664 cpu:               0.9 elap:               0.1
 (Enter /share/software/user/restricted/gaussian/g16.B01/l401.exe)
 Initial guess from the checkpoint file:  "calcs/b3lyp_gas/chks/BDE_24_2r4_anion.chk"
 B after Tr=     0.000000   -0.000000   -0.000000
         Rot=    0.999993   -0.000986   -0.000124   -0.003690 Ang=  -0.44 deg.
 Guess basis will be translated and rotated to current coordinates.
 JPrj=2 DoOrth=T DoCkMO=T.
 Generating alternative initial guess.
 ExpMin= 3.50D-02 ExpMax= 4.40D+05 ExpMxC= 1.51D+04 IAcc=3 IRadAn=         5 AccDes= 0.00D+00
 Harris functional with IExCor=  402 and IRadAn=       5 diagonalized for initial guess.
 HarFok:  IExCor=  402 AccDes= 0.00D+00 IRadAn=         5 IDoV= 1 UseB2=F ITyADJ=14
 ICtDFT=  3500011 ScaDFX=  1.000000  1.000000  1.000000  1.000000
 FoFCou: FMM=F IPFlag=           0 FMFlag=      100000 FMFlg1=           0
         NFxFlg=           0 DoJE=T BraDBF=F KetDBF=T FulRan=T
         wScrn=  0.000000 ICntrl=       500 IOpCl=  0 I1Cent=   200000004 NGrid=           0
         NMat0=    1 NMatS0=      1 NMatT0=    0 NMatD0=    1 NMtDS0=    0 NMtDT0=    0
 Petite list used in FoFCou.
 Harris En= -8258.95932240797    
 Leave Link  401 at Tue Sep 29 16:22:44 2026, MaxMem=  5100273664 cpu:              24.2 elap:               1.5
 (Enter /share/software/user/restricted/gaussian/g16.B01/l502.exe)
 Integral symmetry usage will be decided dynamically.
 Closed shell SCF:
 Using DIIS extrapolation, IDIIS=  1040.
 NGot=  5100273664 LenX=  5099808623 LenY=  5099581571
 Requested convergence on RMS density matrix=1.00D-08 within 128 cycles.
 Requested convergence on MAX density matrix=1.00D-06.
 Requested convergence on             energy=1.00D-06.
 No special actions if energy rises.
 Fock matrices will be formed incrementally for  20 cycles.

 Cycle   1  Pass 1  IDiag  1:
 FoFJK:  IHMeth= 1 ICntrl=       0 DoSepK=F KAlg= 0 I1Cent=           0 FoldK=F
 IRaf= 770000000 NMat=       1 IRICut=       1 DoRegI=T DoRafI=F ISym2E= 0 IDoP0=0 IntGTp=1.
 FoFCou: FMM=F IPFlag=           0 FMFlag=      100000 FMFlg1=           0
         NFxFlg=           0 DoJE=F BraDBF=F KetDBF=F FulRan=T
         wScrn=  0.000000 ICntrl=         0 IOpCl=  0 I1Cent=           0 NGrid=           0
         NMat0=    1 NMatS0=      1 NMatT0=    0 NMatD0=    1 NMtDS0=    0 NMtDT0=    0
 Symmetry not used in FoFCou.
 E= -8258.40930732296    
 DIIS: error= 3.29D-02 at cycle   1 NSaved=   1.
 NSaved= 1 IEnMin= 1 EnMin= -8258.40930732296     IErMin= 1 ErrMin= 3.29D-02
 ErrMax= 3.29D-02  0.00D+00 EMaxC= 1.00D-01 BMatC= 4.68D-01 BMatP= 4.68D-01
 IDIUse=3 WtCom= 6.71D-01 WtEn= 3.29D-01
 Coeff-Com:  0.100D+01
 Coeff-En:   0.100D+01
 Coeff:      0.100D+01
 Recover alternate guess density for next cycle.
 RMSDP=2.50D-02 MaxDP=2.54D+00              OVMax= 0.00D+00

 Cycle   2  Pass 1  IDiag  1:
 RMSU=  2.44D-02    CP:  1.15D+00
 E= -8258.17364271487     Delta-E=        0.235664608093 Rises=F Damp=F
 Switch densities from cycles 1 and 2 for lowest energy.
 DIIS: error= 1.27D-01 at cycle   2 NSaved=   2.
 NSaved= 2 IEnMin= 1 EnMin= -8258.40930732296     IErMin= 1 ErrMin= 3.29D-02
 ErrMax= 1.27D-01  0.00D+00 EMaxC= 1.00D+00 BMatC= 3.89D+00 BMatP= 4.68D-01
 IDIUse=1 WtCom= 1.00D+00 WtEn= 0.00D+00
 Coeff-Com:  0.894D+00 0.106D+00
 Coeff:      0.894D+00 0.106D+00
 Gap=     0.125 Goal=   None    Shift=    0.000
 RMSDP=1.58D-02 MaxDP=1.49D+00 DE= 2.36D-01 OVMax= 1.76D-01

 Cycle   3  Pass 1  IDiag  1:
 RMSU=  9.62D-03    CP:  9.47D-01  5.06D-01
 E= -8258.59674257641     Delta-E=       -0.423099861539 Rises=F Damp=F
 DIIS: error= 4.86D-03 at cycle   3 NSaved=   3.
 NSaved= 3 IEnMin= 3 EnMin= -8258.59674257641     IErMin= 3 ErrMin= 4.86D-03
 ErrMax= 4.86D-03  0.00D+00 EMaxC= 1.00D+00 BMatC= 2.42D-02 BMatP= 4.68D-01
 IDIUse=1 WtCom= 1.00D+00 WtEn= 0.00D+00
 Coeff-Com:  0.335D-01 0.415D-01 0.925D+00
 Coeff:      0.335D-01 0.415D-01 0.925D+00
 Gap=     0.140 Goal=   None    Shift=    0.000
 RMSDP=5.53D-03 MaxDP=2.82D-01 DE=-4.23D-01 OVMax= 1.10D-01

 Cycle   4  Pass 1  IDiag  1:
 RMSU=  5.18D-03    CP:  9.63D-01  5.22D-01  8.12D-01
 E= -8258.57181032217     Delta-E=        0.024932254233 Rises=F Damp=F
 DIIS: error= 1.09D-02 at cycle   4 NSaved=   4.
 NSaved= 4 IEnMin= 3 EnMin= -8258.59674257641     IErMin= 3 ErrMin= 4.86D-03
 ErrMax= 1.09D-02  0.00D+00 EMaxC= 1.00D+00 BMatC= 4.49D-02 BMatP= 2.42D-02
 IDIUse=1 WtCom= 1.00D+00 WtEn= 0.00D+00
 Coeff-Com: -0.390D-02 0.123D-01 0.603D+00 0.389D+00
 Coeff:     -0.390D-02 0.123D-01 0.603D+00 0.389D+00
 Gap=     0.112 Goal=   None    Shift=    0.000
 RMSDP=3.63D-03 MaxDP=2.33D-01 DE= 2.49D-02 OVMax= 8.12D-02

 Cycle   5  Pass 1  IDiag  1:
 RMSU=  1.54D-03    CP:  9.44D-01  4.98D-01  8.93D-01  4.09D-01
 E= -8258.61509605233     Delta-E=       -0.043285730160 Rises=F Damp=F
 DIIS: error= 2.96D-03 at cycle   5 NSaved=   5.
 NSaved= 5 IEnMin= 5 EnMin= -8258.61509605233     IErMin= 5 ErrMin= 2.96D-03
 ErrMax= 2.96D-03  0.00D+00 EMaxC= 1.00D+00 BMatC= 2.55D-03 BMatP= 2.42D-02
 IDIUse=1 WtCom= 1.00D+00 WtEn= 0.00D+00
 Coeff-Com: -0.365D-02 0.312D-02 0.320D+00 0.250D+00 0.431D+00
 Coeff:     -0.365D-02 0.312D-02 0.320D+00 0.250D+00 0.431D+00
 Gap=     0.117 Goal=   None    Shift=    0.000
 RMSDP=1.02D-03 MaxDP=8.50D-02 DE=-4.33D-02 OVMax= 1.89D-02

 Cycle   6  Pass 1  IDiag  1:
 RMSU=  5.06D-04    CP:  9.50D-01  5.11D-01  9.18D-01  4.55D-01  5.25D-01
 E= -8258.61742720298     Delta-E=       -0.002331150648 Rises=F Damp=F
 DIIS: error= 5.48D-04 at cycle   6 NSaved=   6.
 NSaved= 6 IEnMin= 6 EnMin= -8258.61742720298     IErMin= 6 ErrMin= 5.48D-04
 ErrMax= 5.48D-04  0.00D+00 EMaxC= 1.00D+00 BMatC= 1.64D-04 BMatP= 2.55D-03
 IDIUse=1 WtCom= 1.00D+00 WtEn= 0.00D+00
 Coeff-Com: -0.141D-02 0.409D-03 0.106D+00 0.908D-01 0.247D+00 0.556D+00
 Coeff:     -0.141D-02 0.409D-03 0.106D+00 0.908D-01 0.247D+00 0.556D+00
 Gap=     0.115 Goal=   None    Shift=    0.000
 RMSDP=2.44D-04 MaxDP=1.27D-02 DE=-2.33D-03 OVMax= 5.98D-03

 Cycle   7  Pass 1  IDiag  1:
 RMSU=  1.64D-04    CP:  9.50D-01  5.10D-01  9.24D-01  4.60D-01  5.94D-01
                    CP:  7.46D-01
 E= -8258.61756459474     Delta-E=       -0.000137391755 Rises=F Damp=F
 DIIS: error= 2.60D-04 at cycle   7 NSaved=   7.
 NSaved= 7 IEnMin= 7 EnMin= -8258.61756459474     IErMin= 7 ErrMin= 2.60D-04
 ErrMax= 2.60D-04  0.00D+00 EMaxC= 1.00D+00 BMatC= 4.27D-05 BMatP= 1.64D-04
 IDIUse=1 WtCom= 1.00D+00 WtEn= 0.00D+00
 Coeff-Com: -0.460D-03-0.623D-04 0.163D-01 0.167D-01 0.968D-01 0.383D+00
 Coeff-Com:  0.488D+00
 Coeff:     -0.460D-03-0.623D-04 0.163D-01 0.167D-01 0.968D-01 0.383D+00
 Coeff:      0.488D+00
 Gap=     0.115 Goal=   None    Shift=    0.000
 RMSDP=1.03D-04 MaxDP=6.73D-03 DE=-1.37D-04 OVMax= 3.19D-03

 Cycle   8  Pass 1  IDiag  1:
 RMSU=  6.99D-05    CP:  9.50D-01  5.09D-01  9.19D-01  4.64D-01  6.06D-01
                    CP:  7.78D-01  7.60D-01
 E= -8258.61760561076     Delta-E=       -0.000041016025 Rises=F Damp=F
 DIIS: error= 1.09D-04 at cycle   8 NSaved=   8.
 NSaved= 8 IEnMin= 8 EnMin= -8258.61760561076     IErMin= 8 ErrMin= 1.09D-04
 ErrMax= 1.09D-04  0.00D+00 EMaxC= 1.00D+00 BMatC= 4.01D-06 BMatP= 4.27D-05
 IDIUse=1 WtCom= 1.00D+00 WtEn= 0.00D+00
 Coeff-Com: -0.347D-04-0.854D-04-0.761D-02-0.647D-02 0.152D-01 0.134D+00
 Coeff-Com:  0.291D+00 0.574D+00
 Coeff:     -0.347D-04-0.854D-04-0.761D-02-0.647D-02 0.152D-01 0.134D+00
 Coeff:      0.291D+00 0.574D+00
 Gap=     0.115 Goal=   None    Shift=    0.000
 RMSDP=4.19D-05 MaxDP=2.39D-03 DE=-4.10D-05 OVMax= 8.87D-04

 Cycle   9  Pass 1  IDiag  1:
 RMSU=  2.66D-05    CP:  9.50D-01  5.10D-01  9.20D-01  4.62D-01  6.12D-01
                    CP:  7.92D-01  7.74D-01  6.71D-01
 E= -8258.61760985880     Delta-E=       -0.000004248039 Rises=F Damp=F
 DIIS: error= 3.65D-05 at cycle   9 NSaved=   9.
 NSaved= 9 IEnMin= 9 EnMin= -8258.61760985880     IErMin= 9 ErrMin= 3.65D-05
 ErrMax= 3.65D-05  0.00D+00 EMaxC= 1.00D+00 BMatC= 4.25D-07 BMatP= 4.01D-06
 IDIUse=1 WtCom= 1.00D+00 WtEn= 0.00D+00
 Coeff-Com:  0.835D-05-0.446D-04-0.554D-02-0.499D-02 0.255D-02 0.539D-01
 Coeff-Com:  0.141D+00 0.347D+00 0.467D+00
 Coeff:      0.835D-05-0.446D-04-0.554D-02-0.499D-02 0.255D-02 0.539D-01
 Coeff:      0.141D+00 0.347D+00 0.467D+00
 Gap=     0.115 Goal=   None    Shift=    0.000
 RMSDP=1.44D-05 MaxDP=1.23D-03 DE=-4.25D-06 OVMax= 2.57D-04

 Cycle  10  Pass 1  IDiag  1:
 RMSU=  7.78D-06    CP:  9.50D-01  5.09D-01  9.19D-01  4.61D-01  6.13D-01
                    CP:  7.99D-01  7.66D-01  7.14D-01  7.63D-01
 E= -8258.61761026986     Delta-E=       -0.000000411063 Rises=F Damp=F
 DIIS: error= 1.26D-05 at cycle  10 NSaved=  10.
 NSaved=10 IEnMin=10 EnMin= -8258.61761026986     IErMin=10 ErrMin= 1.26D-05
 ErrMax= 1.26D-05  0.00D+00 EMaxC= 1.00D+00 BMatC= 5.67D-08 BMatP= 4.25D-07
 IDIUse=1 WtCom= 1.00D+00 WtEn= 0.00D+00
 Coeff-Com:  0.710D-05-0.150D-04-0.230D-02-0.209D-02-0.621D-03 0.135D-01
 Coeff-Com:  0.444D-01 0.131D+00 0.293D+00 0.523D+00
 Coeff:      0.710D-05-0.150D-04-0.230D-02-0.209D-02-0.621D-03 0.135D-01
 Coeff:      0.444D-01 0.131D+00 0.293D+00 0.523D+00
 Gap=     0.115 Goal=   None    Shift=    0.000
 RMSDP=4.05D-06 MaxDP=3.66D-04 DE=-4.11D-07 OVMax= 9.48D-05

 Cycle  11  Pass 1  IDiag  1:
 RMSU=  2.50D-06    CP:  9.50D-01  5.09D-01  9.20D-01  4.62D-01  6.12D-01
                    CP:  8.01D-01  7.71D-01  7.12D-01  7.80D-01  7.96D-01
 E= -8258.61761032323     Delta-E=       -0.000000053369 Rises=F Damp=F
 DIIS: error= 6.74D-06 at cycle  11 NSaved=  11.
 NSaved=11 IEnMin=11 EnMin= -8258.61761032323     IErMin=11 ErrMin= 6.74D-06
 ErrMax= 6.74D-06  0.00D+00 EMaxC= 1.00D+00 BMatC= 1.08D-08 BMatP= 5.67D-08
 IDIUse=1 WtCom= 1.00D+00 WtEn= 0.00D+00
 Coeff-Com:  0.399D-05-0.356D-05-0.576D-03-0.518D-03-0.787D-03-0.555D-03
 Coeff-Com:  0.465D-02 0.252D-01 0.114D+00 0.348D+00 0.511D+00
 Coeff:      0.399D-05-0.356D-05-0.576D-03-0.518D-03-0.787D-03-0.555D-03
 Coeff:      0.465D-02 0.252D-01 0.114D+00 0.348D+00 0.511D+00
 Gap=     0.115 Goal=   None    Shift=    0.000
 RMSDP=1.64D-06 MaxDP=1.51D-04 DE=-5.34D-08 OVMax= 3.81D-05

 Cycle  12  Pass 1  IDiag  1:
 RMSU=  1.11D-06    CP:  9.50D-01  5.09D-01  9.20D-01  4.62D-01  6.13D-01
                    CP:  8.00D-01  7.73D-01  7.16D-01  7.85D-01  8.28D-01
                    CP:  6.73D-01
 E= -8258.61761033399     Delta-E=       -0.000000010756 Rises=F Damp=F
 DIIS: error= 1.10D-06 at cycle  12 NSaved=  12.
 NSaved=12 IEnMin=12 EnMin= -8258.61761033399     IErMin=12 ErrMin= 1.10D-06
 ErrMax= 1.10D-06  0.00D+00 EMaxC= 1.00D+00 BMatC= 8.10D-10 BMatP= 1.08D-08
 IDIUse=1 WtCom= 1.00D+00 WtEn= 0.00D+00
 Coeff-Com:  0.107D-05 0.211D-06-0.248D-05-0.134D-04-0.344D-03-0.231D-02
 Coeff-Com: -0.368D-02-0.477D-02 0.249D-01 0.125D+00 0.274D+00 0.587D+00
 Coeff:      0.107D-05 0.211D-06-0.248D-05-0.134D-04-0.344D-03-0.231D-02
 Coeff:     -0.368D-02-0.477D-02 0.249D-01 0.125D+00 0.274D+00 0.587D+00
 Gap=     0.115 Goal=   None    Shift=    0.000
 RMSDP=7.68D-07 MaxDP=5.86D-05 DE=-1.08D-08 OVMax= 1.00D-05

 Cycle  13  Pass 1  IDiag  1:
 RMSU=  3.25D-07    CP:  9.50D-01  5.09D-01  9.20D-01  4.62D-01  6.13D-01
                    CP:  8.00D-01  7.72D-01  7.16D-01  7.95D-01  8.37D-01
                    CP:  6.81D-01  8.93D-01
 E= -8258.61761033480     Delta-E=       -0.000000000813 Rises=F Damp=F
 DIIS: error= 4.15D-07 at cycle  13 NSaved=  13.
 NSaved=13 IEnMin=13 EnMin= -8258.61761033480     IErMin=13 ErrMin= 4.15D-07
 ErrMax= 4.15D-07  0.00D+00 EMaxC= 1.00D+00 BMatC= 9.07D-11 BMatP= 8.10D-10
 IDIUse=1 WtCom= 1.00D+00 WtEn= 0.00D+00
 Coeff-Com:  0.323D-06 0.387D-06 0.610D-04 0.437D-04-0.103D-03-0.123D-02
 Coeff-Com: -0.251D-02-0.535D-02 0.283D-02 0.344D-01 0.977D-01 0.319D+00
 Coeff-Com:  0.555D+00
 Coeff:      0.323D-06 0.387D-06 0.610D-04 0.437D-04-0.103D-03-0.123D-02
 Coeff:     -0.251D-02-0.535D-02 0.283D-02 0.344D-01 0.977D-01 0.319D+00
 Coeff:      0.555D+00
 Gap=     0.115 Goal=   None    Shift=    0.000
 RMSDP=1.84D-07 MaxDP=1.43D-05 DE=-8.13D-10 OVMax= 3.09D-06

 Cycle  14  Pass 1  IDiag  1:
 RMSU=  1.30D-07    CP:  9.50D-01  5.09D-01  9.20D-01  4.62D-01  6.13D-01
                    CP:  8.00D-01  7.72D-01  7.16D-01  7.96D-01  8.40D-01
                    CP:  6.83D-01  9.32D-01  8.79D-01
 E= -8258.61761033488     Delta-E=       -0.000000000084 Rises=F Damp=F
 DIIS: error= 1.16D-07 at cycle  14 NSaved=  14.
 NSaved=14 IEnMin=14 EnMin= -8258.61761033488     IErMin=14 ErrMin= 1.16D-07
 ErrMax= 1.16D-07  0.00D+00 EMaxC= 1.00D+00 BMatC= 1.00D-11 BMatP= 9.07D-11
 IDIUse=1 WtCom= 1.00D+00 WtEn= 0.00D+00
 Coeff-Com: -0.589D-08 0.257D-06 0.317D-04 0.233D-04-0.110D-04-0.369D-03
 Coeff-Com: -0.914D-03-0.236D-02-0.133D-02 0.436D-02 0.198D-01 0.102D+00
 Coeff-Com:  0.295D+00 0.584D+00
 Coeff:     -0.589D-08 0.257D-06 0.317D-04 0.233D-04-0.110D-04-0.369D-03
 Coeff:     -0.914D-03-0.236D-02-0.133D-02 0.436D-02 0.198D-01 0.102D+00
 Coeff:      0.295D+00 0.584D+00
 Gap=     0.115 Goal=   None    Shift=    0.000
 RMSDP=7.45D-08 MaxDP=7.81D-06 DE=-8.37D-11 OVMax= 1.59D-06

 Cycle  15  Pass 1  IDiag  1:
 RMSU=  6.01D-08    CP:  9.50D-01  5.09D-01  9.20D-01  4.62D-01  6.13D-01
                    CP:  8.00D-01  7.72D-01  7.16D-01  7.96D-01  8.42D-01
                    CP:  6.86D-01  9.28D-01  8.48D-01  1.05D+00
 E= -8258.61761033494     Delta-E=       -0.000000000051 Rises=F Damp=F
 DIIS: error= 4.05D-08 at cycle  15 NSaved=  15.
 NSaved=15 IEnMin=15 EnMin= -8258.61761033494     IErMin=15 ErrMin= 4.05D-08
 ErrMax= 4.05D-08  0.00D+00 EMaxC= 1.00D+00 BMatC= 1.23D-12 BMatP= 1.00D-11
 IDIUse=1 WtCom= 1.00D+00 WtEn= 0.00D+00
 Coeff-Com: -0.263D-07 0.579D-07 0.730D-05 0.554D-05 0.108D-04-0.161D-05
 Coeff-Com: -0.100D-03-0.429D-03-0.119D-02-0.317D-02-0.493D-02 0.405D-02
 Coeff-Com:  0.660D-01 0.303D+00 0.636D+00
 Coeff:     -0.263D-07 0.579D-07 0.730D-05 0.554D-05 0.108D-04-0.161D-05
 Coeff:     -0.100D-03-0.429D-03-0.119D-02-0.317D-02-0.493D-02 0.405D-02
 Coeff:      0.660D-01 0.303D+00 0.636D+00
 Gap=     0.115 Goal=   None    Shift=    0.000
 RMSDP=3.51D-08 MaxDP=3.73D-06 DE=-5.09D-11 OVMax= 5.77D-07

 Cycle  16  Pass 1  IDiag  1:
 RMSU=  1.46D-08    CP:  9.50D-01  5.09D-01  9.20D-01  4.62D-01  6.13D-01
                    CP:  8.00D-01  7.72D-01  7.16D-01  7.96D-01  8.42D-01
                    CP:  6.85D-01  9.42D-01  8.82D-01  1.09D+00  7.51D-01
 E= -8258.61761033487     Delta-E=        0.000000000064 Rises=F Damp=F
 DIIS: error= 1.87D-08 at cycle  16 NSaved=  16.
 NSaved=16 IEnMin=15 EnMin= -8258.61761033494     IErMin=16 ErrMin= 1.87D-08
 ErrMax= 1.87D-08  0.00D+00 EMaxC= 1.00D+00 BMatC= 2.14D-13 BMatP= 1.23D-12
 IDIUse=1 WtCom= 1.00D+00 WtEn= 0.00D+00
 Coeff-Com: -0.110D-07-0.148D-08 0.566D-06 0.595D-06 0.730D-05 0.409D-04
 Coeff-Com:  0.455D-04 0.291D-04-0.474D-03-0.208D-02-0.464D-02-0.887D-02
 Coeff-Com:  0.576D-02 0.109D+00 0.367D+00 0.534D+00
 Coeff:     -0.110D-07-0.148D-08 0.566D-06 0.595D-06 0.730D-05 0.409D-04
 Coeff:      0.455D-04 0.291D-04-0.474D-03-0.208D-02-0.464D-02-0.887D-02
 Coeff:      0.576D-02 0.109D+00 0.367D+00 0.534D+00
 Gap=     0.115 Goal=   None    Shift=    0.000
 RMSDP=1.07D-08 MaxDP=1.15D-06 DE= 6.37D-11 OVMax= 1.94D-07

 Cycle  17  Pass 1  IDiag  1:
 RMSU=  5.45D-09    CP:  9.50D-01  5.09D-01  9.20D-01  4.62D-01  6.13D-01
                    CP:  8.00D-01  7.72D-01  7.16D-01  7.96D-01  8.42D-01
                    CP:  6.84D-01  9.46D-01  8.92D-01  1.09D+00  7.68D-01
                    CP:  9.41D-01
 E= -8258.61761033489     Delta-E=       -0.000000000015 Rises=F Damp=F
 DIIS: error= 9.16D-09 at cycle  17 NSaved=  17.
 NSaved=17 IEnMin=15 EnMin= -8258.61761033494     IErMin=17 ErrMin= 9.16D-09
 ErrMax= 9.16D-09  0.00D+00 EMaxC= 1.00D+00 BMatC= 3.46D-14 BMatP= 2.14D-13
 IDIUse=1 WtCom= 1.00D+00 WtEn= 0.00D+00
 Coeff-Com: -0.249D-08-0.105D-07-0.819D-06-0.437D-06 0.245D-05 0.235D-04
 Coeff-Com:  0.397D-04 0.796D-04-0.887D-04-0.668D-03-0.188D-02-0.607D-02
 Coeff-Com: -0.739D-02 0.152D-01 0.113D+00 0.324D+00 0.564D+00
 Coeff:     -0.249D-08-0.105D-07-0.819D-06-0.437D-06 0.245D-05 0.235D-04
 Coeff:      0.397D-04 0.796D-04-0.887D-04-0.668D-03-0.188D-02-0.607D-02
 Coeff:     -0.739D-02 0.152D-01 0.113D+00 0.324D+00 0.564D+00
 Gap=     0.115 Goal=   None    Shift=    0.000
 RMSDP=4.64D-09 MaxDP=3.47D-07 DE=-1.46D-11 OVMax= 7.98D-08

 SCF Done:  E(RB3LYP) =  -8258.61761033     A.U. after   17 cycles
            NFock= 17  Conv=0.46D-08     -V/T= 2.0014
 KE= 8.246922245239D+03 PE=-2.363723676532D+04 EE= 5.177751404277D+03
 Leave Link  502 at Tue Sep 29 16:23:44 2026, MaxMem=  5100273664 cpu:             948.7 elap:              59.3
 (Enter /share/software/user/restricted/gaussian/g16.B01/l701.exe)
 ... and contract with generalized density number  0.
 Compute integral first derivatives.
 Leave Link  701 at Tue Sep 29 16:23:44 2026, MaxMem=  5100273664 cpu:               2.4 elap:               0.2
 (Enter /share/software/user/restricted/gaussian/g16.B01/l702.exe)
 L702 exits ... SP integral derivatives will be done elsewhere.
 Leave Link  702 at Tue Sep 29 16:23:44 2026, MaxMem=  5100273664 cpu:               0.4 elap:               0.0
 (Enter /share/software/user/restricted/gaussian/g16.B01/l703.exe)
 Integral derivatives from FoFJK, PRISM(SPDF).
 Compute integral first derivatives, UseDBF=F ICtDFT=           0.
 Calling FoFJK, ICntrl=      2127 FMM=F ISym2X=0 I1Cent= 0 IOpClX= 0 NMat=1 NMatS=1 NMatT=0.
 FoFJK:  IHMeth= 1 ICntrl=    2127 DoSepK=F KAlg= 0 I1Cent=           0 FoldK=F
 IRaf=         0 NMat=       1 IRICut=       1 DoRegI=T DoRafI=F ISym2E= 0 IDoP0=0 IntGTp=1.
 FoFCou: FMM=F IPFlag=           0 FMFlag=      100000 FMFlg1=         800
         NFxFlg=           0 DoJE=F BraDBF=F KetDBF=F FulRan=T
         wScrn=  0.000000 ICntrl=      2127 IOpCl=  0 I1Cent=           0 NGrid=           0
         NMat0=    1 NMatS0=      1 NMatT0=    0 NMatD0=    1 NMtDS0=    0 NMtDT0=    0
 Symmetry not used in FoFCou.
 Leave Link  703 at Tue Sep 29 16:23:56 2026, MaxMem=  5100273664 cpu:             192.4 elap:              12.0
 (Enter /share/software/user/restricted/gaussian/g16.B01/l716.exe)
 Dipole        =-1.39401509D+00 7.73771579D-01 1.90786022D-02
 ***** Axes restored to original set *****
 -------------------------------------------------------------------
 Center     Atomic                   Forces (Hartrees/Bohr)
 Number     Number              X              Y              Z
 -------------------------------------------------------------------
      1        6          -0.005731183   -0.002761025    0.004152917
      2        6           0.000975024    0.006032452    0.002404131
      3        6           0.003513227   -0.004928440   -0.001772650
      4        6          -0.011710105    0.002784820    0.001884191
      5        6           0.006507091   -0.005250368   -0.003556425
      6        6           0.002587655    0.008179062   -0.002606813
      7        6           0.013094805    0.004173373    0.005973927
      8        6          -0.058224855   -0.034559257   -0.076302222
      9        6           0.002754012    0.002903691    0.001940714
     10        6           0.003489779   -0.005988004    0.008577177
     11        6          -0.003570202    0.005397996   -0.000550612
     12        6           0.000389945    0.003933229    0.005103603
     13        8          -0.001707226   -0.003476884   -0.005831418
     14       35           0.000757422   -0.002369160   -0.000987821
     15        1           0.002687733   -0.002413084   -0.000801616
     16       35           0.001177328    0.000110604    0.000161485
     17        1          -0.000632579    0.001583779    0.000478562
     18        1           0.042825049    0.030457247    0.067973639
     19        1          -0.000087917    0.001545754   -0.005631636
     20       35           0.002613122   -0.000636671    0.000329013
     21        1          -0.002663995   -0.002170398   -0.000321169
     22        1           0.000955871   -0.002548715   -0.000616975
 -------------------------------------------------------------------
 Cartesian Forces:  Max     0.076302222 RMS     0.016889093
 Leave Link  716 at Tue Sep 29 16:23:56 2026, MaxMem=  5100273664 cpu:               0.5 elap:               0.0
 (Enter /share/software/user/restricted/gaussian/g16.B01/l103.exe)

 GradGradGradGradGradGradGradGradGradGradGradGradGradGradGradGradGradGrad
 Berny optimization.
 Using GEDIIS/GDIIS optimizer.
 FormGI is forming the generalized inverse of G from B-inverse, IUseBI=4.
 Internal  Forces:  Max     0.254409031 RMS     0.049556365
 Search for a local minimum.
 Step number   8 out of a maximum of  116
 All quantities printed in internal units (Hartrees-Bohrs-Radians)
 RMS Force = .49556D-01 SwitMx=.10000D-02 MixMth= 1
 Mixed Optimization -- RFO/linear search
 Update second derivatives using D2CorX and points    6    5    8    7
 DE=  5.12D-02 DEPred=-5.12D-03 R=-1.00D+01
 Trust test=-1.00D+01 RLast= 5.23D-01 DXMaxT set to 1.78D-01
 ITU= -1  1 -1  1  1 -1  0  0
 Use linear search instead of GDIIS.
     Eigenvalues ---    0.01818   0.01962   0.02010   0.02020   0.02030
     Eigenvalues ---    0.02039   0.02091   0.02093   0.02099   0.02107
     Eigenvalues ---    0.02128   0.02132   0.02136   0.02166   0.02184
     Eigenvalues ---    0.02188   0.02234   0.02298   0.02498   0.15965
     Eigenvalues ---    0.15996   0.16000   0.16004   0.16037   0.16463
     Eigenvalues ---    0.18854   0.19100   0.20137   0.22313   0.22736
     Eigenvalues ---    0.23465   0.24610   0.24648   0.24850   0.24987
     Eigenvalues ---    0.24999   0.25476   0.25718   0.33623   0.33694
     Eigenvalues ---    0.33719   0.33776   0.33978   0.37896   0.41300
     Eigenvalues ---    0.41679   0.42426   0.44418   0.44557   0.44987
     Eigenvalues ---    0.45800   0.45871   0.46299   0.46523   0.47153
     Eigenvalues ---    0.47682   0.48425   0.80923   1.00355  18.35534
 RFO step:  Lambda=-2.05071552D-03 EMin= 1.81831532D-02
 Quartic linear search produced a step of -0.93533.
 Iteration  1 RMS(Cart)=  0.20188671 RMS(Int)=  0.01109504
 Iteration  2 RMS(Cart)=  0.01635225 RMS(Int)=  0.00007752
 Iteration  3 RMS(Cart)=  0.00006008 RMS(Int)=  0.00006712
 Iteration  4 RMS(Cart)=  0.00000001 RMS(Int)=  0.00006712
 ITry= 1 IFail=0 DXMaxC= 1.14D+00 DCOld= 1.00D+10 DXMaxT= 1.78D-01 DXLimC= 3.00D+00 Rises=F
 Variable       Old X    -DE/DX   Delta X   Delta X   Delta X     New X
                                 (Linear)    (Quad)   (Total)
    R1        2.65030  -0.01492  -0.00636  -0.00009  -0.00645   2.64385
    R2        2.64049  -0.07607   0.00037  -0.00871  -0.00834   2.63215
    R3        2.65203  -0.05099   0.00055   0.00373   0.00428   2.65631
    R4        2.62288   0.00871  -0.00522   0.00660   0.00138   2.62426
    R5        3.76594  -0.00232   0.00198  -0.01714  -0.01516   3.75078
    R6        2.63050   0.02007  -0.00396   0.00204  -0.00192   2.62858
    R7        2.05000  -0.00370  -0.00798   0.00018  -0.00780   2.04220
    R8        2.60752   0.01713   0.00577   0.00499   0.01076   2.61828
    R9        3.75601  -0.00114   0.01287  -0.02136  -0.00849   3.74752
   R10        2.65772  -0.00831   0.00387  -0.00585  -0.00199   2.65573
   R11        2.06188  -0.00142  -0.00470   0.00156  -0.00313   2.05875
   R12        4.41282   0.01561  -0.35420   0.12584  -0.22836   4.18446
   R13        2.66049   0.01026  -0.01331   0.00156  -0.01172   2.64876
   R14        2.66577  -0.00715  -0.01386   0.00588  -0.00796   2.65781
   R15        2.54806  -0.02169   0.00610   0.00436   0.01046   2.55852
   R16        2.64007   0.00463   0.00029  -0.00090  -0.00062   2.63945
   R17        2.62048   0.00551  -0.00162   0.00370   0.00205   2.62253
   R18        2.05431  -0.00182  -0.00551   0.00094  -0.00457   2.04974
   R19        2.62480   0.01051   0.00299   0.00079   0.00375   2.62855
   R20        3.65742   0.00266   0.02650  -0.01889   0.00761   3.66503
   R21        2.62831  -0.00279   0.00173  -0.00384  -0.00211   2.62619
   R22        2.05722  -0.00338  -0.00899   0.00118  -0.00781   2.04941
   R23        2.05877  -0.00267  -0.00772   0.00039  -0.00733   2.05144
    A1        2.11840   0.03981   0.00224  -0.00182   0.00038   2.11878
    A2        1.96103   0.13909   0.00708   0.00657   0.01362   1.97465
    A3        2.20373  -0.17882  -0.00929  -0.00468  -0.01400   2.18973
    A4        2.14137  -0.03540  -0.00269  -0.01105  -0.01375   2.12762
    A5        2.13643   0.01526  -0.01315   0.01047  -0.00269   2.13374
    A6        2.00528   0.02035   0.01594   0.00062   0.01654   2.02182
    A7        2.00666   0.00664   0.00829   0.01404   0.02234   2.02900
    A8        2.13301  -0.00335  -0.00647  -0.00562  -0.01210   2.12091
    A9        2.14350  -0.00328  -0.00182  -0.00841  -0.01023   2.13327
   A10        2.16018  -0.00140  -0.00595  -0.01073  -0.01667   2.14351
   A11        2.03507   0.00113   0.00110   0.00819   0.00927   2.04434
   A12        2.08789   0.00038   0.00490   0.00256   0.00745   2.09533
   A13        2.11310  -0.02689  -0.00115  -0.00403  -0.00519   2.10790
   A14        2.07865   0.01276  -0.00913   0.00522  -0.00392   2.07472
   A15        2.09134   0.01435   0.01038  -0.00115   0.00922   2.10056
   A16        2.02642   0.01773  -0.00051   0.01367   0.01313   2.03955
   A17        1.70775  -0.12658   0.00425  -0.01870  -0.01448   1.69327
   A18        2.54856   0.10990  -0.00331   0.00514   0.00180   2.55036
   A19        2.06660   0.02709   0.02375  -0.00770   0.01584   2.08244
   A20        2.24523  -0.07743  -0.05476   0.02363  -0.03151   2.21373
   A21        1.97099   0.05114   0.03135  -0.01522   0.01576   1.98675
   A22        2.10138  -0.02150  -0.00889  -0.00384  -0.01262   2.08877
   A23        2.08500   0.00348  -0.00575   0.01454   0.00881   2.09381
   A24        2.08620  -0.00098   0.01127  -0.01165  -0.00038   2.08581
   A25        2.11198  -0.00249  -0.00551  -0.00290  -0.00842   2.10356
   A26        2.12379   0.00323   0.00712  -0.01465  -0.00752   2.11627
   A27        2.08491  -0.00135  -0.00210   0.00576   0.00368   2.08858
   A28        2.07446  -0.00185  -0.00500   0.00885   0.00386   2.07832
   A29        2.07230   0.00144  -0.00200   0.00410   0.00214   2.07444
   A30        2.10864  -0.00053  -0.00019  -0.00016  -0.00037   2.10827
   A31        2.10224  -0.00091   0.00219  -0.00394  -0.00177   2.10047
   A32        2.11713  -0.01344  -0.01409   0.00749  -0.00650   2.11063
   A33        2.06149   0.00715   0.01128  -0.00543   0.00582   2.06731
   A34        2.10455   0.00631   0.00282  -0.00210   0.00068   2.10523
   A35        2.24754  -0.25441  -0.02654   0.01802  -0.00852   2.23902
    D1        0.02136  -0.02070  -0.02101  -0.00232  -0.02329  -0.00193
    D2       -3.13679  -0.00400  -0.00462   0.00092  -0.00362  -3.14041
    D3       -3.11243  -0.02994  -0.02874  -0.01070  -0.03950   3.13126
    D4        0.01261  -0.01324  -0.01235  -0.00746  -0.01983  -0.00722
    D5       -0.02328   0.02313   0.02288   0.00381   0.02683   0.00355
    D6        3.09433   0.05282   0.04597   0.00670   0.05260  -3.13626
    D7        3.10936   0.03542   0.03173   0.01348   0.04528  -3.12855
    D8       -0.05621   0.06510   0.05483   0.01637   0.07104   0.01483
    D9        2.95959   0.16622   0.18062   0.02334   0.20396  -3.11963
   D10       -0.17373   0.15515   0.17245   0.01445   0.18689   0.01315
   D11       -0.00424   0.00356   0.00421  -0.00114   0.00306  -0.00118
   D12        3.13358   0.00788   0.00789   0.00111   0.00896  -3.14065
   D13       -3.13042  -0.01198  -0.01106  -0.00426  -0.01527   3.13749
   D14        0.00739  -0.00767  -0.00738  -0.00201  -0.00937  -0.00198
   D15       -0.00965   0.01016   0.00943   0.00283   0.01224   0.00259
   D16       -3.14016  -0.00120  -0.00148   0.00081  -0.00073  -3.14089
   D17        3.13575   0.00581   0.00573   0.00056   0.00629  -3.14114
   D18        0.00524  -0.00555  -0.00519  -0.00146  -0.00667  -0.00143
   D19        0.00680  -0.00623  -0.00665  -0.00105  -0.00773  -0.00092
   D20       -3.11910  -0.02275  -0.02222  -0.00308  -0.02535   3.13874
   D21        3.13700   0.00546   0.00458   0.00106   0.00561  -3.14058
   D22        0.01110  -0.01106  -0.01099  -0.00097  -0.01201  -0.00092
   D23        0.00987  -0.01097  -0.00971  -0.00235  -0.01205  -0.00217
   D24       -3.08920  -0.05594  -0.05064  -0.00705  -0.05774   3.13624
   D25        3.13567   0.00566   0.00598  -0.00025   0.00571   3.14138
   D26        0.03659  -0.03931  -0.03495  -0.00495  -0.03998  -0.00339
   D27       -0.01753   0.01757   0.01756   0.00018   0.01767   0.00015
   D28       -3.12782  -0.01799  -0.01004  -0.02991  -0.03996   3.11541
   D29        0.01823  -0.01773  -0.01868   0.00276  -0.01595   0.00228
   D30       -3.12866  -0.01322  -0.01240  -0.00514  -0.01757   3.13696
   D31        3.13328   0.01021   0.00464   0.02895   0.03363  -3.11627
   D32       -0.01360   0.01472   0.01092   0.02105   0.03201   0.01840
   D33       -0.12687   0.11736   0.13050  -0.03434   0.09607  -0.03080
   D34        3.04461   0.08361   0.10413  -0.06314   0.04108   3.08569
   D35        0.00573  -0.00652  -0.00497  -0.00517  -0.01018  -0.00445
   D36       -3.13982  -0.00270  -0.00059  -0.00841  -0.00905   3.13431
   D37        0.00612  -0.00549  -0.00728   0.00762   0.00035   0.00647
   D38        3.14083   0.00089   0.00044   0.00171   0.00217  -3.14018
   D39       -3.13145  -0.00936  -0.01171   0.01093  -0.00081  -3.13226
   D40        0.00326  -0.00299  -0.00399   0.00502   0.00101   0.00428
   D41       -0.00555   0.00539   0.00629  -0.00478   0.00153  -0.00402
   D42        3.13467   0.00674   0.00737  -0.00273   0.00468   3.13935
   D43       -3.14030  -0.00095  -0.00138   0.00110  -0.00028  -3.14058
   D44       -0.00009   0.00040  -0.00030   0.00316   0.00287   0.00278
   D45       -0.00689   0.00665   0.00695  -0.00049   0.00650  -0.00039
   D46        3.14013   0.00203   0.00053   0.00761   0.00815  -3.13491
   D47        3.13607   0.00531   0.00587  -0.00254   0.00337   3.13944
   D48       -0.00010   0.00069  -0.00055   0.00556   0.00501   0.00492
         Item               Value     Threshold  Converged?
 Maximum Force            0.254409     0.000450     NO 
 RMS     Force            0.049556     0.000300     NO 
 Maximum Displacement     1.139753     0.001800     NO 
 RMS     Displacement     0.203422     0.001200     NO 
 Predicted change in Energy=-3.776370D-03
 GradGradGradGradGradGradGradGradGradGradGradGradGradGradGradGradGradGrad

 Leave Link  103 at Tue Sep 29 16:23:56 2026, MaxMem=  5100273664 cpu:               1.4 elap:               0.1
 (Enter /share/software/user/restricted/gaussian/g16.B01/l202.exe)
                          Input orientation:                          
 ---------------------------------------------------------------------
 Center     Atomic      Atomic             Coordinates (Angstroms)
 Number     Number       Type             X           Y           Z
 ---------------------------------------------------------------------
      1          6           0       -1.290965   -1.050027    0.115802
      2          6           0       -2.339614   -0.134370    0.254708
      3          6           0       -3.668121   -0.538078    0.278607
      4          6           0       -3.898328   -1.904320    0.155201
      5          6           0       -2.875399   -2.828750    0.018288
      6          6           0       -1.531985   -2.416704   -0.003348
      7          6           0        1.187418   -1.028413   -0.040521
      8          6           0        1.446270   -2.399641   -0.172397
      9          6           0        2.760098   -2.842174   -0.342376
     10          6           0        3.800498   -1.924747   -0.385225
     11          6           0        3.565198   -0.560121   -0.254005
     12          6           0        2.258875   -0.118261   -0.081934
     13          8           0       -0.024161   -0.441028    0.101363
     14         35           0       -2.025522    1.818090    0.424404
     15          1           0       -4.473368    0.174709    0.385337
     16         35           0       -5.786569   -2.509596    0.184822
     17          1           0       -3.128919   -3.884522   -0.070908
     18          1           0        0.583695   -3.052227   -0.155718
     19          1           0        2.957993   -3.904410   -0.437334
     20         35           0        5.621281   -2.548632   -0.623960
     21          1           0        4.384091    0.150158   -0.286537
     22          1           0        2.041913    0.940780    0.017223
 ---------------------------------------------------------------------
                    Distance matrix (angstroms):
                    1          2          3          4          5
     1  C    0.000000
     2  C    1.399067   0.000000
     3  C    2.437102   1.388698   0.000000
     4  C    2.744031   2.360554   1.390985   0.000000
     5  C    2.384071   2.757290   2.437899   1.385532   0.000000
     6  C    1.392872   2.434729   2.858637   2.426366   1.405351
     7  C    2.483403   3.650538   4.890657   5.164332   4.444228
     8  C    3.065449   4.432470   5.461302   5.377489   4.347105
     9  C    4.453406   5.804806   6.856856   6.742535   5.647042
    10  C    5.190295   6.427748   7.625208   7.717797   6.748900
    11  C    4.894802   5.941957   7.252935   7.594638   6.833895
    12  C    3.675412   4.610823   5.952774   6.415402   5.806683
    13  O    1.405661   2.340700   3.649559   4.141653   3.719903
    14  Br   2.976727   1.984829   2.875920   4.175668   4.741344
    15  H    3.420573   2.159977   1.080686   2.169331   3.421842
    16  Br   4.727109   4.186656   2.895428   1.983102   2.933344
    17  H    3.383385   3.846125   3.407578   2.136426   1.089441
    18  H    2.756244   4.150672   4.958581   4.637121   3.470671
    19  H    5.148506   6.538866   7.466602   7.166630   5.949210
    20  Br   7.111414   8.365200   9.547248   9.573149   8.525522
    21  H    5.814515   6.751452   8.101307   8.544850   7.852835
    22  H    3.883440   4.517756   5.904221   6.587874   6.195911
                    6          7          8          9         10
     6  C    0.000000
     7  C    3.053504   0.000000
     8  C    2.983098   1.401665   0.000000
     9  C    4.326424   2.419539   1.396736   0.000000
    10  C    5.368727   2.783958   2.411060   1.387783   0.000000
    11  C    5.430562   2.432840   2.807196   2.421521   1.390967
    12  C    4.433919   1.406453   2.423470   2.781862   2.394154
    13  O    2.487528   1.353911   2.464402   3.703310   4.131127
    14  Br   4.284860   4.317605   5.495340   6.723702   6.971860
    15  H    3.939319   5.802875   6.479234   7.871098   8.570785
    16  Br   4.259756   7.133105   7.242490   8.569368   9.621791
    17  H    2.170081   5.175814   4.811188   5.986710   7.208074
    18  H    2.214319   2.115083   1.081750   2.194468   3.416388
    19  H    4.749897   3.400553   2.149378   1.084678   2.152115
    20  Br   7.181350   4.723411   4.202002   2.889953   1.939453
    21  H    6.455148   3.415885   3.891696   3.405073   2.157672
    22  H    4.903658   2.147374   3.398405   3.867278   3.386123
                   11         12         13         14         15
    11  C    0.000000
    12  C    1.389722   0.000000
    13  O    3.608873   2.313013   0.000000
    14  Br   6.113287   4.728837   3.035360   0.000000
    15  H    8.097363   6.754797   4.500580   2.948589   0.000000
    16  Br   9.562875   8.397549   6.123013   5.738618   2.995029
    17  H    7.476387   6.573673   4.639704   5.829460   4.300357
    18  H    3.887109   3.379324   2.693315   5.555587   6.023268
    19  H    3.403907   3.866523   4.602006   7.637082   8.517109
    20  Br   2.884185   4.184049   6.069523   8.867972  10.504152
    21  H    1.084500   2.151849   4.464600   6.661124   8.882939
    22  H    2.155612   1.085575   2.486992   4.180849   6.570484
                   16         17         18         19         20
    16  Br   0.000000
    17  H    3.003153   0.000000
    18  H    6.402397   3.805708   0.000000
    19  H    8.876934   6.097963   2.538270   0.000000
    20  Br  11.436551   8.868848   5.084302   2.994339   0.000000
    21  H   10.523251   8.530560   4.971458   4.300700   2.987969
    22  H    8.556770   7.073104   4.254458   4.951938   5.039741
                   21         22
    21  H    0.000000
    22  H    2.490613   0.000000
 Stoichiometry    C12H6Br3O(1-)
 Framework group  C1[X(C12H6Br3O)]
 Deg. of freedom    60
 Full point group                 C1      NOp   1
 RotChk:  IX=2 Diff= 1.60D-02
 Largest Abelian subgroup         C1      NOp   1
 Largest concise Abelian subgroup C1      NOp   1
                         Standard orientation:                         
 ---------------------------------------------------------------------
 Center     Atomic      Atomic             Coordinates (Angstroms)
 Number     Number       Type             X           Y           Z
 ---------------------------------------------------------------------
      1          6           0        0.901546    0.097601   -0.050547
      2          6           0        2.033752    0.918749   -0.015727
      3          6           0        3.319691    0.395077    0.009022
      4          6           0        3.419364   -0.992294   -0.001274
      5          6           0        2.312091   -1.824372   -0.037236
      6          6           0        1.012256   -1.290795   -0.064359
      7          6           0       -1.570074    0.338763   -0.065520
      8          6           0       -1.957160   -1.007899   -0.101968
      9          6           0       -3.313896   -1.338495   -0.072928
     10          6           0       -4.270432   -0.335458   -0.002949
     11          6           0       -3.907362    1.006840    0.031793
     12          6           0       -2.557971    1.337696    0.000084
     13          8           0       -0.304466    0.819655   -0.058047
     14         35           0        1.905572    2.899309    0.006627
     15          1           0        4.189950    1.035204    0.036747
     16         35           0        5.244012   -1.768213    0.034790
     17          1           0        2.464701   -2.903035   -0.046049
     18          1           0       -1.156186   -1.734441   -0.129541
     19          1           0       -3.610577   -2.381216   -0.108121
     20         35           0       -6.151856   -0.804434    0.039284
     21          1           0       -4.661182    1.784739    0.084402
     22          1           0       -2.242302    2.375868    0.032090
 ---------------------------------------------------------------------
 Rotational constants (GHZ):           0.4380703           0.0764944           0.0651340
 Leave Link  202 at Tue Sep 29 16:23:56 2026, MaxMem=  5100273664 cpu:               0.5 elap:               0.1
 (Enter /share/software/user/restricted/gaussian/g16.B01/l301.exe)
 Standard basis: 6-311++G(d) (5D, 7F)
 Ernie: Thresh=  0.10000D-02 Tol=  0.10000D-05 Strict=F.
 There are   476 symmetry adapted cartesian basis functions of A   symmetry.
 There are   454 symmetry adapted basis functions of A   symmetry.
   454 basis functions,   786 primitive gaussians,   476 cartesian basis functions
    96 alpha electrons       96 beta electrons
       nuclear repulsion energy      1955.1739517695 Hartrees.
 IExCor=  402 DFT=T Ex+Corr=B3LYP ExCW=0 ScaHFX=  0.200000
 ScaDFX=  0.800000  0.720000  1.000000  0.810000 ScalE2=  1.000000  1.000000
 IRadAn=      5 IRanWt=     -1 IRanGd=            0 ICorTp=0 IEmpDi=  4
 NAtoms=   22 NActive=   22 NUniq=   22 SFac= 1.00D+00 NAtFMM=   60 NAOKFM=F Big=F
 Integral buffers will be    131072 words long.
 Raffenetti 2 integral format.
 Two-electron integral symmetry is turned on.
 Leave Link  301 at Tue Sep 29 16:23:56 2026, MaxMem=  5100273664 cpu:               0.5 elap:               0.0
 (Enter /share/software/user/restricted/gaussian/g16.B01/l302.exe)
 NPDir=0 NMtPBC=     1 NCelOv=     1 NCel=       1 NClECP=     1 NCelD=      1
         NCelK=      1 NCelE2=     1 NClLst=     1 CellRange=     0.0.
 One-electron integrals computed using PRISM.
 One-electron integral symmetry used in STVInt
 NBasis=   454 RedAO= T EigKep=  1.67D-06  NBF=   454
 NBsUse=   450 1.00D-06 EigRej=  9.27D-07 NBFU=   450
 Precomputing XC quadrature grid using
 IXCGrd= 4 IRadAn=           5 IRanWt=          -1 IRanGd=           0 AccXCQ= 0.00D+00.
 Generated NRdTot=       0 NPtTot=           0 NUsed=           0 NTot=          32
 NSgBfM=   446   446   446   446   446 MxSgAt=    22 MxSgA2=    22.
 Leave Link  302 at Tue Sep 29 16:23:57 2026, MaxMem=  5100273664 cpu:               4.3 elap:               0.3
 (Enter /share/software/user/restricted/gaussian/g16.B01/l303.exe)
 DipDrv:  MaxL=1.
 Leave Link  303 at Tue Sep 29 16:23:57 2026, MaxMem=  5100273664 cpu:               1.1 elap:               0.1
 (Enter /share/software/user/restricted/gaussian/g16.B01/l401.exe)
 Lowest energy guess from the checkpoint file:  "calcs/b3lyp_gas/chks/BDE_24_2r4_anion.chk"
 B after Tr=     0.000000   -0.000000   -0.000000
         Rot=    1.000000    0.000169    0.000001   -0.000835 Ang=   0.10 deg.
 Guess basis will be translated and rotated to current coordinates.
 B after Tr=     0.000000   -0.000000   -0.000000
         Rot=    0.999996    0.000432    0.000085    0.002847 Ang=   0.33 deg.
 Guess basis will be translated and rotated to current coordinates.
 CkInt1:  FT= 6.47D-02
 Max alpha theta= 11.462 degrees.
 JPrj=2 DoOrth=T DoCkMO=T.
 Leave Link  401 at Tue Sep 29 16:23:58 2026, MaxMem=  5100273664 cpu:              10.4 elap:               0.7
 (Enter /share/software/user/restricted/gaussian/g16.B01/l502.exe)
 Integral symmetry usage will be decided dynamically.
 Closed shell SCF:
 Using DIIS extrapolation, IDIIS=  1040.
 NGot=  5100273664 LenX=  5099808623 LenY=  5099581571
 Requested convergence on RMS density matrix=1.00D-08 within 128 cycles.
 Requested convergence on MAX density matrix=1.00D-06.
 Requested convergence on             energy=1.00D-06.
 No special actions if energy rises.
 Fock matrices will be formed incrementally for  20 cycles.

 Cycle   1  Pass 1  IDiag  1:
 FoFJK:  IHMeth= 1 ICntrl=       0 DoSepK=F KAlg= 0 I1Cent=           0 FoldK=F
 IRaf= 770000000 NMat=       1 IRICut=       1 DoRegI=T DoRafI=F ISym2E= 0 IDoP0=0 IntGTp=1.
 FoFCou: FMM=F IPFlag=           0 FMFlag=      100000 FMFlg1=           0
         NFxFlg=           0 DoJE=F BraDBF=F KetDBF=F FulRan=T
         wScrn=  0.000000 ICntrl=         0 IOpCl=  0 I1Cent=           0 NGrid=           0
         NMat0=    1 NMatS0=      1 NMatT0=    0 NMatD0=    1 NMtDS0=    0 NMtDT0=    0
 Symmetry not used in FoFCou.
 E= -8258.65288688370    
 DIIS: error= 1.12D-02 at cycle   1 NSaved=   1.
 NSaved= 1 IEnMin= 1 EnMin= -8258.65288688370     IErMin= 1 ErrMin= 1.12D-02
 ErrMax= 1.12D-02  0.00D+00 EMaxC= 1.00D-01 BMatC= 4.15D-02 BMatP= 4.15D-02
 IDIUse=3 WtCom= 8.88D-01 WtEn= 1.12D-01
 Coeff-Com:  0.100D+01
 Coeff-En:   0.100D+01
 Coeff:      0.100D+01
 Gap=   481.867 Goal=   None    Shift=    0.000
 GapD=  481.867 DampG=2.000 DampE=0.500 DampFc=1.0000 IDamp=-1.
 RMSDP=3.75D-03 MaxDP=1.90D-01              OVMax= 3.26D-02

 Cycle   2  Pass 1  IDiag  1:
 RMSU=  3.65D-03    CP:  9.77D-01
 E= -8258.66955771338     Delta-E=       -0.016670829677 Rises=F Damp=F
 DIIS: error= 5.25D-04 at cycle   2 NSaved=   2.
 NSaved= 2 IEnMin= 2 EnMin= -8258.66955771338     IErMin= 2 ErrMin= 5.25D-04
 ErrMax= 5.25D-04  0.00D+00 EMaxC= 1.00D-01 BMatC= 2.05D-04 BMatP= 4.15D-02
 IDIUse=3 WtCom= 9.95D-01 WtEn= 5.25D-03
 Coeff-Com: -0.210D-02 0.100D+01
 Coeff-En:   0.000D+00 0.100D+01
 Coeff:     -0.209D-02 0.100D+01
 Gap=     0.122 Goal=   None    Shift=    0.000
 RMSDP=5.48D-04 MaxDP=4.00D-02 DE=-1.67D-02 OVMax= 9.85D-03

 Cycle   3  Pass 1  IDiag  1:
 RMSU=  5.35D-04    CP:  9.79D-01  1.02D+00
 E= -8258.66939938353     Delta-E=        0.000158329845 Rises=F Damp=F
 DIIS: error= 1.07D-03 at cycle   3 NSaved=   3.
 NSaved= 3 IEnMin= 2 EnMin= -8258.66955771338     IErMin= 2 ErrMin= 5.25D-04
 ErrMax= 1.07D-03  0.00D+00 EMaxC= 1.00D-01 BMatC= 4.30D-04 BMatP= 2.05D-04
 IDIUse=3 WtCom= 2.34D-01 WtEn= 7.66D-01
 Coeff-Com: -0.530D-02 0.603D+00 0.402D+00
 Coeff-En:   0.000D+00 0.613D+00 0.387D+00
 Coeff:     -0.124D-02 0.611D+00 0.390D+00
 Gap=     0.123 Goal=   None    Shift=    0.000
 RMSDP=2.80D-04 MaxDP=3.42D-02 DE= 1.58D-04 OVMax= 6.40D-03

 Cycle   4  Pass 1  IDiag  1:
 RMSU=  1.60D-04    CP:  9.79D-01  1.03D+00  5.72D-01
 E= -8258.66983847483     Delta-E=       -0.000439091295 Rises=F Damp=F
 DIIS: error= 2.09D-04 at cycle   4 NSaved=   4.
 NSaved= 4 IEnMin= 4 EnMin= -8258.66983847483     IErMin= 4 ErrMin= 2.09D-04
 ErrMax= 2.09D-04  0.00D+00 EMaxC= 1.00D-01 BMatC= 1.37D-05 BMatP= 2.05D-04
 IDIUse=3 WtCom= 9.98D-01 WtEn= 2.09D-03
 Coeff-Com: -0.226D-02 0.190D+00 0.182D+00 0.630D+00
 Coeff-En:   0.000D+00 0.000D+00 0.000D+00 0.100D+01
 Coeff:     -0.225D-02 0.190D+00 0.181D+00 0.631D+00
 Gap=     0.123 Goal=   None    Shift=    0.000
 RMSDP=7.92D-05 MaxDP=7.81D-03 DE=-4.39D-04 OVMax= 1.62D-03

 Cycle   5  Pass 1  IDiag  1:
 RMSU=  6.46D-05    CP:  9.79D-01  1.03D+00  5.81D-01  7.16D-01
 E= -8258.66984724026     Delta-E=       -0.000008765428 Rises=F Damp=F
 DIIS: error= 1.60D-04 at cycle   5 NSaved=   5.
 NSaved= 5 IEnMin= 5 EnMin= -8258.66984724026     IErMin= 5 ErrMin= 1.60D-04
 ErrMax= 1.60D-04  0.00D+00 EMaxC= 1.00D-01 BMatC= 6.01D-06 BMatP= 1.37D-05
 IDIUse=3 WtCom= 9.98D-01 WtEn= 1.60D-03
 Coeff-Com: -0.521D-03 0.145D-01 0.490D-01 0.421D+00 0.516D+00
 Coeff-En:   0.000D+00 0.000D+00 0.000D+00 0.311D+00 0.689D+00
 Coeff:     -0.520D-03 0.145D-01 0.490D-01 0.421D+00 0.516D+00
 Gap=     0.123 Goal=   None    Shift=    0.000
 RMSDP=3.40D-05 MaxDP=2.40D-03 DE=-8.77D-06 OVMax= 8.83D-04

 Cycle   6  Pass 1  IDiag  1:
 RMSU=  2.40D-05    CP:  9.79D-01  1.03D+00  5.74D-01  7.33D-01  7.28D-01
 E= -8258.66985284245     Delta-E=       -0.000005602198 Rises=F Damp=F
 DIIS: error= 6.18D-05 at cycle   6 NSaved=   6.
 NSaved= 6 IEnMin= 6 EnMin= -8258.66985284245     IErMin= 6 ErrMin= 6.18D-05
 ErrMax= 6.18D-05  0.00D+00 EMaxC= 1.00D-01 BMatC= 7.62D-07 BMatP= 6.01D-06
 IDIUse=1 WtCom= 1.00D+00 WtEn= 0.00D+00
 Coeff-Com: -0.814D-04-0.139D-01 0.995D-02 0.193D+00 0.328D+00 0.484D+00
 Coeff:     -0.814D-04-0.139D-01 0.995D-02 0.193D+00 0.328D+00 0.484D+00
 Gap=     0.123 Goal=   None    Shift=    0.000
 RMSDP=1.83D-05 MaxDP=1.50D-03 DE=-5.60D-06 OVMax= 3.66D-04

 Cycle   7  Pass 1  IDiag  1:
 RMSU=  7.19D-06    CP:  9.79D-01  1.03D+00  5.86D-01  7.82D-01  6.80D-01
                    CP:  6.05D-01
 E= -8258.66985352369     Delta-E=       -0.000000681237 Rises=F Damp=F
 DIIS: error= 1.77D-05 at cycle   7 NSaved=   7.
 NSaved= 7 IEnMin= 7 EnMin= -8258.66985352369     IErMin= 7 ErrMin= 1.77D-05
 ErrMax= 1.77D-05  0.00D+00 EMaxC= 1.00D-01 BMatC= 1.16D-07 BMatP= 7.62D-07
 IDIUse=1 WtCom= 1.00D+00 WtEn= 0.00D+00
 Coeff-Com:  0.310D-04-0.129D-01-0.956D-03 0.699D-01 0.147D+00 0.316D+00
 Coeff-Com:  0.481D+00
 Coeff:      0.310D-04-0.129D-01-0.956D-03 0.699D-01 0.147D+00 0.316D+00
 Coeff:      0.481D+00
 Gap=     0.123 Goal=   None    Shift=    0.000
 RMSDP=5.13D-06 MaxDP=2.95D-04 DE=-6.81D-07 OVMax= 1.18D-04

 Cycle   8  Pass 1  IDiag  1:
 RMSU=  2.58D-06    CP:  9.79D-01  1.03D+00  5.89D-01  7.75D-01  6.99D-01
                    CP:  6.62D-01  5.72D-01
 E= -8258.66985362825     Delta-E=       -0.000000104559 Rises=F Damp=F
 DIIS: error= 5.20D-06 at cycle   8 NSaved=   8.
 NSaved= 8 IEnMin= 8 EnMin= -8258.66985362825     IErMin= 8 ErrMin= 5.20D-06
 ErrMax= 5.20D-06  0.00D+00 EMaxC= 1.00D-01 BMatC= 5.40D-09 BMatP= 1.16D-07
 IDIUse=1 WtCom= 1.00D+00 WtEn= 0.00D+00
 Coeff-Com:  0.220D-04-0.553D-02-0.135D-02 0.210D-01 0.501D-01 0.123D+00
 Coeff-Com:  0.250D+00 0.562D+00
 Coeff:      0.220D-04-0.553D-02-0.135D-02 0.210D-01 0.501D-01 0.123D+00
 Coeff:      0.250D+00 0.562D+00
 Gap=     0.123 Goal=   None    Shift=    0.000
 RMSDP=1.40D-06 MaxDP=7.78D-05 DE=-1.05D-07 OVMax= 4.15D-05

 Cycle   9  Pass 1  IDiag  1:
 RMSU=  8.10D-07    CP:  9.79D-01  1.03D+00  5.88D-01  7.76D-01  7.06D-01
                    CP:  6.51D-01  6.06D-01  7.47D-01
 E= -8258.66985363252     Delta-E=       -0.000000004267 Rises=F Damp=F
 DIIS: error= 2.91D-06 at cycle   9 NSaved=   9.
 NSaved= 9 IEnMin= 9 EnMin= -8258.66985363252     IErMin= 9 ErrMin= 2.91D-06
 ErrMax= 2.91D-06  0.00D+00 EMaxC= 1.00D-01 BMatC= 1.20D-09 BMatP= 5.40D-09
 IDIUse=1 WtCom= 1.00D+00 WtEn= 0.00D+00
 Coeff-Com:  0.105D-04-0.196D-02-0.740D-03 0.506D-02 0.143D-01 0.406D-01
 Coeff-Com:  0.980D-01 0.353D+00 0.492D+00
 Coeff:      0.105D-04-0.196D-02-0.740D-03 0.506D-02 0.143D-01 0.406D-01
 Coeff:      0.980D-01 0.353D+00 0.492D+00
 Gap=     0.123 Goal=   None    Shift=    0.000
 RMSDP=5.35D-07 MaxDP=3.07D-05 DE=-4.27D-09 OVMax= 1.97D-05

 Cycle  10  Pass 1  IDiag  1:
 RMSU=  3.42D-07    CP:  9.79D-01  1.03D+00  5.88D-01  7.76D-01  7.07D-01
                    CP:  6.61D-01  5.97D-01  7.95D-01  6.44D-01
 E= -8258.66985363356     Delta-E=       -0.000000001040 Rises=F Damp=F
 DIIS: error= 1.16D-06 at cycle  10 NSaved=  10.
 NSaved=10 IEnMin=10 EnMin= -8258.66985363356     IErMin=10 ErrMin= 1.16D-06
 ErrMax= 1.16D-06  0.00D+00 EMaxC= 1.00D-01 BMatC= 2.88D-10 BMatP= 1.20D-09
 IDIUse=1 WtCom= 1.00D+00 WtEn= 0.00D+00
 Coeff-Com:  0.245D-05-0.135D-03-0.208D-03-0.114D-02-0.115D-02 0.140D-02
 Coeff-Com:  0.142D-01 0.128D+00 0.349D+00 0.510D+00
 Coeff:      0.245D-05-0.135D-03-0.208D-03-0.114D-02-0.115D-02 0.140D-02
 Coeff:      0.142D-01 0.128D+00 0.349D+00 0.510D+00
 Gap=     0.123 Goal=   None    Shift=    0.000
 RMSDP=2.26D-07 MaxDP=2.48D-05 DE=-1.04D-09 OVMax= 7.50D-06

 Cycle  11  Pass 1  IDiag  1:
 RMSU=  1.02D-07    CP:  9.79D-01  1.03D+00  5.88D-01  7.76D-01  7.07D-01
                    CP:  6.60D-01  6.05D-01  7.94D-01  7.59D-01  6.02D-01
 E= -8258.66985363386     Delta-E=       -0.000000000296 Rises=F Damp=F
 DIIS: error= 3.37D-07 at cycle  11 NSaved=  11.
 NSaved=11 IEnMin=11 EnMin= -8258.66985363386     IErMin=11 ErrMin= 3.37D-07
 ErrMax= 3.37D-07  0.00D+00 EMaxC= 1.00D-01 BMatC= 2.24D-11 BMatP= 2.88D-10
 IDIUse=1 WtCom= 1.00D+00 WtEn= 0.00D+00
 Coeff-Com:  0.228D-06 0.145D-03-0.354D-04-0.121D-02-0.231D-02-0.397D-02
 Coeff-Com: -0.331D-02 0.326D-01 0.139D+00 0.294D+00 0.545D+00
 Coeff:      0.228D-06 0.145D-03-0.354D-04-0.121D-02-0.231D-02-0.397D-02
 Coeff:     -0.331D-02 0.326D-01 0.139D+00 0.294D+00 0.545D+00
 Gap=     0.123 Goal=   None    Shift=    0.000
 RMSDP=7.22D-08 MaxDP=3.80D-06 DE=-2.96D-10 OVMax= 1.68D-06

 Cycle  12  Pass 1  IDiag  1:
 RMSU=  3.46D-08    CP:  9.79D-01  1.03D+00  5.88D-01  7.76D-01  7.06D-01
                    CP:  6.60D-01  6.05D-01  8.02D-01  7.40D-01  6.69D-01
                    CP:  7.87D-01
 E= -8258.66985363385     Delta-E=        0.000000000005 Rises=F Damp=F
 DIIS: error= 1.41D-07 at cycle  12 NSaved=  12.
 NSaved=12 IEnMin=11 EnMin= -8258.66985363386     IErMin=12 ErrMin= 1.41D-07
 ErrMax= 1.41D-07  0.00D+00 EMaxC= 1.00D-01 BMatC= 2.51D-12 BMatP= 2.24D-11
 IDIUse=1 WtCom= 1.00D+00 WtEn= 0.00D+00
 Coeff-Com: -0.147D-06 0.102D-03 0.239D-05-0.605D-03-0.127D-02-0.254D-02
 Coeff-Com: -0.380D-02 0.482D-02 0.427D-01 0.117D+00 0.315D+00 0.528D+00
 Coeff:     -0.147D-06 0.102D-03 0.239D-05-0.605D-03-0.127D-02-0.254D-02
 Coeff:     -0.380D-02 0.482D-02 0.427D-01 0.117D+00 0.315D+00 0.528D+00
 Gap=     0.123 Goal=   None    Shift=    0.000
 RMSDP=2.81D-08 MaxDP=1.73D-06 DE= 5.46D-12 OVMax= 6.72D-07

 Cycle  13  Pass 1  IDiag  1:
 RMSU=  1.51D-08    CP:  9.79D-01  1.03D+00  5.88D-01  7.76D-01  7.06D-01
                    CP:  6.60D-01  6.06D-01  8.04D-01  7.46D-01  6.72D-01
                    CP:  8.04D-01  6.80D-01
 E= -8258.66985363389     Delta-E=       -0.000000000044 Rises=F Damp=F
 DIIS: error= 4.86D-08 at cycle  13 NSaved=  13.
 NSaved=13 IEnMin=13 EnMin= -8258.66985363389     IErMin=13 ErrMin= 4.86D-08
 ErrMax= 4.86D-08  0.00D+00 EMaxC= 1.00D-01 BMatC= 3.63D-13 BMatP= 2.51D-12
 IDIUse=1 WtCom= 1.00D+00 WtEn= 0.00D+00
 Coeff-Com: -0.118D-06 0.454D-04 0.615D-05-0.226D-03-0.492D-03-0.107D-02
 Coeff-Com: -0.202D-02-0.105D-02 0.962D-02 0.377D-01 0.126D+00 0.321D+00
 Coeff-Com:  0.510D+00
 Coeff:     -0.118D-06 0.454D-04 0.615D-05-0.226D-03-0.492D-03-0.107D-02
 Coeff:     -0.202D-02-0.105D-02 0.962D-02 0.377D-01 0.126D+00 0.321D+00
 Coeff:      0.510D+00
 Gap=     0.123 Goal=   None    Shift=    0.000
 RMSDP=9.22D-09 MaxDP=8.15D-07 DE=-4.37D-11 OVMax= 1.94D-07

 SCF Done:  E(RB3LYP) =  -8258.66985363     A.U. after   13 cycles
            NFock= 13  Conv=0.92D-08     -V/T= 2.0014
 KE= 8.247191424992D+03 PE=-2.364002053606D+04 EE= 5.178985305664D+03
 Leave Link  502 at Tue Sep 29 16:24:43 2026, MaxMem=  5100273664 cpu:             723.9 elap:              45.3
 (Enter /share/software/user/restricted/gaussian/g16.B01/l701.exe)
 ... and contract with generalized density number  0.
 Compute integral first derivatives.
 Leave Link  701 at Tue Sep 29 16:24:43 2026, MaxMem=  5100273664 cpu:               2.2 elap:               0.2
 (Enter /share/software/user/restricted/gaussian/g16.B01/l702.exe)
 L702 exits ... SP integral derivatives will be done elsewhere.
 Leave Link  702 at Tue Sep 29 16:24:43 2026, MaxMem=  5100273664 cpu:               0.4 elap:               0.0
 (Enter /share/software/user/restricted/gaussian/g16.B01/l703.exe)
 Integral derivatives from FoFJK, PRISM(SPDF).
 Compute integral first derivatives, UseDBF=F ICtDFT=           0.
 Calling FoFJK, ICntrl=      2127 FMM=F ISym2X=0 I1Cent= 0 IOpClX= 0 NMat=1 NMatS=1 NMatT=0.
 FoFJK:  IHMeth= 1 ICntrl=    2127 DoSepK=F KAlg= 0 I1Cent=           0 FoldK=F
 IRaf=         0 NMat=       1 IRICut=       1 DoRegI=T DoRafI=F ISym2E= 0 IDoP0=0 IntGTp=1.
 FoFCou: FMM=F IPFlag=           0 FMFlag=      100000 FMFlg1=         800
         NFxFlg=           0 DoJE=F BraDBF=F KetDBF=F FulRan=T
         wScrn=  0.000000 ICntrl=      2127 IOpCl=  0 I1Cent=           0 NGrid=           0
         NMat0=    1 NMatS0=      1 NMatT0=    0 NMatD0=    1 NMtDS0=    0 NMtDT0=    0
 Symmetry not used in FoFCou.
 Leave Link  703 at Tue Sep 29 16:24:55 2026, MaxMem=  5100273664 cpu:             193.0 elap:              12.1
 (Enter /share/software/user/restricted/gaussian/g16.B01/l716.exe)
 Dipole        =-1.40539885D+00 6.73593262D-01 3.33452969D-02
 ***** Axes restored to original set *****
 -------------------------------------------------------------------
 Center     Atomic                   Forces (Hartrees/Bohr)
 Number     Number              X              Y              Z
 -------------------------------------------------------------------
      1        6          -0.002528494   -0.002374970   -0.000678295
      2        6           0.000724056    0.003378260    0.000352885
      3        6           0.001798504   -0.002523646   -0.000403022
      4        6          -0.005046553    0.001037430    0.000529914
      5        6           0.003772252   -0.001045157   -0.000007318
      6        6          -0.000437375    0.003149266    0.000277293
      7        6           0.001454760    0.001393958   -0.002980141
      8        6           0.000166794    0.002896756    0.000013327
      9        6          -0.001773773   -0.000182012    0.000570431
     10        6           0.002077441   -0.001612732    0.000323939
     11        6          -0.001286423    0.000914224    0.000446699
     12        6           0.000209690    0.000389943    0.000518567
     13        8          -0.000522782    0.000258566    0.001519536
     14       35           0.000091505   -0.001302160   -0.000073497
     15        1           0.000233742   -0.000148158   -0.000015919
     16       35           0.001148263    0.000324715   -0.000049660
     17        1          -0.000322241    0.000308306   -0.000016860
     18        1           0.000916171   -0.004242540    0.000233661
     19        1           0.000054547    0.000249014   -0.000449387
     20       35          -0.000421691    0.000005501    0.000029068
     21        1          -0.000380380   -0.000247779   -0.000040699
     22        1           0.000071987   -0.000626785   -0.000100523
 -------------------------------------------------------------------
 Cartesian Forces:  Max     0.005046553 RMS     0.001496011
 Leave Link  716 at Tue Sep 29 16:24:55 2026, MaxMem=  5100273664 cpu:               0.4 elap:               0.0
 (Enter /share/software/user/restricted/gaussian/g16.B01/l103.exe)

 GradGradGradGradGradGradGradGradGradGradGradGradGradGradGradGradGradGrad
 Berny optimization.
 Using GEDIIS/GDIIS optimizer.
 FormGI is forming the generalized inverse of G from B-inverse, IUseBI=4.
 GSVD:  received Info=                   1 from GESDD.
 Internal  Forces:  Max     0.008545943 RMS     0.001580974
 Search for a local minimum.
 Step number   9 out of a maximum of  116
 All quantities printed in internal units (Hartrees-Bohrs-Radians)
 RMS Force = .15810D-02 SwitMx=.10000D-02 MixMth= 1
 Mixed Optimization -- RFO/linear search
 Update second derivatives using D2CorX and points    6    8    7    9
 DE= -1.03D-03 DEPred=-3.78D-03 R= 2.74D-01
 Trust test= 2.74D-01 RLast= 1.95D-01 DXMaxT set to 1.78D-01
 ITU=  0 -1  1 -1  1  1 -1  0  0
 Use linear search instead of GDIIS.
     Eigenvalues ---    0.01631   0.01963   0.02011   0.02022   0.02033
     Eigenvalues ---    0.02068   0.02086   0.02093   0.02105   0.02109
     Eigenvalues ---    0.02125   0.02132   0.02135   0.02166   0.02178
     Eigenvalues ---    0.02194   0.02234   0.02302   0.02390   0.13471
     Eigenvalues ---    0.15995   0.16000   0.16005   0.16015   0.16089
     Eigenvalues ---    0.18854   0.19095   0.20301   0.22313   0.22976
     Eigenvalues ---    0.23520   0.24212   0.24631   0.24937   0.24991
     Eigenvalues ---    0.25068   0.25091   0.25714   0.33607   0.33697
     Eigenvalues ---    0.33719   0.33776   0.33966   0.38759   0.41337
     Eigenvalues ---    0.41459   0.42307   0.44409   0.44919   0.45187
     Eigenvalues ---    0.45784   0.45861   0.46307   0.46495   0.47146
     Eigenvalues ---    0.47675   0.48429   0.84971   1.24293  21.52613
 RFO step:  Lambda=-5.94205064D-04 EMin= 1.63090552D-02
 Quartic linear search produced a step of -0.08367.
 Iteration  1 RMS(Cart)=  0.02794726 RMS(Int)=  0.00027252
 Iteration  2 RMS(Cart)=  0.00066900 RMS(Int)=  0.00007799
 Iteration  3 RMS(Cart)=  0.00000009 RMS(Int)=  0.00007799
 ITry= 1 IFail=0 DXMaxC= 1.23D-01 DCOld= 1.00D+10 DXMaxT= 1.78D-01 DXLimC= 3.00D+00 Rises=F
 Variable       Old X    -DE/DX   Delta X   Delta X   Delta X     New X
                                 (Linear)    (Quad)   (Total)
    R1        2.64385  -0.00027  -0.00003  -0.00089  -0.00092   2.64293
    R2        2.63215   0.00194   0.00073  -0.00817  -0.00744   2.62471
    R3        2.65631   0.00118  -0.00031   0.00152   0.00121   2.65752
    R4        2.62426  -0.00035  -0.00058   0.00274   0.00216   2.62642
    R5        3.75078  -0.00127   0.00145  -0.01412  -0.01267   3.73811
    R6        2.62858  -0.00158  -0.00019  -0.00040  -0.00060   2.62799
    R7        2.04220  -0.00027  -0.00006   0.00024   0.00018   2.04238
    R8        2.61828   0.00155  -0.00038   0.00605   0.00566   2.62394
    R9        3.74752  -0.00119   0.00186  -0.01602  -0.01415   3.73337
   R10        2.65573  -0.00056   0.00051  -0.00463  -0.00412   2.65161
   R11        2.05875  -0.00022  -0.00016   0.00045   0.00029   2.05904
   R12        4.18446   0.00208  -0.01258   0.08613   0.07356   4.25801
   R13        2.64876  -0.00282  -0.00021   0.00002  -0.00015   2.64861
   R14        2.65781  -0.00066  -0.00057   0.00134   0.00081   2.65863
   R15        2.55852  -0.00105  -0.00033   0.00261   0.00228   2.56080
   R16        2.63945  -0.00120   0.00008  -0.00228  -0.00221   2.63724
   R17        2.62253   0.00006  -0.00032   0.00137   0.00100   2.62353
   R18        2.04974  -0.00019  -0.00011   0.00039   0.00028   2.05003
   R19        2.62855   0.00145  -0.00005   0.00285   0.00277   2.63131
   R20        3.66503  -0.00040   0.00173  -0.01136  -0.00963   3.65541
   R21        2.62619  -0.00026   0.00033  -0.00192  -0.00158   2.62461
   R22        2.04941  -0.00045  -0.00015   0.00001  -0.00014   2.04926
   R23        2.05144  -0.00063  -0.00008  -0.00107  -0.00114   2.05030
    A1        2.11878   0.00005   0.00017   0.00260   0.00276   2.12154
    A2        1.97465  -0.00540  -0.00051   0.00050  -0.00003   1.97462
    A3        2.18973   0.00535   0.00034  -0.00302  -0.00270   2.18703
    A4        2.12762  -0.00005   0.00091  -0.00897  -0.00806   2.11956
    A5        2.13374  -0.00053  -0.00095   0.00515   0.00419   2.13793
    A6        2.02182   0.00057   0.00004   0.00383   0.00387   2.02569
    A7        2.02900   0.00132  -0.00113   0.01081   0.00969   2.03869
    A8        2.12091  -0.00070   0.00043  -0.00515  -0.00472   2.11619
    A9        2.13327  -0.00061   0.00069  -0.00566  -0.00497   2.12830
   A10        2.14351  -0.00163   0.00086  -0.00978  -0.00891   2.13460
   A11        2.04434   0.00090  -0.00068   0.00641   0.00573   2.05007
   A12        2.09533   0.00073  -0.00018   0.00337   0.00318   2.09851
   A13        2.10790   0.00167   0.00033   0.00020   0.00053   2.10843
   A14        2.07472  -0.00123  -0.00049  -0.00058  -0.00107   2.07366
   A15        2.10056  -0.00044   0.00016   0.00038   0.00054   2.10110
   A16        2.03955  -0.00136  -0.00114   0.00513   0.00398   2.04353
   A17        1.69327   0.00855   0.00159   0.00755   0.00914   1.70241
   A18        2.55036  -0.00719  -0.00045  -0.01269  -0.01314   2.53722
   A19        2.08244   0.00030   0.00080  -0.00605  -0.00548   2.07696
   A20        2.21373  -0.00271  -0.00226   0.01003   0.00731   2.22104
   A21        1.98675   0.00243   0.00149  -0.00292  -0.00188   1.98487
   A22        2.08877   0.00126   0.00026   0.00240   0.00278   2.09154
   A23        2.09381  -0.00025  -0.00125   0.00597   0.00471   2.09852
   A24        2.08581   0.00027   0.00104  -0.00439  -0.00334   2.08247
   A25        2.10356  -0.00002   0.00021  -0.00158  -0.00137   2.10220
   A26        2.11627  -0.00115   0.00127  -0.00987  -0.00865   2.10762
   A27        2.08858   0.00033  -0.00050   0.00348   0.00301   2.09159
   A28        2.07832   0.00082  -0.00077   0.00640   0.00565   2.08397
   A29        2.07444   0.00048  -0.00036   0.00472   0.00437   2.07881
   A30        2.10827  -0.00018   0.00001  -0.00116  -0.00115   2.10712
   A31        2.10047  -0.00029   0.00034  -0.00356  -0.00322   2.09725
   A32        2.11063  -0.00064  -0.00072   0.00285   0.00223   2.11286
   A33        2.06731   0.00026   0.00052  -0.00283  -0.00237   2.06494
   A34        2.10523   0.00037   0.00020   0.00002   0.00016   2.10539
   A35        2.23902   0.00222  -0.00166   0.00598   0.00432   2.24334
    D1       -0.00193  -0.00026   0.00007  -0.00394  -0.00386  -0.00579
    D2       -3.14041  -0.00019  -0.00011  -0.00603  -0.00615   3.13663
    D3        3.13126  -0.00002   0.00073   0.00614   0.00691   3.13817
    D4       -0.00722   0.00005   0.00055   0.00405   0.00462  -0.00260
    D5        0.00355   0.00023  -0.00020   0.00298   0.00278   0.00634
    D6       -3.13626   0.00055  -0.00029   0.00635   0.00611  -3.13014
    D7       -3.12855   0.00002  -0.00095  -0.00842  -0.00937  -3.13792
    D8        0.01483   0.00033  -0.00104  -0.00505  -0.00604   0.00879
    D9       -3.11963   0.00139  -0.00091   0.00412   0.00322  -3.11640
   D10        0.01315   0.00161  -0.00021   0.01472   0.01450   0.02766
   D11       -0.00118   0.00010   0.00012   0.00235   0.00247   0.00129
   D12       -3.14065   0.00007  -0.00004   0.00058   0.00053  -3.14012
   D13        3.13749   0.00003   0.00029   0.00432   0.00462  -3.14107
   D14       -0.00198   0.00000   0.00012   0.00255   0.00268   0.00070
   D15        0.00259   0.00006  -0.00018  -0.00008  -0.00028   0.00231
   D16       -3.14089  -0.00002  -0.00007   0.00007  -0.00000  -3.14089
   D17       -3.14114   0.00008  -0.00001   0.00170   0.00168  -3.13946
   D18       -0.00143   0.00001   0.00009   0.00186   0.00196   0.00052
   D19       -0.00092  -0.00006   0.00005  -0.00071  -0.00066  -0.00158
   D20        3.13874  -0.00019   0.00013  -0.00097  -0.00082   3.13791
   D21       -3.14058   0.00002  -0.00006  -0.00087  -0.00094  -3.14152
   D22       -0.00092  -0.00011   0.00002  -0.00113  -0.00110  -0.00202
   D23       -0.00217  -0.00008   0.00014  -0.00072  -0.00057  -0.00274
   D24        3.13624  -0.00060   0.00030  -0.00665  -0.00631   3.12993
   D25        3.14138   0.00005   0.00006  -0.00046  -0.00040   3.14098
   D26       -0.00339  -0.00047   0.00022  -0.00639  -0.00615  -0.00954
   D27        0.00015  -0.00011   0.00009  -0.01234  -0.01222  -0.01208
   D28        3.11541   0.00105   0.00244   0.04020   0.04281  -3.12497
   D29        0.00228  -0.00004  -0.00034   0.00764   0.00725   0.00953
   D30        3.13696   0.00022   0.00036   0.01369   0.01397  -3.13226
   D31       -3.11627  -0.00099  -0.00240  -0.03853  -0.04075   3.12616
   D32        0.01840  -0.00073  -0.00170  -0.03248  -0.03403  -0.01562
   D33       -0.03080   0.00094   0.00364  -0.02129  -0.01778  -0.04858
   D34        3.08569   0.00203   0.00588   0.02874   0.03475   3.12044
   D35       -0.00445   0.00025   0.00041   0.01068   0.01115   0.00670
   D36        3.13431   0.00034   0.00070   0.01168   0.01241  -3.13646
   D37        0.00647  -0.00024  -0.00068  -0.00421  -0.00491   0.00155
   D38       -3.14018  -0.00004  -0.00014  -0.00132  -0.00149   3.14152
   D39       -3.13226  -0.00034  -0.00098  -0.00522  -0.00619  -3.13845
   D40        0.00428  -0.00014  -0.00044  -0.00233  -0.00276   0.00151
   D41       -0.00402   0.00009   0.00043  -0.00059  -0.00017  -0.00419
   D42        3.13935   0.00008   0.00027  -0.00096  -0.00068   3.13867
   D43       -3.14058  -0.00011  -0.00010  -0.00346  -0.00358   3.13903
   D44        0.00278  -0.00012  -0.00027  -0.00383  -0.00409  -0.00130
   D45       -0.00039   0.00006   0.00008  -0.00114  -0.00104  -0.00142
   D46       -3.13491  -0.00021  -0.00063  -0.00732  -0.00791   3.14037
   D47        3.13944   0.00006   0.00024  -0.00077  -0.00053   3.13891
   D48        0.00492  -0.00020  -0.00047  -0.00695  -0.00740  -0.00248
         Item               Value     Threshold  Converged?
 Maximum Force            0.008546     0.000450     NO 
 RMS     Force            0.001581     0.000300     NO 
 Maximum Displacement     0.123041     0.001800     NO 
 RMS     Displacement     0.027933     0.001200     NO 
 Predicted change in Energy=-3.123202D-04
 Lowest energy point so far.  Saving SCF results.
 GradGradGradGradGradGradGradGradGradGradGradGradGradGradGradGradGradGrad

 Leave Link  103 at Tue Sep 29 16:24:56 2026, MaxMem=  5100273664 cpu:               1.3 elap:               0.1
 (Enter /share/software/user/restricted/gaussian/g16.B01/l202.exe)
                          Input orientation:                          
 ---------------------------------------------------------------------
 Center     Atomic      Atomic             Coordinates (Angstroms)
 Number     Number       Type             X           Y           Z
 ---------------------------------------------------------------------
      1          6           0       -1.298873   -1.046944    0.092795
      2          6           0       -2.341498   -0.127497    0.246347
      3          6           0       -3.668879   -0.537169    0.289794
      4          6           0       -3.908031   -1.902303    0.174993
      5          6           0       -2.881595   -2.825535    0.026372
      6          6           0       -1.542020   -2.410072   -0.016289
      7          6           0        1.181779   -1.030305   -0.093036
      8          6           0        1.450606   -2.400125   -0.218608
      9          6           0        2.767918   -2.839251   -0.358117
     10          6           0        3.812621   -1.924938   -0.364903
     11          6           0        3.566113   -0.561010   -0.231495
     12          6           0        2.255653   -0.121399   -0.095721
     13          8           0       -0.029014   -0.443220    0.067152
     14         35           0       -2.026587    1.818317    0.412523
     15          1           0       -4.472248    0.176200    0.407212
     16         35           0       -5.788291   -2.505867    0.233090
     17          1           0       -3.133662   -3.882447   -0.054978
     18          1           0        0.602094   -3.079585   -0.194153
     19          1           0        2.965971   -3.901017   -0.459501
     20         35           0        5.634181   -2.546263   -0.558850
     21          1           0        4.382702    0.152536   -0.234149
     22          1           0        2.035436    0.935612    0.011016
 ---------------------------------------------------------------------
                    Distance matrix (angstroms):
                    1          2          3          4          5
     1  C    0.000000
     2  C    1.398581   0.000000
     3  C    2.432203   1.389842   0.000000
     4  C    2.747017   2.368344   1.390670   0.000000
     5  C    2.381766   2.760345   2.434302   1.388530   0.000000
     6  C    1.388934   2.432754   2.850435   2.427431   1.403172
     7  C    2.487658   3.652906   4.890667   5.170917   4.443886
     8  C    3.080212   4.445343   5.471582   5.396085   4.359926
     9  C    4.467043   5.815937   6.866712   6.762424   5.662599
    10  C    5.206509   6.440311   7.637236   7.739539   6.765849
    11  C    4.899937   5.942738   7.253787   7.604415   6.838678
    12  C    3.677883   4.609864   5.951602   6.421518   5.806770
    13  O    1.406301   2.340806   3.647878   4.145760   3.716761
    14  Br   2.973469   1.978124   2.874109   4.176035   4.737670
    15  H    3.415443   2.158288   1.080780   2.166205   3.418425
    16  Br   4.722607   4.187744   2.893250   1.975612   2.931519
    17  H    3.380587   3.849412   3.405321   2.138575   1.089595
    18  H    2.797793   4.192088   4.993926   4.675841   3.499895
    19  H    5.161362   6.550336   7.476507   7.186748   5.965465
    20  Br   7.123190   8.373185   9.555291   9.592029   8.540429
    21  H    5.816007   6.747160   8.098035   8.551375   7.855368
    22  H    3.880055   4.510336   5.897967   6.588281   6.190610
                    6          7          8          9         10
     6  C    0.000000
     7  C    3.054297   0.000000
     8  C    2.999474   1.401587   0.000000
     9  C    4.344722   2.420412   1.395567   0.000000
    10  C    5.387863   2.792063   2.413777   1.388315   0.000000
    11  C    5.436761   2.434021   2.803191   2.417340   1.392432
    12  C    4.434710   1.406884   2.419875   2.778126   2.397783
    13  O    2.482873   1.355119   2.469901   3.707378   4.140087
    14  Br   4.277611   4.320167   5.503131   6.728604   6.979449
    15  H    3.931207   5.802923   6.489168   7.880272   8.581958
    16  Br   4.254666   7.132006   7.253747   8.583088   9.637043
    17  H    2.168573   5.172929   4.820743   6.000733   7.223485
    18  H    2.253244   2.132090   1.087307   2.185278   3.416116
    19  H    4.768788   3.399798   2.146401   1.084828   2.151895
    20  Br   7.197971   4.726415   4.199931   2.888183   1.934358
    21  H    6.458851   3.415397   3.887610   3.402012   2.158238
    22  H    4.898218   2.145783   3.394392   3.862949   3.388576
                   11         12         13         14         15
    11  C    0.000000
    12  C    1.388883   0.000000
    13  O    3.609432   2.312963   0.000000
    14  Br   6.111812   4.728466   3.037125   0.000000
    15  H    8.097325   6.753233   4.499072   2.945817   0.000000
    16  Br   9.565730   8.396359   6.119749   5.734212   2.992619
    17  H    7.479979   6.572051   4.634872   5.826052   4.298610
    18  H    3.889733   3.390400   2.723417   5.591732   6.058938
    19  H    3.401148   3.862952   4.604743   7.641783   8.526547
    20  Br   2.885360   4.184365   6.073422   8.870203  10.511184
    21  H    1.084423   2.149080   4.461944   6.653721   8.878179
    22  H    2.154451   1.084970   2.483200   4.176171   6.563812
                   16         17         18         19         20
    16  Br   0.000000
    17  H    3.004166   0.000000
    18  H    6.430297   3.823588   0.000000
    19  H    8.891751   6.113060   2.516560   0.000000
    20  Br  11.449964   8.883375   5.073395   2.994090   0.000000
    21  H   10.523048   8.532814   4.974053   4.299908   2.992515
    22  H    8.550076   7.066655   4.268298   4.947753   5.039759
                   21         22
    21  H    0.000000
    22  H    2.486559   0.000000
 Stoichiometry    C12H6Br3O(1-)
 Framework group  C1[X(C12H6Br3O)]
 Deg. of freedom    60
 Full point group                 C1      NOp   1
 RotChk:  IX=2 Diff= 1.57D-02
 Largest Abelian subgroup         C1      NOp   1
 Largest concise Abelian subgroup C1      NOp   1
                         Standard orientation:                         
 ---------------------------------------------------------------------
 Center     Atomic      Atomic             Coordinates (Angstroms)
 Number     Number       Type             X           Y           Z
 ---------------------------------------------------------------------
      1          6           0        0.907613    0.094456   -0.015213
      2          6           0        2.035208    0.921785   -0.005950
      3          6           0        3.321161    0.394606    0.002283
      4          6           0        3.430721   -0.991738   -0.000749
      5          6           0        2.319257   -1.823894   -0.014163
      6          6           0        1.021760   -1.289755   -0.023450
      7          6           0       -1.569047    0.327619    0.000053
      8          6           0       -1.965240   -1.016518   -0.027730
      9          6           0       -3.322666   -1.340520   -0.022890
     10          6           0       -4.281017   -0.336331    0.001292
     11          6           0       -3.906897    1.004781    0.019182
     12          6           0       -2.556524    1.329568    0.017626
     13          8           0       -0.302906    0.810219   -0.018186
     14         35           0        1.905032    2.895618   -0.002365
     15          1           0        4.190360    1.036872    0.010792
     16         35           0        5.250002   -1.761865    0.012060
     17          1           0        2.471118   -2.902842   -0.019378
     18          1           0       -1.179888   -1.767794   -0.060004
     19          1           0       -3.619826   -2.383719   -0.039692
     20         35           0       -6.159356   -0.798437    0.007633
     21          1           0       -4.655883    1.788830    0.035343
     22          1           0       -2.237350    2.366454    0.030176
 ---------------------------------------------------------------------
 Rotational constants (GHZ):           0.4400115           0.0763161           0.0650372
 Leave Link  202 at Tue Sep 29 16:24:56 2026, MaxMem=  5100273664 cpu:               0.5 elap:               0.1
 (Enter /share/software/user/restricted/gaussian/g16.B01/l301.exe)
 Standard basis: 6-311++G(d) (5D, 7F)
 Ernie: Thresh=  0.10000D-02 Tol=  0.10000D-05 Strict=F.
 There are   476 symmetry adapted cartesian basis functions of A   symmetry.
 There are   454 symmetry adapted basis functions of A   symmetry.
   454 basis functions,   786 primitive gaussians,   476 cartesian basis functions
    96 alpha electrons       96 beta electrons
       nuclear repulsion energy      1955.2767549166 Hartrees.
 IExCor=  402 DFT=T Ex+Corr=B3LYP ExCW=0 ScaHFX=  0.200000
 ScaDFX=  0.800000  0.720000  1.000000  0.810000 ScalE2=  1.000000  1.000000
 IRadAn=      5 IRanWt=     -1 IRanGd=            0 ICorTp=0 IEmpDi=  4
 NAtoms=   22 NActive=   22 NUniq=   22 SFac= 1.00D+00 NAtFMM=   60 NAOKFM=F Big=F
 Integral buffers will be    131072 words long.
 Raffenetti 2 integral format.
 Two-electron integral symmetry is turned on.
 Leave Link  301 at Tue Sep 29 16:24:56 2026, MaxMem=  5100273664 cpu:               0.4 elap:               0.0
 (Enter /share/software/user/restricted/gaussian/g16.B01/l302.exe)
 NPDir=0 NMtPBC=     1 NCelOv=     1 NCel=       1 NClECP=     1 NCelD=      1
         NCelK=      1 NCelE2=     1 NClLst=     1 CellRange=     0.0.
 One-electron integrals computed using PRISM.
 One-electron integral symmetry used in STVInt
 NBasis=   454 RedAO= T EigKep=  1.64D-06  NBF=   454
 NBsUse=   450 1.00D-06 EigRej=  9.09D-07 NBFU=   450
 Precomputing XC quadrature grid using
 IXCGrd= 4 IRadAn=           5 IRanWt=          -1 IRanGd=           0 AccXCQ= 0.00D+00.
 Generated NRdTot=       0 NPtTot=           0 NUsed=           0 NTot=          32
 NSgBfM=   447   447   447   447   447 MxSgAt=    22 MxSgA2=    22.
 Leave Link  302 at Tue Sep 29 16:24:56 2026, MaxMem=  5100273664 cpu:               4.4 elap:               0.3
 (Enter /share/software/user/restricted/gaussian/g16.B01/l303.exe)
 DipDrv:  MaxL=1.
 Leave Link  303 at Tue Sep 29 16:24:56 2026, MaxMem=  5100273664 cpu:               1.0 elap:               0.1
 (Enter /share/software/user/restricted/gaussian/g16.B01/l401.exe)
 Initial guess from the checkpoint file:  "calcs/b3lyp_gas/chks/BDE_24_2r4_anion.chk"
 B after Tr=     0.000000    0.000000    0.000000
         Rot=    1.000000    0.000040   -0.000001   -0.000052 Ang=   0.01 deg.
 Guess basis will be translated and rotated to current coordinates.
 JPrj=2 DoOrth=T DoCkMO=T.
 Generating alternative initial guess.
 ExpMin= 3.50D-02 ExpMax= 4.40D+05 ExpMxC= 1.51D+04 IAcc=3 IRadAn=         5 AccDes= 0.00D+00
 Harris functional with IExCor=  402 and IRadAn=       5 diagonalized for initial guess.
 HarFok:  IExCor=  402 AccDes= 0.00D+00 IRadAn=         5 IDoV= 1 UseB2=F ITyADJ=14
 ICtDFT=  3500011 ScaDFX=  1.000000  1.000000  1.000000  1.000000
 FoFCou: FMM=F IPFlag=           0 FMFlag=      100000 FMFlg1=           0
         NFxFlg=           0 DoJE=T BraDBF=F KetDBF=T FulRan=T
         wScrn=  0.000000 ICntrl=       500 IOpCl=  0 I1Cent=   200000004 NGrid=           0
         NMat0=    1 NMatS0=      1 NMatT0=    0 NMatD0=    1 NMtDS0=    0 NMtDT0=    0
 Petite list used in FoFCou.
 Harris En= -8259.02044550709    
 Leave Link  401 at Tue Sep 29 16:24:58 2026, MaxMem=  5100273664 cpu:              21.6 elap:               1.4
 (Enter /share/software/user/restricted/gaussian/g16.B01/l502.exe)
 Integral symmetry usage will be decided dynamically.
 Closed shell SCF:
 Using DIIS extrapolation, IDIIS=  1040.
 NGot=  5100273664 LenX=  5099808623 LenY=  5099581571
 Requested convergence on RMS density matrix=1.00D-08 within 128 cycles.
 Requested convergence on MAX density matrix=1.00D-06.
 Requested convergence on             energy=1.00D-06.
 No special actions if energy rises.
 Fock matrices will be formed incrementally for  20 cycles.

 Cycle   1  Pass 1  IDiag  1:
 FoFJK:  IHMeth= 1 ICntrl=       0 DoSepK=F KAlg= 0 I1Cent=           0 FoldK=F
 IRaf= 770000000 NMat=       1 IRICut=       1 DoRegI=T DoRafI=F ISym2E= 0 IDoP0=0 IntGTp=1.
 FoFCou: FMM=F IPFlag=           0 FMFlag=      100000 FMFlg1=           0
         NFxFlg=           0 DoJE=F BraDBF=F KetDBF=F FulRan=T
         wScrn=  0.000000 ICntrl=         0 IOpCl=  0 I1Cent=           0 NGrid=           0
         NMat0=    1 NMatS0=      1 NMatT0=    0 NMatD0=    1 NMtDS0=    0 NMtDT0=    0
 Symmetry not used in FoFCou.
 E= -8258.66467165695    
 DIIS: error= 6.34D-03 at cycle   1 NSaved=   1.
 NSaved= 1 IEnMin= 1 EnMin= -8258.66467165695     IErMin= 1 ErrMin= 6.34D-03
 ErrMax= 6.34D-03  0.00D+00 EMaxC= 1.00D-01 BMatC= 1.27D-02 BMatP= 1.27D-02
 IDIUse=3 WtCom= 9.37D-01 WtEn= 6.34D-02
 Coeff-Com:  0.100D+01
 Coeff-En:   0.100D+01
 Coeff:      0.100D+01
 Gap=     0.307 Goal=   None    Shift=    0.000
 GapD=    0.307 DampG=1.000 DampE=1.000 DampFc=1.0000 IDamp=-1.
 RMSDP=2.58D-03 MaxDP=1.41D-01              OVMax= 1.94D-02

 Cycle   2  Pass 1  IDiag  1:
 RMSU=  2.44D-03    CP:  1.02D+00
 E= -8258.67003866131     Delta-E=       -0.005367004362 Rises=F Damp=F
 DIIS: error= 3.53D-04 at cycle   2 NSaved=   2.
 NSaved= 2 IEnMin= 2 EnMin= -8258.67003866131     IErMin= 2 ErrMin= 3.53D-04
 ErrMax= 3.53D-04  0.00D+00 EMaxC= 1.00D-01 BMatC= 4.35D-05 BMatP= 1.27D-02
 IDIUse=3 WtCom= 9.96D-01 WtEn= 3.53D-03
 Coeff-Com: -0.556D-02 0.101D+01
 Coeff-En:   0.000D+00 0.100D+01
 Coeff:     -0.554D-02 0.101D+01
 Gap=     0.124 Goal=   None    Shift=    0.000
 RMSDP=2.85D-04 MaxDP=2.53D-02 DE=-5.37D-03 OVMax= 4.42D-03

 Cycle   3  Pass 1  IDiag  1:
 RMSU=  2.55D-04    CP:  1.03D+00  1.02D+00
 E= -8258.67000709277     Delta-E=        0.000031568545 Rises=F Damp=F
 DIIS: error= 7.18D-04 at cycle   3 NSaved=   3.
 NSaved= 3 IEnMin= 2 EnMin= -8258.67003866131     IErMin= 2 ErrMin= 3.53D-04
 ErrMax= 7.18D-04  0.00D+00 EMaxC= 1.00D-01 BMatC= 9.61D-05 BMatP= 4.35D-05
 IDIUse=3 WtCom= 2.72D-01 WtEn= 7.28D-01
 Coeff-Com: -0.591D-02 0.618D+00 0.388D+00
 Coeff-En:   0.000D+00 0.606D+00 0.394D+00
 Coeff:     -0.161D-02 0.609D+00 0.392D+00
 Gap=     0.122 Goal=   None    Shift=    0.000
 RMSDP=1.58D-04 MaxDP=1.84D-02 DE= 3.16D-05 OVMax= 3.56D-03

 Cycle   4  Pass 1  IDiag  1:
 RMSU=  7.51D-05    CP:  1.02D+00  1.03D+00  5.05D-01
 E= -8258.67009915870     Delta-E=       -0.000092065929 Rises=F Damp=F
 DIIS: error= 2.17D-04 at cycle   4 NSaved=   4.
 NSaved= 4 IEnMin= 4 EnMin= -8258.67009915870     IErMin= 4 ErrMin= 2.17D-04
 ErrMax= 2.17D-04  0.00D+00 EMaxC= 1.00D-01 BMatC= 1.04D-05 BMatP= 4.35D-05
 IDIUse=3 WtCom= 9.98D-01 WtEn= 2.17D-03
 Coeff-Com: -0.247D-02 0.189D+00 0.252D+00 0.562D+00
 Coeff-En:   0.000D+00 0.000D+00 0.116D+00 0.884D+00
 Coeff:     -0.246D-02 0.188D+00 0.251D+00 0.563D+00
 Gap=     0.123 Goal=   None    Shift=    0.000
 RMSDP=5.22D-05 MaxDP=1.95D-03 DE=-9.21D-05 OVMax= 1.79D-03

 Cycle   5  Pass 1  IDiag  1:
 RMSU=  3.69D-05    CP:  1.02D+00  1.03D+00  4.85D-01  5.15D-01
 E= -8258.67010907459     Delta-E=       -0.000009915897 Rises=F Damp=F
 DIIS: error= 1.08D-04 at cycle   5 NSaved=   5.
 NSaved= 5 IEnMin= 5 EnMin= -8258.67010907459     IErMin= 5 ErrMin= 1.08D-04
 ErrMax= 1.08D-04  0.00D+00 EMaxC= 1.00D-01 BMatC= 1.95D-06 BMatP= 1.04D-05
 IDIUse=3 WtCom= 9.99D-01 WtEn= 1.08D-03
 Coeff-Com: -0.580D-03 0.142D-01 0.968D-01 0.370D+00 0.519D+00
 Coeff-En:   0.000D+00 0.000D+00 0.000D+00 0.158D+00 0.842D+00
 Coeff:     -0.580D-03 0.142D-01 0.967D-01 0.370D+00 0.520D+00
 Gap=     0.122 Goal=   None    Shift=    0.000
 RMSDP=3.03D-05 MaxDP=1.49D-03 DE=-9.92D-06 OVMax= 7.78D-04

 Cycle   6  Pass 1  IDiag  1:
 RMSU=  1.68D-05    CP:  1.02D+00  1.02D+00  5.20D-01  7.16D-01  5.32D-01
 E= -8258.67011101702     Delta-E=       -0.000001942422 Rises=F Damp=F
 DIIS: error= 3.50D-05 at cycle   6 NSaved=   6.
 NSaved= 6 IEnMin= 6 EnMin= -8258.67011101702     IErMin= 6 ErrMin= 3.50D-05
 ErrMax= 3.50D-05  0.00D+00 EMaxC= 1.00D-01 BMatC= 2.55D-07 BMatP= 1.95D-06
 IDIUse=1 WtCom= 1.00D+00 WtEn= 0.00D+00
 Coeff-Com: -0.129D-04-0.198D-01 0.254D-01 0.155D+00 0.328D+00 0.511D+00
 Coeff:     -0.129D-04-0.198D-01 0.254D-01 0.155D+00 0.328D+00 0.511D+00
 Gap=     0.123 Goal=   None    Shift=    0.000
 RMSDP=1.05D-05 MaxDP=7.38D-04 DE=-1.94D-06 OVMax= 2.28D-04

 Cycle   7  Pass 1  IDiag  1:
 RMSU=  3.33D-06    CP:  1.02D+00  1.03D+00  5.30D-01  6.97D-01  6.05D-01
                    CP:  5.31D-01
 E= -8258.67011128163     Delta-E=       -0.000000264612 Rises=F Damp=F
 DIIS: error= 9.50D-06 at cycle   7 NSaved=   7.
 NSaved= 7 IEnMin= 7 EnMin= -8258.67011128163     IErMin= 7 ErrMin= 9.50D-06
 ErrMax= 9.50D-06  0.00D+00 EMaxC= 1.00D-01 BMatC= 2.22D-08 BMatP= 2.55D-07
 IDIUse=1 WtCom= 1.00D+00 WtEn= 0.00D+00
 Coeff-Com:  0.409D-04-0.136D-01 0.722D-02 0.635D-01 0.155D+00 0.308D+00
 Coeff-Com:  0.479D+00
 Coeff:      0.409D-04-0.136D-01 0.722D-02 0.635D-01 0.155D+00 0.308D+00
 Coeff:      0.479D+00
 Gap=     0.123 Goal=   None    Shift=    0.000
 RMSDP=1.68D-06 MaxDP=9.14D-05 DE=-2.65D-07 OVMax= 4.85D-05

 Cycle   8  Pass 1  IDiag  1:
 RMSU=  1.24D-06    CP:  1.02D+00  1.03D+00  5.30D-01  7.01D-01  6.07D-01
                    CP:  5.60D-01  7.40D-01
 E= -8258.67011130167     Delta-E=       -0.000000020043 Rises=F Damp=F
 DIIS: error= 2.63D-06 at cycle   8 NSaved=   8.
 NSaved= 8 IEnMin= 8 EnMin= -8258.67011130167     IErMin= 8 ErrMin= 2.63D-06
 ErrMax= 2.63D-06  0.00D+00 EMaxC= 1.00D-01 BMatC= 2.44D-09 BMatP= 2.22D-08
 IDIUse=1 WtCom= 1.00D+00 WtEn= 0.00D+00
 Coeff-Com:  0.262D-04-0.617D-02 0.145D-02 0.212D-01 0.577D-01 0.132D+00
 Coeff-Com:  0.292D+00 0.501D+00
 Coeff:      0.262D-04-0.617D-02 0.145D-02 0.212D-01 0.577D-01 0.132D+00
 Coeff:      0.292D+00 0.501D+00
 Gap=     0.123 Goal=   None    Shift=    0.000
 RMSDP=8.11D-07 MaxDP=5.39D-05 DE=-2.00D-08 OVMax= 1.58D-05

 Cycle   9  Pass 1  IDiag  1:
 RMSU=  4.56D-07    CP:  1.02D+00  1.03D+00  5.30D-01  7.01D-01  6.06D-01
                    CP:  5.86D-01  6.82D-01  6.64D-01
 E= -8258.67011130382     Delta-E=       -0.000000002150 Rises=F Damp=F
 DIIS: error= 7.99D-07 at cycle   9 NSaved=   9.
 NSaved= 9 IEnMin= 9 EnMin= -8258.67011130382     IErMin= 9 ErrMin= 7.99D-07
 ErrMax= 7.99D-07  0.00D+00 EMaxC= 1.00D-01 BMatC= 1.54D-10 BMatP= 2.44D-09
 IDIUse=1 WtCom= 1.00D+00 WtEn= 0.00D+00
 Coeff-Com:  0.736D-05-0.110D-02-0.271D-03 0.177D-02 0.705D-02 0.223D-01
 Coeff-Com:  0.734D-01 0.234D+00 0.663D+00
 Coeff:      0.736D-05-0.110D-02-0.271D-03 0.177D-02 0.705D-02 0.223D-01
 Coeff:      0.734D-01 0.234D+00 0.663D+00
 Gap=     0.123 Goal=   None    Shift=    0.000
 RMSDP=2.44D-07 MaxDP=2.58D-05 DE=-2.15D-09 OVMax= 6.08D-06

 Cycle  10  Pass 1  IDiag  1:
 RMSU=  1.50D-07    CP:  1.02D+00  1.03D+00  5.30D-01  7.01D-01  6.07D-01
                    CP:  5.83D-01  6.85D-01  6.86D-01  8.41D-01
 E= -8258.67011130386     Delta-E=       -0.000000000042 Rises=F Damp=F
 DIIS: error= 6.79D-07 at cycle  10 NSaved=  10.
 NSaved=10 IEnMin=10 EnMin= -8258.67011130386     IErMin=10 ErrMin= 6.79D-07
 ErrMax= 6.79D-07  0.00D+00 EMaxC= 1.00D-01 BMatC= 7.15D-11 BMatP= 1.54D-10
 IDIUse=1 WtCom= 1.00D+00 WtEn= 0.00D+00
 Coeff-Com:  0.124D-05 0.128D-03-0.381D-03-0.175D-02-0.333D-02-0.349D-02
 Coeff-Com:  0.781D-02 0.850D-01 0.455D+00 0.461D+00
 Coeff:      0.124D-05 0.128D-03-0.381D-03-0.175D-02-0.333D-02-0.349D-02
 Coeff:      0.781D-02 0.850D-01 0.455D+00 0.461D+00
 Gap=     0.123 Goal=   None    Shift=    0.000
 RMSDP=9.26D-08 MaxDP=5.07D-06 DE=-4.18D-11 OVMax= 3.36D-06

 Cycle  11  Pass 1  IDiag  1:
 RMSU=  4.89D-08    CP:  1.02D+00  1.03D+00  5.30D-01  7.01D-01  6.07D-01
                    CP:  5.83D-01  6.92D-01  7.10D-01  8.95D-01  6.41D-01
 E= -8258.67011130396     Delta-E=       -0.000000000093 Rises=F Damp=F
 DIIS: error= 1.72D-07 at cycle  11 NSaved=  11.
 NSaved=11 IEnMin=11 EnMin= -8258.67011130396     IErMin=11 ErrMin= 1.72D-07
 ErrMax= 1.72D-07  0.00D+00 EMaxC= 1.00D-01 BMatC= 6.12D-12 BMatP= 7.15D-11
 IDIUse=1 WtCom= 1.00D+00 WtEn= 0.00D+00
 Coeff-Com: -0.827D-07 0.210D-03-0.208D-03-0.131D-02-0.292D-02-0.481D-02
 Coeff-Com: -0.385D-02 0.270D-01 0.207D+00 0.285D+00 0.494D+00
 Coeff:     -0.827D-07 0.210D-03-0.208D-03-0.131D-02-0.292D-02-0.481D-02
 Coeff:     -0.385D-02 0.270D-01 0.207D+00 0.285D+00 0.494D+00
 Gap=     0.123 Goal=   None    Shift=    0.000
 RMSDP=4.01D-08 MaxDP=4.23D-06 DE=-9.28D-11 OVMax= 1.04D-06

 Cycle  12  Pass 1  IDiag  1:
 RMSU=  1.85D-08    CP:  1.02D+00  1.03D+00  5.30D-01  7.01D-01  6.06D-01
                    CP:  5.84D-01  6.93D-01  7.13D-01  9.10D-01  6.67D-01
                    CP:  6.56D-01
 E= -8258.67011130401     Delta-E=       -0.000000000049 Rises=F Damp=F
 DIIS: error= 4.42D-08 at cycle  12 NSaved=  12.
 NSaved=12 IEnMin=12 EnMin= -8258.67011130401     IErMin=12 ErrMin= 4.42D-08
 ErrMax= 4.42D-08  0.00D+00 EMaxC= 1.00D-01 BMatC= 6.34D-13 BMatP= 6.12D-12
 IDIUse=1 WtCom= 1.00D+00 WtEn= 0.00D+00
 Coeff-Com: -0.221D-06 0.111D-03-0.723D-04-0.555D-03-0.132D-02-0.245D-02
 Coeff-Com: -0.369D-02 0.452D-02 0.624D-01 0.109D+00 0.292D+00 0.540D+00
 Coeff:     -0.221D-06 0.111D-03-0.723D-04-0.555D-03-0.132D-02-0.245D-02
 Coeff:     -0.369D-02 0.452D-02 0.624D-01 0.109D+00 0.292D+00 0.540D+00
 Gap=     0.123 Goal=   None    Shift=    0.000
 RMSDP=1.41D-08 MaxDP=1.13D-06 DE=-4.91D-11 OVMax= 2.31D-07

 Cycle  13  Pass 1  IDiag  1:
 RMSU=  6.09D-09    CP:  1.02D+00  1.03D+00  5.30D-01  7.01D-01  6.07D-01
                    CP:  5.83D-01  6.93D-01  7.14D-01  9.14D-01  6.72D-01
                    CP:  7.46D-01  8.13D-01
 E= -8258.67011130394     Delta-E=        0.000000000069 Rises=F Damp=F
 DIIS: error= 8.09D-09 at cycle  13 NSaved=  13.
 NSaved=13 IEnMin=12 EnMin= -8258.67011130401     IErMin=13 ErrMin= 8.09D-09
 ErrMax= 8.09D-09  0.00D+00 EMaxC= 1.00D-01 BMatC= 3.09D-14 BMatP= 6.34D-13
 IDIUse=1 WtCom= 1.00D+00 WtEn= 0.00D+00
 Coeff-Com: -0.904D-07 0.280D-04-0.111D-04-0.115D-03-0.286D-03-0.585D-03
 Coeff-Com: -0.133D-02-0.789D-03 0.661D-02 0.208D-01 0.792D-01 0.230D+00
 Coeff-Com:  0.666D+00
 Coeff:     -0.904D-07 0.280D-04-0.111D-04-0.115D-03-0.286D-03-0.585D-03
 Coeff:     -0.133D-02-0.789D-03 0.661D-02 0.208D-01 0.792D-01 0.230D+00
 Coeff:      0.666D+00
 Gap=     0.123 Goal=   None    Shift=    0.000
 RMSDP=2.88D-09 MaxDP=1.44D-07 DE= 6.91D-11 OVMax= 9.05D-08

 SCF Done:  E(RB3LYP) =  -8258.67011130     A.U. after   13 cycles
            NFock= 13  Conv=0.29D-08     -V/T= 2.0014
 KE= 8.247196590885D+03 PE=-2.364022103192D+04 EE= 5.179077574810D+03
 Leave Link  502 at Tue Sep 29 16:25:42 2026, MaxMem=  5100273664 cpu:             717.4 elap:              44.9
 (Enter /share/software/user/restricted/gaussian/g16.B01/l701.exe)
 ... and contract with generalized density number  0.
 Compute integral first derivatives.
 Leave Link  701 at Tue Sep 29 16:25:43 2026, MaxMem=  5100273664 cpu:               3.4 elap:               0.3
 (Enter /share/software/user/restricted/gaussian/g16.B01/l702.exe)
 L702 exits ... SP integral derivatives will be done elsewhere.
 Leave Link  702 at Tue Sep 29 16:25:43 2026, MaxMem=  5100273664 cpu:               0.4 elap:               0.0
 (Enter /share/software/user/restricted/gaussian/g16.B01/l703.exe)
 Integral derivatives from FoFJK, PRISM(SPDF).
 Compute integral first derivatives, UseDBF=F ICtDFT=           0.
 Calling FoFJK, ICntrl=      2127 FMM=F ISym2X=0 I1Cent= 0 IOpClX= 0 NMat=1 NMatS=1 NMatT=0.
 FoFJK:  IHMeth= 1 ICntrl=    2127 DoSepK=F KAlg= 0 I1Cent=           0 FoldK=F
 IRaf=         0 NMat=       1 IRICut=       1 DoRegI=T DoRafI=F ISym2E= 0 IDoP0=0 IntGTp=1.
 FoFCou: FMM=F IPFlag=           0 FMFlag=      100000 FMFlg1=         800
         NFxFlg=           0 DoJE=F BraDBF=F KetDBF=F FulRan=T
         wScrn=  0.000000 ICntrl=      2127 IOpCl=  0 I1Cent=           0 NGrid=           0
         NMat0=    1 NMatS0=      1 NMatT0=    0 NMatD0=    1 NMtDS0=    0 NMtDT0=    0
 Symmetry not used in FoFCou.
 Leave Link  703 at Tue Sep 29 16:25:55 2026, MaxMem=  5100273664 cpu:             191.8 elap:              12.0
 (Enter /share/software/user/restricted/gaussian/g16.B01/l716.exe)
 Dipole        =-1.41613891D+00 6.73516564D-01 1.10063852D-02
 ***** Axes restored to original set *****
 -------------------------------------------------------------------
 Center     Atomic                   Forces (Hartrees/Bohr)
 Number     Number              X              Y              Z
 -------------------------------------------------------------------
      1        6          -0.001050453   -0.000799376    0.000023370
      2        6          -0.000599435    0.000826978    0.000010168
      3        6           0.000608456   -0.000814541   -0.000093975
      4        6          -0.000931084    0.000490180    0.000180665
      5        6           0.001415185   -0.000622360    0.000005827
      6        6           0.000533517    0.000529388   -0.000215557
      7        6           0.000790330    0.001175525    0.002454203
      8        6          -0.003730077   -0.001511616    0.000262750
      9        6           0.000122064   -0.000527026   -0.000185995
     10        6          -0.000904767   -0.000072059   -0.000032233
     11        6           0.000194798    0.000516975   -0.000240994
     12        6          -0.000591243   -0.000024888   -0.000696226
     13        8           0.000749982    0.000344095   -0.000716703
     14       35           0.000262692   -0.000136643   -0.000052269
     15        1           0.000112731    0.000033229   -0.000010118
     16       35          -0.000005127    0.000053126   -0.000004305
     17        1          -0.000405787    0.000260203    0.000019620
     18        1           0.002782555    0.000630223   -0.000884368
     19        1           0.000125258    0.000226809    0.000171028
     20       35           0.000539877   -0.000160211   -0.000044660
     21        1          -0.000156138   -0.000201272    0.000050297
     22        1           0.000136665   -0.000216739   -0.000000522
 -------------------------------------------------------------------
 Cartesian Forces:  Max     0.003730077 RMS     0.000831414
 Leave Link  716 at Tue Sep 29 16:25:55 2026, MaxMem=  5100273664 cpu:               0.6 elap:               0.0
 (Enter /share/software/user/restricted/gaussian/g16.B01/l103.exe)

 GradGradGradGradGradGradGradGradGradGradGradGradGradGradGradGradGradGrad
 Berny optimization.
 Using GEDIIS/GDIIS optimizer.
 FormGI is forming the generalized inverse of G from B-inverse, IUseBI=4.
 GSVD:  received Info=                   1 from GESDD.
 Internal  Forces:  Max     0.016327255 RMS     0.002209021
 Search for a local minimum.
 Step number  10 out of a maximum of  116
 All quantities printed in internal units (Hartrees-Bohrs-Radians)
 RMS Force = .22090D-02 SwitMx=.10000D-02 MixMth= 1
 Mixed Optimization -- RFO/linear search
 Update second derivatives using D2CorX and points    6    8    7    9   10
 DE= -2.58D-04 DEPred=-3.12D-04 R= 8.25D-01
 TightC=F SS=  1.41D+00  RLast= 1.21D-01 DXNew= 3.0000D-01 3.6324D-01
 Trust test= 8.25D-01 RLast= 1.21D-01 DXMaxT set to 3.00D-01
 ITU=  1  0 -1  1 -1  1  1 -1  0  0
 Use linear search instead of GDIIS.
     Eigenvalues ---    0.01569   0.01934   0.02011   0.02022   0.02037
     Eigenvalues ---    0.02061   0.02091   0.02094   0.02107   0.02110
     Eigenvalues ---    0.02130   0.02132   0.02136   0.02166   0.02178
     Eigenvalues ---    0.02194   0.02235   0.02307   0.03146   0.12028
     Eigenvalues ---    0.15995   0.16003   0.16006   0.16013   0.16176
     Eigenvalues ---    0.18854   0.19160   0.20208   0.22307   0.22994
     Eigenvalues ---    0.23348   0.23976   0.24711   0.24935   0.24990
     Eigenvalues ---    0.25052   0.25083   0.25713   0.33589   0.33702
     Eigenvalues ---    0.33717   0.33777   0.33947   0.38263   0.41145
     Eigenvalues ---    0.41466   0.42372   0.44306   0.44931   0.45184
     Eigenvalues ---    0.45750   0.45896   0.46267   0.46367   0.47265
     Eigenvalues ---    0.47690   0.48463   0.85187   1.28155  22.07785
 RFO step:  Lambda=-1.13096575D-04 EMin= 1.56896492D-02
 Quartic linear search produced a step of -0.14321.
 Iteration  1 RMS(Cart)=  0.00751596 RMS(Int)=  0.00003189
 Iteration  2 RMS(Cart)=  0.00009388 RMS(Int)=  0.00001459
 Iteration  3 RMS(Cart)=  0.00000000 RMS(Int)=  0.00001459
 ITry= 1 IFail=0 DXMaxC= 4.17D-02 DCOld= 1.00D+10 DXMaxT= 3.00D-01 DXLimC= 3.00D+00 Rises=F
 Variable       Old X    -DE/DX   Delta X   Delta X   Delta X     New X
                                 (Linear)    (Quad)   (Total)
    R1        2.64293  -0.00062   0.00013  -0.00020  -0.00007   2.64286
    R2        2.62471  -0.00242   0.00107  -0.00274  -0.00168   2.62303
    R3        2.65752  -0.00267  -0.00017   0.00158   0.00140   2.65893
    R4        2.62642  -0.00015  -0.00031   0.00002  -0.00029   2.62613
    R5        3.73811  -0.00010   0.00181  -0.00427  -0.00246   3.73566
    R6        2.62799   0.00059   0.00009  -0.00061  -0.00053   2.62746
    R7        2.04238  -0.00006  -0.00003   0.00011   0.00008   2.04246
    R8        2.62394   0.00134  -0.00081   0.00299   0.00218   2.62612
    R9        3.73337  -0.00001   0.00203  -0.00449  -0.00246   3.73090
   R10        2.65161  -0.00043   0.00059  -0.00153  -0.00094   2.65067
   R11        2.05904  -0.00016  -0.00004  -0.00016  -0.00020   2.05883
   R12        4.25801   0.00253  -0.01053   0.02766   0.01712   4.27514
   R13        2.64861   0.00054   0.00002   0.00035   0.00038   2.64899
   R14        2.65863  -0.00099  -0.00012  -0.00064  -0.00075   2.65788
   R15        2.56080  -0.00297  -0.00033  -0.00034  -0.00066   2.56014
   R16        2.63724   0.00010   0.00032  -0.00009   0.00023   2.63746
   R17        2.62353   0.00031  -0.00014   0.00001  -0.00014   2.62339
   R18        2.05003  -0.00022  -0.00004  -0.00029  -0.00033   2.04969
   R19        2.63131   0.00071  -0.00040   0.00113   0.00072   2.63204
   R20        3.65541   0.00056   0.00138  -0.00085   0.00053   3.65594
   R21        2.62461  -0.00008   0.00023  -0.00062  -0.00040   2.62421
   R22        2.04926  -0.00025   0.00002  -0.00046  -0.00044   2.04882
   R23        2.05030  -0.00024   0.00016  -0.00078  -0.00062   2.04968
    A1        2.12154   0.00259  -0.00040   0.00218   0.00178   2.12332
    A2        1.97462   0.00571   0.00000  -0.00107  -0.00106   1.97355
    A3        2.18703  -0.00830   0.00039  -0.00112  -0.00073   2.18630
    A4        2.11956  -0.00182   0.00115  -0.00358  -0.00242   2.11714
    A5        2.13793   0.00038  -0.00060   0.00035  -0.00025   2.13768
    A6        2.02569   0.00144  -0.00055   0.00323   0.00268   2.02836
    A7        2.03869   0.00032  -0.00139   0.00390   0.00252   2.04121
    A8        2.11619  -0.00026   0.00068  -0.00240  -0.00172   2.11447
    A9        2.12830  -0.00006   0.00071  -0.00150  -0.00079   2.12751
   A10        2.13460   0.00009   0.00128  -0.00331  -0.00204   2.13256
   A11        2.05007  -0.00014  -0.00082   0.00175   0.00093   2.05100
   A12        2.09851   0.00005  -0.00046   0.00157   0.00111   2.09962
   A13        2.10843  -0.00082  -0.00008   0.00034   0.00026   2.10869
   A14        2.07366  -0.00006   0.00015  -0.00257  -0.00242   2.07124
   A15        2.10110   0.00088  -0.00008   0.00223   0.00216   2.10325
   A16        2.04353  -0.00036  -0.00057   0.00048  -0.00009   2.04345
   A17        1.70241  -0.00277  -0.00131   0.00486   0.00356   1.70596
   A18        2.53722   0.00313   0.00188  -0.00536  -0.00348   2.53375
   A19        2.07696   0.00213   0.00079  -0.00079  -0.00008   2.07688
   A20        2.22104  -0.00649  -0.00105   0.00115   0.00002   2.22106
   A21        1.98487   0.00438   0.00027   0.00018   0.00036   1.98523
   A22        2.09154  -0.00130  -0.00040   0.00028  -0.00011   2.09143
   A23        2.09852  -0.00026  -0.00067   0.00113   0.00044   2.09896
   A24        2.08247   0.00029   0.00048  -0.00023   0.00025   2.08273
   A25        2.10220  -0.00003   0.00020  -0.00090  -0.00070   2.10150
   A26        2.10762   0.00065   0.00124  -0.00207  -0.00085   2.10677
   A27        2.09159  -0.00028  -0.00043   0.00086   0.00044   2.09203
   A28        2.08397  -0.00037  -0.00081   0.00122   0.00041   2.08439
   A29        2.07881  -0.00011  -0.00063   0.00111   0.00048   2.07929
   A30        2.10712   0.00001   0.00016  -0.00044  -0.00028   2.10685
   A31        2.09725   0.00010   0.00046  -0.00066  -0.00020   2.09705
   A32        2.11286  -0.00112  -0.00032   0.00049   0.00018   2.11303
   A33        2.06494   0.00065   0.00034  -0.00022   0.00012   2.06506
   A34        2.10539   0.00047  -0.00002  -0.00026  -0.00029   2.10510
   A35        2.24334  -0.01633  -0.00062   0.00036  -0.00026   2.24308
    D1       -0.00579   0.00031   0.00055   0.00222   0.00277  -0.00302
    D2        3.13663   0.00009   0.00088   0.00038   0.00127   3.13790
    D3        3.13817   0.00043  -0.00099   0.00525   0.00425  -3.14076
    D4       -0.00260   0.00021  -0.00066   0.00342   0.00275   0.00015
    D5        0.00634  -0.00036  -0.00040  -0.00288  -0.00328   0.00306
    D6       -3.13014  -0.00065  -0.00088  -0.00108  -0.00196  -3.13210
    D7       -3.13792  -0.00047   0.00134  -0.00629  -0.00495   3.14032
    D8        0.00879  -0.00077   0.00086  -0.00449  -0.00363   0.00516
    D9       -3.11640  -0.00198  -0.00046  -0.00507  -0.00553  -3.12194
   D10        0.02766  -0.00188  -0.00208  -0.00191  -0.00399   0.02367
   D11        0.00129  -0.00005  -0.00035   0.00006  -0.00029   0.00101
   D12       -3.14012  -0.00011  -0.00008  -0.00070  -0.00078  -3.14090
   D13       -3.14107   0.00015  -0.00066   0.00178   0.00112  -3.13995
   D14        0.00070   0.00010  -0.00038   0.00101   0.00063   0.00133
   D15        0.00231  -0.00015   0.00004  -0.00157  -0.00153   0.00078
   D16       -3.14089   0.00002   0.00000   0.00011   0.00011  -3.14078
   D17       -3.13946  -0.00010  -0.00024  -0.00080  -0.00104  -3.14050
   D18        0.00052   0.00007  -0.00028   0.00088   0.00061   0.00113
   D19       -0.00158   0.00009   0.00009   0.00085   0.00094  -0.00064
   D20        3.13791   0.00031   0.00012   0.00165   0.00176   3.13967
   D21       -3.14152  -0.00008   0.00013  -0.00088  -0.00075   3.14092
   D22       -0.00202   0.00013   0.00016  -0.00009   0.00007  -0.00195
   D23       -0.00274   0.00017   0.00008   0.00140   0.00148  -0.00127
   D24        3.12993   0.00064   0.00090  -0.00167  -0.00077   3.12916
   D25        3.14098  -0.00004   0.00006   0.00059   0.00065  -3.14156
   D26       -0.00954   0.00043   0.00088  -0.00248  -0.00160  -0.01113
   D27       -0.01208   0.00021   0.00175   0.01269   0.01443   0.00236
   D28       -3.12497  -0.00055  -0.00613  -0.01213  -0.01827   3.13995
   D29        0.00953  -0.00011  -0.00104  -0.01125  -0.01229  -0.00276
   D30       -3.13226  -0.00016  -0.00200  -0.00932  -0.01131   3.13962
   D31        3.12616   0.00038   0.00584   0.01034   0.01615  -3.14087
   D32       -0.01562   0.00033   0.00487   0.01227   0.01713   0.00151
   D33       -0.04858  -0.00092   0.00255   0.01085   0.01341  -0.03516
   D34        3.12044  -0.00163  -0.00498  -0.01284  -0.01784   3.10260
   D35        0.00670  -0.00020  -0.00160  -0.00561  -0.00721  -0.00051
   D36       -3.13646  -0.00020  -0.00178  -0.00419  -0.00597   3.14075
   D37        0.00155   0.00004   0.00070  -0.00329  -0.00258  -0.00103
   D38        3.14152   0.00003   0.00021   0.00056   0.00077  -3.14089
   D39       -3.13845   0.00005   0.00089  -0.00472  -0.00384   3.14090
   D40        0.00151   0.00003   0.00040  -0.00087  -0.00048   0.00104
   D41       -0.00419   0.00006   0.00002   0.00481   0.00484   0.00065
   D42        3.13867   0.00000   0.00010   0.00364   0.00373  -3.14079
   D43        3.13903   0.00008   0.00051   0.00098   0.00150   3.14052
   D44       -0.00130   0.00002   0.00059  -0.00019   0.00039  -0.00091
   D45       -0.00142  -0.00003   0.00015   0.00254   0.00268   0.00126
   D46        3.14037   0.00003   0.00113   0.00055   0.00168  -3.14114
   D47        3.13891   0.00003   0.00008   0.00371   0.00379  -3.14049
   D48       -0.00248   0.00009   0.00106   0.00173   0.00278   0.00030
         Item               Value     Threshold  Converged?
 Maximum Force            0.016327     0.000450     NO 
 RMS     Force            0.002209     0.000300     NO 
 Maximum Displacement     0.041667     0.001800     NO 
 RMS     Displacement     0.007521     0.001200     NO 
 Predicted change in Energy=-6.442354D-05
 Lowest energy point so far.  Saving SCF results.
 GradGradGradGradGradGradGradGradGradGradGradGradGradGradGradGradGradGrad

 Leave Link  103 at Tue Sep 29 16:25:55 2026, MaxMem=  5100273664 cpu:               1.4 elap:               0.1
 (Enter /share/software/user/restricted/gaussian/g16.B01/l202.exe)
                          Input orientation:                          
 ---------------------------------------------------------------------
 Center     Atomic      Atomic             Coordinates (Angstroms)
 Number     Number       Type             X           Y           Z
 ---------------------------------------------------------------------
      1          6           0       -1.299694   -1.046599    0.095718
      2          6           0       -2.341742   -0.125998    0.245889
      3          6           0       -3.668513   -0.537462    0.286080
      4          6           0       -3.908849   -1.902130    0.171587
      5          6           0       -2.880436   -2.825084    0.024139
      6          6           0       -1.541553   -2.408827   -0.016117
      7          6           0        1.182526   -1.031071   -0.070986
      8          6           0        1.450287   -2.400435   -0.205711
      9          6           0        2.766967   -2.839129   -0.353500
     10          6           0        3.811522   -1.924857   -0.368144
     11          6           0        3.564382   -0.560390   -0.237433
     12          6           0        2.255100   -0.121452   -0.090701
     13          8           0       -0.028803   -0.443024    0.078273
     14         35           0       -2.024856    1.818056    0.413439
     15          1           0       -4.471946    0.176211    0.401587
     16         35           0       -5.788124   -2.504910    0.225196
     17          1           0       -3.133940   -3.881427   -0.058675
     18          1           0        0.609608   -3.087040   -0.190943
     19          1           0        2.964976   -3.900584   -0.456322
     20         35           0        5.632198   -2.545537   -0.574828
     21          1           0        4.380043    0.153761   -0.249607
     22          1           0        2.035226    0.935642    0.012554
 ---------------------------------------------------------------------
                    Distance matrix (angstroms):
                    1          2          3          4          5
     1  C    0.000000
     2  C    1.398542   0.000000
     3  C    2.430383   1.389690   0.000000
     4  C    2.746886   2.369808   1.390391   0.000000
     5  C    2.380520   2.761237   2.433699   1.389683   0.000000
     6  C    1.388046   2.433158   2.849086   2.428181   1.402675
     7  C    2.487860   3.652401   4.889143   5.171043   4.442430
     8  C    3.079956   4.444828   5.469428   5.395461   4.357559
     9  C    4.466844   5.815432   6.864556   6.761671   5.660032
    10  C    5.206826   6.440154   7.635692   7.739248   6.763623
    11  C    4.899655   5.941767   7.251852   7.603732   6.836149
    12  C    3.677935   4.609151   5.950145   6.421361   5.804872
    13  O    1.407043   2.340574   3.646860   4.146378   3.716039
    14  Br   2.972045   1.976824   2.875116   4.177045   4.737332
    15  H    3.413503   2.157160   1.080822   2.165521   3.418061
    16  Br   4.721170   4.187744   2.892630   1.974308   2.932164
    17  H    3.380022   3.850140   3.403927   2.138018   1.089487
    18  H    2.809094   4.203458   5.003020   4.685285   3.506463
    19  H    5.161143   6.549951   7.474285   7.185928   5.962917
    20  Br   7.123734   8.373259   9.553887   9.591803   8.538258
    21  H    5.815456   6.745827   8.095926   8.550429   7.852580
    22  H    3.880449   4.509919   5.897244   6.588647   6.189259
                    6          7          8          9         10
     6  C    0.000000
     7  C    3.053167   0.000000
     8  C    2.997853   1.401786   0.000000
     9  C    4.343078   2.420608   1.395686   0.000000
    10  C    5.386424   2.792629   2.414123   1.388238   0.000000
    11  C    5.434729   2.433615   2.802886   2.417022   1.392815
    12  C    4.433083   1.406489   2.419652   2.777920   2.398269
    13  O    2.482278   1.354768   2.469780   3.707300   4.140436
    14  Br   4.276054   4.317347   5.500512   6.726004   6.977362
    15  H    3.929899   5.801199   6.486969   7.878089   8.580374
    16  Br   4.254507   7.130911   7.251979   8.581152   9.635441
    17  H    2.169344   5.172674   4.819761   5.999500   7.222422
    18  H    2.262306   2.137670   1.085535   2.177632   3.410912
    19  H    4.767381   3.399959   2.146517   1.084651   2.151259
    20  Br   7.196774   4.727266   4.200676   2.888726   1.934638
    21  H    6.456523   3.414652   3.887070   3.401500   2.158221
    22  H    4.896902   2.145236   3.393995   3.862427   3.388601
                   11         12         13         14         15
    11  C    0.000000
    12  C    1.388674   0.000000
    13  O    3.608937   2.312612   0.000000
    14  Br   6.109028   4.725872   3.034641   0.000000
    15  H    8.095276   6.751600   4.497722   2.946870   0.000000
    16  Br   9.563710   8.394887   6.119047   5.734602   2.991965
    17  H    7.478553   6.571164   4.635002   5.825552   4.297269
    18  H    3.888034   3.392994   2.733288   5.600503   6.068121
    19  H    3.400602   3.862570   4.604696   7.639225   8.524323
    20  Br   2.886262   4.185136   6.074046   8.868376  10.509759
    21  H    1.084188   2.148576   4.461119   6.650733   8.875938
    22  H    2.153816   1.084645   2.482993   4.174162   6.562878
                   16         17         18         19         20
    16  Br   0.000000
    17  H    3.003344   0.000000
    18  H    6.437626   3.829190   0.000000
    19  H    8.889834   6.111896   2.506001   0.000000
    20  Br  11.448382   8.882353   5.066262   2.994039   0.000000
    21  H   10.520723   8.531069   4.972164   4.299170   2.993304
    22  H    8.549118   7.066081   4.272677   4.947057   5.040024
                   21         22
    21  H    0.000000
    22  H    2.485606   0.000000
 Stoichiometry    C12H6Br3O(1-)
 Framework group  C1[X(C12H6Br3O)]
 Deg. of freedom    60
 Full point group                 C1      NOp   1
 RotChk:  IX=2 Diff= 2.89D-03
 Largest Abelian subgroup         C1      NOp   1
 Largest concise Abelian subgroup C1      NOp   1
                         Standard orientation:                         
 ---------------------------------------------------------------------
 Center     Atomic      Atomic             Coordinates (Angstroms)
 Number     Number       Type             X           Y           Z
 ---------------------------------------------------------------------
      1          6           0        0.908792    0.094923   -0.020303
      2          6           0        2.035684    0.923061   -0.005375
      3          6           0        3.320592    0.393783    0.005509
      4          6           0        3.431329   -0.992179   -0.000381
      5          6           0        2.317985   -1.823681   -0.017303
      6          6           0        1.021462   -1.288518   -0.028483
      7          6           0       -1.568027    0.329001   -0.025094
      8          6           0       -1.963884   -1.015559   -0.046540
      9          6           0       -3.321308   -1.339907   -0.034756
     10          6           0       -4.280094   -0.336507   -0.001291
     11          6           0       -3.905457    1.004771    0.022223
     12          6           0       -2.555441    1.329961    0.010999
     13          8           0       -0.302090    0.811461   -0.030727
     14         35           0        1.903592    2.895458    0.000366
     15          1           0        4.189757    1.036107    0.017682
     16         35           0        5.249306   -1.761965    0.016336
     17          1           0        2.471161   -2.902332   -0.022961
     18          1           0       -1.187708   -1.774053   -0.071522
     19          1           0       -3.618550   -2.382887   -0.052316
     20         35           0       -6.158518   -0.799164    0.015908
     21          1           0       -4.654182    1.788449    0.049110
     22          1           0       -2.236831    2.366595    0.029209
 ---------------------------------------------------------------------
 Rotational constants (GHZ):           0.4399599           0.0763426           0.0650566
 Leave Link  202 at Tue Sep 29 16:25:55 2026, MaxMem=  5100273664 cpu:               0.4 elap:               0.0
 (Enter /share/software/user/restricted/gaussian/g16.B01/l301.exe)
 Standard basis: 6-311++G(d) (5D, 7F)
 Ernie: Thresh=  0.10000D-02 Tol=  0.10000D-05 Strict=F.
 There are   476 symmetry adapted cartesian basis functions of A   symmetry.
 There are   454 symmetry adapted basis functions of A   symmetry.
   454 basis functions,   786 primitive gaussians,   476 cartesian basis functions
    96 alpha electrons       96 beta electrons
       nuclear repulsion energy      1955.5040930576 Hartrees.
 IExCor=  402 DFT=T Ex+Corr=B3LYP ExCW=0 ScaHFX=  0.200000
 ScaDFX=  0.800000  0.720000  1.000000  0.810000 ScalE2=  1.000000  1.000000
 IRadAn=      5 IRanWt=     -1 IRanGd=            0 ICorTp=0 IEmpDi=  4
 NAtoms=   22 NActive=   22 NUniq=   22 SFac= 1.00D+00 NAtFMM=   60 NAOKFM=F Big=F
 Integral buffers will be    131072 words long.
 Raffenetti 2 integral format.
 Two-electron integral symmetry is turned on.
 Leave Link  301 at Tue Sep 29 16:25:55 2026, MaxMem=  5100273664 cpu:               0.6 elap:               0.0
 (Enter /share/software/user/restricted/gaussian/g16.B01/l302.exe)
 NPDir=0 NMtPBC=     1 NCelOv=     1 NCel=       1 NClECP=     1 NCelD=      1
         NCelK=      1 NCelE2=     1 NClLst=     1 CellRange=     0.0.
 One-electron integrals computed using PRISM.
 One-electron integral symmetry used in STVInt
 NBasis=   454 RedAO= T EigKep=  1.65D-06  NBF=   454
 NBsUse=   450 1.00D-06 EigRej=  9.13D-07 NBFU=   450
 Precomputing XC quadrature grid using
 IXCGrd= 4 IRadAn=           5 IRanWt=          -1 IRanGd=           0 AccXCQ= 0.00D+00.
 Generated NRdTot=       0 NPtTot=           0 NUsed=           0 NTot=          32
 NSgBfM=   447   447   447   447   447 MxSgAt=    22 MxSgA2=    22.
 Leave Link  302 at Tue Sep 29 16:25:56 2026, MaxMem=  5100273664 cpu:               4.3 elap:               0.3
 (Enter /share/software/user/restricted/gaussian/g16.B01/l303.exe)
 DipDrv:  MaxL=1.
 Leave Link  303 at Tue Sep 29 16:25:56 2026, MaxMem=  5100273664 cpu:               1.0 elap:               0.1
 (Enter /share/software/user/restricted/gaussian/g16.B01/l401.exe)
 Initial guess from the checkpoint file:  "calcs/b3lyp_gas/chks/BDE_24_2r4_anion.chk"
 B after Tr=     0.000000   -0.000000    0.000000
         Rot=    1.000000   -0.000002   -0.000000   -0.000026 Ang=  -0.00 deg.
 Guess basis will be translated and rotated to current coordinates.
 JPrj=2 DoOrth=T DoCkMO=T.
 Generating alternative initial guess.
 ExpMin= 3.50D-02 ExpMax= 4.40D+05 ExpMxC= 1.51D+04 IAcc=3 IRadAn=         5 AccDes= 0.00D+00
 Harris functional with IExCor=  402 and IRadAn=       5 diagonalized for initial guess.
 HarFok:  IExCor=  402 AccDes= 0.00D+00 IRadAn=         5 IDoV= 1 UseB2=F ITyADJ=14
 ICtDFT=  3500011 ScaDFX=  1.000000  1.000000  1.000000  1.000000
 FoFCou: FMM=F IPFlag=           0 FMFlag=      100000 FMFlg1=           0
         NFxFlg=           0 DoJE=T BraDBF=F KetDBF=T FulRan=T
         wScrn=  0.000000 ICntrl=       500 IOpCl=  0 I1Cent=   200000004 NGrid=           0
         NMat0=    1 NMatS0=      1 NMatT0=    0 NMatD0=    1 NMtDS0=    0 NMtDT0=    0
 Petite list used in FoFCou.
 Harris En= -8259.02093924246    
 Leave Link  401 at Tue Sep 29 16:25:57 2026, MaxMem=  5100273664 cpu:              22.0 elap:               1.4
 (Enter /share/software/user/restricted/gaussian/g16.B01/l502.exe)
 Integral symmetry usage will be decided dynamically.
 Closed shell SCF:
 Using DIIS extrapolation, IDIIS=  1040.
 NGot=  5100273664 LenX=  5099808623 LenY=  5099581571
 Requested convergence on RMS density matrix=1.00D-08 within 128 cycles.
 Requested convergence on MAX density matrix=1.00D-06.
 Requested convergence on             energy=1.00D-06.
 No special actions if energy rises.
 Fock matrices will be formed incrementally for  20 cycles.

 Cycle   1  Pass 1  IDiag  1:
 FoFJK:  IHMeth= 1 ICntrl=       0 DoSepK=F KAlg= 0 I1Cent=           0 FoldK=F
 IRaf= 770000000 NMat=       1 IRICut=       1 DoRegI=T DoRafI=F ISym2E= 0 IDoP0=0 IntGTp=1.
 FoFCou: FMM=F IPFlag=           0 FMFlag=      100000 FMFlg1=           0
         NFxFlg=           0 DoJE=F BraDBF=F KetDBF=F FulRan=T
         wScrn=  0.000000 ICntrl=         0 IOpCl=  0 I1Cent=           0 NGrid=           0
         NMat0=    1 NMatS0=      1 NMatT0=    0 NMatD0=    1 NMtDS0=    0 NMtDT0=    0
 Symmetry not used in FoFCou.
 E= -8258.66968365390    
 DIIS: error= 1.37D-03 at cycle   1 NSaved=   1.
 NSaved= 1 IEnMin= 1 EnMin= -8258.66968365390     IErMin= 1 ErrMin= 1.37D-03
 ErrMax= 1.37D-03  0.00D+00 EMaxC= 1.00D-01 BMatC= 9.29D-04 BMatP= 9.29D-04
 IDIUse=3 WtCom= 9.86D-01 WtEn= 1.37D-02
 Coeff-Com:  0.100D+01
 Coeff-En:   0.100D+01
 Coeff:      0.100D+01
 Gap=     0.307 Goal=   None    Shift=    0.000
 GapD=    0.307 DampG=1.000 DampE=1.000 DampFc=1.0000 IDamp=-1.
 RMSDP=9.51D-04 MaxDP=4.29D-02              OVMax= 5.35D-03

 Cycle   2  Pass 1  IDiag  1:
 RMSU=  9.41D-04    CP:  9.96D-01
 E= -8258.67016468699     Delta-E=       -0.000481033088 Rises=F Damp=F
 DIIS: error= 1.01D-04 at cycle   2 NSaved=   2.
 NSaved= 2 IEnMin= 2 EnMin= -8258.67016468699     IErMin= 2 ErrMin= 1.01D-04
 ErrMax= 1.01D-04  0.00D+00 EMaxC= 1.00D-01 BMatC= 4.34D-06 BMatP= 9.29D-04
 IDIUse=3 WtCom= 9.99D-01 WtEn= 1.01D-03
 Coeff-Com: -0.557D-02 0.101D+01
 Coeff-En:   0.000D+00 0.100D+01
 Coeff:     -0.556D-02 0.101D+01
 Gap=     0.123 Goal=   None    Shift=    0.000
 RMSDP=7.54D-05 MaxDP=6.16D-03 DE=-4.81D-04 OVMax= 1.40D-03

 Cycle   3  Pass 1  IDiag  1:
 RMSU=  6.94D-05    CP:  9.97D-01  1.03D+00
 E= -8258.67016171240     Delta-E=        0.000002974584 Rises=F Damp=F
 DIIS: error= 1.70D-04 at cycle   3 NSaved=   3.
 NSaved= 3 IEnMin= 2 EnMin= -8258.67016468699     IErMin= 2 ErrMin= 1.01D-04
 ErrMax= 1.70D-04  0.00D+00 EMaxC= 1.00D-01 BMatC= 9.91D-06 BMatP= 4.34D-06
 IDIUse=3 WtCom= 4.34D-01 WtEn= 5.66D-01
 Coeff-Com: -0.724D-02 0.621D+00 0.387D+00
 Coeff-En:   0.000D+00 0.606D+00 0.394D+00
 Coeff:     -0.314D-02 0.612D+00 0.391D+00
 Gap=     0.122 Goal=   None    Shift=    0.000
 RMSDP=4.19D-05 MaxDP=4.50D-03 DE= 2.97D-06 OVMax= 1.28D-03

 Cycle   4  Pass 1  IDiag  1:
 RMSU=  2.16D-05    CP:  9.96D-01  1.04D+00  4.90D-01
 E= -8258.67017039867     Delta-E=       -0.000008686266 Rises=F Damp=F
 DIIS: error= 6.15D-05 at cycle   4 NSaved=   4.
 NSaved= 4 IEnMin= 4 EnMin= -8258.67017039867     IErMin= 4 ErrMin= 6.15D-05
 ErrMax= 6.15D-05  0.00D+00 EMaxC= 1.00D-01 BMatC= 8.24D-07 BMatP= 4.34D-06
 IDIUse=1 WtCom= 1.00D+00 WtEn= 0.00D+00
 Coeff-Com: -0.341D-02 0.217D+00 0.238D+00 0.549D+00
 Coeff:     -0.341D-02 0.217D+00 0.238D+00 0.549D+00
 Gap=     0.122 Goal=   None    Shift=    0.000
 RMSDP=1.35D-05 MaxDP=7.39D-04 DE=-8.69D-06 OVMax= 4.02D-04

 Cycle   5  Pass 1  IDiag  1:
 RMSU=  9.90D-06    CP:  9.96D-01  1.04D+00  5.06D-01  5.80D-01
 E= -8258.67017111413     Delta-E=       -0.000000715467 Rises=F Damp=F
 DIIS: error= 2.71D-05 at cycle   5 NSaved=   5.
 NSaved= 5 IEnMin= 5 EnMin= -8258.67017111413     IErMin= 5 ErrMin= 2.71D-05
 ErrMax= 2.71D-05  0.00D+00 EMaxC= 1.00D-01 BMatC= 1.53D-07 BMatP= 8.24D-07
 IDIUse=1 WtCom= 1.00D+00 WtEn= 0.00D+00
 Coeff-Com: -0.816D-03 0.220D-01 0.792D-01 0.351D+00 0.549D+00
 Coeff:     -0.816D-03 0.220D-01 0.792D-01 0.351D+00 0.549D+00
 Gap=     0.122 Goal=   None    Shift=    0.000
 RMSDP=6.08D-06 MaxDP=2.11D-04 DE=-7.15D-07 OVMax= 1.91D-04

 Cycle   6  Pass 1  IDiag  1:
 RMSU=  3.92D-06    CP:  9.96D-01  1.04D+00  5.11D-01  7.21D-01  6.71D-01
 E= -8258.67017125116     Delta-E=       -0.000000137026 Rises=F Damp=F
 DIIS: error= 1.27D-05 at cycle   6 NSaved=   6.
 NSaved= 6 IEnMin= 6 EnMin= -8258.67017125116     IErMin= 6 ErrMin= 1.27D-05
 ErrMax= 1.27D-05  0.00D+00 EMaxC= 1.00D-01 BMatC= 3.27D-08 BMatP= 1.53D-07
 IDIUse=1 WtCom= 1.00D+00 WtEn= 0.00D+00
 Coeff-Com: -0.226D-04-0.195D-01 0.174D-01 0.153D+00 0.375D+00 0.473D+00
 Coeff:     -0.226D-04-0.195D-01 0.174D-01 0.153D+00 0.375D+00 0.473D+00
 Gap=     0.122 Goal=   None    Shift=    0.000
 RMSDP=2.70D-06 MaxDP=1.62D-04 DE=-1.37D-07 OVMax= 7.45D-05

 Cycle   7  Pass 1  IDiag  1:
 RMSU=  1.11D-06    CP:  9.96D-01  1.04D+00  5.22D-01  7.20D-01  6.78D-01
                    CP:  4.39D-01
 E= -8258.67017128355     Delta-E=       -0.000000032389 Rises=F Damp=F
 DIIS: error= 2.16D-06 at cycle   7 NSaved=   7.
 NSaved= 7 IEnMin= 7 EnMin= -8258.67017128355     IErMin= 7 ErrMin= 2.16D-06
 ErrMax= 2.16D-06  0.00D+00 EMaxC= 1.00D-01 BMatC= 1.40D-09 BMatP= 3.27D-08
 IDIUse=1 WtCom= 1.00D+00 WtEn= 0.00D+00
 Coeff-Com:  0.456D-04-0.124D-01 0.396D-02 0.580D-01 0.165D+00 0.259D+00
 Coeff-Com:  0.526D+00
 Coeff:      0.456D-04-0.124D-01 0.396D-02 0.580D-01 0.165D+00 0.259D+00
 Coeff:      0.526D+00
 Gap=     0.122 Goal=   None    Shift=    0.000
 RMSDP=6.43D-07 MaxDP=4.30D-05 DE=-3.24D-08 OVMax= 1.72D-05

 Cycle   8  Pass 1  IDiag  1:
 RMSU=  3.14D-07    CP:  9.96D-01  1.04D+00  5.24D-01  7.26D-01  6.75D-01
                    CP:  5.36D-01  6.79D-01
 E= -8258.67017128466     Delta-E=       -0.000000001108 Rises=F Damp=F
 DIIS: error= 1.33D-06 at cycle   8 NSaved=   8.
 NSaved= 8 IEnMin= 8 EnMin= -8258.67017128466     IErMin= 8 ErrMin= 1.33D-06
 ErrMax= 1.33D-06  0.00D+00 EMaxC= 1.00D-01 BMatC= 2.97D-10 BMatP= 1.40D-09
 IDIUse=1 WtCom= 1.00D+00 WtEn= 0.00D+00
 Coeff-Com:  0.327D-04-0.602D-02 0.592D-03 0.207D-01 0.664D-01 0.118D+00
 Coeff-Com:  0.350D+00 0.451D+00
 Coeff:      0.327D-04-0.602D-02 0.592D-03 0.207D-01 0.664D-01 0.118D+00
 Coeff:      0.350D+00 0.451D+00
 Gap=     0.122 Goal=   None    Shift=    0.000
 RMSDP=2.86D-07 MaxDP=2.52D-05 DE=-1.11D-09 OVMax= 7.49D-06

 Cycle   9  Pass 1  IDiag  1:
 RMSU=  1.57D-07    CP:  9.96D-01  1.04D+00  5.24D-01  7.25D-01  6.86D-01
                    CP:  5.24D-01  6.90D-01  6.18D-01
 E= -8258.67017128491     Delta-E=       -0.000000000256 Rises=F Damp=F
 DIIS: error= 4.48D-07 at cycle   9 NSaved=   9.
 NSaved= 9 IEnMin= 9 EnMin= -8258.67017128491     IErMin= 9 ErrMin= 4.48D-07
 ErrMax= 4.48D-07  0.00D+00 EMaxC= 1.00D-01 BMatC= 2.70D-11 BMatP= 2.97D-10
 IDIUse=1 WtCom= 1.00D+00 WtEn= 0.00D+00
 Coeff-Com:  0.125D-04-0.165D-02-0.315D-03 0.307D-02 0.138D-01 0.299D-01
 Coeff-Com:  0.125D+00 0.265D+00 0.565D+00
 Coeff:      0.125D-04-0.165D-02-0.315D-03 0.307D-02 0.138D-01 0.299D-01
 Coeff:      0.125D+00 0.265D+00 0.565D+00
 Gap=     0.122 Goal=   None    Shift=    0.000
 RMSDP=8.34D-08 MaxDP=9.37D-06 DE=-2.56D-10 OVMax= 2.20D-06

 Cycle  10  Pass 1  IDiag  1:
 RMSU=  5.34D-08    CP:  9.96D-01  1.04D+00  5.23D-01  7.25D-01  6.86D-01
                    CP:  5.24D-01  6.97D-01  6.64D-01  7.39D-01
 E= -8258.67017128493     Delta-E=       -0.000000000013 Rises=F Damp=F
 DIIS: error= 1.32D-07 at cycle  10 NSaved=  10.
 NSaved=10 IEnMin=10 EnMin= -8258.67017128493     IErMin=10 ErrMin= 1.32D-07
 ErrMax= 1.32D-07  0.00D+00 EMaxC= 1.00D-01 BMatC= 5.40D-12 BMatP= 2.70D-11
 IDIUse=1 WtCom= 1.00D+00 WtEn= 0.00D+00
 Coeff-Com:  0.168D-05 0.107D-03-0.320D-03-0.195D-02-0.379D-02-0.335D-02
 Coeff-Com:  0.118D-01 0.793D-01 0.354D+00 0.564D+00
 Coeff:      0.168D-05 0.107D-03-0.320D-03-0.195D-02-0.379D-02-0.335D-02
 Coeff:      0.118D-01 0.793D-01 0.354D+00 0.564D+00
 Gap=     0.122 Goal=   None    Shift=    0.000
 RMSDP=3.13D-08 MaxDP=3.16D-06 DE=-1.27D-11 OVMax= 8.28D-07

 Cycle  11  Pass 1  IDiag  1:
 RMSU=  1.43D-08    CP:  9.96D-01  1.04D+00  5.24D-01  7.25D-01  6.85D-01
                    CP:  5.27D-01  7.03D-01  6.80D-01  8.02D-01  7.17D-01
 E= -8258.67017128494     Delta-E=       -0.000000000013 Rises=F Damp=F
 DIIS: error= 4.52D-08 at cycle  11 NSaved=  11.
 NSaved=11 IEnMin=11 EnMin= -8258.67017128494     IErMin=11 ErrMin= 4.52D-08
 ErrMax= 4.52D-08  0.00D+00 EMaxC= 1.00D-01 BMatC= 5.67D-13 BMatP= 5.40D-12
 IDIUse=1 WtCom= 1.00D+00 WtEn= 0.00D+00
 Coeff-Com: -0.947D-07 0.208D-03-0.154D-03-0.136D-02-0.339D-02-0.452D-02
 Coeff-Com: -0.469D-02 0.226D-01 0.159D+00 0.331D+00 0.501D+00
 Coeff:     -0.947D-07 0.208D-03-0.154D-03-0.136D-02-0.339D-02-0.452D-02
 Coeff:     -0.469D-02 0.226D-01 0.159D+00 0.331D+00 0.501D+00
 Gap=     0.122 Goal=   None    Shift=    0.000
 RMSDP=8.22D-09 MaxDP=3.98D-07 DE=-1.27D-11 OVMax= 2.42D-07

 SCF Done:  E(RB3LYP) =  -8258.67017128     A.U. after   11 cycles
            NFock= 11  Conv=0.82D-08     -V/T= 2.0014
 KE= 8.247202534579D+03 PE=-2.364068309648D+04 EE= 5.179306297557D+03
 Leave Link  502 at Tue Sep 29 16:26:35 2026, MaxMem=  5100273664 cpu:             609.3 elap:              38.1
 (Enter /share/software/user/restricted/gaussian/g16.B01/l701.exe)
 ... and contract with generalized density number  0.
 Compute integral first derivatives.
 Leave Link  701 at Tue Sep 29 16:26:36 2026, MaxMem=  5100273664 cpu:               2.3 elap:               0.2
 (Enter /share/software/user/restricted/gaussian/g16.B01/l702.exe)
 L702 exits ... SP integral derivatives will be done elsewhere.
 Leave Link  702 at Tue Sep 29 16:26:36 2026, MaxMem=  5100273664 cpu:               0.6 elap:               0.0
 (Enter /share/software/user/restricted/gaussian/g16.B01/l703.exe)
 Integral derivatives from FoFJK, PRISM(SPDF).
 Compute integral first derivatives, UseDBF=F ICtDFT=           0.
 Calling FoFJK, ICntrl=      2127 FMM=F ISym2X=0 I1Cent= 0 IOpClX= 0 NMat=1 NMatS=1 NMatT=0.
 FoFJK:  IHMeth= 1 ICntrl=    2127 DoSepK=F KAlg= 0 I1Cent=           0 FoldK=F
 IRaf=         0 NMat=       1 IRICut=       1 DoRegI=T DoRafI=F ISym2E= 0 IDoP0=0 IntGTp=1.
 FoFCou: FMM=F IPFlag=           0 FMFlag=      100000 FMFlg1=         800
         NFxFlg=           0 DoJE=F BraDBF=F KetDBF=F FulRan=T
         wScrn=  0.000000 ICntrl=      2127 IOpCl=  0 I1Cent=           0 NGrid=           0
         NMat0=    1 NMatS0=      1 NMatT0=    0 NMatD0=    1 NMtDS0=    0 NMtDT0=    0
 Symmetry not used in FoFCou.
 Leave Link  703 at Tue Sep 29 16:26:48 2026, MaxMem=  5100273664 cpu:             192.2 elap:              12.0
 (Enter /share/software/user/restricted/gaussian/g16.B01/l716.exe)
 Dipole        =-1.41379269D+00 6.73852577D-01 1.57645931D-02
 ***** Axes restored to original set *****
 -------------------------------------------------------------------
 Center     Atomic                   Forces (Hartrees/Bohr)
 Number     Number              X              Y              Z
 -------------------------------------------------------------------
      1        6          -0.000426035   -0.000211242    0.000327522
      2        6          -0.000420741    0.000137877    0.000048538
      3        6           0.000029485   -0.000102415   -0.000007904
      4        6           0.000193410    0.000110494   -0.000036902
      5        6           0.000346597   -0.000204110   -0.000048911
      6        6           0.000459931   -0.000008682   -0.000070417
      7        6          -0.000218624    0.000723742   -0.000846991
      8        6          -0.002097295   -0.001837621    0.000486355
      9        6           0.000522118   -0.000128312   -0.000002099
     10        6          -0.000973957    0.000280267   -0.000007669
     11        6           0.000485995    0.000105660    0.000087691
     12        6          -0.000290400   -0.000222432    0.000311341
     13        8           0.000660081    0.000290063    0.000101251
     14       35           0.000119821    0.000033226   -0.000048588
     15        1           0.000037216    0.000034938   -0.000009420
     16       35          -0.000161756   -0.000018775    0.000040683
     17        1          -0.000219589    0.000084702   -0.000007394
     18        1           0.001468968    0.001027695   -0.000211017
     19        1           0.000041233    0.000108368   -0.000003512
     20       35           0.000425258   -0.000102210   -0.000024462
     21        1          -0.000031530   -0.000081286   -0.000032720
     22        1           0.000049813   -0.000019947   -0.000045377
 -------------------------------------------------------------------
 Cartesian Forces:  Max     0.002097295 RMS     0.000495277
 Leave Link  716 at Tue Sep 29 16:26:48 2026, MaxMem=  5100273664 cpu:               0.3 elap:               0.0
 (Enter /share/software/user/restricted/gaussian/g16.B01/l103.exe)

 GradGradGradGradGradGradGradGradGradGradGradGradGradGradGradGradGradGrad
 Berny optimization.
 Using GEDIIS/GDIIS optimizer.
 FormGI is forming the generalized inverse of G from B-inverse, IUseBI=4.
 GSVD:  received Info=                   1 from GESDD.
 Internal  Forces:  Max     0.009826750 RMS     0.001386399
 Search for a local minimum.
 Step number  11 out of a maximum of  116
 All quantities printed in internal units (Hartrees-Bohrs-Radians)
 RMS Force = .13864D-02 SwitMx=.10000D-02 MixMth= 1
 Mixed Optimization -- RFO/linear search
 Update second derivatives using D2CorX and points    6    8    7    9   10
                                                     11
 DE= -6.00D-05 DEPred=-6.44D-05 R= 9.31D-01
 TightC=F SS=  1.41D+00  RLast= 5.10D-02 DXNew= 5.0454D-01 1.5286D-01
 Trust test= 9.31D-01 RLast= 5.10D-02 DXMaxT set to 3.00D-01
 ITU=  1  1  0 -1  1 -1  1  1 -1  0  0
 Use linear search instead of GDIIS.
     Eigenvalues ---    0.01767   0.01882   0.02006   0.02019   0.02035
     Eigenvalues ---    0.02068   0.02092   0.02097   0.02098   0.02112
     Eigenvalues ---    0.02130   0.02135   0.02156   0.02166   0.02180
     Eigenvalues ---    0.02195   0.02234   0.02307   0.04220   0.11868
     Eigenvalues ---    0.15996   0.15998   0.16007   0.16009   0.16102
     Eigenvalues ---    0.18855   0.19077   0.20015   0.22408   0.23000
     Eigenvalues ---    0.23061   0.23896   0.24760   0.24911   0.24985
     Eigenvalues ---    0.24992   0.25105   0.25754   0.33545   0.33696
     Eigenvalues ---    0.33714   0.33777   0.33937   0.37841   0.41221
     Eigenvalues ---    0.41500   0.42533   0.44033   0.44940   0.45178
     Eigenvalues ---    0.45501   0.45819   0.46289   0.46474   0.47315
     Eigenvalues ---    0.47721   0.48412   0.80765   1.24410  20.64144
 RFO step:  Lambda=-2.82580024D-05 EMin= 1.76666424D-02
 Quartic linear search produced a step of -0.06211.
 Iteration  1 RMS(Cart)=  0.00641518 RMS(Int)=  0.00001210
 Iteration  2 RMS(Cart)=  0.00002409 RMS(Int)=  0.00000059
 Iteration  3 RMS(Cart)=  0.00000000 RMS(Int)=  0.00000059
 ITry= 1 IFail=0 DXMaxC= 2.61D-02 DCOld= 1.00D+10 DXMaxT= 3.00D-01 DXLimC= 3.00D+00 Rises=F
 Variable       Old X    -DE/DX   Delta X   Delta X   Delta X     New X
                                 (Linear)    (Quad)   (Total)
    R1        2.64286  -0.00028   0.00000   0.00022   0.00022   2.64308
    R2        2.62303  -0.00193   0.00010  -0.00020  -0.00010   2.62293
    R3        2.65893  -0.00167  -0.00009   0.00117   0.00109   2.66001
    R4        2.62613   0.00004   0.00002  -0.00039  -0.00037   2.62576
    R5        3.73566   0.00005   0.00015  -0.00058  -0.00043   3.73523
    R6        2.62746   0.00062   0.00003  -0.00023  -0.00019   2.62726
    R7        2.04246  -0.00001  -0.00000  -0.00001  -0.00002   2.04244
    R8        2.62612   0.00056  -0.00014   0.00092   0.00079   2.62691
    R9        3.73090   0.00016   0.00015   0.00005   0.00020   3.73110
   R10        2.65067  -0.00023   0.00006  -0.00026  -0.00020   2.65047
   R11        2.05883  -0.00003   0.00001  -0.00013  -0.00012   2.05872
   R12        4.27514   0.00111  -0.00106  -0.00322  -0.00429   4.27085
   R13        2.64899   0.00117  -0.00002   0.00105   0.00103   2.65002
   R14        2.65788  -0.00040   0.00005  -0.00059  -0.00055   2.65733
   R15        2.56014  -0.00135   0.00004  -0.00052  -0.00048   2.55966
   R16        2.63746   0.00036  -0.00001   0.00081   0.00080   2.63826
   R17        2.62339   0.00012   0.00001  -0.00025  -0.00024   2.62315
   R18        2.04969  -0.00010   0.00002  -0.00034  -0.00032   2.04937
   R19        2.63204   0.00003  -0.00004  -0.00028  -0.00033   2.63171
   R20        3.65594   0.00044  -0.00003   0.00226   0.00223   3.65816
   R21        2.62421   0.00003   0.00002  -0.00006  -0.00004   2.62417
   R22        2.04882  -0.00008   0.00003  -0.00035  -0.00032   2.04850
   R23        2.04968  -0.00003   0.00004  -0.00027  -0.00023   2.04945
    A1        2.12332   0.00158  -0.00011   0.00105   0.00094   2.12426
    A2        1.97355   0.00437   0.00007  -0.00015  -0.00008   1.97347
    A3        2.18630  -0.00595   0.00005  -0.00089  -0.00085   2.18546
    A4        2.11714  -0.00114   0.00015  -0.00102  -0.00087   2.11627
    A5        2.13768   0.00035   0.00002  -0.00072  -0.00071   2.13698
    A6        2.02836   0.00079  -0.00017   0.00175   0.00158   2.02994
    A7        2.04121  -0.00002  -0.00016   0.00070   0.00054   2.04175
    A8        2.11447  -0.00004   0.00011  -0.00076  -0.00065   2.11382
    A9        2.12751   0.00006   0.00005   0.00006   0.00011   2.12762
   A10        2.13256   0.00030   0.00013  -0.00020  -0.00007   2.13249
   A11        2.05100  -0.00021  -0.00006  -0.00015  -0.00021   2.05080
   A12        2.09962  -0.00008  -0.00007   0.00035   0.00028   2.09990
   A13        2.10869  -0.00077  -0.00002  -0.00012  -0.00014   2.10856
   A14        2.07124   0.00015   0.00015  -0.00187  -0.00172   2.06952
   A15        2.10325   0.00062  -0.00013   0.00199   0.00186   2.10511
   A16        2.04345   0.00006   0.00001  -0.00040  -0.00039   2.04305
   A17        1.70596  -0.00304  -0.00022   0.00122   0.00100   1.70696
   A18        2.53375   0.00299   0.00022  -0.00082  -0.00061   2.53314
   A19        2.07688   0.00107   0.00000   0.00096   0.00097   2.07785
   A20        2.22106  -0.00294  -0.00000  -0.00051  -0.00051   2.22055
   A21        1.98523   0.00187  -0.00002  -0.00043  -0.00045   1.98478
   A22        2.09143  -0.00111   0.00001  -0.00161  -0.00160   2.08983
   A23        2.09896   0.00002  -0.00003   0.00032   0.00029   2.09925
   A24        2.08273   0.00005  -0.00002   0.00036   0.00034   2.08306
   A25        2.10150  -0.00007   0.00004  -0.00068  -0.00063   2.10087
   A26        2.10677   0.00061   0.00005   0.00087   0.00092   2.10769
   A27        2.09203  -0.00023  -0.00003  -0.00012  -0.00014   2.09188
   A28        2.08439  -0.00038  -0.00003  -0.00075  -0.00078   2.08361
   A29        2.07929  -0.00019  -0.00003  -0.00081  -0.00084   2.07845
   A30        2.10685   0.00005   0.00002   0.00015   0.00017   2.10702
   A31        2.09705   0.00014   0.00001   0.00066   0.00067   2.09772
   A32        2.11303  -0.00040  -0.00001   0.00028   0.00027   2.11330
   A33        2.06506   0.00025  -0.00001   0.00028   0.00027   2.06533
   A34        2.10510   0.00015   0.00002  -0.00056  -0.00054   2.10456
   A35        2.24308  -0.00983   0.00002  -0.00127  -0.00125   2.24183
    D1       -0.00302   0.00009  -0.00017   0.00258   0.00241  -0.00061
    D2        3.13790   0.00007  -0.00008   0.00333   0.00325   3.14115
    D3       -3.14076   0.00009  -0.00026   0.00060   0.00034  -3.14043
    D4        0.00015   0.00006  -0.00017   0.00135   0.00118   0.00133
    D5        0.00306  -0.00010   0.00020  -0.00248  -0.00227   0.00079
    D6       -3.13210  -0.00021   0.00012  -0.00262  -0.00250  -3.13460
    D7        3.14032  -0.00006   0.00031  -0.00024   0.00006   3.14038
    D8        0.00516  -0.00018   0.00023  -0.00039  -0.00016   0.00500
    D9       -3.12194  -0.00051   0.00034  -0.00325  -0.00290  -3.12484
   D10        0.02367  -0.00054   0.00025  -0.00531  -0.00507   0.01860
   D11        0.00101  -0.00002   0.00002  -0.00070  -0.00068   0.00033
   D12       -3.14090  -0.00003   0.00005  -0.00049  -0.00044  -3.14134
   D13       -3.13995   0.00000  -0.00007  -0.00140  -0.00147  -3.14143
   D14        0.00133  -0.00001  -0.00004  -0.00120  -0.00124   0.00009
   D15        0.00078  -0.00005   0.00010  -0.00115  -0.00106  -0.00028
   D16       -3.14078  -0.00002  -0.00001  -0.00085  -0.00086   3.14155
   D17       -3.14050  -0.00004   0.00006  -0.00136  -0.00130   3.14139
   D18        0.00113  -0.00001  -0.00004  -0.00105  -0.00109   0.00003
   D19       -0.00064   0.00004  -0.00006   0.00120   0.00114   0.00050
   D20        3.13967   0.00009  -0.00011   0.00176   0.00165   3.14133
   D21        3.14092   0.00001   0.00005   0.00088   0.00093  -3.14134
   D22       -0.00195   0.00007  -0.00000   0.00145   0.00145  -0.00051
   D23       -0.00127   0.00004  -0.00009   0.00063   0.00054  -0.00073
   D24        3.12916   0.00018   0.00005   0.00090   0.00094   3.13010
   D25       -3.14156  -0.00002  -0.00004   0.00006   0.00002  -3.14154
   D26       -0.01113   0.00013   0.00010   0.00032   0.00042  -0.01071
   D27        0.00236  -0.00018  -0.00090  -0.00123  -0.00213   0.00023
   D28        3.13995   0.00027   0.00114   0.00405   0.00519  -3.13805
   D29       -0.00276   0.00016   0.00076   0.00118   0.00195  -0.00081
   D30        3.13962   0.00013   0.00070   0.00075   0.00145   3.14107
   D31       -3.14087  -0.00021  -0.00100  -0.00341  -0.00442   3.13790
   D32        0.00151  -0.00024  -0.00106  -0.00384  -0.00491  -0.00340
   D33       -0.03516  -0.00037  -0.00083   0.00473   0.00390  -0.03126
   D34        3.10260   0.00006   0.00111   0.00978   0.01089   3.11349
   D35       -0.00051   0.00008   0.00045   0.00049   0.00094   0.00043
   D36        3.14075   0.00006   0.00037   0.00063   0.00100  -3.14143
   D37       -0.00103   0.00004   0.00016   0.00034   0.00050  -0.00053
   D38       -3.14089  -0.00003  -0.00005  -0.00083  -0.00088   3.14141
   D39        3.14090   0.00006   0.00024   0.00020   0.00044   3.14133
   D40        0.00104  -0.00001   0.00003  -0.00097  -0.00094   0.00010
   D41        0.00065  -0.00006  -0.00030  -0.00039  -0.00069  -0.00004
   D42       -3.14079  -0.00005  -0.00023  -0.00019  -0.00042  -3.14120
   D43        3.14052   0.00001  -0.00009   0.00077   0.00067   3.14120
   D44       -0.00091   0.00002  -0.00002   0.00097   0.00095   0.00004
   D45        0.00126  -0.00005  -0.00017  -0.00037  -0.00054   0.00072
   D46       -3.14114  -0.00001  -0.00010   0.00007  -0.00004  -3.14117
   D47       -3.14049  -0.00006  -0.00024  -0.00058  -0.00082  -3.14130
   D48        0.00030  -0.00002  -0.00017  -0.00014  -0.00031  -0.00001
         Item               Value     Threshold  Converged?
 Maximum Force            0.009827     0.000450     NO 
 RMS     Force            0.001386     0.000300     NO 
 Maximum Displacement     0.026062     0.001800     NO 
 RMS     Displacement     0.006421     0.001200     NO 
 Predicted change in Energy=-1.440208D-05
 Lowest energy point so far.  Saving SCF results.
 GradGradGradGradGradGradGradGradGradGradGradGradGradGradGradGradGradGrad

 Leave Link  103 at Tue Sep 29 16:26:48 2026, MaxMem=  5100273664 cpu:               0.7 elap:               0.1
 (Enter /share/software/user/restricted/gaussian/g16.B01/l202.exe)
                          Input orientation:                          
 ---------------------------------------------------------------------
 Center     Atomic      Atomic             Coordinates (Angstroms)
 Number     Number       Type             X           Y           Z
 ---------------------------------------------------------------------
      1          6           0       -1.299985   -1.045223    0.091659
      2          6           0       -2.342246   -0.125049    0.244035
      3          6           0       -3.668045   -0.538468    0.289190
      4          6           0       -3.907398   -1.903365    0.176640
      5          6           0       -2.878293   -2.825493    0.024976
      6          6           0       -1.540167   -2.407685   -0.020295
      7          6           0        1.181440   -1.029562   -0.079962
      8          6           0        1.447331   -2.399892   -0.214208
      9          6           0        2.764970   -2.839029   -0.356008
     10          6           0        3.810124   -1.925548   -0.363971
     11          6           0        3.564607   -0.561092   -0.231954
     12          6           0        2.254939   -0.121341   -0.091436
     13          8           0       -0.029085   -0.440483    0.069458
     14         35           0       -2.024900    1.819158    0.406146
     15          1           0       -4.471705    0.174596    0.406782
     16         35           0       -5.785995   -2.507771    0.238957
     17          1           0       -3.132851   -3.881549   -0.057447
     18          1           0        0.608458   -3.083851   -0.204632
     19          1           0        2.963402   -3.900165   -0.459517
     20         35           0        5.632530   -2.547952   -0.561037
     21          1           0        4.381252    0.151751   -0.238617
     22          1           0        2.035995    0.935731    0.012734
 ---------------------------------------------------------------------
                    Distance matrix (angstroms):
                    1          2          3          4          5
     1  C    0.000000
     2  C    1.398659   0.000000
     3  C    2.429717   1.389495   0.000000
     4  C    2.746312   2.369947   1.390288   0.000000
     5  C    2.380098   2.761834   2.433926   1.390100   0.000000
     6  C    1.387993   2.433851   2.849143   2.428354   1.402567
     7  C    2.487402   3.652326   4.888246   5.169685   4.440475
     8  C    3.078381   4.443624   5.466752   5.391885   4.353088
     9  C    4.465647   5.814585   6.862400   6.758674   5.656126
    10  C    5.205361   6.439187   7.633716   7.736465   6.759890
    11  C    4.899323   5.942021   7.251438   7.602599   6.834069
    12  C    3.677576   4.609410   5.949841   6.420426   5.803108
    13  O    1.407619   2.341087   3.646904   4.146423   3.715944
    14  Br   2.971378   1.976596   2.876110   4.177757   4.737759
    15  H    3.412780   2.156587   1.080814   2.165486   3.418372
    16  Br   4.720702   4.187696   2.892471   1.974416   2.932825
    17  H    3.380292   3.850615   3.403348   2.137272   1.089426
    18  H    2.808192   4.202673   5.001130   4.683147   3.503841
    19  H    5.160519   6.549533   7.472459   7.183299   5.959451
    20  Br   7.123481   8.373509   9.553094   9.590093   8.535488
    21  H    5.815349   6.746480   8.096058   8.549716   7.850761
    22  H    3.880615   4.510849   5.897946   6.588722   6.188473
                    6          7          8          9         10
     6  C    0.000000
     7  C    3.051218   0.000000
     8  C    2.993795   1.402329   0.000000
     9  C    4.339697   2.420318   1.396109   0.000000
    10  C    5.382953   2.791672   2.414585   1.388112   0.000000
    11  C    5.432626   2.433527   2.804347   2.417396   1.392641
    12  C    4.431169   1.406199   2.420557   2.777761   2.397507
    13  O    2.482198   1.354515   2.469728   3.706857   4.139180
    14  Br   4.275866   4.316494   5.499238   6.724763   6.975916
    15  H    3.929947   5.800428   6.484490   7.876119   8.578657
    16  Br   4.254913   7.129654   7.248310   8.578037   9.632653
    17  H    2.170322   5.171794   4.816426   5.996690   7.219751
    18  H    2.260037   2.136341   1.082405   2.175638   3.408478
    19  H    4.764719   3.399973   2.146966   1.084482   2.150623
    20  Br   7.194419   4.727489   4.202155   2.889579   1.935817
    21  H    6.454578   3.414596   3.888363   3.401603   2.158025
    22  H    4.895760   2.145048   3.394762   3.862148   3.387677
                   11         12         13         14         15
    11  C    0.000000
    12  C    1.388653   0.000000
    13  O    3.608327   2.311818   0.000000
    14  Br   6.108630   4.725479   3.033581   0.000000
    15  H    8.095155   6.751558   4.497664   2.948125   0.000000
    16  Br   9.562692   8.394094   6.119184   5.735513   2.991758
    17  H    7.477422   6.570282   4.635775   5.825851   4.296551
    18  H    3.886371   3.391191   2.732943   5.598850   6.066247
    19  H    3.400389   3.862242   4.604801   7.638271   8.522615
    20  Br   2.886558   4.185342   6.073948   8.868108  10.509259
    21  H    1.084019   2.148825   4.460574   6.650921   8.876480
    22  H    2.153371   1.084523   2.482285   4.174457   6.563899
                   16         17         18         19         20
    16  Br   0.000000
    17  H    3.002381   0.000000
    18  H    6.435655   3.828235   0.000000
    19  H    8.886989   6.109526   2.505414   0.000000
    20  Br  11.446586   8.880541   5.065128   2.993833   0.000000
    21  H   10.520173   8.530069   4.970336   4.298502   2.993000
    22  H    8.549410   7.065981   4.271083   4.946615   5.039874
                   21         22
    21  H    0.000000
    22  H    2.485564   0.000000
 Stoichiometry    C12H6Br3O(1-)
 Framework group  C1[X(C12H6Br3O)]
 Deg. of freedom    60
 Full point group                 C1      NOp   1
 RotChk:  IX=2 Diff= 5.17D-03
 Largest Abelian subgroup         C1      NOp   1
 Largest concise Abelian subgroup C1      NOp   1
                         Standard orientation:                         
 ---------------------------------------------------------------------
 Center     Atomic      Atomic             Coordinates (Angstroms)
 Number     Number       Type             X           Y           Z
 ---------------------------------------------------------------------
      1          6           0        0.909051    0.096106   -0.013665
      2          6           0        2.036309    0.924023   -0.004253
      3          6           0        3.320458    0.393359    0.003058
      4          6           0        3.430321   -0.992578    0.000176
      5          6           0        2.316015   -1.823607   -0.009219
      6          6           0        1.019996   -1.287442   -0.016848
      7          6           0       -1.567346    0.329834   -0.013745
      8          6           0       -1.961425   -1.015879   -0.030627
      9          6           0       -3.319378   -1.339966   -0.023379
     10          6           0       -4.278280   -0.336562   -0.000088
     11          6           0       -3.905122    1.005044    0.017030
     12          6           0       -2.555131    1.330376    0.010562
     13          8           0       -0.302097    0.813357   -0.021568
     14         35           0        1.903390    2.896141   -0.000291
     15          1           0        4.189975    1.035265    0.010558
     16         35           0        5.248150   -1.763106    0.010400
     17          1           0        2.470270   -2.902055   -0.011268
     18          1           0       -1.187236   -1.772145   -0.047750
     19          1           0       -3.617090   -2.382702   -0.036377
     20         35           0       -6.157829   -0.799800    0.009429
     21          1           0       -4.654486    1.788119    0.035578
     22          1           0       -2.237351    2.367211    0.023934
 ---------------------------------------------------------------------
 Rotational constants (GHZ):           0.4396930           0.0763716           0.0650705
 Leave Link  202 at Tue Sep 29 16:26:48 2026, MaxMem=  5100273664 cpu:               0.4 elap:               0.0
 (Enter /share/software/user/restricted/gaussian/g16.B01/l301.exe)
 Standard basis: 6-311++G(d) (5D, 7F)
 Ernie: Thresh=  0.10000D-02 Tol=  0.10000D-05 Strict=F.
 There are   476 symmetry adapted cartesian basis functions of A   symmetry.
 There are   454 symmetry adapted basis functions of A   symmetry.
   454 basis functions,   786 primitive gaussians,   476 cartesian basis functions
    96 alpha electrons       96 beta electrons
       nuclear repulsion energy      1955.5653659384 Hartrees.
 IExCor=  402 DFT=T Ex+Corr=B3LYP ExCW=0 ScaHFX=  0.200000
 ScaDFX=  0.800000  0.720000  1.000000  0.810000 ScalE2=  1.000000  1.000000
 IRadAn=      5 IRanWt=     -1 IRanGd=            0 ICorTp=0 IEmpDi=  4
 NAtoms=   22 NActive=   22 NUniq=   22 SFac= 1.00D+00 NAtFMM=   60 NAOKFM=F Big=F
 Integral buffers will be    131072 words long.
 Raffenetti 2 integral format.
 Two-electron integral symmetry is turned on.
 Leave Link  301 at Tue Sep 29 16:26:48 2026, MaxMem=  5100273664 cpu:               0.6 elap:               0.1
 (Enter /share/software/user/restricted/gaussian/g16.B01/l302.exe)
 NPDir=0 NMtPBC=     1 NCelOv=     1 NCel=       1 NClECP=     1 NCelD=      1
         NCelK=      1 NCelE2=     1 NClLst=     1 CellRange=     0.0.
 One-electron integrals computed using PRISM.
 One-electron integral symmetry used in STVInt
 NBasis=   454 RedAO= T EigKep=  1.64D-06  NBF=   454
 NBsUse=   450 1.00D-06 EigRej=  9.09D-07 NBFU=   450
 Precomputing XC quadrature grid using
 IXCGrd= 4 IRadAn=           5 IRanWt=          -1 IRanGd=           0 AccXCQ= 0.00D+00.
 Generated NRdTot=       0 NPtTot=           0 NUsed=           0 NTot=          32
 NSgBfM=   447   447   447   447   447 MxSgAt=    22 MxSgA2=    22.
 Leave Link  302 at Tue Sep 29 16:26:48 2026, MaxMem=  5100273664 cpu:               4.3 elap:               0.3
 (Enter /share/software/user/restricted/gaussian/g16.B01/l303.exe)
 DipDrv:  MaxL=1.
 Leave Link  303 at Tue Sep 29 16:26:49 2026, MaxMem=  5100273664 cpu:               1.1 elap:               0.1
 (Enter /share/software/user/restricted/gaussian/g16.B01/l401.exe)
 Initial guess from the checkpoint file:  "calcs/b3lyp_gas/chks/BDE_24_2r4_anion.chk"
 B after Tr=    -0.000000    0.000000   -0.000000
         Rot=    1.000000   -0.000003    0.000000    0.000012 Ang=  -0.00 deg.
 Guess basis will be translated and rotated to current coordinates.
 JPrj=2 DoOrth=T DoCkMO=T.
 Generating alternative initial guess.
 ExpMin= 3.50D-02 ExpMax= 4.40D+05 ExpMxC= 1.51D+04 IAcc=3 IRadAn=         5 AccDes= 0.00D+00
 Harris functional with IExCor=  402 and IRadAn=       5 diagonalized for initial guess.
 HarFok:  IExCor=  402 AccDes= 0.00D+00 IRadAn=         5 IDoV= 1 UseB2=F ITyADJ=14
 ICtDFT=  3500011 ScaDFX=  1.000000  1.000000  1.000000  1.000000
 FoFCou: FMM=F IPFlag=           0 FMFlag=      100000 FMFlg1=           0
         NFxFlg=           0 DoJE=T BraDBF=F KetDBF=T FulRan=T
         wScrn=  0.000000 ICntrl=       500 IOpCl=  0 I1Cent=   200000004 NGrid=           0
         NMat0=    1 NMatS0=      1 NMatT0=    0 NMatD0=    1 NMtDS0=    0 NMtDT0=    0
 Petite list used in FoFCou.
 Harris En= -8259.02111804768    
 Leave Link  401 at Tue Sep 29 16:26:50 2026, MaxMem=  5100273664 cpu:              21.7 elap:               1.4
 (Enter /share/software/user/restricted/gaussian/g16.B01/l502.exe)
 Integral symmetry usage will be decided dynamically.
 Closed shell SCF:
 Using DIIS extrapolation, IDIIS=  1040.
 NGot=  5100273664 LenX=  5099808623 LenY=  5099581571
 Requested convergence on RMS density matrix=1.00D-08 within 128 cycles.
 Requested convergence on MAX density matrix=1.00D-06.
 Requested convergence on             energy=1.00D-06.
 No special actions if energy rises.
 Fock matrices will be formed incrementally for  20 cycles.

 Cycle   1  Pass 1  IDiag  1:
 FoFJK:  IHMeth= 1 ICntrl=       0 DoSepK=F KAlg= 0 I1Cent=           0 FoldK=F
 IRaf= 770000000 NMat=       1 IRICut=       1 DoRegI=T DoRafI=F ISym2E= 0 IDoP0=0 IntGTp=1.
 FoFCou: FMM=F IPFlag=           0 FMFlag=      100000 FMFlg1=           0
         NFxFlg=           0 DoJE=F BraDBF=F KetDBF=F FulRan=T
         wScrn=  0.000000 ICntrl=         0 IOpCl=  0 I1Cent=           0 NGrid=           0
         NMat0=    1 NMatS0=      1 NMatT0=    0 NMatD0=    1 NMtDS0=    0 NMtDT0=    0
 Symmetry not used in FoFCou.
 E= -8258.66982819372    
 DIIS: error= 1.57D-03 at cycle   1 NSaved=   1.
 NSaved= 1 IEnMin= 1 EnMin= -8258.66982819372     IErMin= 1 ErrMin= 1.57D-03
 ErrMax= 1.57D-03  0.00D+00 EMaxC= 1.00D-01 BMatC= 9.17D-04 BMatP= 9.17D-04
 IDIUse=3 WtCom= 9.84D-01 WtEn= 1.57D-02
 Coeff-Com:  0.100D+01
 Coeff-En:   0.100D+01
 Coeff:      0.100D+01
 Gap=     0.307 Goal=   None    Shift=    0.000
 GapD=    0.307 DampG=1.000 DampE=1.000 DampFc=1.0000 IDamp=-1.
 RMSDP=4.29D-04 MaxDP=1.72D-02              OVMax= 5.75D-03

 Cycle   2  Pass 1  IDiag  1:
 RMSU=  4.01D-04    CP:  1.00D+00
 E= -8258.67018339178     Delta-E=       -0.000355198059 Rises=F Damp=F
 DIIS: error= 7.27D-05 at cycle   2 NSaved=   2.
 NSaved= 2 IEnMin= 2 EnMin= -8258.67018339178     IErMin= 2 ErrMin= 7.27D-05
 ErrMax= 7.27D-05  0.00D+00 EMaxC= 1.00D-01 BMatC= 1.98D-06 BMatP= 9.17D-04
 IDIUse=1 WtCom= 1.00D+00 WtEn= 0.00D+00
 Coeff-Com: -0.623D-02 0.101D+01
 Coeff:     -0.623D-02 0.101D+01
 Gap=     0.122 Goal=   None    Shift=    0.000
 RMSDP=4.04D-05 MaxDP=2.56D-03 DE=-3.55D-04 OVMax= 6.42D-04

 Cycle   3  Pass 1  IDiag  1:
 RMSU=  3.99D-05    CP:  1.00D+00  1.00D+00
 E= -8258.67018551949     Delta-E=       -0.000002127714 Rises=F Damp=F
 DIIS: error= 8.00D-05 at cycle   3 NSaved=   3.
 NSaved= 3 IEnMin= 3 EnMin= -8258.67018551949     IErMin= 2 ErrMin= 7.27D-05
 ErrMax= 8.00D-05  0.00D+00 EMaxC= 1.00D-01 BMatC= 1.64D-06 BMatP= 1.98D-06
 IDIUse=1 WtCom= 1.00D+00 WtEn= 0.00D+00
 Coeff-Com: -0.425D-02 0.478D+00 0.527D+00
 Coeff:     -0.425D-02 0.478D+00 0.527D+00
 Gap=     0.122 Goal=   None    Shift=    0.000
 RMSDP=2.23D-05 MaxDP=8.35D-04 DE=-2.13D-06 OVMax= 6.55D-04

 Cycle   4  Pass 1  IDiag  1:
 RMSU=  1.56D-05    CP:  1.00D+00  1.01D+00  6.13D-01
 E= -8258.67018653893     Delta-E=       -0.000001019440 Rises=F Damp=F
 DIIS: error= 5.80D-05 at cycle   4 NSaved=   4.
 NSaved= 4 IEnMin= 4 EnMin= -8258.67018653893     IErMin= 4 ErrMin= 5.80D-05
 ErrMax= 5.80D-05  0.00D+00 EMaxC= 1.00D-01 BMatC= 6.27D-07 BMatP= 1.64D-06
 IDIUse=1 WtCom= 1.00D+00 WtEn= 0.00D+00
 Coeff-Com: -0.162D-02 0.131D+00 0.371D+00 0.500D+00
 Coeff:     -0.162D-02 0.131D+00 0.371D+00 0.500D+00
 Gap=     0.122 Goal=   None    Shift=    0.000
 RMSDP=1.11D-05 MaxDP=4.29D-04 DE=-1.02D-06 OVMax= 3.89D-04

 Cycle   5  Pass 1  IDiag  1:
 RMSU=  7.45D-06    CP:  1.00D+00  1.01D+00  6.65D-01  5.07D-01
 E= -8258.67018715673     Delta-E=       -0.000000617802 Rises=F Damp=F
 DIIS: error= 2.10D-05 at cycle   5 NSaved=   5.
 NSaved= 5 IEnMin= 5 EnMin= -8258.67018715673     IErMin= 5 ErrMin= 2.10D-05
 ErrMax= 2.10D-05  0.00D+00 EMaxC= 1.00D-01 BMatC= 8.95D-08 BMatP= 6.27D-07
 IDIUse=1 WtCom= 1.00D+00 WtEn= 0.00D+00
 Coeff-Com: -0.359D-03 0.354D-02 0.158D+00 0.332D+00 0.508D+00
 Coeff:     -0.359D-03 0.354D-02 0.158D+00 0.332D+00 0.508D+00
 Gap=     0.122 Goal=   None    Shift=    0.000
 RMSDP=4.72D-06 MaxDP=3.95D-04 DE=-6.18D-07 OVMax= 1.26D-04

 Cycle   6  Pass 1  IDiag  1:
 RMSU=  2.06D-06    CP:  1.00D+00  1.01D+00  6.85D-01  6.34D-01  5.26D-01
 E= -8258.67018724866     Delta-E=       -0.000000091930 Rises=F Damp=F
 DIIS: error= 6.02D-06 at cycle   6 NSaved=   6.
 NSaved= 6 IEnMin= 6 EnMin= -8258.67018724866     IErMin= 6 ErrMin= 6.02D-06
 ErrMax= 6.02D-06  0.00D+00 EMaxC= 1.00D-01 BMatC= 9.25D-09 BMatP= 8.95D-08
 IDIUse=1 WtCom= 1.00D+00 WtEn= 0.00D+00
 Coeff-Com:  0.303D-04-0.205D-01 0.394D-01 0.127D+00 0.304D+00 0.550D+00
 Coeff:      0.303D-04-0.205D-01 0.394D-01 0.127D+00 0.304D+00 0.550D+00
 Gap=     0.122 Goal=   None    Shift=    0.000
 RMSDP=1.67D-06 MaxDP=1.38D-04 DE=-9.19D-08 OVMax= 3.69D-05

 Cycle   7  Pass 1  IDiag  1:
 RMSU=  6.35D-07    CP:  1.00D+00  1.01D+00  7.01D-01  6.32D-01  6.13D-01
                    CP:  4.69D-01
 E= -8258.67018725749     Delta-E=       -0.000000008828 Rises=F Damp=F
 DIIS: error= 2.20D-06 at cycle   7 NSaved=   7.
 NSaved= 7 IEnMin= 7 EnMin= -8258.67018725749     IErMin= 7 ErrMin= 2.20D-06
 ErrMax= 2.20D-06  0.00D+00 EMaxC= 1.00D-01 BMatC= 1.15D-09 BMatP= 9.25D-09
 IDIUse=1 WtCom= 1.00D+00 WtEn= 0.00D+00
 Coeff-Com:  0.445D-04-0.136D-01 0.149D-01 0.596D-01 0.160D+00 0.351D+00
 Coeff-Com:  0.428D+00
 Coeff:      0.445D-04-0.136D-01 0.149D-01 0.596D-01 0.160D+00 0.351D+00
 Coeff:      0.428D+00
 Gap=     0.122 Goal=   None    Shift=    0.000
 RMSDP=4.16D-07 MaxDP=4.03D-05 DE=-8.83D-09 OVMax= 1.13D-05

 Cycle   8  Pass 1  IDiag  1:
 RMSU=  1.77D-07    CP:  1.00D+00  1.01D+00  7.02D-01  6.34D-01  5.98D-01
                    CP:  5.57D-01  5.38D-01
 E= -8258.67018725873     Delta-E=       -0.000000001241 Rises=F Damp=F
 DIIS: error= 6.72D-07 at cycle   8 NSaved=   8.
 NSaved= 8 IEnMin= 8 EnMin= -8258.67018725873     IErMin= 8 ErrMin= 6.72D-07
 ErrMax= 6.72D-07  0.00D+00 EMaxC= 1.00D-01 BMatC= 6.80D-11 BMatP= 1.15D-09
 IDIUse=1 WtCom= 1.00D+00 WtEn= 0.00D+00
 Coeff-Com:  0.209D-04-0.490D-02 0.333D-02 0.174D-01 0.495D-01 0.121D+00
 Coeff-Com:  0.228D+00 0.585D+00
 Coeff:      0.209D-04-0.490D-02 0.333D-02 0.174D-01 0.495D-01 0.121D+00
 Coeff:      0.228D+00 0.585D+00
 Gap=     0.122 Goal=   None    Shift=    0.000
 RMSDP=1.36D-07 MaxDP=8.23D-06 DE=-1.24D-09 OVMax= 3.49D-06

 Cycle   9  Pass 1  IDiag  1:
 RMSU=  8.93D-08    CP:  1.00D+00  1.01D+00  7.01D-01  6.33D-01  6.07D-01
                    CP:  5.65D-01  5.25D-01  7.17D-01
 E= -8258.67018725876     Delta-E=       -0.000000000027 Rises=F Damp=F
 DIIS: error= 3.10D-07 at cycle   9 NSaved=   9.
 NSaved= 9 IEnMin= 9 EnMin= -8258.67018725876     IErMin= 9 ErrMin= 3.10D-07
 ErrMax= 3.10D-07  0.00D+00 EMaxC= 1.00D-01 BMatC= 2.11D-11 BMatP= 6.80D-11
 IDIUse=1 WtCom= 1.00D+00 WtEn= 0.00D+00
 Coeff-Com:  0.587D-05-0.790D-03-0.366D-03 0.106D-02 0.413D-02 0.169D-01
 Coeff-Com:  0.765D-01 0.391D+00 0.512D+00
 Coeff:      0.587D-05-0.790D-03-0.366D-03 0.106D-02 0.413D-02 0.169D-01
 Coeff:      0.765D-01 0.391D+00 0.512D+00
 Gap=     0.122 Goal=   None    Shift=    0.000
 RMSDP=6.99D-08 MaxDP=6.46D-06 DE=-2.73D-11 OVMax= 1.86D-06

 Cycle  10  Pass 1  IDiag  1:
 RMSU=  4.49D-08    CP:  1.00D+00  1.01D+00  7.00D-01  6.35D-01  6.07D-01
                    CP:  5.61D-01  5.38D-01  8.23D-01  7.06D-01
 E= -8258.67018725880     Delta-E=       -0.000000000038 Rises=F Damp=F
 DIIS: error= 1.04D-07 at cycle  10 NSaved=  10.
 NSaved=10 IEnMin=10 EnMin= -8258.67018725880     IErMin=10 ErrMin= 1.04D-07
 ErrMax= 1.04D-07  0.00D+00 EMaxC= 1.00D-01 BMatC= 3.26D-12 BMatP= 2.11D-11
 IDIUse=1 WtCom= 1.00D+00 WtEn= 0.00D+00
 Coeff-Com:  0.471D-06 0.272D-03-0.750D-03-0.207D-02-0.514D-02-0.869D-02
 Coeff-Com:  0.120D-01 0.156D+00 0.334D+00 0.515D+00
 Coeff:      0.471D-06 0.272D-03-0.750D-03-0.207D-02-0.514D-02-0.869D-02
 Coeff:      0.120D-01 0.156D+00 0.334D+00 0.515D+00
 Gap=     0.122 Goal=   None    Shift=    0.000
 RMSDP=3.20D-08 MaxDP=1.95D-06 DE=-3.82D-11 OVMax= 5.96D-07

 Cycle  11  Pass 1  IDiag  1:
 RMSU=  1.08D-08    CP:  1.00D+00  1.01D+00  7.01D-01  6.34D-01  6.06D-01
                    CP:  5.61D-01  5.46D-01  8.32D-01  7.28D-01  5.76D-01
 E= -8258.67018725881     Delta-E=       -0.000000000007 Rises=F Damp=F
 DIIS: error= 2.06D-08 at cycle  11 NSaved=  11.
 NSaved=11 IEnMin=11 EnMin= -8258.67018725881     IErMin=11 ErrMin= 2.06D-08
 ErrMax= 2.06D-08  0.00D+00 EMaxC= 1.00D-01 BMatC= 1.69D-13 BMatP= 3.26D-12
 IDIUse=1 WtCom= 1.00D+00 WtEn= 0.00D+00
 Coeff-Com: -0.354D-06 0.226D-03-0.349D-03-0.123D-02-0.321D-02-0.658D-02
 Coeff-Com: -0.182D-02 0.420D-01 0.121D+00 0.259D+00 0.591D+00
 Coeff:     -0.354D-06 0.226D-03-0.349D-03-0.123D-02-0.321D-02-0.658D-02
 Coeff:     -0.182D-02 0.420D-01 0.121D+00 0.259D+00 0.591D+00
 Gap=     0.122 Goal=   None    Shift=    0.000
 RMSDP=4.41D-09 MaxDP=1.80D-07 DE=-7.28D-12 OVMax= 1.42D-07

 SCF Done:  E(RB3LYP) =  -8258.67018726     A.U. after   11 cycles
            NFock= 11  Conv=0.44D-08     -V/T= 2.0014
 KE= 8.247205793456D+03 PE=-2.364081013029D+04 EE= 5.179368783641D+03
 Leave Link  502 at Tue Sep 29 16:27:28 2026, MaxMem=  5100273664 cpu:             605.9 elap:              37.9
 (Enter /share/software/user/restricted/gaussian/g16.B01/l701.exe)
 ... and contract with generalized density number  0.
 Compute integral first derivatives.
 Leave Link  701 at Tue Sep 29 16:27:28 2026, MaxMem=  5100273664 cpu:               2.2 elap:               0.2
 (Enter /share/software/user/restricted/gaussian/g16.B01/l702.exe)
 L702 exits ... SP integral derivatives will be done elsewhere.
 Leave Link  702 at Tue Sep 29 16:27:28 2026, MaxMem=  5100273664 cpu:               0.3 elap:               0.0
 (Enter /share/software/user/restricted/gaussian/g16.B01/l703.exe)
 Integral derivatives from FoFJK, PRISM(SPDF).
 Compute integral first derivatives, UseDBF=F ICtDFT=           0.
 Calling FoFJK, ICntrl=      2127 FMM=F ISym2X=0 I1Cent= 0 IOpClX= 0 NMat=1 NMatS=1 NMatT=0.
 FoFJK:  IHMeth= 1 ICntrl=    2127 DoSepK=F KAlg= 0 I1Cent=           0 FoldK=F
 IRaf=         0 NMat=       1 IRICut=       1 DoRegI=T DoRafI=F ISym2E= 0 IDoP0=0 IntGTp=1.
 FoFCou: FMM=F IPFlag=           0 FMFlag=      100000 FMFlg1=         800
         NFxFlg=           0 DoJE=F BraDBF=F KetDBF=F FulRan=T
         wScrn=  0.000000 ICntrl=      2127 IOpCl=  0 I1Cent=           0 NGrid=           0
         NMat0=    1 NMatS0=      1 NMatT0=    0 NMatD0=    1 NMtDS0=    0 NMtDT0=    0
 Symmetry not used in FoFCou.
 Leave Link  703 at Tue Sep 29 16:27:40 2026, MaxMem=  5100273664 cpu:             195.5 elap:              12.2
 (Enter /share/software/user/restricted/gaussian/g16.B01/l716.exe)
 Dipole        =-1.40805060D+00 6.74983739D-01 1.00453474D-02
 ***** Axes restored to original set *****
 -------------------------------------------------------------------
 Center     Atomic                   Forces (Hartrees/Bohr)
 Number     Number              X              Y              Z
 -------------------------------------------------------------------
      1        6          -0.000151578   -0.000018772    0.000098846
      2        6          -0.000049157   -0.000083193    0.000012744
      3        6          -0.000163306    0.000127965    0.000042567
      4        6           0.000410354   -0.000046411   -0.000066240
      5        6          -0.000129991    0.000074649    0.000017853
      6        6           0.000269752   -0.000023418   -0.000009863
      7        6          -0.000295907    0.000197784   -0.000021203
      8        6           0.000061480   -0.000078181    0.000120293
      9        6           0.000240924   -0.000044431   -0.000039035
     10        6          -0.000519276    0.000150029    0.000021488
     11        6           0.000309015   -0.000032850   -0.000021508
     12        6          -0.000041346   -0.000120070    0.000054414
     13        8           0.000163803    0.000207460   -0.000109131
     14       35           0.000004772    0.000007023   -0.000015643
     15        1          -0.000015664    0.000018966    0.000002185
     16       35          -0.000118089   -0.000026229    0.000018897
     17        1          -0.000038698   -0.000017863   -0.000016115
     18        1          -0.000072449   -0.000276508   -0.000091255
     19        1           0.000006586   -0.000020989    0.000007130
     20       35           0.000132128   -0.000039554   -0.000010168
     21        1           0.000021779    0.000002646   -0.000007108
     22        1          -0.000025133    0.000041949    0.000010853
 -------------------------------------------------------------------
 Cartesian Forces:  Max     0.000519276 RMS     0.000134439
 Leave Link  716 at Tue Sep 29 16:27:41 2026, MaxMem=  5100273664 cpu:               0.5 elap:               0.0
 (Enter /share/software/user/restricted/gaussian/g16.B01/l103.exe)

 GradGradGradGradGradGradGradGradGradGradGradGradGradGradGradGradGradGrad
 Berny optimization.
 Using GEDIIS/GDIIS optimizer.
 FormGI is forming the generalized inverse of G from B-inverse, IUseBI=4.
 Internal  Forces:  Max     0.000741334 RMS     0.000136709
 Search for a local minimum.
 Step number  12 out of a maximum of  116
 All quantities printed in internal units (Hartrees-Bohrs-Radians)
 RMS Force = .13671D-03 SwitMx=.10000D-02 MixMth= 2
 Mixed Optimization -- En-DIIS/RFO-DIIS
 Update second derivatives using D2CorX and points    6    8    7    9   10
                                                     11   12
 DE= -1.60D-05 DEPred=-1.44D-05 R= 1.11D+00
 TightC=F SS=  1.41D+00  RLast= 1.88D-02 DXNew= 5.0454D-01 5.6478D-02
 Trust test= 1.11D+00 RLast= 1.88D-02 DXMaxT set to 3.00D-01
 ITU=  1  1  1  0 -1  1 -1  1  1 -1  0  0
 Use linear search instead of GDIIS.
     Eigenvalues ---    0.01740   0.01781   0.02000   0.02019   0.02039
     Eigenvalues ---    0.02074   0.02092   0.02096   0.02105   0.02117
     Eigenvalues ---    0.02130   0.02136   0.02157   0.02167   0.02180
     Eigenvalues ---    0.02200   0.02240   0.02306   0.04217   0.12181
     Eigenvalues ---    0.15568   0.16003   0.16006   0.16010   0.16022
     Eigenvalues ---    0.18208   0.18884   0.19585   0.21855   0.22890
     Eigenvalues ---    0.23402   0.24146   0.24439   0.24876   0.24984
     Eigenvalues ---    0.24993   0.25218   0.26286   0.33652   0.33690
     Eigenvalues ---    0.33718   0.33776   0.33984   0.37314   0.41416
     Eigenvalues ---    0.41549   0.42046   0.44282   0.44896   0.45246
     Eigenvalues ---    0.45533   0.45891   0.46341   0.46468   0.47042
     Eigenvalues ---    0.47659   0.48436   0.74854   1.23384  23.32992
 RFO step:  Lambda=-3.48154243D-06 EMin= 1.73991470D-02
 Quartic linear search produced a step of  0.11433.
 Iteration  1 RMS(Cart)=  0.00106347 RMS(Int)=  0.00000069
 Iteration  2 RMS(Cart)=  0.00000219 RMS(Int)=  0.00000020
 Iteration  3 RMS(Cart)=  0.00000000 RMS(Int)=  0.00000020
 ITry= 1 IFail=0 DXMaxC= 4.39D-03 DCOld= 1.00D+10 DXMaxT= 3.00D-01 DXLimC= 3.00D+00 Rises=F
 Variable       Old X    -DE/DX   Delta X   Delta X   Delta X     New X
                                 (Linear)    (Quad)   (Total)
    R1        2.64308   0.00009   0.00003   0.00015   0.00018   2.64326
    R2        2.62293   0.00033  -0.00001   0.00000  -0.00001   2.62292
    R3        2.66001   0.00016   0.00012   0.00021   0.00033   2.66035
    R4        2.62576  -0.00007  -0.00004  -0.00010  -0.00014   2.62563
    R5        3.73523   0.00001  -0.00005   0.00002  -0.00003   3.73520
    R6        2.62726  -0.00007  -0.00002  -0.00002  -0.00004   2.62722
    R7        2.04244   0.00002  -0.00000   0.00004   0.00004   2.04248
    R8        2.62691  -0.00015   0.00009  -0.00021  -0.00012   2.62678
    R9        3.73110   0.00012   0.00002   0.00071   0.00073   3.73184
   R10        2.65047   0.00008  -0.00002   0.00012   0.00009   2.65056
   R11        2.05872   0.00003  -0.00001   0.00008   0.00006   2.05878
   R12        4.27085   0.00002  -0.00049   0.00201   0.00152   4.27237
   R13        2.65002   0.00014   0.00012   0.00073   0.00084   2.65086
   R14        2.65733   0.00004  -0.00006   0.00009   0.00003   2.65736
   R15        2.55966  -0.00014  -0.00005  -0.00025  -0.00030   2.55936
   R16        2.63826   0.00007   0.00009   0.00027   0.00036   2.63862
   R17        2.62315  -0.00013  -0.00003  -0.00037  -0.00039   2.62276
   R18        2.04937   0.00002  -0.00004   0.00003  -0.00001   2.04936
   R19        2.63171  -0.00013  -0.00004  -0.00032  -0.00036   2.63135
   R20        3.65816   0.00014   0.00025   0.00090   0.00115   3.65931
   R21        2.62417   0.00011  -0.00000   0.00021   0.00021   2.62438
   R22        2.04850   0.00002  -0.00004   0.00001  -0.00003   2.04847
   R23        2.04945   0.00005  -0.00003   0.00010   0.00007   2.04953
    A1        2.12426  -0.00003   0.00011   0.00045   0.00055   2.12481
    A2        1.97347  -0.00041  -0.00001  -0.00004  -0.00005   1.97342
    A3        2.18546   0.00044  -0.00010  -0.00041  -0.00051   2.18495
    A4        2.11627   0.00015  -0.00010   0.00018   0.00008   2.11635
    A5        2.13698  -0.00008  -0.00008  -0.00019  -0.00027   2.13671
    A6        2.02994  -0.00007   0.00018   0.00001   0.00019   2.03013
    A7        2.04175  -0.00016   0.00006  -0.00067  -0.00060   2.04115
    A8        2.11382   0.00008  -0.00007   0.00030   0.00022   2.11404
    A9        2.12762   0.00008   0.00001   0.00037   0.00038   2.12800
   A10        2.13249   0.00015  -0.00001   0.00054   0.00054   2.13302
   A11        2.05080  -0.00010  -0.00002  -0.00038  -0.00040   2.05040
   A12        2.09990  -0.00005   0.00003  -0.00017  -0.00013   2.09977
   A13        2.10856   0.00014  -0.00002   0.00020   0.00018   2.10874
   A14        2.06952  -0.00010  -0.00020  -0.00043  -0.00062   2.06890
   A15        2.10511  -0.00004   0.00021   0.00022   0.00044   2.10554
   A16        2.04305  -0.00024  -0.00004  -0.00071  -0.00075   2.04230
   A17        1.70696   0.00074   0.00011   0.00160   0.00172   1.70868
   A18        2.53314  -0.00050  -0.00007  -0.00089  -0.00096   2.53218
   A19        2.07785  -0.00008   0.00011  -0.00031  -0.00020   2.07765
   A20        2.22055   0.00016  -0.00006   0.00077   0.00071   2.22126
   A21        1.98478  -0.00008  -0.00005  -0.00046  -0.00051   1.98427
   A22        2.08983  -0.00000  -0.00018  -0.00015  -0.00034   2.08949
   A23        2.09925  -0.00005   0.00003  -0.00013  -0.00010   2.09916
   A24        2.08306   0.00003   0.00004   0.00009   0.00013   2.08319
   A25        2.10087   0.00003  -0.00007   0.00005  -0.00003   2.10084
   A26        2.10769   0.00019   0.00011   0.00073   0.00083   2.10853
   A27        2.09188  -0.00008  -0.00002  -0.00030  -0.00032   2.09156
   A28        2.08361  -0.00011  -0.00009  -0.00043  -0.00051   2.08310
   A29        2.07845  -0.00012  -0.00010  -0.00062  -0.00072   2.07773
   A30        2.10702   0.00005   0.00002   0.00022   0.00024   2.10725
   A31        2.09772   0.00007   0.00008   0.00040   0.00048   2.09820
   A32        2.11330   0.00007   0.00003   0.00049   0.00052   2.11382
   A33        2.06533  -0.00005   0.00003  -0.00038  -0.00035   2.06498
   A34        2.10456  -0.00002  -0.00006  -0.00011  -0.00017   2.10439
   A35        2.24183   0.00027  -0.00014  -0.00069  -0.00083   2.24100
    D1       -0.00061   0.00003   0.00028   0.00040   0.00068   0.00007
    D2        3.14115   0.00002   0.00037   0.00100   0.00138  -3.14066
    D3       -3.14043   0.00003   0.00004  -0.00036  -0.00033  -3.14075
    D4        0.00133   0.00002   0.00014   0.00024   0.00037   0.00171
    D5        0.00079  -0.00002  -0.00026   0.00016  -0.00010   0.00068
    D6       -3.13460  -0.00005  -0.00029  -0.00013  -0.00042  -3.13502
    D7        3.14038  -0.00002   0.00001   0.00102   0.00103   3.14141
    D8        0.00500  -0.00005  -0.00002   0.00073   0.00071   0.00571
    D9       -3.12484  -0.00019  -0.00033  -0.00088  -0.00121  -3.12605
   D10        0.01860  -0.00019  -0.00058  -0.00168  -0.00226   0.01634
   D11        0.00033  -0.00001  -0.00008  -0.00063  -0.00071  -0.00038
   D12       -3.14134  -0.00001  -0.00005  -0.00013  -0.00018  -3.14153
   D13       -3.14143  -0.00001  -0.00017  -0.00120  -0.00137   3.14039
   D14        0.00009  -0.00000  -0.00014  -0.00070  -0.00084  -0.00075
   D15       -0.00028  -0.00000  -0.00012   0.00032   0.00020  -0.00008
   D16        3.14155  -0.00000  -0.00010  -0.00018  -0.00028   3.14127
   D17        3.14139  -0.00001  -0.00015  -0.00018  -0.00033   3.14106
   D18        0.00003  -0.00001  -0.00012  -0.00069  -0.00081  -0.00078
   D19        0.00050   0.00001   0.00013   0.00023   0.00036   0.00086
   D20        3.14133   0.00003   0.00019   0.00030   0.00049  -3.14137
   D21       -3.14134   0.00001   0.00011   0.00075   0.00086  -3.14048
   D22       -0.00051   0.00003   0.00017   0.00082   0.00098   0.00048
   D23       -0.00073   0.00000   0.00006  -0.00046  -0.00040  -0.00113
   D24        3.13010   0.00007   0.00011   0.00005   0.00016   3.13026
   D25       -3.14154  -0.00002   0.00000  -0.00053  -0.00053   3.14111
   D26       -0.01071   0.00005   0.00005  -0.00002   0.00003  -0.01068
   D27        0.00023  -0.00005  -0.00024  -0.00095  -0.00119  -0.00096
   D28       -3.13805   0.00002   0.00059  -0.00115  -0.00055  -3.13860
   D29       -0.00081   0.00005   0.00022   0.00105   0.00127   0.00046
   D30        3.14107   0.00003   0.00017   0.00041   0.00057  -3.14154
   D31        3.13790  -0.00001  -0.00051   0.00122   0.00072   3.13862
   D32       -0.00340  -0.00003  -0.00056   0.00058   0.00002  -0.00338
   D33       -0.03126  -0.00010   0.00045   0.00143   0.00188  -0.02939
   D34        3.11349  -0.00004   0.00125   0.00124   0.00249   3.11598
   D35        0.00043   0.00002   0.00011   0.00020   0.00031   0.00075
   D36       -3.14143   0.00001   0.00011  -0.00006   0.00006  -3.14137
   D37       -0.00053   0.00001   0.00006   0.00047   0.00053  -0.00000
   D38        3.14141  -0.00001  -0.00010  -0.00019  -0.00029   3.14113
   D39        3.14133   0.00002   0.00005   0.00074   0.00079  -3.14106
   D40        0.00010   0.00000  -0.00011   0.00008  -0.00003   0.00007
   D41       -0.00004  -0.00001  -0.00008  -0.00038  -0.00046  -0.00050
   D42       -3.14120  -0.00001  -0.00005  -0.00027  -0.00032  -3.14152
   D43        3.14120   0.00000   0.00008   0.00028   0.00035   3.14155
   D44        0.00004   0.00001   0.00011   0.00039   0.00049   0.00053
   D45        0.00072  -0.00002  -0.00006  -0.00039  -0.00045   0.00027
   D46       -3.14117  -0.00000  -0.00000   0.00027   0.00027  -3.14091
   D47       -3.14130  -0.00002  -0.00009  -0.00050  -0.00059   3.14129
   D48       -0.00001  -0.00000  -0.00004   0.00016   0.00013   0.00012
         Item               Value     Threshold  Converged?
 Maximum Force            0.000741     0.000450     NO 
 RMS     Force            0.000137     0.000300     YES
 Maximum Displacement     0.004390     0.001800     NO 
 RMS     Displacement     0.001064     0.001200     YES
 Predicted change in Energy=-1.921851D-06
 Lowest energy point so far.  Saving SCF results.
 GradGradGradGradGradGradGradGradGradGradGradGradGradGradGradGradGradGrad

 Leave Link  103 at Tue Sep 29 16:27:41 2026, MaxMem=  5100273664 cpu:               1.6 elap:               0.1
 (Enter /share/software/user/restricted/gaussian/g16.B01/l202.exe)
                          Input orientation:                          
 ---------------------------------------------------------------------
 Center     Atomic      Atomic             Coordinates (Angstroms)
 Number     Number       Type             X           Y           Z
 ---------------------------------------------------------------------
      1          6           0       -1.300104   -1.044794    0.091438
      2          6           0       -2.342529   -0.124682    0.243916
      3          6           0       -3.668194   -0.538194    0.289893
      4          6           0       -3.906687   -1.903200    0.177129
      5          6           0       -2.877585   -2.825119    0.024782
      6          6           0       -1.539386   -2.407399   -0.020660
      7          6           0        1.180806   -1.029593   -0.080678
      8          6           0        1.446811   -2.400383   -0.214667
      9          6           0        2.764798   -2.839145   -0.356267
     10          6           0        3.809418   -1.925368   -0.363888
     11          6           0        3.564528   -0.561056   -0.231211
     12          6           0        2.254601   -0.121684   -0.090823
     13          8           0       -0.029221   -0.439659    0.067952
     14         35           0       -2.025011    1.819666    0.403823
     15          1           0       -4.472034    0.174659    0.407722
     16         35           0       -5.785409   -2.508314    0.241070
     17          1           0       -3.132740   -3.881026   -0.058137
     18          1           0        0.609215   -3.085969   -0.206289
     19          1           0        2.963738   -3.900194   -0.459630
     20         35           0        5.632535   -2.547807   -0.560253
     21          1           0        4.381314    0.151608   -0.237385
     22          1           0        2.035514    0.935369    0.013657
 ---------------------------------------------------------------------
                    Distance matrix (angstroms):
                    1          2          3          4          5
     1  C    0.000000
     2  C    1.398752   0.000000
     3  C    2.429790   1.389422   0.000000
     4  C    2.745629   2.369426   1.390265   0.000000
     5  C    2.379589   2.761642   2.434208   1.390034   0.000000
     6  C    1.387989   2.434304   2.849946   2.428467   1.402616
     7  C    2.486919   3.652138   4.887902   5.168388   4.439096
     8  C    3.078451   4.443896   5.466772   5.390792   4.351797
     9  C    4.465821   5.814922   6.862600   6.757900   5.655252
    10  C    5.204800   6.438816   7.633240   7.735081   6.758449
    11  C    4.899260   5.942179   7.251506   7.601786   6.833179
    12  C    3.677129   4.609302   5.949615   6.419273   5.801832
    13  O    1.407794   2.341275   3.647066   4.145916   3.715570
    14  Br   2.971230   1.976582   2.876201   4.177539   4.737571
    15  H    3.412953   2.156671   1.080835   2.165708   3.418711
    16  Br   4.720407   4.187497   2.892465   1.974803   2.933016
    17  H    3.380109   3.850428   3.403287   2.136853   1.089459
    18  H    2.810788   4.205318   5.003356   4.683943   3.504170
    19  H    5.161137   6.550263   7.473108   7.183049   5.959152
    20  Br   7.123569   8.373761   9.553264   9.589370   8.534712
    21  H    5.815326   6.746707   8.096198   8.548978   7.849920
    22  H    3.879877   4.510432   5.897456   6.587409   6.187078
                    6          7          8          9         10
     6  C    0.000000
     7  C    3.049819   0.000000
     8  C    2.992500   1.402775   0.000000
     9  C    4.338783   2.420632   1.396300   0.000000
    10  C    5.381437   2.791455   2.414502   1.387904   0.000000
    11  C    5.431690   2.433992   2.805018   2.417622   1.392451
    12  C    4.429871   1.406214   2.420812   2.777653   2.396934
    13  O    2.482026   1.354355   2.470422   3.707295   4.138715
    14  Br   4.275991   4.316280   5.499536   6.724918   6.975329
    15  H    3.930771   5.800289   6.484670   7.876448   8.578342
    16  Br   4.255279   7.128694   7.247368   8.577429   9.631537
    17  H    2.170658   5.170866   4.815505   5.996278   7.218839
    18  H    2.260841   2.138031   1.082434   2.174846   3.407805
    19  H    4.764374   3.400413   2.147210   1.084476   2.150414
    20  Br   7.193561   4.727881   4.202553   2.889706   1.936426
    21  H    6.453695   3.415120   3.889021   3.401744   2.157984
    22  H    4.894404   2.144878   3.394988   3.862078   3.387194
                   11         12         13         14         15
    11  C    0.000000
    12  C    1.388764   0.000000
    13  O    3.608222   2.311311   0.000000
    14  Br   6.108523   4.725314   3.033238   0.000000
    15  H    8.095421   6.751592   4.497935   2.948556   0.000000
    16  Br   9.562227   8.393326   6.119069   5.735721   2.991835
    17  H    7.477001   6.569411   4.635810   5.825664   4.296431
    18  H    3.887117   3.392287   2.736012   5.601485   6.068591
    19  H    3.400436   3.862128   4.605589   7.638715   8.523347
    20  Br   2.886538   4.185317   6.074077   8.868048  10.509573
    21  H    1.084005   2.149204   4.460453   6.650907   8.876850
    22  H    2.153400   1.084562   2.481286   4.173976   6.563700
                   16         17         18         19         20
    16  Br   0.000000
    17  H    3.001752   0.000000
    18  H    6.436228   3.828353   0.000000
    19  H    8.886837   6.109714   2.504181   0.000000
    20  Br  11.446096   8.880294   5.064450   2.993585   0.000000
    21  H   10.519808   8.529670   4.971076   4.298374   2.992765
    22  H    8.548539   7.064960   4.272454   4.946541   5.039885
                   21         22
    21  H    0.000000
    22  H    2.485976   0.000000
 Stoichiometry    C12H6Br3O(1-)
 Framework group  C1[X(C12H6Br3O)]
 Deg. of freedom    60
 Full point group                 C1      NOp   1
 RotChk:  IX=2 Diff= 1.01D-03
 Largest Abelian subgroup         C1      NOp   1
 Largest concise Abelian subgroup C1      NOp   1
                         Standard orientation:                         
 ---------------------------------------------------------------------
 Center     Atomic      Atomic             Coordinates (Angstroms)
 Number     Number       Type             X           Y           Z
 ---------------------------------------------------------------------
      1          6           0        0.909238    0.096398   -0.013388
      2          6           0        2.036664    0.924251   -0.004631
      3          6           0        3.320734    0.393582    0.002260
      4          6           0        3.429713   -0.992404    0.000515
      5          6           0        2.315371   -1.823289   -0.007619
      6          6           0        1.019261   -1.287221   -0.015511
      7          6           0       -1.566725    0.329585   -0.013223
      8          6           0       -1.960941   -1.016560   -0.029461
      9          6           0       -3.319193   -1.340216   -0.022206
     10          6           0       -4.277510   -0.336518    0.000065
     11          6           0       -3.904931    1.005073    0.015522
     12          6           0       -2.554726    1.329985    0.008970
     13          8           0       -0.301956    0.813924   -0.020524
     14         35           0        1.903421    2.896331    0.000107
     15          1           0        4.190431    1.035286    0.009083
     16         35           0        5.247727   -1.763499    0.009671
     17          1           0        2.470190   -2.901691   -0.008344
     18          1           0       -1.188259   -1.774440   -0.045075
     19          1           0       -3.617394   -2.382813   -0.034639
     20         35           0       -6.157715   -0.799649    0.009111
     21          1           0       -4.654412    1.788043    0.032977
     22          1           0       -2.236778    2.366823    0.021311
 ---------------------------------------------------------------------
 Rotational constants (GHZ):           0.4396226           0.0763797           0.0650747
 Leave Link  202 at Tue Sep 29 16:27:41 2026, MaxMem=  5100273664 cpu:               0.3 elap:               0.1
 (Enter /share/software/user/restricted/gaussian/g16.B01/l301.exe)
 Standard basis: 6-311++G(d) (5D, 7F)
 Ernie: Thresh=  0.10000D-02 Tol=  0.10000D-05 Strict=F.
 There are   476 symmetry adapted cartesian basis functions of A   symmetry.
 There are   454 symmetry adapted basis functions of A   symmetry.
   454 basis functions,   786 primitive gaussians,   476 cartesian basis functions
    96 alpha electrons       96 beta electrons
       nuclear repulsion energy      1955.5605045748 Hartrees.
 IExCor=  402 DFT=T Ex+Corr=B3LYP ExCW=0 ScaHFX=  0.200000
 ScaDFX=  0.800000  0.720000  1.000000  0.810000 ScalE2=  1.000000  1.000000
 IRadAn=      5 IRanWt=     -1 IRanGd=            0 ICorTp=0 IEmpDi=  4
 NAtoms=   22 NActive=   22 NUniq=   22 SFac= 1.00D+00 NAtFMM=   60 NAOKFM=F Big=F
 Integral buffers will be    131072 words long.
 Raffenetti 2 integral format.
 Two-electron integral symmetry is turned on.
 Leave Link  301 at Tue Sep 29 16:27:41 2026, MaxMem=  5100273664 cpu:               0.7 elap:               0.1
 (Enter /share/software/user/restricted/gaussian/g16.B01/l302.exe)
 NPDir=0 NMtPBC=     1 NCelOv=     1 NCel=       1 NClECP=     1 NCelD=      1
         NCelK=      1 NCelE2=     1 NClLst=     1 CellRange=     0.0.
 One-electron integrals computed using PRISM.
 One-electron integral symmetry used in STVInt
 NBasis=   454 RedAO= T EigKep=  1.64D-06  NBF=   454
 NBsUse=   450 1.00D-06 EigRej=  9.08D-07 NBFU=   450
 Precomputing XC quadrature grid using
 IXCGrd= 4 IRadAn=           5 IRanWt=          -1 IRanGd=           0 AccXCQ= 0.00D+00.
 Generated NRdTot=       0 NPtTot=           0 NUsed=           0 NTot=          32
 NSgBfM=   447   445   447   447   447 MxSgAt=    22 MxSgA2=    22.
 Leave Link  302 at Tue Sep 29 16:27:41 2026, MaxMem=  5100273664 cpu:               4.3 elap:               0.3
 (Enter /share/software/user/restricted/gaussian/g16.B01/l303.exe)
 DipDrv:  MaxL=1.
 Leave Link  303 at Tue Sep 29 16:27:41 2026, MaxMem=  5100273664 cpu:               0.8 elap:               0.1
 (Enter /share/software/user/restricted/gaussian/g16.B01/l401.exe)
 Initial guess from the checkpoint file:  "calcs/b3lyp_gas/chks/BDE_24_2r4_anion.chk"
 B after Tr=    -0.000000   -0.000000   -0.000000
         Rot=    1.000000    0.000000    0.000000    0.000014 Ang=   0.00 deg.
 Guess basis will be translated and rotated to current coordinates.
 JPrj=2 DoOrth=T DoCkMO=T.
 Leave Link  401 at Tue Sep 29 16:27:42 2026, MaxMem=  5100273664 cpu:               7.1 elap:               0.5
 (Enter /share/software/user/restricted/gaussian/g16.B01/l502.exe)
 Integral symmetry usage will be decided dynamically.
 Closed shell SCF:
 Using DIIS extrapolation, IDIIS=  1040.
 NGot=  5100273664 LenX=  5099808623 LenY=  5099581571
 Requested convergence on RMS density matrix=1.00D-08 within 128 cycles.
 Requested convergence on MAX density matrix=1.00D-06.
 Requested convergence on             energy=1.00D-06.
 No special actions if energy rises.
 Fock matrices will be formed incrementally for  20 cycles.

 Cycle   1  Pass 1  IDiag  1:
 FoFJK:  IHMeth= 1 ICntrl=       0 DoSepK=F KAlg= 0 I1Cent=           0 FoldK=F
 IRaf= 770000000 NMat=       1 IRICut=       1 DoRegI=T DoRafI=F ISym2E= 0 IDoP0=0 IntGTp=1.
 FoFCou: FMM=F IPFlag=           0 FMFlag=      100000 FMFlg1=           0
         NFxFlg=           0 DoJE=F BraDBF=F KetDBF=F FulRan=T
         wScrn=  0.000000 ICntrl=         0 IOpCl=  0 I1Cent=           0 NGrid=           0
         NMat0=    1 NMatS0=      1 NMatT0=    0 NMatD0=    1 NMtDS0=    0 NMtDT0=    0
 Symmetry not used in FoFCou.
 E= -8258.67017764683    
 DIIS: error= 3.30D-04 at cycle   1 NSaved=   1.
 NSaved= 1 IEnMin= 1 EnMin= -8258.67017764683     IErMin= 1 ErrMin= 3.30D-04
 ErrMax= 3.30D-04  0.00D+00 EMaxC= 1.00D-01 BMatC= 2.88D-05 BMatP= 2.88D-05
 IDIUse=3 WtCom= 9.97D-01 WtEn= 3.30D-03
 Coeff-Com:  0.100D+01
 Coeff-En:   0.100D+01
 Coeff:      0.100D+01
 Gap=     0.307 Goal=   None    Shift=    0.000
 RMSDP=9.88D-05 MaxDP=6.28D-03              OVMax= 9.57D-04

 Cycle   2  Pass 1  IDiag  1:
 RMSU=  8.80D-05    CP:  1.00D+00
 E= -8258.67018929308     Delta-E=       -0.000011646247 Rises=F Damp=F
 DIIS: error= 2.83D-05 at cycle   2 NSaved=   2.
 NSaved= 2 IEnMin= 2 EnMin= -8258.67018929308     IErMin= 2 ErrMin= 2.83D-05
 ErrMax= 2.83D-05  0.00D+00 EMaxC= 1.00D-01 BMatC= 1.46D-07 BMatP= 2.88D-05
 IDIUse=1 WtCom= 1.00D+00 WtEn= 0.00D+00
 Coeff-Com: -0.180D-02 0.100D+01
 Coeff:     -0.180D-02 0.100D+01
 Gap=     0.122 Goal=   None    Shift=    0.000
 RMSDP=1.22D-05 MaxDP=8.01D-04 DE=-1.16D-05 OVMax= 3.30D-04

 Cycle   3  Pass 1  IDiag  1:
 RMSU=  1.15D-05    CP:  1.00D+00  1.02D+00
 E= -8258.67018923106     Delta-E=        0.000000062024 Rises=F Damp=F
 DIIS: error= 5.04D-05 at cycle   3 NSaved=   3.
 NSaved= 3 IEnMin= 2 EnMin= -8258.67018929308     IErMin= 2 ErrMin= 2.83D-05
 ErrMax= 5.04D-05  0.00D+00 EMaxC= 1.00D-01 BMatC= 2.57D-07 BMatP= 1.46D-07
 IDIUse=1 WtCom= 1.00D+00 WtEn= 0.00D+00
 Coeff-Com: -0.495D-02 0.582D+00 0.423D+00
 Coeff:     -0.495D-02 0.582D+00 0.423D+00
 Gap=     0.122 Goal=   None    Shift=    0.000
 RMSDP=5.72D-06 MaxDP=5.87D-04 DE= 6.20D-08 OVMax= 2.45D-04

 Cycle   4  Pass 1  IDiag  1:
 RMSU=  3.30D-06    CP:  1.00D+00  1.02D+00  6.14D-01
 E= -8258.67018948105     Delta-E=       -0.000000249991 Rises=F Damp=F
 DIIS: error= 1.14D-05 at cycle   4 NSaved=   4.
 NSaved= 4 IEnMin= 4 EnMin= -8258.67018948105     IErMin= 4 ErrMin= 1.14D-05
 ErrMax= 1.14D-05  0.00D+00 EMaxC= 1.00D-01 BMatC= 1.29D-08 BMatP= 1.46D-07
 IDIUse=1 WtCom= 1.00D+00 WtEn= 0.00D+00
 Coeff-Com: -0.201D-02 0.165D+00 0.209D+00 0.629D+00
 Coeff:     -0.201D-02 0.165D+00 0.209D+00 0.629D+00
 Gap=     0.122 Goal=   None    Shift=    0.000
 RMSDP=1.86D-06 MaxDP=7.92D-05 DE=-2.50D-07 OVMax= 5.36D-05

 Cycle   5  Pass 1  IDiag  1:
 RMSU=  1.54D-06    CP:  1.00D+00  1.02D+00  6.13D-01  7.16D-01
 E= -8258.67018949031     Delta-E=       -0.000000009266 Rises=F Damp=F
 DIIS: error= 4.18D-06 at cycle   5 NSaved=   5.
 NSaved= 5 IEnMin= 5 EnMin= -8258.67018949031     IErMin= 5 ErrMin= 4.18D-06
 ErrMax= 4.18D-06  0.00D+00 EMaxC= 1.00D-01 BMatC= 4.72D-09 BMatP= 1.29D-08
 IDIUse=1 WtCom= 1.00D+00 WtEn= 0.00D+00
 Coeff-Com: -0.747D-03 0.362D-01 0.907D-01 0.425D+00 0.448D+00
 Coeff:     -0.747D-03 0.362D-01 0.907D-01 0.425D+00 0.448D+00
 Gap=     0.122 Goal=   None    Shift=    0.000
 RMSDP=7.41D-07 MaxDP=4.69D-05 DE=-9.27D-09 OVMax= 2.32D-05

 Cycle   6  Pass 1  IDiag  1:
 RMSU=  4.44D-07    CP:  1.00D+00  1.02D+00  6.24D-01  7.64D-01  6.75D-01
 E= -8258.67018949485     Delta-E=       -0.000000004531 Rises=F Damp=F
 DIIS: error= 1.31D-06 at cycle   6 NSaved=   6.
 NSaved= 6 IEnMin= 6 EnMin= -8258.67018949485     IErMin= 6 ErrMin= 1.31D-06
 ErrMax= 1.31D-06  0.00D+00 EMaxC= 1.00D-01 BMatC= 3.47D-10 BMatP= 4.72D-09
 IDIUse=1 WtCom= 1.00D+00 WtEn= 0.00D+00
 Coeff-Com: -0.584D-04-0.118D-01 0.137D-01 0.129D+00 0.251D+00 0.618D+00
 Coeff:     -0.584D-04-0.118D-01 0.137D-01 0.129D+00 0.251D+00 0.618D+00
 Gap=     0.122 Goal=   None    Shift=    0.000
 RMSDP=2.96D-07 MaxDP=1.72D-05 DE=-4.53D-09 OVMax= 9.08D-06

 Cycle   7  Pass 1  IDiag  1:
 RMSU=  1.65D-07    CP:  1.00D+00  1.02D+00  6.37D-01  7.97D-01  6.56D-01
                    CP:  7.28D-01
 E= -8258.67018949517     Delta-E=       -0.000000000327 Rises=F Damp=F
 DIIS: error= 4.97D-07 at cycle   7 NSaved=   7.
 NSaved= 7 IEnMin= 7 EnMin= -8258.67018949517     IErMin= 7 ErrMin= 4.97D-07
 ErrMax= 4.97D-07  0.00D+00 EMaxC= 1.00D-01 BMatC= 9.23D-11 BMatP= 3.47D-10
 IDIUse=1 WtCom= 1.00D+00 WtEn= 0.00D+00
 Coeff-Com:  0.279D-04-0.118D-01 0.145D-02 0.515D-01 0.131D+00 0.418D+00
 Coeff-Com:  0.409D+00
 Coeff:      0.279D-04-0.118D-01 0.145D-02 0.515D-01 0.131D+00 0.418D+00
 Coeff:      0.409D+00
 Gap=     0.122 Goal=   None    Shift=    0.000
 RMSDP=1.17D-07 MaxDP=1.10D-05 DE=-3.27D-10 OVMax= 3.74D-06

 Cycle   8  Pass 1  IDiag  1:
 RMSU=  6.63D-08    CP:  1.00D+00  1.02D+00  6.37D-01  7.94D-01  6.69D-01
                    CP:  7.27D-01  4.49D-01
 E= -8258.67018949517     Delta-E=       -0.000000000002 Rises=F Damp=F
 DIIS: error= 8.49D-08 at cycle   8 NSaved=   8.
 NSaved= 8 IEnMin= 8 EnMin= -8258.67018949517     IErMin= 8 ErrMin= 8.49D-08
 ErrMax= 8.49D-08  0.00D+00 EMaxC= 1.00D-01 BMatC= 2.86D-12 BMatP= 9.23D-11
 IDIUse=1 WtCom= 1.00D+00 WtEn= 0.00D+00
 Coeff-Com:  0.198D-04-0.478D-02-0.586D-03 0.141D-01 0.427D-01 0.149D+00
 Coeff-Com:  0.197D+00 0.603D+00
 Coeff:      0.198D-04-0.478D-02-0.586D-03 0.141D-01 0.427D-01 0.149D+00
 Coeff:      0.197D+00 0.603D+00
 Gap=     0.122 Goal=   None    Shift=    0.000
 RMSDP=3.65D-08 MaxDP=3.68D-06 DE=-1.82D-12 OVMax= 7.96D-07

 Cycle   9  Pass 1  IDiag  1:
 RMSU=  2.30D-08    CP:  1.00D+00  1.02D+00  6.36D-01  7.94D-01  6.76D-01
                    CP:  7.49D-01  4.95D-01  7.66D-01
 E= -8258.67018949517     Delta-E=        0.000000000004 Rises=F Damp=F
 DIIS: error= 5.94D-08 at cycle   9 NSaved=   9.
 NSaved= 9 IEnMin= 8 EnMin= -8258.67018949517     IErMin= 9 ErrMin= 5.94D-08
 ErrMax= 5.94D-08  0.00D+00 EMaxC= 1.00D-01 BMatC= 9.98D-13 BMatP= 2.86D-12
 IDIUse=1 WtCom= 1.00D+00 WtEn= 0.00D+00
 Coeff-Com:  0.909D-05-0.144D-02-0.667D-03 0.143D-02 0.855D-02 0.364D-01
 Coeff-Com:  0.686D-01 0.396D+00 0.491D+00
 Coeff:      0.909D-05-0.144D-02-0.667D-03 0.143D-02 0.855D-02 0.364D-01
 Coeff:      0.686D-01 0.396D+00 0.491D+00
 Gap=     0.122 Goal=   None    Shift=    0.000
 RMSDP=1.36D-08 MaxDP=8.30D-07 DE= 3.64D-12 OVMax= 4.30D-07

 Cycle  10  Pass 1  IDiag  1:
 RMSU=  9.84D-09    CP:  1.00D+00  1.02D+00  6.36D-01  7.95D-01  6.76D-01
                    CP:  7.54D-01  4.96D-01  8.19D-01  7.18D-01
 E= -8258.67018949518     Delta-E=       -0.000000000009 Rises=F Damp=F
 DIIS: error= 2.03D-08 at cycle  10 NSaved=  10.
 NSaved=10 IEnMin=10 EnMin= -8258.67018949518     IErMin=10 ErrMin= 2.03D-08
 ErrMax= 2.03D-08  0.00D+00 EMaxC= 1.00D-01 BMatC= 8.48D-14 BMatP= 9.98D-13
 IDIUse=1 WtCom= 1.00D+00 WtEn= 0.00D+00
 Coeff-Com:  0.272D-05-0.210D-03-0.273D-03-0.840D-03-0.503D-03 0.204D-02
 Coeff-Com:  0.158D-01 0.156D+00 0.276D+00 0.551D+00
 Coeff:      0.272D-05-0.210D-03-0.273D-03-0.840D-03-0.503D-03 0.204D-02
 Coeff:      0.158D-01 0.156D+00 0.276D+00 0.551D+00
 Gap=     0.122 Goal=   None    Shift=    0.000
 RMSDP=5.96D-09 MaxDP=3.39D-07 DE=-9.09D-12 OVMax= 2.24D-07

 SCF Done:  E(RB3LYP) =  -8258.67018950     A.U. after   10 cycles
            NFock= 10  Conv=0.60D-08     -V/T= 2.0014
 KE= 8.247204482932D+03 PE=-2.364080093338D+04 EE= 5.179365756379D+03
 Leave Link  502 at Tue Sep 29 16:28:16 2026, MaxMem=  5100273664 cpu:             547.2 elap:              34.2
 (Enter /share/software/user/restricted/gaussian/g16.B01/l701.exe)
 ... and contract with generalized density number  0.
 Compute integral first derivatives.
 Leave Link  701 at Tue Sep 29 16:28:16 2026, MaxMem=  5100273664 cpu:               2.2 elap:               0.2
 (Enter /share/software/user/restricted/gaussian/g16.B01/l702.exe)
 L702 exits ... SP integral derivatives will be done elsewhere.
 Leave Link  702 at Tue Sep 29 16:28:16 2026, MaxMem=  5100273664 cpu:               0.4 elap:               0.0
 (Enter /share/software/user/restricted/gaussian/g16.B01/l703.exe)
 Integral derivatives from FoFJK, PRISM(SPDF).
 Compute integral first derivatives, UseDBF=F ICtDFT=           0.
 Calling FoFJK, ICntrl=      2127 FMM=F ISym2X=0 I1Cent= 0 IOpClX= 0 NMat=1 NMatS=1 NMatT=0.
 FoFJK:  IHMeth= 1 ICntrl=    2127 DoSepK=F KAlg= 0 I1Cent=           0 FoldK=F
 IRaf=         0 NMat=       1 IRICut=       1 DoRegI=T DoRafI=F ISym2E= 0 IDoP0=0 IntGTp=1.
 FoFCou: FMM=F IPFlag=           0 FMFlag=      100000 FMFlg1=         800
         NFxFlg=           0 DoJE=F BraDBF=F KetDBF=F FulRan=T
         wScrn=  0.000000 ICntrl=      2127 IOpCl=  0 I1Cent=           0 NGrid=           0
         NMat0=    1 NMatS0=      1 NMatT0=    0 NMatD0=    1 NMtDS0=    0 NMtDT0=    0
 Symmetry not used in FoFCou.
 Leave Link  703 at Tue Sep 29 16:28:28 2026, MaxMem=  5100273664 cpu:             192.3 elap:              12.0
 (Enter /share/software/user/restricted/gaussian/g16.B01/l716.exe)
 Dipole        =-1.40589098D+00 6.75591026D-01 9.05969404D-03
 ***** Axes restored to original set *****
 -------------------------------------------------------------------
 Center     Atomic                   Forces (Hartrees/Bohr)
 Number     Number              X              Y              Z
 -------------------------------------------------------------------
      1        6          -0.000066992    0.000068148    0.000024064
      2        6           0.000086960   -0.000055869   -0.000000829
      3        6          -0.000109451    0.000091560    0.000008237
      4        6           0.000226312   -0.000057641   -0.000010529
      5        6          -0.000193428    0.000009383    0.000038748
      6        6           0.000103321    0.000034328   -0.000016216
      7        6          -0.000119098   -0.000102784    0.000055808
      8        6           0.000213319    0.000002637    0.000006619
      9        6           0.000050908    0.000030098    0.000002056
     10        6          -0.000098218    0.000044321    0.000032932
     11        6           0.000073016   -0.000018917   -0.000015455
     12        6           0.000056804   -0.000040288   -0.000022224
     13        8          -0.000031997    0.000087837   -0.000075501
     14       35          -0.000012849   -0.000007613    0.000005686
     15        1          -0.000003189   -0.000006621    0.000002111
     16       35          -0.000053567   -0.000016623    0.000000275
     17        1           0.000023425   -0.000017103   -0.000009492
     18        1          -0.000126039   -0.000048497   -0.000029893
     19        1          -0.000015644   -0.000015431   -0.000006078
     20       35           0.000019940   -0.000011520   -0.000008520
     21        1           0.000000683    0.000010618    0.000003891
     22        1          -0.000024219    0.000019979    0.000014310
 -------------------------------------------------------------------
 Cartesian Forces:  Max     0.000226312 RMS     0.000066045
 Leave Link  716 at Tue Sep 29 16:28:28 2026, MaxMem=  5100273664 cpu:               0.5 elap:               0.0
 (Enter /share/software/user/restricted/gaussian/g16.B01/l103.exe)

 GradGradGradGradGradGradGradGradGradGradGradGradGradGradGradGradGradGrad
 Berny optimization.
 Using GEDIIS/GDIIS optimizer.
 FormGI is forming the generalized inverse of G from B-inverse, IUseBI=4.
 GSVD:  received Info=                   1 from GESDD.
 Internal  Forces:  Max     0.000590179 RMS     0.000091965
 Search for a local minimum.
 Step number  13 out of a maximum of  116
 All quantities printed in internal units (Hartrees-Bohrs-Radians)
 RMS Force = .91965D-04 SwitMx=.10000D-02 MixMth= 2
 Mixed Optimization -- En-DIIS/RFO-DIIS
 Swapping is turned off.
 Update second derivatives using D2CorX and points    6    8    7    9   10
                                                     11   12   13
 DE= -2.24D-06 DEPred=-1.92D-06 R= 1.16D+00
 TightC=F SS=  1.41D+00  RLast= 7.08D-03 DXNew= 5.0454D-01 2.1225D-02
 Trust test= 1.16D+00 RLast= 7.08D-03 DXMaxT set to 3.00D-01
 ITU=  1  1  1  1  0 -1  1 -1  1  1 -1  0  0
     Eigenvalues ---    0.01513   0.01817   0.02001   0.02023   0.02045
     Eigenvalues ---    0.02079   0.02092   0.02097   0.02108   0.02122
     Eigenvalues ---    0.02130   0.02136   0.02166   0.02178   0.02188
     Eigenvalues ---    0.02228   0.02289   0.02340   0.04164   0.12277
     Eigenvalues ---    0.14957   0.16004   0.16007   0.16017   0.16129
     Eigenvalues ---    0.16656   0.18943   0.19328   0.21630   0.22950
     Eigenvalues ---    0.23347   0.24052   0.24428   0.24907   0.24981
     Eigenvalues ---    0.25003   0.25248   0.25821   0.33621   0.33709
     Eigenvalues ---    0.33716   0.33775   0.33944   0.37955   0.40708
     Eigenvalues ---    0.41439   0.42402   0.44558   0.45047   0.45268
     Eigenvalues ---    0.45545   0.45851   0.46261   0.46412   0.47305
     Eigenvalues ---    0.47637   0.48934   0.68984   1.33994  22.85776
 En-DIIS/RFO-DIIS/Sim-DIIS IScMMF=       -3 using points:    13   12
 RFO step:  Lambda=-8.24712695D-07.
 NNeg= 0 NGDIIS= 2 SimSw=  2.50D-01 Rises=F DC= -2.24D-06 SmlDif=  1.00D-05
 NRisDI= 0 DoIntr=F SqrtH=F CThrHd= 10.0 CDAdj=  3.0
 RMS Error=  0.5043532676D-03 NUsed= 2 OKEnD=F EnDIS=F
 InvSVX:  RCond= 1.25D-05 Info=           0 Equed=N FErr=  2.62D-15 BErr=  5.31D-17
 DidBck=F Rises=F RFO-DIIS coefs:    1.38316   -0.38316
 Iteration  1 RMS(Cart)=  0.00175089 RMS(Int)=  0.00000086
 Iteration  2 RMS(Cart)=  0.00000234 RMS(Int)=  0.00000004
 Iteration  3 RMS(Cart)=  0.00000000 RMS(Int)=  0.00000004
 ITry= 1 IFail=0 DXMaxC= 7.47D-03 DCOld= 1.00D+10 DXMaxT= 3.00D-01 DXLimC= 3.00D+00 Rises=F
 Variable       Old X    -DE/DX   Delta X   Delta X   Delta X     New X
                                 (Linear)    (Quad)   (Total)
    R1        2.64326  -0.00001   0.00007  -0.00013  -0.00007   2.64319
    R2        2.62292   0.00010  -0.00000   0.00001   0.00001   2.62293
    R3        2.66035   0.00012   0.00013  -0.00005   0.00008   2.66043
    R4        2.62563   0.00003  -0.00005   0.00012   0.00006   2.62569
    R5        3.73520  -0.00001  -0.00001  -0.00009  -0.00010   3.73510
    R6        2.62722   0.00001  -0.00002   0.00009   0.00007   2.62729
    R7        2.04248  -0.00000   0.00002  -0.00004  -0.00002   2.04246
    R8        2.62678  -0.00013  -0.00005  -0.00019  -0.00023   2.62655
    R9        3.73184   0.00006   0.00028   0.00019   0.00047   3.73230
   R10        2.65056   0.00007   0.00004   0.00011   0.00015   2.65071
   R11        2.05878   0.00001   0.00002   0.00001   0.00003   2.05881
   R12        4.27237  -0.00010   0.00058  -0.00114  -0.00056   4.27181
   R13        2.65086   0.00004   0.00032  -0.00007   0.00026   2.65112
   R14        2.65736   0.00007   0.00001   0.00009   0.00010   2.65746
   R15        2.55936   0.00017  -0.00012   0.00022   0.00010   2.55946
   R16        2.63862  -0.00000   0.00014  -0.00008   0.00006   2.63868
   R17        2.62276  -0.00004  -0.00015   0.00000  -0.00015   2.62261
   R18        2.04936   0.00001  -0.00000   0.00002   0.00001   2.04938
   R19        2.63135  -0.00006  -0.00014  -0.00001  -0.00015   2.63120
   R20        3.65931   0.00002   0.00044   0.00001   0.00045   3.65976
   R21        2.62438   0.00002   0.00008  -0.00001   0.00007   2.62446
   R22        2.04847   0.00001  -0.00001  -0.00001  -0.00002   2.04846
   R23        2.04953   0.00003   0.00003   0.00004   0.00007   2.04960
    A1        2.12481  -0.00007   0.00021  -0.00002   0.00019   2.12500
    A2        1.97342  -0.00020  -0.00002   0.00020   0.00018   1.97360
    A3        2.18495   0.00027  -0.00019  -0.00017  -0.00037   2.18458
    A4        2.11635   0.00007   0.00003   0.00000   0.00003   2.11638
    A5        2.13671  -0.00001  -0.00010   0.00007  -0.00003   2.13668
    A6        2.03013  -0.00006   0.00007  -0.00007  -0.00000   2.03013
    A7        2.04115  -0.00005  -0.00023  -0.00007  -0.00030   2.04084
    A8        2.11404   0.00004   0.00008   0.00009   0.00017   2.11421
    A9        2.12800   0.00002   0.00015  -0.00002   0.00013   2.12813
   A10        2.13302   0.00005   0.00021   0.00014   0.00035   2.13337
   A11        2.05040  -0.00002  -0.00015  -0.00005  -0.00020   2.05019
   A12        2.09977  -0.00003  -0.00005  -0.00009  -0.00014   2.09962
   A13        2.10874   0.00001   0.00007  -0.00016  -0.00009   2.10865
   A14        2.06890   0.00002  -0.00024   0.00031   0.00007   2.06897
   A15        2.10554  -0.00004   0.00017  -0.00015   0.00002   2.10557
   A16        2.04230  -0.00001  -0.00029   0.00011  -0.00017   2.04213
   A17        1.70868   0.00019   0.00066  -0.00001   0.00065   1.70933
   A18        2.53218  -0.00018  -0.00037  -0.00011  -0.00047   2.53170
   A19        2.07765  -0.00013  -0.00008  -0.00012  -0.00020   2.07745
   A20        2.22126   0.00035   0.00027   0.00022   0.00049   2.22175
   A21        1.98427  -0.00022  -0.00020  -0.00010  -0.00029   1.98398
   A22        2.08949   0.00005  -0.00013   0.00007  -0.00006   2.08943
   A23        2.09916   0.00001  -0.00004   0.00003  -0.00001   2.09915
   A24        2.08319  -0.00002   0.00005  -0.00012  -0.00007   2.08312
   A25        2.10084   0.00001  -0.00001   0.00009   0.00008   2.10092
   A26        2.10853   0.00002   0.00032  -0.00002   0.00030   2.10883
   A27        2.09156  -0.00002  -0.00012  -0.00004  -0.00016   2.09140
   A28        2.08310  -0.00000  -0.00020   0.00006  -0.00014   2.08296
   A29        2.07773  -0.00003  -0.00027  -0.00006  -0.00033   2.07740
   A30        2.10725   0.00003   0.00009   0.00011   0.00020   2.10745
   A31        2.09820   0.00001   0.00018  -0.00005   0.00013   2.09833
   A32        2.11382   0.00009   0.00020   0.00010   0.00029   2.11411
   A33        2.06498  -0.00006  -0.00013  -0.00016  -0.00029   2.06470
   A34        2.10439  -0.00002  -0.00007   0.00006  -0.00001   2.10438
   A35        2.24100   0.00059  -0.00032  -0.00006  -0.00038   2.24061
    D1        0.00007   0.00001   0.00026  -0.00025   0.00001   0.00008
    D2       -3.14066  -0.00001   0.00053  -0.00071  -0.00018  -3.14084
    D3       -3.14075   0.00003  -0.00012   0.00076   0.00063  -3.14012
    D4        0.00171   0.00001   0.00014   0.00030   0.00044   0.00214
    D5        0.00068  -0.00001  -0.00004  -0.00003  -0.00007   0.00062
    D6       -3.13502  -0.00002  -0.00016   0.00024   0.00008  -3.13494
    D7        3.14141  -0.00004   0.00039  -0.00116  -0.00076   3.14065
    D8        0.00571  -0.00004   0.00027  -0.00089  -0.00062   0.00509
    D9       -3.12605  -0.00012  -0.00047  -0.00168  -0.00215  -3.12820
   D10        0.01634  -0.00010  -0.00087  -0.00064  -0.00150   0.01484
   D11       -0.00038   0.00000  -0.00027   0.00034   0.00006  -0.00032
   D12       -3.14153  -0.00001  -0.00007  -0.00003  -0.00010   3.14156
   D13        3.14039   0.00002  -0.00052   0.00077   0.00025   3.14064
   D14       -0.00075   0.00001  -0.00032   0.00041   0.00008  -0.00066
   D15       -0.00008  -0.00001   0.00008  -0.00017  -0.00009  -0.00016
   D16        3.14127  -0.00000  -0.00011   0.00001  -0.00010   3.14117
   D17        3.14106   0.00000  -0.00013   0.00020   0.00008   3.14114
   D18       -0.00078   0.00001  -0.00031   0.00037   0.00006  -0.00071
   D19        0.00086   0.00000   0.00014  -0.00010   0.00004   0.00089
   D20       -3.14137   0.00001   0.00019   0.00003   0.00022  -3.14115
   D21       -3.14048  -0.00000   0.00033  -0.00028   0.00005  -3.14043
   D22        0.00048   0.00001   0.00038  -0.00015   0.00023   0.00071
   D23       -0.00113   0.00001  -0.00015   0.00019   0.00004  -0.00109
   D24        3.13026   0.00003   0.00006  -0.00026  -0.00020   3.13007
   D25        3.14111  -0.00000  -0.00020   0.00006  -0.00014   3.14097
   D26       -0.01068   0.00001   0.00001  -0.00039  -0.00038  -0.01106
   D27       -0.00096  -0.00001  -0.00046   0.00063   0.00017  -0.00080
   D28       -3.13860   0.00001  -0.00021   0.00022   0.00001  -3.13859
   D29        0.00046   0.00000   0.00049  -0.00070  -0.00021   0.00025
   D30       -3.14154   0.00001   0.00022  -0.00008   0.00014  -3.14140
   D31        3.13862  -0.00001   0.00028  -0.00035  -0.00007   3.13855
   D32       -0.00338  -0.00001   0.00001   0.00027   0.00028  -0.00311
   D33       -0.02939  -0.00003   0.00072   0.00200   0.00272  -0.02666
   D34        3.11598  -0.00001   0.00095   0.00162   0.00257   3.11855
   D35        0.00075   0.00000   0.00012  -0.00007   0.00005   0.00079
   D36       -3.14137   0.00001   0.00002   0.00021   0.00023  -3.14114
   D37       -0.00000  -0.00000   0.00020  -0.00043  -0.00023  -0.00023
   D38        3.14113   0.00000  -0.00011   0.00028   0.00017   3.14129
   D39       -3.14106  -0.00000   0.00030  -0.00072  -0.00042  -3.14148
   D40        0.00007   0.00000  -0.00001  -0.00001  -0.00002   0.00004
   D41       -0.00050   0.00000  -0.00018   0.00036   0.00019  -0.00032
   D42       -3.14152  -0.00000  -0.00012   0.00021   0.00009  -3.14144
   D43        3.14155  -0.00001   0.00014  -0.00034  -0.00021   3.14134
   D44        0.00053  -0.00001   0.00019  -0.00050  -0.00031   0.00022
   D45        0.00027  -0.00000  -0.00017   0.00021   0.00003   0.00030
   D46       -3.14091  -0.00001   0.00010  -0.00042  -0.00032  -3.14123
   D47        3.14129   0.00000  -0.00023   0.00036   0.00013   3.14143
   D48        0.00012  -0.00001   0.00005  -0.00027  -0.00022  -0.00010
         Item               Value     Threshold  Converged?
 Maximum Force            0.000590     0.000450     NO 
 RMS     Force            0.000092     0.000300     YES
 Maximum Displacement     0.007473     0.001800     NO 
 RMS     Displacement     0.001751     0.001200     NO 
 Predicted change in Energy=-4.123643D-07
 Lowest energy point so far.  Saving SCF results.
 GradGradGradGradGradGradGradGradGradGradGradGradGradGradGradGradGradGrad

 Leave Link  103 at Tue Sep 29 16:28:29 2026, MaxMem=  5100273664 cpu:               1.3 elap:               0.1
 (Enter /share/software/user/restricted/gaussian/g16.B01/l202.exe)
                          Input orientation:                          
 ---------------------------------------------------------------------
 Center     Atomic      Atomic             Coordinates (Angstroms)
 Number     Number       Type             X           Y           Z
 ---------------------------------------------------------------------
      1          6           0       -1.300316   -1.044138    0.089430
      2          6           0       -2.342790   -0.124284    0.242820
      3          6           0       -3.668331   -0.538116    0.290494
      4          6           0       -3.906206   -1.903332    0.178508
      5          6           0       -2.877192   -2.825012    0.025246
      6          6           0       -1.539099   -2.406893   -0.021969
      7          6           0        1.180476   -1.029555   -0.082376
      8          6           0        1.446516   -2.400425   -0.216892
      9          6           0        2.764693   -2.839195   -0.356994
     10          6           0        3.809321   -1.925531   -0.362563
     11          6           0        3.564743   -0.561273   -0.229590
     12          6           0        2.254599   -0.121936   -0.090737
     13          8           0       -0.029430   -0.438945    0.065039
     14         35           0       -2.025553    1.820115    0.402022
     15          1           0       -4.472317    0.174422    0.409113
     16         35           0       -5.784868   -2.509164    0.245024
     17          1           0       -3.132174   -3.881018   -0.057165
     18          1           0        0.608881   -3.085849   -0.209756
     19          1           0        2.963611   -3.900195   -0.460984
     20         35           0        5.632762   -2.548304   -0.557183
     21          1           0        4.381641    0.151261   -0.234253
     22          1           0        2.035411    0.935082    0.014261
 ---------------------------------------------------------------------
                    Distance matrix (angstroms):
                    1          2          3          4          5
     1  C    0.000000
     2  C    1.398718   0.000000
     3  C    2.429810   1.389456   0.000000
     4  C    2.745326   2.369265   1.390302   0.000000
     5  C    2.379532   2.761676   2.434368   1.389911   0.000000
     6  C    1.387994   2.434406   2.850191   2.428366   1.402693
     7  C    2.486777   3.652214   4.887890   5.167773   4.438459
     8  C    3.078707   4.444209   5.466927   5.390277   4.351248
     9  C    4.466074   5.815229   6.862798   6.757477   5.654836
    10  C    5.204761   6.438901   7.633261   7.734508   6.757879
    11  C    4.899360   5.942480   7.251784   7.601496   6.832860
    12  C    3.677002   4.609474   5.949760   6.418831   5.801324
    13  O    1.407837   2.341421   3.647227   4.145685   3.715461
    14  Br   2.971132   1.976531   2.876180   4.177425   4.737558
    15  H    3.413016   2.156795   1.080822   2.165808   3.418828
    16  Br   4.720351   4.187548   2.892547   1.975050   2.933025
    17  H    3.380101   3.850476   3.403429   2.136799   1.089475
    18  H    2.811251   4.205717   5.003572   4.683494   3.503708
    19  H    5.161501   6.550628   7.473348   7.182673   5.958810
    20  Br   7.123776   8.374085   9.553519   9.589012   8.534349
    21  H    5.815358   6.746962   8.096458   8.548692   7.849599
    22  H    3.879438   4.510337   5.897397   6.586835   6.186445
                    6          7          8          9         10
     6  C    0.000000
     7  C    3.049065   0.000000
     8  C    2.991978   1.402910   0.000000
     9  C    4.338404   2.420734   1.396330   0.000000
    10  C    5.380828   2.791434   2.414455   1.387826   0.000000
    11  C    5.431263   2.434274   2.805267   2.417692   1.392371
    12  C    4.429210   1.406266   2.420832   2.777514   2.396665
    13  O    2.481832   1.354409   2.470892   3.707618   4.138694
    14  Br   4.275979   4.316698   5.500116   6.725453   6.975686
    15  H    3.931003   5.800447   6.484930   7.876745   8.578509
    16  Br   4.255384   7.128285   7.246937   8.577081   9.631108
    17  H    2.170754   5.170147   4.814776   5.995692   7.218140
    18  H    2.260545   2.138058   1.082353   2.174865   3.407712
    19  H    4.764145   3.400513   2.147199   1.084483   2.150398
    20  Br   7.193194   4.728096   4.202656   2.889725   1.936662
    21  H    6.453245   3.415385   3.889262   3.401825   2.158026
    22  H    4.893591   2.144774   3.394973   3.861975   3.387013
                   11         12         13         14         15
    11  C    0.000000
    12  C    1.388803   0.000000
    13  O    3.608303   2.311180   0.000000
    14  Br   6.109120   4.725894   3.033383   0.000000
    15  H    8.095895   6.751969   4.498205   2.948731   0.000000
    16  Br   9.562152   8.393129   6.119090   5.735831   2.991881
    17  H    7.476572   6.568801   4.635712   5.825666   4.296510
    18  H    3.887286   3.392246   2.736614   5.602053   6.068851
    19  H    3.400485   3.861997   4.606001   7.639272   8.523649
    20  Br   2.886574   4.185309   6.074288   8.868649  10.509975
    21  H    1.083997   2.149311   4.460433   6.651469   8.877332
    22  H    2.153462   1.084599   2.480746   4.174334   6.563920
                   16         17         18         19         20
    16  Br   0.000000
    17  H    3.001680   0.000000
    18  H    6.435792   3.827672   0.000000
    19  H    8.886466   6.109176   2.504201   0.000000
    20  Br  11.445843   8.879766   5.064487   2.993531   0.000000
    21  H   10.519765   8.529247   4.971237   4.298431   2.992865
    22  H    8.548266   7.064267   4.272360   4.946445   5.039986
                   21         22
    21  H    0.000000
    22  H    2.486147   0.000000
 Stoichiometry    C12H6Br3O(1-)
 Framework group  C1[X(C12H6Br3O)]
 Deg. of freedom    60
 Full point group                 C1      NOp   1
 RotChk:  IX=2 Diff= 1.37D-03
 Largest Abelian subgroup         C1      NOp   1
 Largest concise Abelian subgroup C1      NOp   1
                         Standard orientation:                         
 ---------------------------------------------------------------------
 Center     Atomic      Atomic             Coordinates (Angstroms)
 Number     Number       Type             X           Y           Z
 ---------------------------------------------------------------------
      1          6           0        0.909336    0.096853   -0.010689
      2          6           0        2.036885    0.924497   -0.003675
      3          6           0        3.320919    0.393637    0.001986
      4          6           0        3.429283   -0.992435    0.000741
      5          6           0        2.314952   -1.823144   -0.005636
      6          6           0        1.018861   -1.286812   -0.012220
      7          6           0       -1.566532    0.329521   -0.011067
      8          6           0       -1.960875   -1.016749   -0.025486
      9          6           0       -3.319208   -1.340213   -0.019399
     10          6           0       -4.277352   -0.336394   -0.000131
     11          6           0       -3.905022    1.005200    0.013704
     12          6           0       -2.554713    1.329873    0.008353
     13          8           0       -0.301904    0.814388   -0.017594
     14         35           0        1.903934    2.896548   -0.000114
     15          1           0        4.190816    1.035063    0.007371
     16         35           0        5.247351   -1.764059    0.007983
     17          1           0        2.469596   -2.901588   -0.005849
     18          1           0       -1.188260   -1.774621   -0.039129
     19          1           0       -3.617465   -2.382820   -0.030193
     20         35           0       -6.157787   -0.799605    0.007605
     21          1           0       -4.654483    1.788225    0.028894
     22          1           0       -2.236595    2.366714    0.019178
 ---------------------------------------------------------------------
 Rotational constants (GHZ):           0.4395319           0.0763815           0.0650738
 Leave Link  202 at Tue Sep 29 16:28:29 2026, MaxMem=  5100273664 cpu:               0.2 elap:               0.0
 (Enter /share/software/user/restricted/gaussian/g16.B01/l301.exe)
 Standard basis: 6-311++G(d) (5D, 7F)
 Ernie: Thresh=  0.10000D-02 Tol=  0.10000D-05 Strict=F.
 There are   476 symmetry adapted cartesian basis functions of A   symmetry.
 There are   454 symmetry adapted basis functions of A   symmetry.
   454 basis functions,   786 primitive gaussians,   476 cartesian basis functions
    96 alpha electrons       96 beta electrons
       nuclear repulsion energy      1955.5302464825 Hartrees.
 IExCor=  402 DFT=T Ex+Corr=B3LYP ExCW=0 ScaHFX=  0.200000
 ScaDFX=  0.800000  0.720000  1.000000  0.810000 ScalE2=  1.000000  1.000000
 IRadAn=      5 IRanWt=     -1 IRanGd=            0 ICorTp=0 IEmpDi=  4
 NAtoms=   22 NActive=   22 NUniq=   22 SFac= 1.00D+00 NAtFMM=   60 NAOKFM=F Big=F
 Integral buffers will be    131072 words long.
 Raffenetti 2 integral format.
 Two-electron integral symmetry is turned on.
 Leave Link  301 at Tue Sep 29 16:28:29 2026, MaxMem=  5100273664 cpu:               0.6 elap:               0.0
 (Enter /share/software/user/restricted/gaussian/g16.B01/l302.exe)
 NPDir=0 NMtPBC=     1 NCelOv=     1 NCel=       1 NClECP=     1 NCelD=      1
         NCelK=      1 NCelE2=     1 NClLst=     1 CellRange=     0.0.
 One-electron integrals computed using PRISM.
 One-electron integral symmetry used in STVInt
 NBasis=   454 RedAO= T EigKep=  1.64D-06  NBF=   454
 NBsUse=   450 1.00D-06 EigRej=  9.07D-07 NBFU=   450
 Precomputing XC quadrature grid using
 IXCGrd= 4 IRadAn=           5 IRanWt=          -1 IRanGd=           0 AccXCQ= 0.00D+00.
 Generated NRdTot=       0 NPtTot=           0 NUsed=           0 NTot=          32
 NSgBfM=   447   447   447   447   447 MxSgAt=    22 MxSgA2=    22.
 Leave Link  302 at Tue Sep 29 16:28:29 2026, MaxMem=  5100273664 cpu:               4.3 elap:               0.3
 (Enter /share/software/user/restricted/gaussian/g16.B01/l303.exe)
 DipDrv:  MaxL=1.
 Leave Link  303 at Tue Sep 29 16:28:29 2026, MaxMem=  5100273664 cpu:               1.1 elap:               0.1
 (Enter /share/software/user/restricted/gaussian/g16.B01/l401.exe)
 Initial guess from the checkpoint file:  "calcs/b3lyp_gas/chks/BDE_24_2r4_anion.chk"
 B after Tr=     0.000000    0.000000   -0.000000
         Rot=    1.000000   -0.000000    0.000000    0.000026 Ang=  -0.00 deg.
 Guess basis will be translated and rotated to current coordinates.
 JPrj=2 DoOrth=T DoCkMO=T.
 Leave Link  401 at Tue Sep 29 16:28:29 2026, MaxMem=  5100273664 cpu:               3.6 elap:               0.2
 (Enter /share/software/user/restricted/gaussian/g16.B01/l502.exe)
 Integral symmetry usage will be decided dynamically.
 Closed shell SCF:
 Using DIIS extrapolation, IDIIS=  1040.
 NGot=  5100273664 LenX=  5099808623 LenY=  5099581571
 Requested convergence on RMS density matrix=1.00D-08 within 128 cycles.
 Requested convergence on MAX density matrix=1.00D-06.
 Requested convergence on             energy=1.00D-06.
 No special actions if energy rises.
 Fock matrices will be formed incrementally for  20 cycles.

 Cycle   1  Pass 1  IDiag  1:
 FoFJK:  IHMeth= 1 ICntrl=       0 DoSepK=F KAlg= 0 I1Cent=           0 FoldK=F
 IRaf= 770000000 NMat=       1 IRICut=       1 DoRegI=T DoRafI=F ISym2E= 0 IDoP0=0 IntGTp=1.
 FoFCou: FMM=F IPFlag=           0 FMFlag=      100000 FMFlg1=           0
         NFxFlg=           0 DoJE=F BraDBF=F KetDBF=F FulRan=T
         wScrn=  0.000000 ICntrl=         0 IOpCl=  0 I1Cent=           0 NGrid=           0
         NMat0=    1 NMatS0=      1 NMatT0=    0 NMatD0=    1 NMtDS0=    0 NMtDT0=    0
 Symmetry not used in FoFCou.
 E= -8258.67016444233    
 DIIS: error= 5.04D-04 at cycle   1 NSaved=   1.
 NSaved= 1 IEnMin= 1 EnMin= -8258.67016444233     IErMin= 1 ErrMin= 5.04D-04
 ErrMax= 5.04D-04  0.00D+00 EMaxC= 1.00D-01 BMatC= 6.77D-05 BMatP= 6.77D-05
 IDIUse=3 WtCom= 9.95D-01 WtEn= 5.04D-03
 Coeff-Com:  0.100D+01
 Coeff-En:   0.100D+01
 Coeff:      0.100D+01
 Gap=     0.307 Goal=   None    Shift=    0.000
 RMSDP=9.36D-05 MaxDP=3.27D-03              OVMax= 1.53D-03

 Cycle   2  Pass 1  IDiag  1:
 RMSU=  8.87D-05    CP:  1.00D+00
 E= -8258.67018980698     Delta-E=       -0.000025364650 Rises=F Damp=F
 DIIS: error= 2.10D-05 at cycle   2 NSaved=   2.
 NSaved= 2 IEnMin= 2 EnMin= -8258.67018980698     IErMin= 2 ErrMin= 2.10D-05
 ErrMax= 2.10D-05  0.00D+00 EMaxC= 1.00D-01 BMatC= 1.39D-07 BMatP= 6.77D-05
 IDIUse=1 WtCom= 1.00D+00 WtEn= 0.00D+00
 Coeff-Com: -0.619D-02 0.101D+01
 Coeff:     -0.619D-02 0.101D+01
 Gap=     0.122 Goal=   None    Shift=    0.000
 RMSDP=1.00D-05 MaxDP=6.94D-04 DE=-2.54D-05 OVMax= 1.55D-04

 Cycle   3  Pass 1  IDiag  1:
 RMSU=  1.00D-05    CP:  1.00D+00  1.00D+00
 E= -8258.67018996743     Delta-E=       -0.000000160453 Rises=F Damp=F
 DIIS: error= 1.73D-05 at cycle   3 NSaved=   3.
 NSaved= 3 IEnMin= 3 EnMin= -8258.67018996743     IErMin= 3 ErrMin= 1.73D-05
 ErrMax= 1.73D-05  0.00D+00 EMaxC= 1.00D-01 BMatC= 1.25D-07 BMatP= 1.39D-07
 IDIUse=1 WtCom= 1.00D+00 WtEn= 0.00D+00
 Coeff-Com: -0.427D-02 0.489D+00 0.515D+00
 Coeff:     -0.427D-02 0.489D+00 0.515D+00
 Gap=     0.122 Goal=   None    Shift=    0.000
 RMSDP=4.98D-06 MaxDP=3.20D-04 DE=-1.60D-07 OVMax= 1.38D-04

 Cycle   4  Pass 1  IDiag  1:
 RMSU=  3.36D-06    CP:  1.00D+00  1.01D+00  6.49D-01
 E= -8258.67019004747     Delta-E=       -0.000000080032 Rises=F Damp=F
 DIIS: error= 1.15D-05 at cycle   4 NSaved=   4.
 NSaved= 4 IEnMin= 4 EnMin= -8258.67019004747     IErMin= 4 ErrMin= 1.15D-05
 ErrMax= 1.15D-05  0.00D+00 EMaxC= 1.00D-01 BMatC= 3.41D-08 BMatP= 1.25D-07
 IDIUse=1 WtCom= 1.00D+00 WtEn= 0.00D+00
 Coeff-Com: -0.139D-02 0.109D+00 0.339D+00 0.554D+00
 Coeff:     -0.139D-02 0.109D+00 0.339D+00 0.554D+00
 Gap=     0.122 Goal=   None    Shift=    0.000
 RMSDP=2.42D-06 MaxDP=2.26D-04 DE=-8.00D-08 OVMax= 7.96D-05

 Cycle   5  Pass 1  IDiag  1:
 RMSU=  1.84D-06    CP:  1.00D+00  1.01D+00  6.43D-01  5.37D-01
 E= -8258.67019007390     Delta-E=       -0.000000026434 Rises=F Damp=F
 DIIS: error= 5.07D-06 at cycle   5 NSaved=   5.
 NSaved= 5 IEnMin= 5 EnMin= -8258.67019007390     IErMin= 5 ErrMin= 5.07D-06
 ErrMax= 5.07D-06  0.00D+00 EMaxC= 1.00D-01 BMatC= 5.15D-09 BMatP= 3.41D-08
 IDIUse=1 WtCom= 1.00D+00 WtEn= 0.00D+00
 Coeff-Com: -0.335D-03 0.280D-02 0.148D+00 0.354D+00 0.496D+00
 Coeff:     -0.335D-03 0.280D-02 0.148D+00 0.354D+00 0.496D+00
 Gap=     0.122 Goal=   None    Shift=    0.000
 RMSDP=1.22D-06 MaxDP=7.13D-05 DE=-2.64D-08 OVMax= 3.62D-05

 Cycle   6  Pass 1  IDiag  1:
 RMSU=  5.57D-07    CP:  1.00D+00  1.01D+00  6.77D-01  7.00D-01  5.38D-01
 E= -8258.67019007876     Delta-E=       -0.000000004864 Rises=F Damp=F
 DIIS: error= 2.46D-06 at cycle   6 NSaved=   6.
 NSaved= 6 IEnMin= 6 EnMin= -8258.67019007876     IErMin= 6 ErrMin= 2.46D-06
 ErrMax= 2.46D-06  0.00D+00 EMaxC= 1.00D-01 BMatC= 1.02D-09 BMatP= 5.15D-09
 IDIUse=1 WtCom= 1.00D+00 WtEn= 0.00D+00
 Coeff-Com:  0.360D-04-0.213D-01 0.379D-01 0.139D+00 0.345D+00 0.499D+00
 Coeff:      0.360D-04-0.213D-01 0.379D-01 0.139D+00 0.345D+00 0.499D+00
 Gap=     0.122 Goal=   None    Shift=    0.000
 RMSDP=4.67D-07 MaxDP=1.98D-05 DE=-4.86D-09 OVMax= 1.30D-05

 Cycle   7  Pass 1  IDiag  1:
 RMSU=  1.59D-07    CP:  1.00D+00  1.01D+00  7.02D-01  6.71D-01  5.85D-01
                    CP:  4.82D-01
 E= -8258.67019007987     Delta-E=       -0.000000001102 Rises=F Damp=F
 DIIS: error= 2.94D-07 at cycle   7 NSaved=   7.
 NSaved= 7 IEnMin= 7 EnMin= -8258.67019007987     IErMin= 7 ErrMin= 2.94D-07
 ErrMax= 2.94D-07  0.00D+00 EMaxC= 1.00D-01 BMatC= 5.18D-11 BMatP= 1.02D-09
 IDIUse=1 WtCom= 1.00D+00 WtEn= 0.00D+00
 Coeff-Com:  0.419D-04-0.129D-01 0.138D-01 0.613D-01 0.173D+00 0.289D+00
 Coeff-Com:  0.476D+00
 Coeff:      0.419D-04-0.129D-01 0.138D-01 0.613D-01 0.173D+00 0.289D+00
 Coeff:      0.476D+00
 Gap=     0.122 Goal=   None    Shift=    0.000
 RMSDP=1.26D-07 MaxDP=5.82D-06 DE=-1.10D-09 OVMax= 3.04D-06

 Cycle   8  Pass 1  IDiag  1:
 RMSU=  5.31D-08    CP:  1.00D+00  1.01D+00  6.97D-01  6.79D-01  6.04D-01
                    CP:  5.26D-01  4.73D-01
 E= -8258.67019007995     Delta-E=       -0.000000000080 Rises=F Damp=F
 DIIS: error= 1.55D-07 at cycle   8 NSaved=   8.
 NSaved= 8 IEnMin= 8 EnMin= -8258.67019007995     IErMin= 8 ErrMin= 1.55D-07
 ErrMax= 1.55D-07  0.00D+00 EMaxC= 1.00D-01 BMatC= 5.76D-12 BMatP= 5.18D-11
 IDIUse=1 WtCom= 1.00D+00 WtEn= 0.00D+00
 Coeff-Com:  0.209D-04-0.518D-02 0.365D-02 0.201D-01 0.621D-01 0.113D+00
 Coeff-Com:  0.281D+00 0.526D+00
 Coeff:      0.209D-04-0.518D-02 0.365D-02 0.201D-01 0.621D-01 0.113D+00
 Coeff:      0.281D+00 0.526D+00
 Gap=     0.122 Goal=   None    Shift=    0.000
 RMSDP=4.08D-08 MaxDP=2.24D-06 DE=-8.00D-11 OVMax= 1.12D-06

 Cycle   9  Pass 1  IDiag  1:
 RMSU=  2.30D-08    CP:  1.00D+00  1.01D+00  6.96D-01  6.77D-01  6.13D-01
                    CP:  5.25D-01  5.40D-01  5.62D-01
 E= -8258.67019007990     Delta-E=        0.000000000044 Rises=F Damp=F
 DIIS: error= 8.28D-08 at cycle   9 NSaved=   9.
 NSaved= 9 IEnMin= 8 EnMin= -8258.67019007995     IErMin= 9 ErrMin= 8.28D-08
 ErrMax= 8.28D-08  0.00D+00 EMaxC= 1.00D-01 BMatC= 1.25D-12 BMatP= 5.76D-12
 IDIUse=1 WtCom= 1.00D+00 WtEn= 0.00D+00
 Coeff-Com:  0.527D-05-0.789D-03-0.295D-03 0.999D-03 0.634D-02 0.164D-01
 Coeff-Com:  0.882D-01 0.344D+00 0.545D+00
 Coeff:      0.527D-05-0.789D-03-0.295D-03 0.999D-03 0.634D-02 0.164D-01
 Coeff:      0.882D-01 0.344D+00 0.545D+00
 Gap=     0.122 Goal=   None    Shift=    0.000
 RMSDP=1.71D-08 MaxDP=1.21D-06 DE= 4.37D-11 OVMax= 4.73D-07

 Cycle  10  Pass 1  IDiag  1:
 RMSU=  1.06D-08    CP:  1.00D+00  1.01D+00  6.96D-01  6.78D-01  6.10D-01
                    CP:  5.30D-01  5.43D-01  6.73D-01  7.19D-01
 E= -8258.67019007992     Delta-E=       -0.000000000022 Rises=F Damp=F
 DIIS: error= 3.05D-08 at cycle  10 NSaved=  10.
 NSaved=10 IEnMin= 8 EnMin= -8258.67019007995     IErMin=10 ErrMin= 3.05D-08
 ErrMax= 3.05D-08  0.00D+00 EMaxC= 1.00D-01 BMatC= 2.15D-13 BMatP= 1.25D-12
 IDIUse=1 WtCom= 1.00D+00 WtEn= 0.00D+00
 Coeff-Com:  0.256D-06 0.285D-03-0.742D-03-0.240D-02-0.539D-02-0.675D-02
 Coeff-Com:  0.150D-01 0.146D+00 0.356D+00 0.498D+00
 Coeff:      0.256D-06 0.285D-03-0.742D-03-0.240D-02-0.539D-02-0.675D-02
 Coeff:      0.150D-01 0.146D+00 0.356D+00 0.498D+00
 Gap=     0.122 Goal=   None    Shift=    0.000
 RMSDP=7.28D-09 MaxDP=4.86D-07 DE=-2.18D-11 OVMax= 1.46D-07

 SCF Done:  E(RB3LYP) =  -8258.67019008     A.U. after   10 cycles
            NFock= 10  Conv=0.73D-08     -V/T= 2.0014
 KE= 8.247203925827D+03 PE=-2.364074050083D+04 EE= 5.179336138440D+03
 Leave Link  502 at Tue Sep 29 16:29:04 2026, MaxMem=  5100273664 cpu:             549.6 elap:              34.4
 (Enter /share/software/user/restricted/gaussian/g16.B01/l701.exe)
 ... and contract with generalized density number  0.
 Compute integral first derivatives.
 Leave Link  701 at Tue Sep 29 16:29:04 2026, MaxMem=  5100273664 cpu:               2.5 elap:               0.2
 (Enter /share/software/user/restricted/gaussian/g16.B01/l702.exe)
 L702 exits ... SP integral derivatives will be done elsewhere.
 Leave Link  702 at Tue Sep 29 16:29:04 2026, MaxMem=  5100273664 cpu:               0.5 elap:               0.0
 (Enter /share/software/user/restricted/gaussian/g16.B01/l703.exe)
 Integral derivatives from FoFJK, PRISM(SPDF).
 Compute integral first derivatives, UseDBF=F ICtDFT=           0.
 Calling FoFJK, ICntrl=      2127 FMM=F ISym2X=0 I1Cent= 0 IOpClX= 0 NMat=1 NMatS=1 NMatT=0.
 FoFJK:  IHMeth= 1 ICntrl=    2127 DoSepK=F KAlg= 0 I1Cent=           0 FoldK=F
 IRaf=         0 NMat=       1 IRICut=       1 DoRegI=T DoRafI=F ISym2E= 0 IDoP0=0 IntGTp=1.
 FoFCou: FMM=F IPFlag=           0 FMFlag=      100000 FMFlg1=         800
         NFxFlg=           0 DoJE=F BraDBF=F KetDBF=F FulRan=T
         wScrn=  0.000000 ICntrl=      2127 IOpCl=  0 I1Cent=           0 NGrid=           0
         NMat0=    1 NMatS0=      1 NMatT0=    0 NMatD0=    1 NMtDS0=    0 NMtDT0=    0
 Symmetry not used in FoFCou.
 Leave Link  703 at Tue Sep 29 16:29:16 2026, MaxMem=  5100273664 cpu:             192.8 elap:              12.1
 (Enter /share/software/user/restricted/gaussian/g16.B01/l716.exe)
 Dipole        =-1.40536276D+00 6.75710951D-01 7.20449707D-03
 ***** Axes restored to original set *****
 -------------------------------------------------------------------
 Center     Atomic                   Forces (Hartrees/Bohr)
 Number     Number              X              Y              Z
 -------------------------------------------------------------------
      1        6           0.000006870    0.000024639    0.000082283
      2        6           0.000053438   -0.000022625   -0.000003063
      3        6          -0.000031175    0.000021740   -0.000001231
      4        6           0.000077458   -0.000006818   -0.000001324
      5        6          -0.000104617   -0.000017602    0.000007402
      6        6           0.000007916    0.000034636   -0.000018474
      7        6          -0.000005691   -0.000104297    0.000056152
      8        6           0.000205078    0.000135049    0.000017752
      9        6          -0.000023605    0.000015658    0.000000933
     10        6           0.000059566   -0.000008397   -0.000010260
     11        6          -0.000034831   -0.000008161   -0.000002239
     12        6           0.000041998    0.000009136   -0.000000357
     13        8          -0.000046968    0.000019469   -0.000109287
     14       35          -0.000009104   -0.000000817    0.000002338
     15        1          -0.000003088   -0.000005135   -0.000000113
     16       35          -0.000021193   -0.000006603   -0.000000714
     17        1           0.000027563   -0.000002735   -0.000000447
     18        1          -0.000156058   -0.000086427   -0.000033168
     19        1          -0.000010156   -0.000006495    0.000005638
     20       35          -0.000024303    0.000003240    0.000000815
     21        1          -0.000001065    0.000008039    0.000003506
     22        1          -0.000008034    0.000004507    0.000003857
 -------------------------------------------------------------------
 Cartesian Forces:  Max     0.000205078 RMS     0.000049747
 Leave Link  716 at Tue Sep 29 16:29:16 2026, MaxMem=  5100273664 cpu:               0.3 elap:               0.0
 (Enter /share/software/user/restricted/gaussian/g16.B01/l103.exe)

 GradGradGradGradGradGradGradGradGradGradGradGradGradGradGradGradGradGrad
 Berny optimization.
 Using GEDIIS/GDIIS optimizer.
 FormGI is forming the generalized inverse of G from B-inverse, IUseBI=4.
 GSVD:  received Info=                   1 from GESDD.
 Internal  Forces:  Max     0.000914034 RMS     0.000129603
 Search for a local minimum.
 Step number  14 out of a maximum of  116
 All quantities printed in internal units (Hartrees-Bohrs-Radians)
 RMS Force = .12960D-03 SwitMx=.10000D-02 MixMth= 2
 Mixed Optimization -- En-DIIS/RFO-DIIS
 Swapping is turned off.
 Update second derivatives using D2CorX and points    6    8    7    9   10
                                                     11   12   13   14
 DE= -5.85D-07 DEPred=-4.12D-07 R= 1.42D+00
 Trust test= 1.42D+00 RLast= 5.19D-03 DXMaxT set to 3.00D-01
 ITU=  0  1  1  1  1  0 -1  1 -1  1  1 -1  0  0
     Eigenvalues ---    0.00898   0.01826   0.02023   0.02027   0.02051
     Eigenvalues ---    0.02086   0.02096   0.02102   0.02110   0.02123
     Eigenvalues ---    0.02133   0.02137   0.02166   0.02179   0.02190
     Eigenvalues ---    0.02244   0.02299   0.02517   0.04145   0.12300
     Eigenvalues ---    0.15682   0.16004   0.16007   0.16017   0.16126
     Eigenvalues ---    0.17108   0.19077   0.19246   0.22601   0.23004
     Eigenvalues ---    0.23172   0.24272   0.24635   0.24912   0.24976
     Eigenvalues ---    0.24997   0.25363   0.25434   0.33660   0.33703
     Eigenvalues ---    0.33721   0.33791   0.33938   0.37958   0.41395
     Eigenvalues ---    0.41566   0.42781   0.44205   0.45031   0.45180
     Eigenvalues ---    0.45552   0.45901   0.46375   0.46754   0.47483
     Eigenvalues ---    0.47733   0.49222   0.62756   1.24622  23.56536
 En-DIIS/RFO-DIIS/Sim-DIIS IScMMF=       -3 using points:    14   13   12
 RFO step:  Lambda=-5.27066156D-07.
 NNeg= 0 NGDIIS= 3 SimSw=  2.50D-01 Rises=F DC= -5.85D-07 SmlDif=  1.00D-05
 NRisDI= 0 DoIntr=F SqrtH=F CThrHd= 10.0 CDAdj=  3.0
 RMS Error=  0.6089871323D-03 NUsed= 3 OKEnD=F EnDIS=F
 InvSVX:  RCond= 1.21D-06 Info=           0 Equed=N FErr=  2.17D-14 BErr=  6.36D-17
 DidBck=F Rises=F RFO-DIIS coefs:    1.69774   -0.42383   -0.27392
 Iteration  1 RMS(Cart)=  0.00128448 RMS(Int)=  0.00000049
 Iteration  2 RMS(Cart)=  0.00000223 RMS(Int)=  0.00000002
 Iteration  3 RMS(Cart)=  0.00000000 RMS(Int)=  0.00000002
 ITry= 1 IFail=0 DXMaxC= 5.33D-03 DCOld= 1.00D+10 DXMaxT= 3.00D-01 DXLimC= 3.00D+00 Rises=F
 Variable       Old X    -DE/DX   Delta X   Delta X   Delta X     New X
                                 (Linear)    (Quad)   (Total)
    R1        2.64319   0.00001   0.00000  -0.00007  -0.00007   2.64312
    R2        2.62293   0.00017   0.00000  -0.00003  -0.00002   2.62291
    R3        2.66043   0.00017   0.00015  -0.00012   0.00003   2.66046
    R4        2.62569   0.00001   0.00001   0.00006   0.00007   2.62576
    R5        3.73510  -0.00000  -0.00007  -0.00002  -0.00009   3.73501
    R6        2.62729  -0.00005   0.00004   0.00001   0.00004   2.62734
    R7        2.04246  -0.00000  -0.00001  -0.00001  -0.00002   2.04244
    R8        2.62655  -0.00008  -0.00020   0.00001  -0.00018   2.62637
    R9        3.73230   0.00002   0.00053  -0.00016   0.00037   3.73268
   R10        2.65071   0.00005   0.00013   0.00000   0.00013   2.65083
   R11        2.05881  -0.00000   0.00004  -0.00003   0.00000   2.05881
   R12        4.27181  -0.00012   0.00003  -0.00028  -0.00025   4.27156
   R13        2.65112  -0.00008   0.00041  -0.00031   0.00010   2.65122
   R14        2.65746   0.00004   0.00008   0.00001   0.00008   2.65754
   R15        2.55946   0.00015  -0.00001   0.00010   0.00009   2.55955
   R16        2.63868  -0.00002   0.00014  -0.00013   0.00001   2.63869
   R17        2.62261  -0.00001  -0.00021   0.00013  -0.00008   2.62253
   R18        2.04938   0.00000   0.00001   0.00000   0.00001   2.04939
   R19        2.63120  -0.00002  -0.00020   0.00013  -0.00007   2.63113
   R20        3.65976  -0.00002   0.00063  -0.00043   0.00020   3.65996
   R21        2.62446  -0.00001   0.00011  -0.00009   0.00002   2.62448
   R22        2.04846   0.00000  -0.00002   0.00001  -0.00001   2.04845
   R23        2.04960   0.00001   0.00007  -0.00002   0.00005   2.04965
    A1        2.12500  -0.00014   0.00028  -0.00018   0.00011   2.12510
    A2        1.97360  -0.00038   0.00011   0.00004   0.00015   1.97376
    A3        2.18458   0.00052  -0.00040   0.00014  -0.00026   2.18433
    A4        2.11638   0.00010   0.00004  -0.00004   0.00000   2.11638
    A5        2.13668  -0.00003  -0.00009   0.00011   0.00002   2.13670
    A6        2.03013  -0.00007   0.00005  -0.00008  -0.00002   2.03011
    A7        2.04084  -0.00001  -0.00038   0.00019  -0.00018   2.04066
    A8        2.11421   0.00001   0.00018  -0.00005   0.00013   2.11434
    A9        2.12813  -0.00000   0.00020  -0.00014   0.00005   2.12819
   A10        2.13337  -0.00000   0.00039  -0.00014   0.00025   2.13362
   A11        2.05019   0.00000  -0.00025   0.00011  -0.00014   2.05005
   A12        2.09962  -0.00000  -0.00014   0.00004  -0.00010   2.09952
   A13        2.10865   0.00004  -0.00001  -0.00010  -0.00011   2.10854
   A14        2.06897   0.00001  -0.00012   0.00030   0.00017   2.06914
   A15        2.10557  -0.00005   0.00013  -0.00019  -0.00006   2.10551
   A16        2.04213   0.00000  -0.00033   0.00027  -0.00006   2.04207
   A17        1.70933   0.00028   0.00092  -0.00045   0.00047   1.70980
   A18        2.53170  -0.00028  -0.00059   0.00018  -0.00042   2.53129
   A19        2.07745  -0.00011  -0.00019   0.00004  -0.00015   2.07730
   A20        2.22175   0.00033   0.00054  -0.00014   0.00039   2.22214
   A21        1.98398  -0.00022  -0.00034   0.00010  -0.00024   1.98374
   A22        2.08943   0.00009  -0.00013   0.00013   0.00000   2.08943
   A23        2.09915   0.00001  -0.00003   0.00004   0.00001   2.09916
   A24        2.08312  -0.00001  -0.00002  -0.00008  -0.00009   2.08303
   A25        2.10092   0.00001   0.00005   0.00003   0.00008   2.10100
   A26        2.10883  -0.00005   0.00044  -0.00031   0.00013   2.10896
   A27        2.09140   0.00002  -0.00020   0.00011  -0.00009   2.09131
   A28        2.08296   0.00003  -0.00024   0.00020  -0.00004   2.08292
   A29        2.07740   0.00001  -0.00043   0.00026  -0.00017   2.07723
   A30        2.10745   0.00000   0.00020  -0.00007   0.00014   2.10759
   A31        2.09833  -0.00001   0.00022  -0.00019   0.00003   2.09837
   A32        2.11411   0.00005   0.00035  -0.00017   0.00018   2.11429
   A33        2.06470  -0.00003  -0.00030   0.00009  -0.00020   2.06449
   A34        2.10438  -0.00002  -0.00005   0.00007   0.00002   2.10440
   A35        2.24061   0.00091  -0.00049   0.00027  -0.00023   2.24038
    D1        0.00008   0.00001   0.00020   0.00000   0.00020   0.00028
    D2       -3.14084   0.00000   0.00025  -0.00005   0.00020  -3.14064
    D3       -3.14012   0.00001   0.00035  -0.00041  -0.00006  -3.14018
    D4        0.00214   0.00000   0.00041  -0.00047  -0.00006   0.00208
    D5        0.00062  -0.00002  -0.00007  -0.00017  -0.00024   0.00037
    D6       -3.13494  -0.00003  -0.00006  -0.00009  -0.00015  -3.13509
    D7        3.14065  -0.00001  -0.00025   0.00030   0.00005   3.14070
    D8        0.00509  -0.00003  -0.00024   0.00038   0.00015   0.00523
    D9       -3.12820  -0.00010  -0.00183  -0.00013  -0.00196  -3.13016
   D10        0.01484  -0.00011  -0.00167  -0.00056  -0.00223   0.01260
   D11       -0.00032  -0.00000  -0.00015   0.00014  -0.00001  -0.00033
   D12        3.14156  -0.00000  -0.00012   0.00005  -0.00007   3.14149
   D13        3.14064   0.00001  -0.00020   0.00019  -0.00001   3.14063
   D14       -0.00066   0.00000  -0.00017   0.00011  -0.00007  -0.00073
   D15       -0.00016  -0.00001  -0.00001  -0.00012  -0.00012  -0.00029
   D16        3.14117   0.00000  -0.00015   0.00007  -0.00008   3.14109
   D17        3.14114  -0.00000  -0.00004  -0.00003  -0.00007   3.14107
   D18       -0.00071   0.00000  -0.00018   0.00016  -0.00002  -0.00073
   D19        0.00089   0.00000   0.00012  -0.00005   0.00007   0.00097
   D20       -3.14115   0.00001   0.00028  -0.00009   0.00019  -3.14096
   D21       -3.14043  -0.00000   0.00027  -0.00024   0.00003  -3.14040
   D22        0.00071   0.00000   0.00043  -0.00028   0.00015   0.00085
   D23       -0.00109   0.00001  -0.00008   0.00019   0.00011  -0.00098
   D24        3.13007   0.00003  -0.00009   0.00005  -0.00005   3.13002
   D25        3.14097  -0.00000  -0.00024   0.00023  -0.00001   3.14096
   D26       -0.01106   0.00002  -0.00026   0.00009  -0.00017  -0.01123
   D27       -0.00080  -0.00001  -0.00021   0.00024   0.00003  -0.00076
   D28       -3.13859   0.00000  -0.00014  -0.00009  -0.00023  -3.13882
   D29        0.00025   0.00001   0.00020  -0.00020   0.00001   0.00026
   D30       -3.14140   0.00001   0.00025  -0.00015   0.00010  -3.14130
   D31        3.13855  -0.00000   0.00015   0.00009   0.00024   3.13878
   D32       -0.00311  -0.00000   0.00020   0.00013   0.00033  -0.00278
   D33       -0.02666  -0.00003   0.00241   0.00039   0.00281  -0.02386
   D34        3.11855  -0.00002   0.00248   0.00008   0.00256   3.12111
   D35        0.00079   0.00000   0.00012  -0.00016  -0.00004   0.00075
   D36       -3.14114  -0.00000   0.00018  -0.00018   0.00000  -3.14114
   D37       -0.00023   0.00000  -0.00001   0.00002   0.00001  -0.00022
   D38        3.14129   0.00000   0.00004   0.00005   0.00008   3.14138
   D39       -3.14148   0.00001  -0.00008   0.00004  -0.00003  -3.14151
   D40        0.00004   0.00000  -0.00002   0.00007   0.00004   0.00009
   D41       -0.00032  -0.00000   0.00000   0.00002   0.00003  -0.00029
   D42       -3.14144  -0.00000  -0.00003  -0.00002  -0.00005  -3.14149
   D43        3.14134   0.00000  -0.00005   0.00000  -0.00005   3.14130
   D44        0.00022  -0.00000  -0.00008  -0.00004  -0.00012   0.00010
   D45        0.00030  -0.00000  -0.00010   0.00006  -0.00004   0.00027
   D46       -3.14123  -0.00000  -0.00015   0.00002  -0.00013  -3.14136
   D47        3.14143  -0.00000  -0.00007   0.00011   0.00004   3.14147
   D48       -0.00010   0.00000  -0.00012   0.00007  -0.00005  -0.00016
         Item               Value     Threshold  Converged?
 Maximum Force            0.000914     0.000450     NO 
 RMS     Force            0.000130     0.000300     YES
 Maximum Displacement     0.005328     0.001800     NO 
 RMS     Displacement     0.001285     0.001200     NO 
 Predicted change in Energy=-2.436419D-07
 Lowest energy point so far.  Saving SCF results.
 GradGradGradGradGradGradGradGradGradGradGradGradGradGradGradGradGradGrad

 Leave Link  103 at Tue Sep 29 16:29:16 2026, MaxMem=  5100273664 cpu:               1.3 elap:               0.1
 (Enter /share/software/user/restricted/gaussian/g16.B01/l202.exe)
                          Input orientation:                          
 ---------------------------------------------------------------------
 Center     Atomic      Atomic             Coordinates (Angstroms)
 Number     Number       Type             X           Y           Z
 ---------------------------------------------------------------------
      1          6           0       -1.300453   -1.043680    0.088211
      2          6           0       -2.342942   -0.124001    0.242210
      3          6           0       -3.668405   -0.538063    0.291047
      4          6           0       -3.905885   -1.903412    0.179546
      5          6           0       -2.876972   -2.824933    0.025534
      6          6           0       -1.538951   -2.406495   -0.022913
      7          6           0        1.180254   -1.029569   -0.083681
      8          6           0        1.446373   -2.400448   -0.218504
      9          6           0        2.764674   -2.839227   -0.357477
     10          6           0        3.809328   -1.925647   -0.361677
     11          6           0        3.564877   -0.561431   -0.228435
     12          6           0        2.254597   -0.122128   -0.090658
     13          8           0       -0.029595   -0.438442    0.062553
     14         35           0       -2.025973    1.820451    0.400692
     15          1           0       -4.472504    0.174245    0.410195
     16         35           0       -5.784539   -2.509706    0.247844
     17          1           0       -3.131730   -3.881017   -0.056613
     18          1           0        0.608609   -3.085851   -0.212451
     19          1           0        2.963547   -3.900218   -0.461704
     20         35           0        5.632954   -2.548638   -0.554902
     21          1           0        4.381813    0.151062   -0.231982
     22          1           0        2.035301    0.934863    0.014658
 ---------------------------------------------------------------------
                    Distance matrix (angstroms):
                    1          2          3          4          5
     1  C    0.000000
     2  C    1.398681   0.000000
     3  C    2.429812   1.389492   0.000000
     4  C    2.745133   2.369182   1.390326   0.000000
     5  C    2.379538   2.761734   2.434469   1.389814   0.000000
     6  C    1.387983   2.434435   2.850296   2.428263   1.402761
     7  C    2.486696   3.652283   4.887893   5.167369   4.438056
     8  C    3.078953   4.444477   5.467091   5.390005   4.350984
     9  C    4.466305   5.815480   6.862976   6.757255   5.654650
    10  C    5.204818   6.439024   7.633343   7.734205   6.757607
    11  C    4.899415   5.942657   7.251950   7.601292   6.832668
    12  C    3.676906   4.609574   5.949845   6.418529   5.801005
    13  O    1.407853   2.341521   3.647337   4.145533   3.715409
    14  Br   2.971072   1.976482   2.876143   4.177336   4.737567
    15  H    3.413051   2.156897   1.080812   2.165852   3.418882
    16  Br   4.720354   4.187626   2.892622   1.975247   2.933042
    17  H    3.380093   3.850539   3.403560   2.136822   1.089478
    18  H    2.811651   4.206058   5.003757   4.683213   3.503426
    19  H    5.161774   6.550888   7.473520   7.182445   5.958632
    20  Br   7.123948   8.374316   9.553708   9.588805   8.534172
    21  H    5.815332   6.747062   8.096571   8.548459   7.849383
    22  H    3.879085   4.510209   5.897302   6.586402   6.186002
                    6          7          8          9         10
     6  C    0.000000
     7  C    3.048556   0.000000
     8  C    2.991731   1.402963   0.000000
     9  C    4.338245   2.420787   1.396336   0.000000
    10  C    5.380526   2.791463   2.414433   1.387785   0.000000
    11  C    5.430981   2.434447   2.805377   2.417712   1.392335
    12  C    4.428761   1.406311   2.420808   2.777408   2.396522
    13  O    2.481671   1.354456   2.471223   3.707847   4.138729
    14  Br   4.275946   4.317074   5.500599   6.725899   6.976045
    15  H    3.931099   5.800583   6.485169   7.876996   8.578699
    16  Br   4.255465   7.128048   7.246759   8.576948   9.630936
    17  H    2.170782   5.169593   4.814283   5.995283   7.217674
    18  H    2.260412   2.138143   1.082434   2.174964   3.407777
    19  H    4.764056   3.400537   2.147154   1.084488   2.150414
    20  Br   7.193013   4.728230   4.202688   2.889715   1.936767
    21  H    6.452926   3.415532   3.889369   3.401869   2.158073
    22  H    4.892992   2.144708   3.394923   3.861894   3.386933
                   11         12         13         14         15
    11  C    0.000000
    12  C    1.388813   0.000000
    13  O    3.608328   2.311074   0.000000
    14  Br   6.109563   4.726344   3.033556   0.000000
    15  H    8.096206   6.752228   4.498408   2.948830   0.000000
    16  Br   9.562123   8.393022   6.119137   5.735891   2.991886
    17  H    7.476209   6.568327   4.635596   5.825681   4.296595
    18  H    3.887476   3.392309   2.737098   5.602568   6.069071
    19  H    3.400516   3.861896   4.606260   7.639705   8.523867
    20  Br   2.886610   4.185304   6.074426   8.869119  10.510271
    21  H    1.083994   2.149338   4.460358   6.651831   8.877604
    22  H    2.153506   1.084626   2.480335   4.174595   6.564033
                   16         17         18         19         20
    16  Br   0.000000
    17  H    3.001764   0.000000
    18  H    6.435539   3.827102   0.000000
    19  H    8.886281   6.108753   2.504206   0.000000
    20  Br  11.445745   8.879370   5.064574   2.993525   0.000000
    21  H   10.519726   8.528877   4.971423   4.298502   2.992994
    22  H    8.548061   7.063709   4.272373   4.946369   5.040068
                   21         22
    21  H    0.000000
    22  H    2.486220   0.000000
 Stoichiometry    C12H6Br3O(1-)
 Framework group  C1[X(C12H6Br3O)]
 Deg. of freedom    60
 Full point group                 C1      NOp   1
 RotChk:  IX=2 Diff= 9.95D-04
 Largest Abelian subgroup         C1      NOp   1
 Largest concise Abelian subgroup C1      NOp   1
                         Standard orientation:                         
 ---------------------------------------------------------------------
 Center     Atomic      Atomic             Coordinates (Angstroms)
 Number     Number       Type             X           Y           Z
 ---------------------------------------------------------------------
      1          6           0        0.909398    0.097171   -0.008982
      2          6           0        2.037015    0.924670   -0.003190
      3          6           0        3.321030    0.393662    0.001641
      4          6           0        3.428991   -0.992465    0.000847
      5          6           0        2.314695   -1.823069   -0.004161
      6          6           0        1.018621   -1.286507   -0.009842
      7          6           0       -1.566429    0.329417   -0.009436
      8          6           0       -1.960908   -1.016881   -0.022603
      9          6           0       -3.319285   -1.340206   -0.017397
     10          6           0       -4.277330   -0.336312   -0.000188
     11          6           0       -3.905075    1.005278    0.012418
     12          6           0       -2.554710    1.329772    0.007891
     13          8           0       -0.301890    0.814662   -0.015107
     14         35           0        1.904328    2.896690   -0.000274
     15          1           0        4.191075    1.034877    0.006022
     16         35           0        5.247131   -1.764432    0.006788
     17          1           0        2.469104   -2.901549   -0.003903
     18          1           0       -1.188266   -1.774867   -0.034640
     19          1           0       -3.617542   -2.382828   -0.027213
     20         35           0       -6.157871   -0.799547    0.006486
     21          1           0       -4.654471    1.788391    0.025954
     22          1           0       -2.236436    2.366603    0.017671
 ---------------------------------------------------------------------
 Rotational constants (GHZ):           0.4394735           0.0763817           0.0650725
 Leave Link  202 at Tue Sep 29 16:29:17 2026, MaxMem=  5100273664 cpu:               0.1 elap:               0.0
 (Enter /share/software/user/restricted/gaussian/g16.B01/l301.exe)
 Standard basis: 6-311++G(d) (5D, 7F)
 Ernie: Thresh=  0.10000D-02 Tol=  0.10000D-05 Strict=F.
 There are   476 symmetry adapted cartesian basis functions of A   symmetry.
 There are   454 symmetry adapted basis functions of A   symmetry.
   454 basis functions,   786 primitive gaussians,   476 cartesian basis functions
    96 alpha electrons       96 beta electrons
       nuclear repulsion energy      1955.5046249428 Hartrees.
 IExCor=  402 DFT=T Ex+Corr=B3LYP ExCW=0 ScaHFX=  0.200000
 ScaDFX=  0.800000  0.720000  1.000000  0.810000 ScalE2=  1.000000  1.000000
 IRadAn=      5 IRanWt=     -1 IRanGd=            0 ICorTp=0 IEmpDi=  4
 NAtoms=   22 NActive=   22 NUniq=   22 SFac= 1.00D+00 NAtFMM=   60 NAOKFM=F Big=F
 Integral buffers will be    131072 words long.
 Raffenetti 2 integral format.
 Two-electron integral symmetry is turned on.
 Leave Link  301 at Tue Sep 29 16:29:17 2026, MaxMem=  5100273664 cpu:               0.4 elap:               0.0
 (Enter /share/software/user/restricted/gaussian/g16.B01/l302.exe)
 NPDir=0 NMtPBC=     1 NCelOv=     1 NCel=       1 NClECP=     1 NCelD=      1
         NCelK=      1 NCelE2=     1 NClLst=     1 CellRange=     0.0.
 One-electron integrals computed using PRISM.
 One-electron integral symmetry used in STVInt
 NBasis=   454 RedAO= T EigKep=  1.64D-06  NBF=   454
 NBsUse=   450 1.00D-06 EigRej=  9.07D-07 NBFU=   450
 Precomputing XC quadrature grid using
 IXCGrd= 4 IRadAn=           5 IRanWt=          -1 IRanGd=           0 AccXCQ= 0.00D+00.
 Generated NRdTot=       0 NPtTot=           0 NUsed=           0 NTot=          32
 NSgBfM=   447   445   447   447   447 MxSgAt=    22 MxSgA2=    22.
 Leave Link  302 at Tue Sep 29 16:29:17 2026, MaxMem=  5100273664 cpu:               4.3 elap:               0.3
 (Enter /share/software/user/restricted/gaussian/g16.B01/l303.exe)
 DipDrv:  MaxL=1.
 Leave Link  303 at Tue Sep 29 16:29:17 2026, MaxMem=  5100273664 cpu:               1.1 elap:               0.1
 (Enter /share/software/user/restricted/gaussian/g16.B01/l401.exe)
 Initial guess from the checkpoint file:  "calcs/b3lyp_gas/chks/BDE_24_2r4_anion.chk"
 B after Tr=     0.000000    0.000000    0.000000
         Rot=    1.000000   -0.000000    0.000000    0.000019 Ang=  -0.00 deg.
 Guess basis will be translated and rotated to current coordinates.
 JPrj=2 DoOrth=T DoCkMO=T.
 Leave Link  401 at Tue Sep 29 16:29:17 2026, MaxMem=  5100273664 cpu:               3.6 elap:               0.2
 (Enter /share/software/user/restricted/gaussian/g16.B01/l502.exe)
 Integral symmetry usage will be decided dynamically.
 Closed shell SCF:
 Using DIIS extrapolation, IDIIS=  1040.
 NGot=  5100273664 LenX=  5099808623 LenY=  5099581571
 Requested convergence on RMS density matrix=1.00D-08 within 128 cycles.
 Requested convergence on MAX density matrix=1.00D-06.
 Requested convergence on             energy=1.00D-06.
 No special actions if energy rises.
 Fock matrices will be formed incrementally for  20 cycles.

 Cycle   1  Pass 1  IDiag  1:
 FoFJK:  IHMeth= 1 ICntrl=       0 DoSepK=F KAlg= 0 I1Cent=           0 FoldK=F
 IRaf= 770000000 NMat=       1 IRICut=       1 DoRegI=T DoRafI=F ISym2E= 0 IDoP0=0 IntGTp=1.
 FoFCou: FMM=F IPFlag=           0 FMFlag=      100000 FMFlg1=           0
         NFxFlg=           0 DoJE=F BraDBF=F KetDBF=F FulRan=T
         wScrn=  0.000000 ICntrl=         0 IOpCl=  0 I1Cent=           0 NGrid=           0
         NMat0=    1 NMatS0=      1 NMatT0=    0 NMatD0=    1 NMtDS0=    0 NMtDT0=    0
 Symmetry not used in FoFCou.
 E= -8258.67017639135    
 DIIS: error= 3.63D-04 at cycle   1 NSaved=   1.
 NSaved= 1 IEnMin= 1 EnMin= -8258.67017639135     IErMin= 1 ErrMin= 3.63D-04
 ErrMax= 3.63D-04  0.00D+00 EMaxC= 1.00D-01 BMatC= 3.64D-05 BMatP= 3.64D-05
 IDIUse=3 WtCom= 9.96D-01 WtEn= 3.63D-03
 Coeff-Com:  0.100D+01
 Coeff-En:   0.100D+01
 Coeff:      0.100D+01
 Gap=     0.307 Goal=   None    Shift=    0.000
 RMSDP=6.25D-05 MaxDP=2.68D-03              OVMax= 1.12D-03

 Cycle   2  Pass 1  IDiag  1:
 RMSU=  6.03D-05    CP:  1.00D+00
 E= -8258.67019024518     Delta-E=       -0.000013853831 Rises=F Damp=F
 DIIS: error= 1.56D-05 at cycle   2 NSaved=   2.
 NSaved= 2 IEnMin= 2 EnMin= -8258.67019024518     IErMin= 2 ErrMin= 1.56D-05
 ErrMax= 1.56D-05  0.00D+00 EMaxC= 1.00D-01 BMatC= 7.72D-08 BMatP= 3.64D-05
 IDIUse=1 WtCom= 1.00D+00 WtEn= 0.00D+00
 Coeff-Com: -0.641D-02 0.101D+01
 Coeff:     -0.641D-02 0.101D+01
 Gap=     0.122 Goal=   None    Shift=    0.000
 RMSDP=7.16D-06 MaxDP=5.11D-04 DE=-1.39D-05 OVMax= 1.23D-04

 Cycle   3  Pass 1  IDiag  1:
 RMSU=  7.15D-06    CP:  1.00D+00  1.01D+00
 E= -8258.67019033841     Delta-E=       -0.000000093221 Rises=F Damp=F
 DIIS: error= 1.36D-05 at cycle   3 NSaved=   3.
 NSaved= 3 IEnMin= 3 EnMin= -8258.67019033841     IErMin= 3 ErrMin= 1.36D-05
 ErrMax= 1.36D-05  0.00D+00 EMaxC= 1.00D-01 BMatC= 6.03D-08 BMatP= 7.72D-08
 IDIUse=1 WtCom= 1.00D+00 WtEn= 0.00D+00
 Coeff-Com: -0.422D-02 0.468D+00 0.536D+00
 Coeff:     -0.422D-02 0.468D+00 0.536D+00
 Gap=     0.122 Goal=   None    Shift=    0.000
 RMSDP=3.39D-06 MaxDP=2.04D-04 DE=-9.32D-08 OVMax= 8.99D-05

 Cycle   4  Pass 1  IDiag  1:
 RMSU=  2.28D-06    CP:  1.00D+00  1.02D+00  6.72D-01
 E= -8258.67019037649     Delta-E=       -0.000000038081 Rises=F Damp=F
 DIIS: error= 7.34D-06 at cycle   4 NSaved=   4.
 NSaved= 4 IEnMin= 4 EnMin= -8258.67019037649     IErMin= 4 ErrMin= 7.34D-06
 ErrMax= 7.34D-06  0.00D+00 EMaxC= 1.00D-01 BMatC= 1.86D-08 BMatP= 6.03D-08
 IDIUse=1 WtCom= 1.00D+00 WtEn= 0.00D+00
 Coeff-Com: -0.132D-02 0.982D-01 0.352D+00 0.551D+00
 Coeff:     -0.132D-02 0.982D-01 0.352D+00 0.551D+00
 Gap=     0.122 Goal=   None    Shift=    0.000
 RMSDP=1.53D-06 MaxDP=1.54D-04 DE=-3.81D-08 OVMax= 5.24D-05

 Cycle   5  Pass 1  IDiag  1:
 RMSU=  1.21D-06    CP:  1.00D+00  1.02D+00  6.58D-01  6.03D-01
 E= -8258.67019039113     Delta-E=       -0.000000014648 Rises=F Damp=F
 DIIS: error= 2.76D-06 at cycle   5 NSaved=   5.
 NSaved= 5 IEnMin= 5 EnMin= -8258.67019039113     IErMin= 5 ErrMin= 2.76D-06
 ErrMax= 2.76D-06  0.00D+00 EMaxC= 1.00D-01 BMatC= 1.96D-09 BMatP= 1.86D-08
 IDIUse=1 WtCom= 1.00D+00 WtEn= 0.00D+00
 Coeff-Com: -0.283D-03-0.821D-03 0.143D+00 0.324D+00 0.534D+00
 Coeff:     -0.283D-03-0.821D-03 0.143D+00 0.324D+00 0.534D+00
 Gap=     0.122 Goal=   None    Shift=    0.000
 RMSDP=7.79D-07 MaxDP=4.73D-05 DE=-1.46D-08 OVMax= 2.11D-05

 Cycle   6  Pass 1  IDiag  1:
 RMSU=  3.84D-07    CP:  1.00D+00  1.02D+00  7.05D-01  7.09D-01  5.60D-01
 E= -8258.67019039272     Delta-E=       -0.000000001583 Rises=F Damp=F
 DIIS: error= 1.97D-06 at cycle   6 NSaved=   6.
 NSaved= 6 IEnMin= 6 EnMin= -8258.67019039272     IErMin= 6 ErrMin= 1.97D-06
 ErrMax= 1.97D-06  0.00D+00 EMaxC= 1.00D-01 BMatC= 5.51D-10 BMatP= 1.96D-09
 IDIUse=1 WtCom= 1.00D+00 WtEn= 0.00D+00
 Coeff-Com:  0.351D-04-0.202D-01 0.396D-01 0.134D+00 0.382D+00 0.465D+00
 Coeff:      0.351D-04-0.202D-01 0.396D-01 0.134D+00 0.382D+00 0.465D+00
 Gap=     0.122 Goal=   None    Shift=    0.000
 RMSDP=2.84D-07 MaxDP=1.02D-05 DE=-1.58D-09 OVMax= 8.11D-06

 Cycle   7  Pass 1  IDiag  1:
 RMSU=  1.15D-07    CP:  1.00D+00  1.02D+00  7.23D-01  6.89D-01  6.07D-01
                    CP:  4.72D-01
 E= -8258.67019039336     Delta-E=       -0.000000000646 Rises=F Damp=F
 DIIS: error= 2.47D-07 at cycle   7 NSaved=   7.
 NSaved= 7 IEnMin= 7 EnMin= -8258.67019039336     IErMin= 7 ErrMin= 2.47D-07
 ErrMax= 2.47D-07  0.00D+00 EMaxC= 1.00D-01 BMatC= 2.65D-11 BMatP= 5.51D-10
 IDIUse=1 WtCom= 1.00D+00 WtEn= 0.00D+00
 Coeff-Com:  0.408D-04-0.122D-01 0.140D-01 0.578D-01 0.189D+00 0.271D+00
 Coeff-Com:  0.481D+00
 Coeff:      0.408D-04-0.122D-01 0.140D-01 0.578D-01 0.189D+00 0.271D+00
 Coeff:      0.481D+00
 Gap=     0.122 Goal=   None    Shift=    0.000
 RMSDP=9.51D-08 MaxDP=3.85D-06 DE=-6.46D-10 OVMax= 2.04D-06

 Cycle   8  Pass 1  IDiag  1:
 RMSU=  4.11D-08    CP:  1.00D+00  1.02D+00  7.17D-01  6.98D-01  6.33D-01
                    CP:  5.02D-01  4.46D-01
 E= -8258.67019039337     Delta-E=       -0.000000000007 Rises=F Damp=F
 DIIS: error= 1.00D-07 at cycle   8 NSaved=   8.
 NSaved= 8 IEnMin= 8 EnMin= -8258.67019039337     IErMin= 8 ErrMin= 1.00D-07
 ErrMax= 1.00D-07  0.00D+00 EMaxC= 1.00D-01 BMatC= 3.19D-12 BMatP= 2.65D-11
 IDIUse=1 WtCom= 1.00D+00 WtEn= 0.00D+00
 Coeff-Com:  0.196D-04-0.454D-02 0.301D-02 0.165D-01 0.612D-01 0.982D-01
 Coeff-Com:  0.285D+00 0.541D+00
 Coeff:      0.196D-04-0.454D-02 0.301D-02 0.165D-01 0.612D-01 0.982D-01
 Coeff:      0.285D+00 0.541D+00
 Gap=     0.122 Goal=   None    Shift=    0.000
 RMSDP=3.17D-08 MaxDP=1.46D-06 DE=-7.28D-12 OVMax= 9.08D-07

 Cycle   9  Pass 1  IDiag  1:
 RMSU=  1.81D-08    CP:  1.00D+00  1.02D+00  7.17D-01  6.97D-01  6.41D-01
                    CP:  5.01D-01  5.46D-01  5.42D-01
 E= -8258.67019039339     Delta-E=       -0.000000000022 Rises=F Damp=F
 DIIS: error= 5.58D-08 at cycle   9 NSaved=   9.
 NSaved= 9 IEnMin= 9 EnMin= -8258.67019039339     IErMin= 9 ErrMin= 5.58D-08
 ErrMax= 5.58D-08  0.00D+00 EMaxC= 1.00D-01 BMatC= 6.66D-13 BMatP= 3.19D-12
 IDIUse=1 WtCom= 1.00D+00 WtEn= 0.00D+00
 Coeff-Com:  0.535D-05-0.748D-03-0.475D-03 0.503D-03 0.614D-02 0.158D-01
 Coeff-Com:  0.991D-01 0.350D+00 0.530D+00
 Coeff:      0.535D-05-0.748D-03-0.475D-03 0.503D-03 0.614D-02 0.158D-01
 Coeff:      0.991D-01 0.350D+00 0.530D+00
 Gap=     0.122 Goal=   None    Shift=    0.000
 RMSDP=1.34D-08 MaxDP=7.98D-07 DE=-2.18D-11 OVMax= 4.17D-07

 Cycle  10  Pass 1  IDiag  1:
 RMSU=  7.42D-09    CP:  1.00D+00  1.02D+00  7.17D-01  6.98D-01  6.37D-01
                    CP:  5.07D-01  5.41D-01  6.71D-01  6.55D-01
 E= -8258.67019039336     Delta-E=        0.000000000029 Rises=F Damp=F
 DIIS: error= 2.38D-08 at cycle  10 NSaved=  10.
 NSaved=10 IEnMin= 9 EnMin= -8258.67019039339     IErMin=10 ErrMin= 2.38D-08
 ErrMax= 2.38D-08  0.00D+00 EMaxC= 1.00D-01 BMatC= 1.22D-13 BMatP= 6.66D-13
 IDIUse=1 WtCom= 1.00D+00 WtEn= 0.00D+00
 Coeff-Com:  0.530D-06 0.223D-03-0.788D-03-0.227D-02-0.561D-02-0.505D-02
 Coeff-Com:  0.225D-01 0.152D+00 0.353D+00 0.487D+00
 Coeff:      0.530D-06 0.223D-03-0.788D-03-0.227D-02-0.561D-02-0.505D-02
 Coeff:      0.225D-01 0.152D+00 0.353D+00 0.487D+00
 Gap=     0.122 Goal=   None    Shift=    0.000
 RMSDP=5.67D-09 MaxDP=4.09D-07 DE= 2.91D-11 OVMax= 1.44D-07

 SCF Done:  E(RB3LYP) =  -8258.67019039     A.U. after   10 cycles
            NFock= 10  Conv=0.57D-08     -V/T= 2.0014
 KE= 8.247203486936D+03 PE=-2.364068923503D+04 EE= 5.179310932753D+03
 Leave Link  502 at Tue Sep 29 16:29:52 2026, MaxMem=  5100273664 cpu:             548.2 elap:              34.3
 (Enter /share/software/user/restricted/gaussian/g16.B01/l701.exe)
 ... and contract with generalized density number  0.
 Compute integral first derivatives.
 Leave Link  701 at Tue Sep 29 16:29:52 2026, MaxMem=  5100273664 cpu:               2.3 elap:               0.2
 (Enter /share/software/user/restricted/gaussian/g16.B01/l702.exe)
 L702 exits ... SP integral derivatives will be done elsewhere.
 Leave Link  702 at Tue Sep 29 16:29:52 2026, MaxMem=  5100273664 cpu:               0.4 elap:               0.0
 (Enter /share/software/user/restricted/gaussian/g16.B01/l703.exe)
 Integral derivatives from FoFJK, PRISM(SPDF).
 Compute integral first derivatives, UseDBF=F ICtDFT=           0.
 Calling FoFJK, ICntrl=      2127 FMM=F ISym2X=0 I1Cent= 0 IOpClX= 0 NMat=1 NMatS=1 NMatT=0.
 FoFJK:  IHMeth= 1 ICntrl=    2127 DoSepK=F KAlg= 0 I1Cent=           0 FoldK=F
 IRaf=         0 NMat=       1 IRICut=       1 DoRegI=T DoRafI=F ISym2E= 0 IDoP0=0 IntGTp=1.
 FoFCou: FMM=F IPFlag=           0 FMFlag=      100000 FMFlg1=         800
         NFxFlg=           0 DoJE=F BraDBF=F KetDBF=F FulRan=T
         wScrn=  0.000000 ICntrl=      2127 IOpCl=  0 I1Cent=           0 NGrid=           0
         NMat0=    1 NMatS0=      1 NMatT0=    0 NMatD0=    1 NMtDS0=    0 NMtDT0=    0
 Symmetry not used in FoFCou.
 Leave Link  703 at Tue Sep 29 16:30:04 2026, MaxMem=  5100273664 cpu:             192.8 elap:              12.1
 (Enter /share/software/user/restricted/gaussian/g16.B01/l716.exe)
 Dipole        =-1.40530530D+00 6.75739479D-01 5.76160182D-03
 ***** Axes restored to original set *****
 -------------------------------------------------------------------
 Center     Atomic                   Forces (Hartrees/Bohr)
 Number     Number              X              Y              Z
 -------------------------------------------------------------------
      1        6           0.000056483   -0.000004399    0.000064312
      2        6           0.000009548   -0.000000731    0.000001342
      3        6           0.000026429   -0.000023967   -0.000004993
      4        6          -0.000032770    0.000023858    0.000005601
      5        6          -0.000012838   -0.000028370   -0.000002044
      6        6          -0.000060343    0.000015470   -0.000011845
      7        6           0.000067991   -0.000068230    0.000057527
      8        6           0.000113598    0.000144097    0.000013183
      9        6          -0.000056738    0.000004038    0.000003629
     10        6           0.000134118   -0.000038138   -0.000020889
     11        6          -0.000086246    0.000000683    0.000003262
     12        6           0.000019343    0.000035503    0.000006117
     13        8          -0.000048931   -0.000028744   -0.000105709
     14       35          -0.000002403    0.000007483    0.000004152
     15        1          -0.000001778   -0.000001665    0.000000147
     16       35           0.000004081    0.000001903   -0.000003190
     17        1           0.000018831    0.000006389    0.000004344
     18        1          -0.000108112   -0.000053515   -0.000025242
     19        1          -0.000002853    0.000000560    0.000004982
     20       35          -0.000043226    0.000011761    0.000004513
     21        1           0.000000345    0.000003255    0.000001990
     22        1           0.000005472   -0.000007239   -0.000001190
 -------------------------------------------------------------------
 Cartesian Forces:  Max     0.000144097 RMS     0.000043755
 Leave Link  716 at Tue Sep 29 16:30:04 2026, MaxMem=  5100273664 cpu:               0.5 elap:               0.0
 (Enter /share/software/user/restricted/gaussian/g16.B01/l103.exe)

 GradGradGradGradGradGradGradGradGradGradGradGradGradGradGradGradGradGrad
 Berny optimization.
 Using GEDIIS/GDIIS optimizer.
 FormGI is forming the generalized inverse of G from B-inverse, IUseBI=4.
 GSVD:  received Info=                   1 from GESDD.
 Internal  Forces:  Max     0.000701706 RMS     0.000097108
 Search for a local minimum.
 Step number  15 out of a maximum of  116
 All quantities printed in internal units (Hartrees-Bohrs-Radians)
 RMS Force = .97108D-04 SwitMx=.10000D-02 MixMth= 2
 Mixed Optimization -- En-DIIS/RFO-DIIS
 Swapping is turned off.
 Update second derivatives using D2CorX and points    6    8    7    9   10
                                                     11   12   13   14   15
 DE= -3.13D-07 DEPred=-2.44D-07 R= 1.29D+00
 Trust test= 1.29D+00 RLast= 5.04D-03 DXMaxT set to 3.00D-01
 ITU=  0  0  1  1  1  1  0 -1  1 -1  1  1 -1  0  0
     Eigenvalues ---    0.00524   0.01829   0.02016   0.02027   0.02056
     Eigenvalues ---    0.02087   0.02097   0.02104   0.02116   0.02126
     Eigenvalues ---    0.02133   0.02137   0.02166   0.02180   0.02191
     Eigenvalues ---    0.02248   0.02300   0.02584   0.04118   0.12412
     Eigenvalues ---    0.15684   0.16005   0.16007   0.16021   0.16049
     Eigenvalues ---    0.18646   0.19091   0.19712   0.22718   0.22922
     Eigenvalues ---    0.23552   0.24362   0.24555   0.24897   0.24981
     Eigenvalues ---    0.25013   0.25376   0.28442   0.33662   0.33703
     Eigenvalues ---    0.33720   0.33817   0.34127   0.37254   0.41436
     Eigenvalues ---    0.42112   0.42565   0.44384   0.44922   0.45261
     Eigenvalues ---    0.45569   0.45961   0.46398   0.47112   0.47587
     Eigenvalues ---    0.47945   0.48851   0.61353   1.24022  22.23052
 En-DIIS/RFO-DIIS/Sim-DIIS IScMMF=       -3 using points:    15   14   13   12
 RFO step:  Lambda=-4.29489840D-07.
 NNeg= 0 NGDIIS= 4 SimSw=  2.50D-01 Rises=F DC= -3.13D-07 SmlDif=  1.00D-05
 NRisDI= 0 DoIntr=F SqrtH=F CThrHd= 10.0 CDAdj=  3.0
 RMS Error=  0.7279445371D-03 NUsed= 4 OKEnD=F EnDIS=F
 InvSVX:  RCond= 4.86D-08 Info=           0 Equed=N FErr=  7.18D-13 BErr=  5.81D-17
 DIIS inversion failure, remove point   4.
 InvSVX:  RCond= 1.27D-07 Info=           0 Equed=N FErr=  2.97D-13 BErr=  6.18D-17
 RFO-DIIS uses    3 points instead of    4
 DidBck=F Rises=F RFO-DIIS coefs:    2.35093   -1.27239   -0.07854    0.00000
 Iteration  1 RMS(Cart)=  0.00175330 RMS(Int)=  0.00000091
 Iteration  2 RMS(Cart)=  0.00000478 RMS(Int)=  0.00000004
 Iteration  3 RMS(Cart)=  0.00000000 RMS(Int)=  0.00000004
 ITry= 1 IFail=0 DXMaxC= 6.98D-03 DCOld= 1.00D+10 DXMaxT= 3.00D-01 DXLimC= 3.00D+00 Rises=F
 Variable       Old X    -DE/DX   Delta X   Delta X   Delta X     New X
                                 (Linear)    (Quad)   (Total)
    R1        2.64312   0.00002  -0.00010   0.00003  -0.00007   2.64305
    R2        2.62291   0.00012  -0.00003  -0.00002  -0.00005   2.62286
    R3        2.66046   0.00012   0.00005  -0.00005  -0.00000   2.66046
    R4        2.62576  -0.00001   0.00010  -0.00003   0.00007   2.62583
    R5        3.73501   0.00001  -0.00013   0.00005  -0.00008   3.73492
    R6        2.62734  -0.00005   0.00007  -0.00004   0.00002   2.62736
    R7        2.04244   0.00000  -0.00003   0.00001  -0.00002   2.04242
    R8        2.62637  -0.00002  -0.00027   0.00012  -0.00015   2.62622
    R9        3.73268  -0.00000   0.00054  -0.00022   0.00032   3.73299
   R10        2.65083   0.00002   0.00019  -0.00007   0.00011   2.65095
   R11        2.05881  -0.00001   0.00001  -0.00003  -0.00002   2.05880
   R12        4.27156  -0.00008  -0.00038   0.00016  -0.00023   4.27133
   R13        2.65122  -0.00011   0.00015  -0.00017  -0.00002   2.65120
   R14        2.65754   0.00002   0.00012  -0.00004   0.00009   2.65763
   R15        2.55955   0.00009   0.00013  -0.00002   0.00010   2.55966
   R16        2.63869  -0.00002   0.00002  -0.00003  -0.00001   2.63868
   R17        2.62253   0.00001  -0.00012   0.00009  -0.00002   2.62251
   R18        2.04939  -0.00000   0.00001  -0.00001   0.00001   2.04939
   R19        2.63113   0.00002  -0.00011   0.00010  -0.00001   2.63112
   R20        3.65996  -0.00005   0.00030  -0.00031  -0.00000   3.65996
   R21        2.62448  -0.00003   0.00003  -0.00005  -0.00002   2.62445
   R22        2.04845   0.00000  -0.00001   0.00001   0.00000   2.04846
   R23        2.04965  -0.00001   0.00007  -0.00004   0.00003   2.04968
    A1        2.12510  -0.00012   0.00016  -0.00012   0.00003   2.12514
    A2        1.97376  -0.00030   0.00022  -0.00008   0.00014   1.97390
    A3        2.18433   0.00042  -0.00038   0.00020  -0.00018   2.18415
    A4        2.11638   0.00007   0.00001  -0.00003  -0.00003   2.11636
    A5        2.13670  -0.00003   0.00003   0.00003   0.00006   2.13675
    A6        2.03011  -0.00004  -0.00003   0.00000  -0.00003   2.03007
    A7        2.04066   0.00002  -0.00027   0.00019  -0.00008   2.04057
    A8        2.11434  -0.00001   0.00019  -0.00010   0.00009   2.11444
    A9        2.12819  -0.00002   0.00008  -0.00009  -0.00001   2.12818
   A10        2.13362  -0.00003   0.00036  -0.00018   0.00017   2.13379
   A11        2.05005   0.00002  -0.00021   0.00011  -0.00010   2.04994
   A12        2.09952   0.00001  -0.00015   0.00008  -0.00007   2.09945
   A13        2.10854   0.00003  -0.00016   0.00000  -0.00016   2.10838
   A14        2.06914   0.00000   0.00024   0.00002   0.00026   2.06940
   A15        2.10551  -0.00003  -0.00008  -0.00002  -0.00010   2.10540
   A16        2.04207   0.00002  -0.00009   0.00015   0.00006   2.04213
   A17        1.70980   0.00017   0.00069  -0.00040   0.00029   1.71010
   A18        2.53129  -0.00019  -0.00060   0.00024  -0.00036   2.53093
   A19        2.07730  -0.00005  -0.00022   0.00011  -0.00011   2.07719
   A20        2.22214   0.00018   0.00057  -0.00027   0.00030   2.22244
   A21        1.98374  -0.00013  -0.00035   0.00017  -0.00018   1.98355
   A22        2.08943   0.00007  -0.00000   0.00004   0.00003   2.08947
   A23        2.09916   0.00000   0.00001   0.00003   0.00004   2.09920
   A24        2.08303  -0.00000  -0.00013   0.00002  -0.00011   2.08292
   A25        2.10100   0.00000   0.00011  -0.00005   0.00007   2.10107
   A26        2.10896  -0.00007   0.00019  -0.00021  -0.00001   2.10894
   A27        2.09131   0.00003  -0.00013   0.00011  -0.00003   2.09128
   A28        2.08292   0.00004  -0.00006   0.00010   0.00004   2.08296
   A29        2.07723   0.00003  -0.00026   0.00021  -0.00004   2.07719
   A30        2.10759  -0.00001   0.00020  -0.00012   0.00008   2.10767
   A31        2.09837  -0.00002   0.00005  -0.00009  -0.00003   2.09833
   A32        2.11429   0.00001   0.00027  -0.00017   0.00010   2.11439
   A33        2.06449  -0.00000  -0.00030   0.00016  -0.00014   2.06436
   A34        2.10440  -0.00001   0.00003   0.00001   0.00004   2.10444
   A35        2.24038   0.00070  -0.00034   0.00023  -0.00011   2.24028
    D1        0.00028   0.00001   0.00027  -0.00016   0.00011   0.00039
    D2       -3.14064   0.00000   0.00025  -0.00021   0.00004  -3.14060
    D3       -3.14018   0.00001  -0.00003  -0.00015  -0.00018  -3.14037
    D4        0.00208  -0.00000  -0.00005  -0.00020  -0.00025   0.00183
    D5        0.00037  -0.00001  -0.00033   0.00014  -0.00019   0.00018
    D6       -3.13509  -0.00002  -0.00019   0.00014  -0.00005  -3.13514
    D7        3.14070  -0.00001   0.00001   0.00013   0.00014   3.14083
    D8        0.00523  -0.00002   0.00015   0.00013   0.00028   0.00551
    D9       -3.13016  -0.00008  -0.00282  -0.00019  -0.00301  -3.13317
   D10        0.01260  -0.00009  -0.00313  -0.00018  -0.00331   0.00930
   D11       -0.00033  -0.00000  -0.00001   0.00001   0.00000  -0.00032
   D12        3.14149  -0.00000  -0.00010   0.00006  -0.00004   3.14146
   D13        3.14063   0.00001   0.00001   0.00006   0.00007   3.14070
   D14       -0.00073   0.00000  -0.00008   0.00011   0.00003  -0.00070
   D15       -0.00029  -0.00000  -0.00017   0.00015  -0.00002  -0.00031
   D16        3.14109   0.00000  -0.00011   0.00012   0.00001   3.14110
   D17        3.14107  -0.00000  -0.00008   0.00010   0.00002   3.14109
   D18       -0.00073   0.00000  -0.00002   0.00007   0.00005  -0.00068
   D19        0.00097   0.00000   0.00010  -0.00017  -0.00007   0.00090
   D20       -3.14096   0.00001   0.00028  -0.00022   0.00006  -3.14090
   D21       -3.14040  -0.00001   0.00004  -0.00014  -0.00010  -3.14050
   D22        0.00085   0.00000   0.00022  -0.00019   0.00002   0.00088
   D23       -0.00098   0.00001   0.00015   0.00002   0.00017  -0.00081
   D24        3.13002   0.00003  -0.00008   0.00002  -0.00006   3.12996
   D25        3.14096   0.00000  -0.00003   0.00007   0.00004   3.14100
   D26       -0.01123   0.00002  -0.00026   0.00007  -0.00019  -0.01142
   D27       -0.00076  -0.00000   0.00006   0.00008   0.00013  -0.00063
   D28       -3.13882   0.00000  -0.00031  -0.00013  -0.00044  -3.13926
   D29        0.00026   0.00000  -0.00001  -0.00004  -0.00005   0.00021
   D30       -3.14130   0.00000   0.00014  -0.00013   0.00001  -3.14130
   D31        3.13878   0.00000   0.00031   0.00014   0.00045   3.13924
   D32       -0.00278  -0.00000   0.00046   0.00004   0.00051  -0.00227
   D33       -0.02386  -0.00002   0.00401   0.00020   0.00421  -0.01965
   D34        3.12111  -0.00002   0.00366   0.00000   0.00366   3.12477
   D35        0.00075  -0.00000  -0.00005  -0.00008  -0.00013   0.00062
   D36       -3.14114  -0.00000   0.00002  -0.00008  -0.00006  -3.14120
   D37       -0.00022   0.00000  -0.00000   0.00003   0.00003  -0.00019
   D38        3.14138  -0.00000   0.00013  -0.00003   0.00010   3.14148
   D39       -3.14151   0.00000  -0.00008   0.00004  -0.00004  -3.14155
   D40        0.00009   0.00000   0.00005  -0.00003   0.00003   0.00011
   D41       -0.00029  -0.00000   0.00005   0.00000   0.00006  -0.00023
   D42       -3.14149  -0.00000  -0.00006   0.00002  -0.00004  -3.14153
   D43        3.14130   0.00000  -0.00008   0.00007  -0.00001   3.14129
   D44        0.00010   0.00000  -0.00019   0.00008  -0.00011  -0.00001
   D45        0.00027  -0.00000  -0.00005  -0.00000  -0.00005   0.00022
   D46       -3.14136   0.00000  -0.00020   0.00010  -0.00010  -3.14146
   D47        3.14147  -0.00000   0.00006  -0.00002   0.00005   3.14151
   D48       -0.00016   0.00000  -0.00009   0.00008  -0.00001  -0.00016
         Item               Value     Threshold  Converged?
 Maximum Force            0.000702     0.000450     NO 
 RMS     Force            0.000097     0.000300     YES
 Maximum Displacement     0.006981     0.001800     NO 
 RMS     Displacement     0.001753     0.001200     NO 
 Predicted change in Energy=-2.143391D-07
 Lowest energy point so far.  Saving SCF results.
 GradGradGradGradGradGradGradGradGradGradGradGradGradGradGradGradGradGrad

 Leave Link  103 at Tue Sep 29 16:30:04 2026, MaxMem=  5100273664 cpu:               0.9 elap:               0.1
 (Enter /share/software/user/restricted/gaussian/g16.B01/l202.exe)
                          Input orientation:                          
 ---------------------------------------------------------------------
 Center     Atomic      Atomic             Coordinates (Angstroms)
 Number     Number       Type             X           Y           Z
 ---------------------------------------------------------------------
      1          6           0       -1.300621   -1.043239    0.086421
      2          6           0       -2.343075   -0.123740    0.241392
      3          6           0       -3.668429   -0.538082    0.291849
      4          6           0       -3.905637   -1.903540    0.180943
      5          6           0       -2.876851   -2.824922    0.025956
      6          6           0       -1.538953   -2.406098   -0.024227
      7          6           0        1.180070   -1.029523   -0.085509
      8          6           0        1.446241   -2.400341   -0.220761
      9          6           0        2.764673   -2.839216   -0.358112
     10          6           0        3.809471   -1.925813   -0.360445
     11          6           0        3.565043   -0.561630   -0.226868
     12          6           0        2.254638   -0.122267   -0.090598
     13          8           0       -0.029836   -0.437933    0.058896
     14         35           0       -2.026397    1.820771    0.399157
     15          1           0       -4.472598    0.174001    0.411780
     16         35           0       -5.784258   -2.510224    0.251538
     17          1           0       -3.131303   -3.881107   -0.055709
     18          1           0        0.608217   -3.085628   -0.216121
     19          1           0        2.963441   -3.900203   -0.462620
     20         35           0        5.633229   -2.549049   -0.551606
     21          1           0        4.382039    0.150804   -0.228905
     22          1           0        2.035273    0.934694    0.015042
 ---------------------------------------------------------------------
                    Distance matrix (angstroms):
                    1          2          3          4          5
     1  C    0.000000
     2  C    1.398643   0.000000
     3  C    2.429794   1.389528   0.000000
     4  C    2.745024   2.369164   1.390339   0.000000
     5  C    2.379611   2.761831   2.434529   1.389736   0.000000
     6  C    1.387958   2.434403   2.850273   2.428137   1.402820
     7  C    2.486680   3.652376   4.887929   5.167138   4.437847
     8  C    3.079178   4.444706   5.467232   5.389877   4.350892
     9  C    4.466515   5.815694   6.863123   6.757152   5.654600
    10  C    5.204966   6.439215   7.633497   7.734112   6.757559
    11  C    4.899467   5.942799   7.252085   7.601189   6.832599
    12  C    3.676873   4.609683   5.949949   6.418384   5.800872
    13  O    1.407852   2.341601   3.647418   4.145447   3.715413
    14  Br   2.971046   1.976437   2.876104   4.177278   4.737617
    15  H    3.413059   2.156978   1.080803   2.165851   3.418890
    16  Br   4.720414   4.187738   2.892698   1.975416   2.933076
    17  H    3.380102   3.850634   3.403692   2.136907   1.089469
    18  H    2.811858   4.206212   5.003771   4.682933   3.503179
    19  H    5.161968   6.551062   7.473605   7.182274   5.958519
    20  Br   7.124101   8.374508   9.553860   9.588705   8.534117
    21  H    5.815307   6.747126   8.096652   8.548326   7.849292
    22  H    3.878854   4.510149   5.897280   6.586160   6.185774
                    6          7          8          9         10
     6  C    0.000000
     7  C    3.048245   0.000000
     8  C    2.991662   1.402955   0.000000
     9  C    4.338233   2.420799   1.396331   0.000000
    10  C    5.380460   2.791537   2.414445   1.387773   0.000000
    11  C    5.430828   2.434543   2.805390   2.417688   1.392331
    12  C    4.428501   1.406356   2.420759   2.777321   2.396477
    13  O    2.481535   1.354512   2.471448   3.708009   4.138830
    14  Br   4.275895   4.317465   5.501027   6.726313   6.976478
    15  H    3.931067   5.800726   6.485369   7.877202   8.578941
    16  Br   4.255526   7.127969   7.246741   8.576953   9.630976
    17  H    2.170766   5.169174   4.813919   5.994957   7.217367
    18  H    2.260292   2.138140   1.082554   2.175128   3.407936
    19  H    4.764041   3.400505   2.147086   1.084493   2.150447
    20  Br   7.192966   4.728301   4.202671   2.889680   1.936765
    21  H    6.452734   3.415602   3.889385   3.401880   2.158119
    22  H    4.892599   2.144675   3.394852   3.861822   3.386927
                   11         12         13         14         15
    11  C    0.000000
    12  C    1.388802   0.000000
    13  O    3.608339   2.311020   0.000000
    14  Br   6.109987   4.726787   3.033773   0.000000
    15  H    8.096462   6.752471   4.498570   2.948884   0.000000
    16  Br   9.562181   8.393047   6.119222   5.735925   2.991854
    17  H    7.475913   6.567988   4.635481   5.825731   4.296688
    18  H    3.887608   3.392340   2.737340   5.602902   6.069112
    19  H    3.400526   3.861814   4.606408   7.640071   8.523990
    20  Br   2.886639   4.185293   6.074523   8.869563  10.510512
    21  H    1.083997   2.149309   4.460278   6.652165   8.877816
    22  H    2.153532   1.084641   2.480061   4.174906   6.564179
                   16         17         18         19         20
    16  Br   0.000000
    17  H    3.001982   0.000000
    18  H    6.435334   3.826556   0.000000
    19  H    8.886186   6.108342   2.504271   0.000000
    20  Br  11.445766   8.879038   5.064703   2.993544   0.000000
    21  H   10.519766   8.528576   4.971558   4.298570   2.993129
    22  H    8.548009   7.063318   4.272343   4.946301   5.040124
                   21         22
    21  H    0.000000
    22  H    2.486223   0.000000
 Stoichiometry    C12H6Br3O(1-)
 Framework group  C1[X(C12H6Br3O)]
 Deg. of freedom    60
 Full point group                 C1      NOp   1
 RotChk:  IX=2 Diff= 1.27D-03
 Largest Abelian subgroup         C1      NOp   1
 Largest concise Abelian subgroup C1      NOp   1
                         Standard orientation:                         
 ---------------------------------------------------------------------
 Center     Atomic      Atomic             Coordinates (Angstroms)
 Number     Number       Type             X           Y           Z
 ---------------------------------------------------------------------
      1          6           0        0.909430    0.097416   -0.006517
      2          6           0        2.037091    0.924802   -0.002493
      3          6           0        3.321087    0.393644    0.001119
      4          6           0        3.428785   -0.992518    0.000941
      5          6           0        2.314533   -1.823058   -0.002289
      6          6           0        1.018491   -1.286251   -0.006630
      7          6           0       -1.566412    0.329321   -0.007080
      8          6           0       -1.961001   -1.016952   -0.018599
      9          6           0       -3.319399   -1.340185   -0.014679
     10          6           0       -4.277434   -0.336256   -0.000212
     11          6           0       -3.905148    1.005335    0.010841
     12          6           0       -2.554764    1.329714    0.007482
     13          8           0       -0.301910    0.814828   -0.011371
     14         35           0        1.904686    2.896798   -0.000599
     15          1           0        4.191258    1.034681    0.004099
     16         35           0        5.247019   -1.764705    0.005182
     17          1           0        2.468642   -2.901572   -0.001582
     18          1           0       -1.188219   -1.774997   -0.028555
     19          1           0       -3.617596   -2.382840   -0.023264
     20         35           0       -6.157977   -0.799495    0.004868
     21          1           0       -4.654473    1.788554    0.022197
     22          1           0       -2.236375    2.366537    0.016002
 ---------------------------------------------------------------------
 Rotational constants (GHZ):           0.4394320           0.0763803           0.0650704
 Leave Link  202 at Tue Sep 29 16:30:04 2026, MaxMem=  5100273664 cpu:               0.5 elap:               0.1
 (Enter /share/software/user/restricted/gaussian/g16.B01/l301.exe)
 Standard basis: 6-311++G(d) (5D, 7F)
 Ernie: Thresh=  0.10000D-02 Tol=  0.10000D-05 Strict=F.
 There are   476 symmetry adapted cartesian basis functions of A   symmetry.
 There are   454 symmetry adapted basis functions of A   symmetry.
   454 basis functions,   786 primitive gaussians,   476 cartesian basis functions
    96 alpha electrons       96 beta electrons
       nuclear repulsion energy      1955.4782317854 Hartrees.
 IExCor=  402 DFT=T Ex+Corr=B3LYP ExCW=0 ScaHFX=  0.200000
 ScaDFX=  0.800000  0.720000  1.000000  0.810000 ScalE2=  1.000000  1.000000
 IRadAn=      5 IRanWt=     -1 IRanGd=            0 ICorTp=0 IEmpDi=  4
 NAtoms=   22 NActive=   22 NUniq=   22 SFac= 1.00D+00 NAtFMM=   60 NAOKFM=F Big=F
 Integral buffers will be    131072 words long.
 Raffenetti 2 integral format.
 Two-electron integral symmetry is turned on.
 Leave Link  301 at Tue Sep 29 16:30:05 2026, MaxMem=  5100273664 cpu:               0.5 elap:               0.0
 (Enter /share/software/user/restricted/gaussian/g16.B01/l302.exe)
 NPDir=0 NMtPBC=     1 NCelOv=     1 NCel=       1 NClECP=     1 NCelD=      1
         NCelK=      1 NCelE2=     1 NClLst=     1 CellRange=     0.0.
 One-electron integrals computed using PRISM.
 One-electron integral symmetry used in STVInt
 NBasis=   454 RedAO= T EigKep=  1.63D-06  NBF=   454
 NBsUse=   450 1.00D-06 EigRej=  9.06D-07 NBFU=   450
 Precomputing XC quadrature grid using
 IXCGrd= 4 IRadAn=           5 IRanWt=          -1 IRanGd=           0 AccXCQ= 0.00D+00.
 Generated NRdTot=       0 NPtTot=           0 NUsed=           0 NTot=          32
 NSgBfM=   447   445   447   447   447 MxSgAt=    22 MxSgA2=    22.
 Leave Link  302 at Tue Sep 29 16:30:05 2026, MaxMem=  5100273664 cpu:               4.2 elap:               0.3
 (Enter /share/software/user/restricted/gaussian/g16.B01/l303.exe)
 DipDrv:  MaxL=1.
 Leave Link  303 at Tue Sep 29 16:30:05 2026, MaxMem=  5100273664 cpu:               0.8 elap:               0.1
 (Enter /share/software/user/restricted/gaussian/g16.B01/l401.exe)
 Initial guess from the checkpoint file:  "calcs/b3lyp_gas/chks/BDE_24_2r4_anion.chk"
 B after Tr=     0.000000   -0.000000   -0.000000
         Rot=    1.000000   -0.000000    0.000000    0.000015 Ang=  -0.00 deg.
 Guess basis will be translated and rotated to current coordinates.
 JPrj=2 DoOrth=T DoCkMO=T.
 Leave Link  401 at Tue Sep 29 16:30:05 2026, MaxMem=  5100273664 cpu:               3.8 elap:               0.3
 (Enter /share/software/user/restricted/gaussian/g16.B01/l502.exe)
 Integral symmetry usage will be decided dynamically.
 Closed shell SCF:
 Using DIIS extrapolation, IDIIS=  1040.
 NGot=  5100273664 LenX=  5099808623 LenY=  5099581571
 Requested convergence on RMS density matrix=1.00D-08 within 128 cycles.
 Requested convergence on MAX density matrix=1.00D-06.
 Requested convergence on             energy=1.00D-06.
 No special actions if energy rises.
 Fock matrices will be formed incrementally for  20 cycles.

 Cycle   1  Pass 1  IDiag  1:
 FoFJK:  IHMeth= 1 ICntrl=       0 DoSepK=F KAlg= 0 I1Cent=           0 FoldK=F
 IRaf= 770000000 NMat=       1 IRICut=       1 DoRegI=T DoRafI=F ISym2E= 0 IDoP0=0 IntGTp=1.
 FoFCou: FMM=F IPFlag=           0 FMFlag=      100000 FMFlg1=           0
         NFxFlg=           0 DoJE=F BraDBF=F KetDBF=F FulRan=T
         wScrn=  0.000000 ICntrl=         0 IOpCl=  0 I1Cent=           0 NGrid=           0
         NMat0=    1 NMatS0=      1 NMatT0=    0 NMatD0=    1 NMtDS0=    0 NMtDT0=    0
 Symmetry not used in FoFCou.
 E= -8258.67016545447    
 DIIS: error= 4.80D-04 at cycle   1 NSaved=   1.
 NSaved= 1 IEnMin= 1 EnMin= -8258.67016545447     IErMin= 1 ErrMin= 4.80D-04
 ErrMax= 4.80D-04  0.00D+00 EMaxC= 1.00D-01 BMatC= 6.60D-05 BMatP= 6.60D-05
 IDIUse=3 WtCom= 9.95D-01 WtEn= 4.80D-03
 Coeff-Com:  0.100D+01
 Coeff-En:   0.100D+01
 Coeff:      0.100D+01
 Gap=     0.307 Goal=   None    Shift=    0.000
 RMSDP=8.11D-05 MaxDP=3.82D-03              OVMax= 1.49D-03

 Cycle   2  Pass 1  IDiag  1:
 RMSU=  8.01D-05    CP:  1.00D+00
 E= -8258.67019047367     Delta-E=       -0.000025019202 Rises=F Damp=F
 DIIS: error= 2.14D-05 at cycle   2 NSaved=   2.
 NSaved= 2 IEnMin= 2 EnMin= -8258.67019047367     IErMin= 2 ErrMin= 2.14D-05
 ErrMax= 2.14D-05  0.00D+00 EMaxC= 1.00D-01 BMatC= 1.26D-07 BMatP= 6.60D-05
 IDIUse=1 WtCom= 1.00D+00 WtEn= 0.00D+00
 Coeff-Com: -0.684D-02 0.101D+01
 Coeff:     -0.684D-02 0.101D+01
 Gap=     0.122 Goal=   None    Shift=    0.000
 RMSDP=9.33D-06 MaxDP=6.91D-04 DE=-2.50D-05 OVMax= 1.40D-04

 Cycle   3  Pass 1  IDiag  1:
 RMSU=  9.27D-06    CP:  1.00D+00  1.01D+00
 E= -8258.67019066794     Delta-E=       -0.000000194264 Rises=F Damp=F
 DIIS: error= 1.36D-05 at cycle   3 NSaved=   3.
 NSaved= 3 IEnMin= 3 EnMin= -8258.67019066794     IErMin= 3 ErrMin= 1.36D-05
 ErrMax= 1.36D-05  0.00D+00 EMaxC= 1.00D-01 BMatC= 6.45D-08 BMatP= 1.26D-07
 IDIUse=1 WtCom= 1.00D+00 WtEn= 0.00D+00
 Coeff-Com: -0.375D-02 0.399D+00 0.604D+00
 Coeff:     -0.375D-02 0.399D+00 0.604D+00
 Gap=     0.122 Goal=   None    Shift=    0.000
 RMSDP=4.45D-06 MaxDP=3.05D-04 DE=-1.94D-07 OVMax= 1.10D-04

 Cycle   4  Pass 1  IDiag  1:
 RMSU=  2.79D-06    CP:  1.00D+00  1.02D+00  6.51D-01
 E= -8258.67019069927     Delta-E=       -0.000000031334 Rises=F Damp=F
 DIIS: error= 1.12D-05 at cycle   4 NSaved=   4.
 NSaved= 4 IEnMin= 4 EnMin= -8258.67019069927     IErMin= 4 ErrMin= 1.12D-05
 ErrMax= 1.12D-05  0.00D+00 EMaxC= 1.00D-01 BMatC= 3.31D-08 BMatP= 6.45D-08
 IDIUse=1 WtCom= 1.00D+00 WtEn= 0.00D+00
 Coeff-Com: -0.124D-02 0.896D-01 0.410D+00 0.502D+00
 Coeff:     -0.124D-02 0.896D-01 0.410D+00 0.502D+00
 Gap=     0.122 Goal=   None    Shift=    0.000
 RMSDP=1.78D-06 MaxDP=1.50D-04 DE=-3.13D-08 OVMax= 6.93D-05

 Cycle   5  Pass 1  IDiag  1:
 RMSU=  1.39D-06    CP:  1.00D+00  1.02D+00  6.58D-01  6.39D-01
 E= -8258.67019072514     Delta-E=       -0.000000025870 Rises=F Damp=F
 DIIS: error= 3.01D-06 at cycle   5 NSaved=   5.
 NSaved= 5 IEnMin= 5 EnMin= -8258.67019072514     IErMin= 5 ErrMin= 3.01D-06
 ErrMax= 3.01D-06  0.00D+00 EMaxC= 1.00D-01 BMatC= 2.76D-09 BMatP= 3.31D-08
 IDIUse=1 WtCom= 1.00D+00 WtEn= 0.00D+00
 Coeff-Com: -0.174D-03-0.101D-01 0.146D+00 0.287D+00 0.578D+00
 Coeff:     -0.174D-03-0.101D-01 0.146D+00 0.287D+00 0.578D+00
 Gap=     0.122 Goal=   None    Shift=    0.000
 RMSDP=9.56D-07 MaxDP=5.59D-05 DE=-2.59D-08 OVMax= 2.41D-05

 Cycle   6  Pass 1  IDiag  1:
 RMSU=  4.07D-07    CP:  1.00D+00  1.02D+00  7.19D-01  6.95D-01  5.68D-01
 E= -8258.67019072740     Delta-E=       -0.000000002259 Rises=F Damp=F
 DIIS: error= 2.40D-06 at cycle   6 NSaved=   6.
 NSaved= 6 IEnMin= 6 EnMin= -8258.67019072740     IErMin= 6 ErrMin= 2.40D-06
 ErrMax= 2.40D-06  0.00D+00 EMaxC= 1.00D-01 BMatC= 7.68D-10 BMatP= 2.76D-09
 IDIUse=1 WtCom= 1.00D+00 WtEn= 0.00D+00
 Coeff-Com:  0.391D-04-0.200D-01 0.495D-01 0.135D+00 0.403D+00 0.432D+00
 Coeff:      0.391D-04-0.200D-01 0.495D-01 0.135D+00 0.403D+00 0.432D+00
 Gap=     0.122 Goal=   None    Shift=    0.000
 RMSDP=2.59D-07 MaxDP=1.17D-05 DE=-2.26D-09 OVMax= 9.26D-06

 Cycle   7  Pass 1  IDiag  1:
 RMSU=  1.26D-07    CP:  1.00D+00  1.02D+00  7.28D-01  6.85D-01  6.12D-01
                    CP:  5.13D-01
 E= -8258.67019072815     Delta-E=       -0.000000000751 Rises=F Damp=F
 DIIS: error= 3.23D-07 at cycle   7 NSaved=   7.
 NSaved= 7 IEnMin= 7 EnMin= -8258.67019072815     IErMin= 7 ErrMin= 3.23D-07
 ErrMax= 3.23D-07  0.00D+00 EMaxC= 1.00D-01 BMatC= 2.97D-11 BMatP= 7.68D-10
 IDIUse=1 WtCom= 1.00D+00 WtEn= 0.00D+00
 Coeff-Com:  0.375D-04-0.105D-01 0.144D-01 0.493D-01 0.169D+00 0.234D+00
 Coeff-Com:  0.543D+00
 Coeff:      0.375D-04-0.105D-01 0.144D-01 0.493D-01 0.169D+00 0.234D+00
 Coeff:      0.543D+00
 Gap=     0.122 Goal=   None    Shift=    0.000
 RMSDP=1.13D-07 MaxDP=6.44D-06 DE=-7.51D-10 OVMax= 1.56D-06

 Cycle   8  Pass 1  IDiag  1:
 RMSU=  4.88D-08    CP:  1.00D+00  1.02D+00  7.22D-01  6.96D-01  6.46D-01
                    CP:  4.98D-01  5.06D-01
 E= -8258.67019072824     Delta-E=       -0.000000000089 Rises=F Damp=F
 DIIS: error= 1.06D-07 at cycle   8 NSaved=   8.
 NSaved= 8 IEnMin= 8 EnMin= -8258.67019072824     IErMin= 8 ErrMin= 1.06D-07
 ErrMax= 1.06D-07  0.00D+00 EMaxC= 1.00D-01 BMatC= 3.42D-12 BMatP= 2.97D-11
 IDIUse=1 WtCom= 1.00D+00 WtEn= 0.00D+00
 Coeff-Com:  0.161D-04-0.354D-02 0.272D-02 0.129D-01 0.502D-01 0.826D-01
 Coeff-Com:  0.297D+00 0.559D+00
 Coeff:      0.161D-04-0.354D-02 0.272D-02 0.129D-01 0.502D-01 0.826D-01
 Coeff:      0.297D+00 0.559D+00
 Gap=     0.122 Goal=   None    Shift=    0.000
 RMSDP=3.93D-08 MaxDP=2.08D-06 DE=-8.91D-11 OVMax= 1.02D-06

 Cycle   9  Pass 1  IDiag  1:
 RMSU=  2.45D-08    CP:  1.00D+00  1.02D+00  7.22D-01  6.96D-01  6.46D-01
                    CP:  5.18D-01  6.11D-01  4.77D-01
 E= -8258.67019072825     Delta-E=       -0.000000000015 Rises=F Damp=F
 DIIS: error= 6.31D-08 at cycle   9 NSaved=   9.
 NSaved= 9 IEnMin= 9 EnMin= -8258.67019072825     IErMin= 9 ErrMin= 6.31D-08
 ErrMax= 6.31D-08  0.00D+00 EMaxC= 1.00D-01 BMatC= 1.03D-12 BMatP= 3.42D-12
 IDIUse=1 WtCom= 1.00D+00 WtEn= 0.00D+00
 Coeff-Com:  0.332D-05-0.271D-03-0.101D-02-0.120D-02-0.836D-04 0.892D-02
 Coeff-Com:  0.927D-01 0.381D+00 0.520D+00
 Coeff:      0.332D-05-0.271D-03-0.101D-02-0.120D-02-0.836D-04 0.892D-02
 Coeff:      0.927D-01 0.381D+00 0.520D+00
 Gap=     0.122 Goal=   None    Shift=    0.000
 RMSDP=1.72D-08 MaxDP=9.75D-07 DE=-1.46D-11 OVMax= 5.63D-07

 Cycle  10  Pass 1  IDiag  1:
 RMSU=  7.91D-09    CP:  1.00D+00  1.02D+00  7.22D-01  6.96D-01  6.44D-01
                    CP:  5.18D-01  6.10D-01  6.55D-01  5.66D-01
 E= -8258.67019072827     Delta-E=       -0.000000000018 Rises=F Damp=F
 DIIS: error= 1.90D-08 at cycle  10 NSaved=  10.
 NSaved=10 IEnMin=10 EnMin= -8258.67019072827     IErMin=10 ErrMin= 1.90D-08
 ErrMax= 1.90D-08  0.00D+00 EMaxC= 1.00D-01 BMatC= 1.47D-13 BMatP= 1.03D-12
 IDIUse=1 WtCom= 1.00D+00 WtEn= 0.00D+00
 Coeff-Com:  0.270D-06 0.262D-03-0.102D-02-0.241D-02-0.634D-02-0.445D-02
 Coeff-Com:  0.254D-01 0.188D+00 0.342D+00 0.458D+00
 Coeff:      0.270D-06 0.262D-03-0.102D-02-0.241D-02-0.634D-02-0.445D-02
 Coeff:      0.254D-01 0.188D+00 0.342D+00 0.458D+00
 Gap=     0.122 Goal=   None    Shift=    0.000
 RMSDP=6.70D-09 MaxDP=5.95D-07 DE=-1.82D-11 OVMax= 1.93D-07

 SCF Done:  E(RB3LYP) =  -8258.67019073     A.U. after   10 cycles
            NFock= 10  Conv=0.67D-08     -V/T= 2.0014
 KE= 8.247203176468D+03 PE=-2.364063632491D+04 EE= 5.179284725930D+03
 Leave Link  502 at Tue Sep 29 16:30:40 2026, MaxMem=  5100273664 cpu:             549.5 elap:              34.4
 (Enter /share/software/user/restricted/gaussian/g16.B01/l701.exe)
 ... and contract with generalized density number  0.
 Compute integral first derivatives.
 Leave Link  701 at Tue Sep 29 16:30:40 2026, MaxMem=  5100273664 cpu:               2.3 elap:               0.2
 (Enter /share/software/user/restricted/gaussian/g16.B01/l702.exe)
 L702 exits ... SP integral derivatives will be done elsewhere.
 Leave Link  702 at Tue Sep 29 16:30:40 2026, MaxMem=  5100273664 cpu:               0.4 elap:               0.0
 (Enter /share/software/user/restricted/gaussian/g16.B01/l703.exe)
 Integral derivatives from FoFJK, PRISM(SPDF).
 Compute integral first derivatives, UseDBF=F ICtDFT=           0.
 Calling FoFJK, ICntrl=      2127 FMM=F ISym2X=0 I1Cent= 0 IOpClX= 0 NMat=1 NMatS=1 NMatT=0.
 FoFJK:  IHMeth= 1 ICntrl=    2127 DoSepK=F KAlg= 0 I1Cent=           0 FoldK=F
 IRaf=         0 NMat=       1 IRICut=       1 DoRegI=T DoRafI=F ISym2E= 0 IDoP0=0 IntGTp=1.
 FoFCou: FMM=F IPFlag=           0 FMFlag=      100000 FMFlg1=         800
         NFxFlg=           0 DoJE=F BraDBF=F KetDBF=F FulRan=T
         wScrn=  0.000000 ICntrl=      2127 IOpCl=  0 I1Cent=           0 NGrid=           0
         NMat0=    1 NMatS0=      1 NMatT0=    0 NMatD0=    1 NMtDS0=    0 NMtDT0=    0
 Symmetry not used in FoFCou.
 Leave Link  703 at Tue Sep 29 16:30:52 2026, MaxMem=  5100273664 cpu:             191.8 elap:              12.0
 (Enter /share/software/user/restricted/gaussian/g16.B01/l716.exe)
 Dipole        =-1.40567734D+00 6.75681604D-01 3.77948619D-03
 ***** Axes restored to original set *****
 -------------------------------------------------------------------
 Center     Atomic                   Forces (Hartrees/Bohr)
 Number     Number              X              Y              Z
 -------------------------------------------------------------------
      1        6           0.000091773   -0.000029490    0.000052373
      2        6          -0.000038918    0.000010968    0.000005559
      3        6           0.000066962   -0.000049748   -0.000010533
      4        6          -0.000116204    0.000038428    0.000012549
      5        6           0.000079298   -0.000020032   -0.000010836
      6        6          -0.000105066   -0.000019333   -0.000009302
      7        6           0.000110401    0.000001410    0.000045738
      8        6           0.000001415    0.000107410    0.000015089
      9        6          -0.000064640   -0.000012346    0.000003980
     10        6           0.000139962   -0.000047401   -0.000023416
     11        6          -0.000094345    0.000007860    0.000006475
     12        6          -0.000013988    0.000042233    0.000011641
     13        8          -0.000034226   -0.000060120   -0.000093231
     14       35           0.000005683    0.000016349    0.000005237
     15        1          -0.000000279    0.000003703    0.000000362
     16       35           0.000025785    0.000009427   -0.000004472
     17        1           0.000000975    0.000011302    0.000007668
     18        1          -0.000037499   -0.000014402   -0.000020138
     19        1           0.000005766    0.000005689    0.000003588
     20       35          -0.000041650    0.000014505    0.000005705
     21        1           0.000002597   -0.000002740    0.000000152
     22        1           0.000016196   -0.000013673   -0.000004188
 -------------------------------------------------------------------
 Cartesian Forces:  Max     0.000139962 RMS     0.000045635
 Leave Link  716 at Tue Sep 29 16:30:52 2026, MaxMem=  5100273664 cpu:               0.4 elap:               0.0
 (Enter /share/software/user/restricted/gaussian/g16.B01/l103.exe)

 GradGradGradGradGradGradGradGradGradGradGradGradGradGradGradGradGradGrad
 Berny optimization.
 Using GEDIIS/GDIIS optimizer.
 FormGI is forming the generalized inverse of G from B-inverse, IUseBI=4.
 GSVD:  received Info=                   1 from GESDD.
 Internal  Forces:  Max     0.000324222 RMS     0.000048867
 Search for a local minimum.
 Step number  16 out of a maximum of  116
 All quantities printed in internal units (Hartrees-Bohrs-Radians)
 RMS Force = .48867D-04 SwitMx=.10000D-02 MixMth= 2
 Mixed Optimization -- En-DIIS/RFO-DIIS
 Swapping is turned off.
 Update second derivatives using D2CorX and points    6    8    7    9   10
                                                     11   12   13   14   15
                                                     16
 DE= -3.35D-07 DEPred=-2.14D-07 R= 1.56D+00
 Trust test= 1.56D+00 RLast= 7.28D-03 DXMaxT set to 3.00D-01
 ITU=  0  0  0  1  1  1  1  0 -1  1 -1  1  1 -1  0  0
     Eigenvalues ---    0.00278   0.01825   0.02001   0.02025   0.02055
     Eigenvalues ---    0.02088   0.02094   0.02108   0.02114   0.02125
     Eigenvalues ---    0.02131   0.02137   0.02167   0.02180   0.02190
     Eigenvalues ---    0.02248   0.02301   0.02664   0.04106   0.12497
     Eigenvalues ---    0.15430   0.16005   0.16007   0.16020   0.16061
     Eigenvalues ---    0.18658   0.18993   0.20559   0.22176   0.22873
     Eigenvalues ---    0.23716   0.24181   0.24375   0.24899   0.24989
     Eigenvalues ---    0.25014   0.25332   0.30106   0.33615   0.33718
     Eigenvalues ---    0.33723   0.33810   0.34146   0.37395   0.41278
     Eigenvalues ---    0.41457   0.42462   0.44795   0.45126   0.45351
     Eigenvalues ---    0.45620   0.45987   0.46420   0.46660   0.47502
     Eigenvalues ---    0.47585   0.49815   0.60924   1.37891  20.86648
 En-DIIS/RFO-DIIS/Sim-DIIS IScMMF=       -3 using points:    16   15   14   13   12
 RFO step:  Lambda=-4.91043134D-07.
 NNeg= 0 NGDIIS= 5 SimSw=  2.50D-01 Rises=F DC= -3.35D-07 SmlDif=  1.00D-05
 NRisDI= 0 DoIntr=F SqrtH=F CThrHd= 10.0 CDAdj=  3.0
 RMS Error=  0.1090645766D-02 NUsed= 5 OKEnD=F EnDIS=F
 InvSVX:  RCond= 4.73D-09 Info=           0 Equed=N FErr=  1.93D-11 BErr=  7.52D-17
 DIIS inversion failure, remove point   5.
 InvSVX:  RCond= 1.01D-08 Info=           0 Equed=N FErr=  1.04D-11 BErr=  2.96D-17
 DIIS inversion failure, remove point   4.
 InvSVX:  RCond= 1.36D-08 Info=           0 Equed=N FErr=  8.61D-12 BErr=  2.26D-17
 DIIS inversion failure, remove point   3.
 InvSVX:  RCond= 1.33D-05 Info=           0 Equed=N FErr=  8.06D-15 BErr=  4.38D-17
 RFO-DIIS uses    2 points instead of    5
 DidBck=F Rises=F RFO-DIIS coefs:    2.53619   -1.53619    0.00000    0.00000    0.00000
 Iteration  1 RMS(Cart)=  0.00259661 RMS(Int)=  0.00000204
 Iteration  2 RMS(Cart)=  0.00001139 RMS(Int)=  0.00000006
 Iteration  3 RMS(Cart)=  0.00000000 RMS(Int)=  0.00000006
 ITry= 1 IFail=0 DXMaxC= 1.06D-02 DCOld= 1.00D+10 DXMaxT= 3.00D-01 DXLimC= 3.00D+00 Rises=F
 Variable       Old X    -DE/DX   Delta X   Delta X   Delta X     New X
                                 (Linear)    (Quad)   (Total)
    R1        2.64305   0.00002  -0.00011   0.00005  -0.00006   2.64299
    R2        2.62286   0.00007  -0.00007   0.00001  -0.00006   2.62280
    R3        2.66046   0.00005  -0.00000  -0.00002  -0.00002   2.66043
    R4        2.62583  -0.00003   0.00011  -0.00005   0.00006   2.62589
    R5        3.73492   0.00002  -0.00013   0.00008  -0.00005   3.73487
    R6        2.62736  -0.00004   0.00004  -0.00003   0.00001   2.62737
    R7        2.04242   0.00000  -0.00003   0.00001  -0.00001   2.04241
    R8        2.62622   0.00004  -0.00023   0.00011  -0.00012   2.62611
    R9        3.73299  -0.00003   0.00049  -0.00021   0.00029   3.73328
   R10        2.65095  -0.00002   0.00017  -0.00009   0.00008   2.65103
   R11        2.05880  -0.00001  -0.00003  -0.00000  -0.00003   2.05877
   R12        4.27133  -0.00003  -0.00035   0.00018  -0.00017   4.27116
   R13        2.65120  -0.00010  -0.00002  -0.00006  -0.00008   2.65112
   R14        2.65763  -0.00002   0.00013  -0.00005   0.00008   2.65771
   R15        2.55966   0.00000   0.00016  -0.00006   0.00010   2.55976
   R16        2.63868  -0.00001  -0.00002  -0.00001  -0.00002   2.63866
   R17        2.62251   0.00003  -0.00004   0.00004   0.00001   2.62252
   R18        2.04939  -0.00001   0.00001  -0.00000   0.00001   2.04940
   R19        2.63112   0.00004  -0.00001   0.00005   0.00004   2.63116
   R20        3.65996  -0.00004  -0.00001  -0.00013  -0.00014   3.65982
   R21        2.62445  -0.00003  -0.00003  -0.00001  -0.00005   2.62441
   R22        2.04846   0.00000   0.00001   0.00000   0.00001   2.04847
   R23        2.04968  -0.00002   0.00004  -0.00003   0.00001   2.04969
    A1        2.12514  -0.00007   0.00005  -0.00007  -0.00002   2.12511
    A2        1.97390  -0.00016   0.00022  -0.00011   0.00011   1.97401
    A3        2.18415   0.00023  -0.00027   0.00018  -0.00009   2.18406
    A4        2.11636   0.00003  -0.00004   0.00000  -0.00004   2.11632
    A5        2.13675  -0.00002   0.00009  -0.00002   0.00007   2.13683
    A6        2.03007  -0.00001  -0.00005   0.00002  -0.00003   2.03004
    A7        2.04057   0.00004  -0.00013   0.00011  -0.00002   2.04056
    A8        2.11444  -0.00002   0.00014  -0.00008   0.00006   2.11450
    A9        2.12818  -0.00002  -0.00001  -0.00003  -0.00004   2.12813
   A10        2.13379  -0.00004   0.00027  -0.00014   0.00012   2.13392
   A11        2.04994   0.00002  -0.00016   0.00008  -0.00008   2.04986
   A12        2.09945   0.00002  -0.00011   0.00006  -0.00004   2.09940
   A13        2.10838   0.00002  -0.00024   0.00006  -0.00018   2.10820
   A14        2.06940  -0.00001   0.00040  -0.00011   0.00029   2.06969
   A15        2.10540  -0.00001  -0.00016   0.00005  -0.00011   2.10530
   A16        2.04213   0.00002   0.00009   0.00004   0.00014   2.04227
   A17        1.71010   0.00005   0.00045  -0.00032   0.00014   1.71023
   A18        2.53093  -0.00007  -0.00055   0.00027  -0.00027   2.53065
   A19        2.07719   0.00002  -0.00018   0.00009  -0.00008   2.07710
   A20        2.22244  -0.00001   0.00046  -0.00026   0.00020   2.22264
   A21        1.98355  -0.00001  -0.00028   0.00016  -0.00012   1.98344
   A22        2.08947   0.00003   0.00005   0.00000   0.00006   2.08952
   A23        2.09920  -0.00000   0.00006  -0.00001   0.00005   2.09925
   A24        2.08292   0.00001  -0.00017   0.00006  -0.00010   2.08282
   A25        2.10107  -0.00000   0.00010  -0.00005   0.00005   2.10112
   A26        2.10894  -0.00005  -0.00002  -0.00008  -0.00010   2.10884
   A27        2.09128   0.00003  -0.00004   0.00006   0.00002   2.09130
   A28        2.08296   0.00003   0.00006   0.00002   0.00008   2.08305
   A29        2.07719   0.00004  -0.00007   0.00011   0.00004   2.07723
   A30        2.10767  -0.00002   0.00012  -0.00010   0.00002   2.10769
   A31        2.09833  -0.00002  -0.00005  -0.00001  -0.00007   2.09827
   A32        2.11439  -0.00003   0.00015  -0.00012   0.00003   2.11442
   A33        2.06436   0.00003  -0.00021   0.00013  -0.00008   2.06428
   A34        2.10444  -0.00000   0.00006  -0.00001   0.00004   2.10449
   A35        2.24028   0.00032  -0.00017   0.00015  -0.00001   2.24026
    D1        0.00039   0.00001   0.00017  -0.00013   0.00004   0.00043
    D2       -3.14060   0.00000   0.00006  -0.00016  -0.00010  -3.14070
    D3       -3.14037   0.00000  -0.00028  -0.00018  -0.00046  -3.14083
    D4        0.00183  -0.00000  -0.00039  -0.00022  -0.00061   0.00122
    D5        0.00018  -0.00001  -0.00030   0.00006  -0.00023  -0.00005
    D6       -3.13514  -0.00002  -0.00008   0.00008  -0.00000  -3.13515
    D7        3.14083  -0.00001   0.00021   0.00012   0.00033   3.14117
    D8        0.00551  -0.00001   0.00042   0.00014   0.00056   0.00607
    D9       -3.13317  -0.00007  -0.00462  -0.00005  -0.00467  -3.13784
   D10        0.00930  -0.00007  -0.00508  -0.00011  -0.00520   0.00410
   D11       -0.00032  -0.00000   0.00001   0.00008   0.00009  -0.00024
   D12        3.14146  -0.00000  -0.00006   0.00005  -0.00001   3.14145
   D13        3.14070   0.00001   0.00010   0.00012   0.00022   3.14092
   D14       -0.00070   0.00000   0.00004   0.00008   0.00012  -0.00058
   D15       -0.00031  -0.00000  -0.00004   0.00002  -0.00002  -0.00033
   D16        3.14110   0.00000   0.00001   0.00005   0.00006   3.14116
   D17        3.14109  -0.00000   0.00003   0.00005   0.00008   3.14117
   D18       -0.00068   0.00000   0.00008   0.00008   0.00016  -0.00053
   D19        0.00090  -0.00000  -0.00010  -0.00008  -0.00018   0.00072
   D20       -3.14090   0.00000   0.00009  -0.00011  -0.00003  -3.14093
   D21       -3.14050  -0.00001  -0.00015  -0.00011  -0.00026  -3.14077
   D22        0.00088  -0.00000   0.00004  -0.00014  -0.00011   0.00077
   D23       -0.00081   0.00001   0.00026   0.00004   0.00030  -0.00050
   D24        3.12996   0.00002  -0.00010   0.00001  -0.00009   3.12987
   D25        3.14100   0.00000   0.00007   0.00007   0.00014   3.14114
   D26       -0.01142   0.00001  -0.00029   0.00004  -0.00025  -0.01167
   D27       -0.00063  -0.00000   0.00020   0.00005   0.00026  -0.00038
   D28       -3.13926   0.00000  -0.00068  -0.00001  -0.00069  -3.13995
   D29        0.00021   0.00000  -0.00007  -0.00004  -0.00012   0.00010
   D30       -3.14130   0.00000   0.00001  -0.00005  -0.00004  -3.14134
   D31        3.13924   0.00000   0.00070   0.00001   0.00070   3.13994
   D32       -0.00227  -0.00000   0.00078  -0.00000   0.00078  -0.00149
   D33       -0.01965  -0.00001   0.00647   0.00003   0.00649  -0.01315
   D34        3.12477  -0.00001   0.00562  -0.00003   0.00559   3.13036
   D35        0.00062  -0.00000  -0.00020  -0.00002  -0.00022   0.00040
   D36       -3.14120  -0.00000  -0.00009  -0.00001  -0.00010  -3.14129
   D37       -0.00019   0.00000   0.00005  -0.00001   0.00004  -0.00015
   D38        3.14148  -0.00000   0.00015  -0.00002   0.00013  -3.14158
   D39       -3.14155   0.00000  -0.00006  -0.00002  -0.00008   3.14155
   D40        0.00011   0.00000   0.00004  -0.00003   0.00001   0.00012
   D41       -0.00023  -0.00000   0.00009   0.00002   0.00010  -0.00013
   D42       -3.14153  -0.00000  -0.00006   0.00002  -0.00004  -3.14157
   D43        3.14129   0.00000  -0.00002   0.00003   0.00001   3.14130
   D44       -0.00001   0.00000  -0.00017   0.00003  -0.00013  -0.00014
   D45        0.00022  -0.00000  -0.00007   0.00001  -0.00006   0.00016
   D46       -3.14146   0.00000  -0.00016   0.00002  -0.00014   3.14159
   D47        3.14151  -0.00000   0.00008   0.00000   0.00008   3.14159
   D48       -0.00016   0.00000  -0.00001   0.00001   0.00000  -0.00016
         Item               Value     Threshold  Converged?
 Maximum Force            0.000324     0.000450     YES
 RMS     Force            0.000049     0.000300     YES
 Maximum Displacement     0.010632     0.001800     NO 
 RMS     Displacement     0.002597     0.001200     NO 
 Predicted change in Energy=-2.455311D-07
 Lowest energy point so far.  Saving SCF results.
 GradGradGradGradGradGradGradGradGradGradGradGradGradGradGradGradGradGrad

 Leave Link  103 at Tue Sep 29 16:30:52 2026, MaxMem=  5100273664 cpu:               1.3 elap:               0.1
 (Enter /share/software/user/restricted/gaussian/g16.B01/l202.exe)
                          Input orientation:                          
 ---------------------------------------------------------------------
 Center     Atomic      Atomic             Coordinates (Angstroms)
 Number     Number       Type             X           Y           Z
 ---------------------------------------------------------------------
      1          6           0       -1.300842   -1.042813    0.083731
      2          6           0       -2.343197   -0.123509    0.240236
      3          6           0       -3.668392   -0.538172    0.293054
      4          6           0       -3.905421   -1.903735    0.183008
      5          6           0       -2.876812   -2.824981    0.026595
      6          6           0       -1.539108   -2.405707   -0.026202
      7          6           0        1.179871   -1.029367   -0.088297
      8          6           0        1.446070   -2.400076   -0.224140
      9          6           0        2.764677   -2.839154   -0.359011
     10          6           0        3.809730   -1.926036   -0.358574
     11          6           0        3.565258   -0.561881   -0.224578
     12          6           0        2.254701   -0.122344   -0.090604
     13          8           0       -0.030216   -0.437343    0.053270
     14         35           0       -2.026778    1.821081    0.397201
     15          1           0       -4.472569    0.173691    0.414174
     16         35           0       -5.783958   -2.510784    0.256867
     17          1           0       -3.130941   -3.881290   -0.054273
     18          1           0        0.607678   -3.085161   -0.221568
     19          1           0        2.963310   -3.900136   -0.463894
     20         35           0        5.633640   -2.549576   -0.546532
     21          1           0        4.382371    0.150431   -0.224400
     22          1           0        2.035306    0.934578    0.015430
 ---------------------------------------------------------------------
                    Distance matrix (angstroms):
                    1          2          3          4          5
     1  C    0.000000
     2  C    1.398612   0.000000
     3  C    2.429767   1.389559   0.000000
     4  C    2.744973   2.369182   1.390344   0.000000
     5  C    2.379720   2.761944   2.434563   1.389675   0.000000
     6  C    1.387925   2.434333   2.850169   2.428000   1.402865
     7  C    2.486708   3.652468   4.887981   5.167042   4.437804
     8  C    3.079362   4.444878   5.467348   5.389859   4.350944
     9  C    4.466689   5.815858   6.863241   6.757145   5.654669
    10  C    5.205158   6.439425   7.633682   7.734169   6.757685
    11  C    4.899519   5.942901   7.252185   7.601168   6.832640
    12  C    3.676893   4.609786   5.950053   6.418358   5.800897
    13  O    1.407840   2.341651   3.647463   4.145401   3.715459
    14  Br   2.971050   1.976409   2.876076   4.177252   4.737700
    15  H    3.413052   2.157036   1.080796   2.165824   3.418873
    16  Br   4.720513   4.187862   2.892772   1.975566   2.933128
    17  H    3.380128   3.850739   3.403811   2.137018   1.089454
    18  H    2.811911   4.206223   5.003675   4.682682   3.502991
    19  H    5.162091   6.551162   7.473636   7.182170   5.958486
    20  Br   7.124227   8.374649   9.553975   9.588693   8.534173
    21  H    5.815298   6.747162   8.096710   8.548279   7.849319
    22  H    3.878740   4.510141   5.897307   6.586072   6.185734
                    6          7          8          9         10
     6  C    0.000000
     7  C    3.048117   0.000000
     8  C    2.991738   1.402910   0.000000
     9  C    4.338341   2.420790   1.396318   0.000000
    10  C    5.380579   2.791635   2.414473   1.387776   0.000000
    11  C    5.430801   2.434581   2.805338   2.417638   1.392351
    12  C    4.428417   1.406398   2.420698   2.777260   2.396504
    13  O    2.481437   1.354565   2.471578   3.708113   4.138963
    14  Br   4.275843   4.317797   5.501355   6.726641   6.976885
    15  H    3.930956   5.800854   6.485522   7.877358   8.579188
    16  Br   4.255575   7.128019   7.246856   8.577079   9.631176
    17  H    2.170729   5.168920   4.813718   5.994767   7.217239
    18  H    2.260203   2.138096   1.082704   2.175328   3.408149
    19  H    4.764101   3.400447   2.147016   1.084498   2.150486
    20  Br   7.193035   4.728326   4.202622   2.889631   1.936692
    21  H    6.452677   3.415619   3.889338   3.401864   2.158156
    22  H    4.892410   2.144669   3.394777   3.861767   3.386971
                   11         12         13         14         15
    11  C    0.000000
    12  C    1.388777   0.000000
    13  O    3.608344   2.311010   0.000000
    14  Br   6.110319   4.727147   3.033979   0.000000
    15  H    8.096649   6.752673   4.498679   2.948911   0.000000
    16  Br   9.562314   8.393176   6.119326   5.735952   2.991804
    17  H    7.475732   6.567811   4.635390   5.825809   4.296775
    18  H    3.887703   3.392362   2.737405   5.603075   6.069035
    19  H    3.400523   3.861759   4.606472   7.640339   8.524045
    20  Br   2.886657   4.185278   6.074583   8.869909  10.510689
    21  H    1.084003   2.149253   4.460213   6.652417   8.877965
    22  H    2.153543   1.084648   2.479915   4.175184   6.564326
                   16         17         18         19         20
    16  Br   0.000000
    17  H    3.002264   0.000000
    18  H    6.435201   3.826106   0.000000
    19  H    8.886196   6.108031   2.504377   0.000000
    20  Br  11.445894   8.878833   5.064854   2.993577   0.000000
    21  H   10.519882   8.528399   4.971657   4.298626   2.993240
    22  H    8.548081   7.063112   4.272305   4.946251   5.040153
                   21         22
    21  H    0.000000
    22  H    2.486186   0.000000
 Stoichiometry    C12H6Br3O(1-)
 Framework group  C1[X(C12H6Br3O)]
 Deg. of freedom    60
 Full point group                 C1      NOp   1
 RotChk:  IX=2 Diff= 1.78D-03
 Largest Abelian subgroup         C1      NOp   1
 Largest concise Abelian subgroup C1      NOp   1
                         Standard orientation:                         
 ---------------------------------------------------------------------
 Center     Atomic      Atomic             Coordinates (Angstroms)
 Number     Number       Type             X           Y           Z
 ---------------------------------------------------------------------
      1          6           0        0.909440    0.097563   -0.002802
      2          6           0        2.037118    0.924883   -0.001447
      3          6           0        3.321103    0.393608    0.000354
      4          6           0        3.428661   -0.992569    0.001032
      5          6           0        2.314472   -1.823099    0.000365
      6          6           0        1.018468   -1.286073   -0.001905
      7          6           0       -1.566452    0.329230   -0.003407
      8          6           0       -1.961126   -1.016989   -0.012612
      9          6           0       -3.319527   -1.340171   -0.010684
     10          6           0       -4.277609   -0.336234   -0.000203
     11          6           0       -3.905229    1.005368    0.008724
     12          6           0       -2.554852    1.329684    0.007168
     13          8           0       -0.301945    0.814886   -0.005527
     14         35           0        1.904945    2.896868   -0.001199
     15          1           0        4.191364    1.034516    0.001265
     16         35           0        5.247021   -1.764855    0.002828
     17          1           0        2.468296   -2.901639    0.001590
     18          1           0       -1.188133   -1.775068   -0.019574
     19          1           0       -3.617635   -2.382870   -0.017556
     20         35           0       -6.158087   -0.799453    0.002374
     21          1           0       -4.654496    1.788690    0.016931
     22          1           0       -2.236389    2.366505    0.013970
 ---------------------------------------------------------------------
 Rotational constants (GHZ):           0.4394096           0.0763778           0.0650679
 Leave Link  202 at Tue Sep 29 16:30:52 2026, MaxMem=  5100273664 cpu:               0.3 elap:               0.0
 (Enter /share/software/user/restricted/gaussian/g16.B01/l301.exe)
 Standard basis: 6-311++G(d) (5D, 7F)
 Ernie: Thresh=  0.10000D-02 Tol=  0.10000D-05 Strict=F.
 There are   476 symmetry adapted cartesian basis functions of A   symmetry.
 There are   454 symmetry adapted basis functions of A   symmetry.
   454 basis functions,   786 primitive gaussians,   476 cartesian basis functions
    96 alpha electrons       96 beta electrons
       nuclear repulsion energy      1955.4529673433 Hartrees.
 IExCor=  402 DFT=T Ex+Corr=B3LYP ExCW=0 ScaHFX=  0.200000
 ScaDFX=  0.800000  0.720000  1.000000  0.810000 ScalE2=  1.000000  1.000000
 IRadAn=      5 IRanWt=     -1 IRanGd=            0 ICorTp=0 IEmpDi=  4
 NAtoms=   22 NActive=   22 NUniq=   22 SFac= 1.00D+00 NAtFMM=   60 NAOKFM=F Big=F
 Integral buffers will be    131072 words long.
 Raffenetti 2 integral format.
 Two-electron integral symmetry is turned on.
 Leave Link  301 at Tue Sep 29 16:30:52 2026, MaxMem=  5100273664 cpu:               0.7 elap:               0.1
 (Enter /share/software/user/restricted/gaussian/g16.B01/l302.exe)
 NPDir=0 NMtPBC=     1 NCelOv=     1 NCel=       1 NClECP=     1 NCelD=      1
         NCelK=      1 NCelE2=     1 NClLst=     1 CellRange=     0.0.
 One-electron integrals computed using PRISM.
 One-electron integral symmetry used in STVInt
 NBasis=   454 RedAO= T EigKep=  1.63D-06  NBF=   454
 NBsUse=   450 1.00D-06 EigRej=  9.05D-07 NBFU=   450
 Precomputing XC quadrature grid using
 IXCGrd= 4 IRadAn=           5 IRanWt=          -1 IRanGd=           0 AccXCQ= 0.00D+00.
 Generated NRdTot=       0 NPtTot=           0 NUsed=           0 NTot=          32
 NSgBfM=   447   447   447   447   447 MxSgAt=    22 MxSgA2=    22.
 Leave Link  302 at Tue Sep 29 16:30:53 2026, MaxMem=  5100273664 cpu:               4.3 elap:               0.3
 (Enter /share/software/user/restricted/gaussian/g16.B01/l303.exe)
 DipDrv:  MaxL=1.
 Leave Link  303 at Tue Sep 29 16:30:53 2026, MaxMem=  5100273664 cpu:               0.7 elap:               0.1
 (Enter /share/software/user/restricted/gaussian/g16.B01/l401.exe)
 Initial guess from the checkpoint file:  "calcs/b3lyp_gas/chks/BDE_24_2r4_anion.chk"
 B after Tr=     0.000000    0.000000    0.000000
         Rot=    1.000000   -0.000000    0.000000    0.000009 Ang=  -0.00 deg.
 Guess basis will be translated and rotated to current coordinates.
 JPrj=2 DoOrth=T DoCkMO=T.
 Leave Link  401 at Tue Sep 29 16:30:53 2026, MaxMem=  5100273664 cpu:               7.1 elap:               0.5
 (Enter /share/software/user/restricted/gaussian/g16.B01/l502.exe)
 Integral symmetry usage will be decided dynamically.
 Closed shell SCF:
 Using DIIS extrapolation, IDIIS=  1040.
 NGot=  5100273664 LenX=  5099808623 LenY=  5099581571
 Requested convergence on RMS density matrix=1.00D-08 within 128 cycles.
 Requested convergence on MAX density matrix=1.00D-06.
 Requested convergence on             energy=1.00D-06.
 No special actions if energy rises.
 Fock matrices will be formed incrementally for  20 cycles.

 Cycle   1  Pass 1  IDiag  1:
 FoFJK:  IHMeth= 1 ICntrl=       0 DoSepK=F KAlg= 0 I1Cent=           0 FoldK=F
 IRaf= 770000000 NMat=       1 IRICut=       1 DoRegI=T DoRafI=F ISym2E= 0 IDoP0=0 IntGTp=1.
 FoFCou: FMM=F IPFlag=           0 FMFlag=      100000 FMFlg1=           0
         NFxFlg=           0 DoJE=F BraDBF=F KetDBF=F FulRan=T
         wScrn=  0.000000 ICntrl=         0 IOpCl=  0 I1Cent=           0 NGrid=           0
         NMat0=    1 NMatS0=      1 NMatT0=    0 NMatD0=    1 NMtDS0=    0 NMtDT0=    0
 Symmetry not used in FoFCou.
 E= -8258.67013732381    
 DIIS: error= 6.91D-04 at cycle   1 NSaved=   1.
 NSaved= 1 IEnMin= 1 EnMin= -8258.67013732381     IErMin= 1 ErrMin= 6.91D-04
 ErrMax= 6.91D-04  0.00D+00 EMaxC= 1.00D-01 BMatC= 1.40D-04 BMatP= 1.40D-04
 IDIUse=3 WtCom= 9.93D-01 WtEn= 6.91D-03
 Coeff-Com:  0.100D+01
 Coeff-En:   0.100D+01
 Coeff:      0.100D+01
 Gap=     0.307 Goal=   None    Shift=    0.000
 RMSDP=1.18D-04 MaxDP=5.77D-03              OVMax= 2.16D-03

 Cycle   2  Pass 1  IDiag  1:
 RMSU=  1.17D-04    CP:  1.00D+00
 E= -8258.67019055940     Delta-E=       -0.000053235592 Rises=F Damp=F
 DIIS: error= 3.16D-05 at cycle   2 NSaved=   2.
 NSaved= 2 IEnMin= 2 EnMin= -8258.67019055940     IErMin= 2 ErrMin= 3.16D-05
 ErrMax= 3.16D-05  0.00D+00 EMaxC= 1.00D-01 BMatC= 2.59D-07 BMatP= 1.40D-04
 IDIUse=1 WtCom= 1.00D+00 WtEn= 0.00D+00
 Coeff-Com: -0.710D-02 0.101D+01
 Coeff:     -0.710D-02 0.101D+01
 Gap=     0.122 Goal=   None    Shift=    0.000
 RMSDP=1.35D-05 MaxDP=1.01D-03 DE=-5.32D-05 OVMax= 2.00D-04

 Cycle   3  Pass 1  IDiag  1:
 RMSU=  1.34D-05    CP:  1.00D+00  1.01D+00
 E= -8258.67019100040     Delta-E=       -0.000000441003 Rises=F Damp=F
 DIIS: error= 1.57D-05 at cycle   3 NSaved=   3.
 NSaved= 3 IEnMin= 3 EnMin= -8258.67019100040     IErMin= 3 ErrMin= 1.57D-05
 ErrMax= 1.57D-05  0.00D+00 EMaxC= 1.00D-01 BMatC= 9.33D-08 BMatP= 2.59D-07
 IDIUse=1 WtCom= 1.00D+00 WtEn= 0.00D+00
 Coeff-Com: -0.340D-02 0.344D+00 0.659D+00
 Coeff:     -0.340D-02 0.344D+00 0.659D+00
 Gap=     0.122 Goal=   None    Shift=    0.000
 RMSDP=6.62D-06 MaxDP=5.01D-04 DE=-4.41D-07 OVMax= 1.42D-04

 Cycle   4  Pass 1  IDiag  1:
 RMSU=  3.89D-06    CP:  1.00D+00  1.03D+00  6.22D-01
 E= -8258.67019104092     Delta-E=       -0.000000040513 Rises=F Damp=F
 DIIS: error= 1.59D-05 at cycle   4 NSaved=   4.
 NSaved= 4 IEnMin= 4 EnMin= -8258.67019104092     IErMin= 3 ErrMin= 1.57D-05
 ErrMax= 1.59D-05  0.00D+00 EMaxC= 1.00D-01 BMatC= 5.96D-08 BMatP= 9.33D-08
 IDIUse=1 WtCom= 1.00D+00 WtEn= 0.00D+00
 Coeff-Com: -0.119D-02 0.837D-01 0.438D+00 0.480D+00
 Coeff:     -0.119D-02 0.837D-01 0.438D+00 0.480D+00
 Gap=     0.122 Goal=   None    Shift=    0.000
 RMSDP=2.41D-06 MaxDP=1.60D-04 DE=-4.05D-08 OVMax= 9.66D-05

 Cycle   5  Pass 1  IDiag  1:
 RMSU=  1.81D-06    CP:  1.00D+00  1.03D+00  6.57D-01  6.56D-01
 E= -8258.67019108642     Delta-E=       -0.000000045504 Rises=F Damp=F
 DIIS: error= 4.82D-06 at cycle   5 NSaved=   5.
 NSaved= 5 IEnMin= 5 EnMin= -8258.67019108642     IErMin= 5 ErrMin= 4.82D-06
 ErrMax= 4.82D-06  0.00D+00 EMaxC= 1.00D-01 BMatC= 5.84D-09 BMatP= 5.96D-08
 IDIUse=1 WtCom= 1.00D+00 WtEn= 0.00D+00
 Coeff-Com: -0.117D-03-0.149D-01 0.145D+00 0.286D+00 0.585D+00
 Coeff:     -0.117D-03-0.149D-01 0.145D+00 0.286D+00 0.585D+00
 Gap=     0.122 Goal=   None    Shift=    0.000
 RMSDP=1.36D-06 MaxDP=8.70D-05 DE=-4.55D-08 OVMax= 3.22D-05

 Cycle   6  Pass 1  IDiag  1:
 RMSU=  5.22D-07    CP:  1.00D+00  1.02D+00  7.21D-01  6.89D-01  5.50D-01
 E= -8258.67019109137     Delta-E=       -0.000000004948 Rises=F Damp=F
 DIIS: error= 2.72D-06 at cycle   6 NSaved=   6.
 NSaved= 6 IEnMin= 6 EnMin= -8258.67019109137     IErMin= 6 ErrMin= 2.72D-06
 ErrMax= 2.72D-06  0.00D+00 EMaxC= 1.00D-01 BMatC= 1.17D-09 BMatP= 5.84D-09
 IDIUse=1 WtCom= 1.00D+00 WtEn= 0.00D+00
 Coeff-Com:  0.403D-04-0.195D-01 0.541D-01 0.144D+00 0.392D+00 0.430D+00
 Coeff:      0.403D-04-0.195D-01 0.541D-01 0.144D+00 0.392D+00 0.430D+00
 Gap=     0.122 Goal=   None    Shift=    0.000
 RMSDP=3.19D-07 MaxDP=1.58D-05 DE=-4.95D-09 OVMax= 1.20D-05

 Cycle   7  Pass 1  IDiag  1:
 RMSU=  1.68D-07    CP:  1.00D+00  1.02D+00  7.24D-01  6.87D-01  5.98D-01
                    CP:  5.32D-01
 E= -8258.67019109260     Delta-E=       -0.000000001237 Rises=F Damp=F
 DIIS: error= 4.84D-07 at cycle   7 NSaved=   7.
 NSaved= 7 IEnMin= 7 EnMin= -8258.67019109260     IErMin= 7 ErrMin= 4.84D-07
 ErrMax= 4.84D-07  0.00D+00 EMaxC= 1.00D-01 BMatC= 6.04D-11 BMatP= 1.17D-09
 IDIUse=1 WtCom= 1.00D+00 WtEn= 0.00D+00
 Coeff-Com:  0.365D-04-0.964D-02 0.142D-01 0.491D-01 0.154D+00 0.240D+00
 Coeff-Com:  0.553D+00
 Coeff:      0.365D-04-0.964D-02 0.142D-01 0.491D-01 0.154D+00 0.240D+00
 Coeff:      0.553D+00
 Gap=     0.122 Goal=   None    Shift=    0.000
 RMSDP=1.48D-07 MaxDP=9.76D-06 DE=-1.24D-09 OVMax= 2.13D-06

 Cycle   8  Pass 1  IDiag  1:
 RMSU=  6.23D-08    CP:  1.00D+00  1.02D+00  7.19D-01  7.00D-01  6.30D-01
                    CP:  5.12D-01  5.37D-01
 E= -8258.67019109265     Delta-E=       -0.000000000044 Rises=F Damp=F
 DIIS: error= 9.63D-08 at cycle   8 NSaved=   8.
 NSaved= 8 IEnMin= 8 EnMin= -8258.67019109265     IErMin= 8 ErrMin= 9.63D-08
 ErrMax= 9.63D-08  0.00D+00 EMaxC= 1.00D-01 BMatC= 3.24D-12 BMatP= 6.04D-11
 IDIUse=1 WtCom= 1.00D+00 WtEn= 0.00D+00
 Coeff-Com:  0.110D-04-0.212D-02 0.999D-03 0.731D-02 0.279D-01 0.608D-01
 Coeff-Com:  0.235D+00 0.670D+00
 Coeff:      0.110D-04-0.212D-02 0.999D-03 0.731D-02 0.279D-01 0.608D-01
 Coeff:      0.235D+00 0.670D+00
 Gap=     0.122 Goal=   None    Shift=    0.000
 RMSDP=5.37D-08 MaxDP=4.46D-06 DE=-4.37D-11 OVMax= 1.07D-06

 Cycle   9  Pass 1  IDiag  1:
 RMSU=  3.51D-08    CP:  1.00D+00  1.02D+00  7.19D-01  6.99D-01  6.25D-01
                    CP:  5.46D-01  6.29D-01  5.09D-01
 E= -8258.67019109266     Delta-E=       -0.000000000015 Rises=F Damp=F
 DIIS: error= 8.47D-08 at cycle   9 NSaved=   9.
 NSaved= 9 IEnMin= 9 EnMin= -8258.67019109266     IErMin= 9 ErrMin= 8.47D-08
 ErrMax= 8.47D-08  0.00D+00 EMaxC= 1.00D-01 BMatC= 1.56D-12 BMatP= 3.24D-12
 IDIUse=1 WtCom= 1.00D+00 WtEn= 0.00D+00
 Coeff-Com:  0.197D-05 0.415D-04-0.145D-02-0.254D-02-0.444D-02 0.458D-02
 Coeff-Com:  0.750D-01 0.451D+00 0.478D+00
 Coeff:      0.197D-05 0.415D-04-0.145D-02-0.254D-02-0.444D-02 0.458D-02
 Coeff:      0.750D-01 0.451D+00 0.478D+00
 Gap=     0.122 Goal=   None    Shift=    0.000
 RMSDP=2.49D-08 MaxDP=1.50D-06 DE=-1.46D-11 OVMax= 5.53D-07

 Cycle  10  Pass 1  IDiag  1:
 RMSU=  7.43D-09    CP:  1.00D+00  1.02D+00  7.19D-01  6.99D-01  6.26D-01
                    CP:  5.37D-01  6.27D-01  7.22D-01  4.85D-01
 E= -8258.67019109267     Delta-E=       -0.000000000013 Rises=F Damp=F
 DIIS: error= 2.15D-08 at cycle  10 NSaved=  10.
 NSaved=10 IEnMin=10 EnMin= -8258.67019109267     IErMin=10 ErrMin= 2.15D-08
 ErrMax= 2.15D-08  0.00D+00 EMaxC= 1.00D-01 BMatC= 1.20D-13 BMatP= 1.56D-12
 IDIUse=1 WtCom= 1.00D+00 WtEn= 0.00D+00
 Coeff-Com: -0.955D-07 0.287D-03-0.102D-02-0.245D-02-0.619D-02-0.499D-02
 Coeff-Com:  0.161D-01 0.194D+00 0.279D+00 0.525D+00
 Coeff:     -0.955D-07 0.287D-03-0.102D-02-0.245D-02-0.619D-02-0.499D-02
 Coeff:      0.161D-01 0.194D+00 0.279D+00 0.525D+00
 Gap=     0.122 Goal=   None    Shift=    0.000
 RMSDP=6.51D-09 MaxDP=4.69D-07 DE=-1.27D-11 OVMax= 2.18D-07

 SCF Done:  E(RB3LYP) =  -8258.67019109     A.U. after   10 cycles
            NFock= 10  Conv=0.65D-08     -V/T= 2.0014
 KE= 8.247202946423D+03 PE=-2.364058557952D+04 EE= 5.179259474662D+03
 Leave Link  502 at Tue Sep 29 16:31:28 2026, MaxMem=  5100273664 cpu:             548.9 elap:              34.3
 (Enter /share/software/user/restricted/gaussian/g16.B01/l701.exe)
 ... and contract with generalized density number  0.
 Compute integral first derivatives.
 Leave Link  701 at Tue Sep 29 16:31:28 2026, MaxMem=  5100273664 cpu:               2.5 elap:               0.2
 (Enter /share/software/user/restricted/gaussian/g16.B01/l702.exe)
 L702 exits ... SP integral derivatives will be done elsewhere.
 Leave Link  702 at Tue Sep 29 16:31:28 2026, MaxMem=  5100273664 cpu:               0.4 elap:               0.0
 (Enter /share/software/user/restricted/gaussian/g16.B01/l703.exe)
 Integral derivatives from FoFJK, PRISM(SPDF).
 Compute integral first derivatives, UseDBF=F ICtDFT=           0.
 Calling FoFJK, ICntrl=      2127 FMM=F ISym2X=0 I1Cent= 0 IOpClX= 0 NMat=1 NMatS=1 NMatT=0.
 FoFJK:  IHMeth= 1 ICntrl=    2127 DoSepK=F KAlg= 0 I1Cent=           0 FoldK=F
 IRaf=         0 NMat=       1 IRICut=       1 DoRegI=T DoRafI=F ISym2E= 0 IDoP0=0 IntGTp=1.
 FoFCou: FMM=F IPFlag=           0 FMFlag=      100000 FMFlg1=         800
         NFxFlg=           0 DoJE=F BraDBF=F KetDBF=F FulRan=T
         wScrn=  0.000000 ICntrl=      2127 IOpCl=  0 I1Cent=           0 NGrid=           0
         NMat0=    1 NMatS0=      1 NMatT0=    0 NMatD0=    1 NMtDS0=    0 NMtDT0=    0
 Symmetry not used in FoFCou.
 Leave Link  703 at Tue Sep 29 16:31:40 2026, MaxMem=  5100273664 cpu:             191.9 elap:              12.0
 (Enter /share/software/user/restricted/gaussian/g16.B01/l716.exe)
 Dipole        =-1.40635268D+00 6.75581125D-01 8.51017789D-04
 ***** Axes restored to original set *****
 -------------------------------------------------------------------
 Center     Atomic                   Forces (Hartrees/Bohr)
 Number     Number              X              Y              Z
 -------------------------------------------------------------------
      1        6           0.000110804   -0.000045171    0.000034760
      2        6          -0.000083220    0.000017182    0.000008960
      3        6           0.000093319   -0.000061905   -0.000011618
      4        6          -0.000180429    0.000041851    0.000015263
      5        6           0.000160793   -0.000000701   -0.000017363
      6        6          -0.000125851   -0.000062030   -0.000007063
      7        6           0.000129439    0.000081828    0.000022708
      8        6          -0.000120086    0.000038880    0.000018853
      9        6          -0.000057812   -0.000031296    0.000002716
     10        6           0.000101900   -0.000038600   -0.000021841
     11        6          -0.000073090    0.000011141    0.000008175
     12        6          -0.000050975    0.000035540    0.000018038
     13        8          -0.000008285   -0.000078357   -0.000067308
     14       35           0.000012958    0.000022854    0.000005070
     15        1           0.000000897    0.000009652    0.000000663
     16       35           0.000045814    0.000016152   -0.000005085
     17        1          -0.000019719    0.000013207    0.000009759
     18        1           0.000047942    0.000031334   -0.000014002
     19        1           0.000013715    0.000009877    0.000002322
     20       35          -0.000026324    0.000012727    0.000005493
     21        1           0.000004406   -0.000008406   -0.000001892
     22        1           0.000023806   -0.000015756   -0.000006609
 -------------------------------------------------------------------
 Cartesian Forces:  Max     0.000180429 RMS     0.000055430
 Leave Link  716 at Tue Sep 29 16:31:40 2026, MaxMem=  5100273664 cpu:               0.4 elap:               0.0
 (Enter /share/software/user/restricted/gaussian/g16.B01/l103.exe)

 GradGradGradGradGradGradGradGradGradGradGradGradGradGradGradGradGradGrad
 Berny optimization.
 Using GEDIIS/GDIIS optimizer.
 FormGI is forming the generalized inverse of G from B-inverse, IUseBI=4.
 GSVD:  received Info=                   1 from GESDD.
 Internal  Forces:  Max     0.000214313 RMS     0.000041497
 Search for a local minimum.
 Step number  17 out of a maximum of  116
 All quantities printed in internal units (Hartrees-Bohrs-Radians)
 RMS Force = .41497D-04 SwitMx=.10000D-02 MixMth= 2
 Mixed Optimization -- En-DIIS/RFO-DIIS
 Swapping is turned off.
 Update second derivatives using D2CorX and points    6    8    7    9   10
                                                     11   12   13   14   15
                                                     16   17
 DE= -3.64D-07 DEPred=-2.46D-07 R= 1.48D+00
 Trust test= 1.48D+00 RLast= 1.12D-02 DXMaxT set to 3.00D-01
 ITU=  0  0  0  0  1  1  1  1  0 -1  1 -1  1  1 -1  0  0
     Eigenvalues ---    0.00194   0.01833   0.01975   0.02025   0.02055
     Eigenvalues ---    0.02088   0.02093   0.02108   0.02115   0.02125
     Eigenvalues ---    0.02130   0.02137   0.02167   0.02180   0.02190
     Eigenvalues ---    0.02248   0.02300   0.02720   0.04116   0.12450
     Eigenvalues ---    0.14997   0.16005   0.16007   0.16019   0.16068
     Eigenvalues ---    0.18133   0.18992   0.20659   0.21695   0.22842
     Eigenvalues ---    0.23724   0.24049   0.24369   0.24898   0.24997
     Eigenvalues ---    0.25015   0.25290   0.28567   0.33576   0.33716
     Eigenvalues ---    0.33742   0.33800   0.33946   0.37848   0.39994
     Eigenvalues ---    0.41436   0.42473   0.44274   0.44954   0.45342
     Eigenvalues ---    0.45649   0.45924   0.46345   0.46458   0.47372
     Eigenvalues ---    0.47503   0.48317   0.61226   1.46834  20.07404
 En-DIIS/RFO-DIIS/Sim-DIIS IScMMF=       -3 using points:    17   16   15   14   13   12
 RFO step:  Lambda=-3.63137755D-07.
 NNeg= 0 NGDIIS= 6 SimSw=  2.50D-01 Rises=F DC= -3.64D-07 SmlDif=  1.00D-05
 NRisDI= 0 DoIntr=F SqrtH=F CThrHd= 10.0 CDAdj=  3.0
 RMS Error=  0.9705615684D-03 NUsed= 6 OKEnD=F EnDIS=F
 InvSVX:  RCond= 4.76D-10 Info=           0 Equed=N FErr=  3.20D-10 BErr=  9.40D-17
 DIIS inversion failure, remove point   6.
 InvSVX:  RCond= 7.01D-10 Info=           0 Equed=N FErr=  2.28D-10 BErr=  5.92D-17
 DIIS inversion failure, remove point   5.
 InvSVX:  RCond= 9.49D-10 Info=           0 Equed=N FErr=  1.83D-10 BErr=  4.09D-17
 DIIS inversion failure, remove point   4.
 InvSVX:  RCond= 5.88D-09 Info=           0 Equed=N FErr=  3.05D-11 BErr=  5.36D-17
 DIIS inversion failure, remove point   3.
 InvSVX:  RCond= 3.15D-05 Info=           0 Equed=N FErr=  4.10D-15 BErr=  6.79D-17
 RFO-DIIS uses    2 points instead of    6
 DidBck=F Rises=F RFO-DIIS coefs:    1.88611   -0.88611    0.00000    0.00000    0.00000
                  RFO-DIIS coefs:    0.00000
 Iteration  1 RMS(Cart)=  0.00217876 RMS(Int)=  0.00000151
 Iteration  2 RMS(Cart)=  0.00000895 RMS(Int)=  0.00000004
 Iteration  3 RMS(Cart)=  0.00000000 RMS(Int)=  0.00000004
 ITry= 1 IFail=0 DXMaxC= 9.35D-03 DCOld= 1.00D+10 DXMaxT= 3.00D-01 DXLimC= 3.00D+00 Rises=F
 Variable       Old X    -DE/DX   Delta X   Delta X   Delta X     New X
                                 (Linear)    (Quad)   (Total)
    R1        2.64299   0.00002  -0.00005   0.00003  -0.00002   2.64297
    R2        2.62280  -0.00001  -0.00005   0.00001  -0.00004   2.62275
    R3        2.66043  -0.00005  -0.00002  -0.00002  -0.00004   2.66039
    R4        2.62589  -0.00004   0.00005  -0.00004   0.00001   2.62590
    R5        3.73487   0.00002  -0.00005   0.00008   0.00003   3.73490
    R6        2.62737  -0.00002   0.00001  -0.00002  -0.00001   2.62736
    R7        2.04241   0.00001  -0.00001   0.00000  -0.00001   2.04240
    R8        2.62611   0.00009  -0.00010   0.00009  -0.00001   2.62609
    R9        3.73328  -0.00005   0.00025  -0.00018   0.00007   3.73335
   R10        2.65103  -0.00006   0.00007  -0.00006   0.00001   2.65104
   R11        2.05877  -0.00001  -0.00002  -0.00000  -0.00003   2.05874
   R12        4.27116   0.00004  -0.00015   0.00022   0.00007   4.27123
   R13        2.65112  -0.00006  -0.00007  -0.00006  -0.00014   2.65098
   R14        2.65771  -0.00005   0.00007  -0.00005   0.00002   2.65772
   R15        2.55976  -0.00010   0.00009  -0.00006   0.00003   2.55979
   R16        2.63866  -0.00000  -0.00002  -0.00002  -0.00004   2.63862
   R17        2.62252   0.00004   0.00001   0.00003   0.00004   2.62255
   R18        2.04940  -0.00001   0.00001  -0.00001  -0.00000   2.04940
   R19        2.63116   0.00005   0.00003   0.00004   0.00007   2.63124
   R20        3.65982  -0.00003  -0.00012  -0.00009  -0.00021   3.65961
   R21        2.62441  -0.00002  -0.00004  -0.00001  -0.00005   2.62436
   R22        2.04847  -0.00000   0.00001  -0.00001   0.00000   2.04847
   R23        2.04969  -0.00002   0.00001  -0.00003  -0.00002   2.04967
    A1        2.12511   0.00000  -0.00002  -0.00006  -0.00008   2.12503
    A2        1.97401   0.00002   0.00010  -0.00009   0.00001   1.97402
    A3        2.18406  -0.00003  -0.00008   0.00015   0.00007   2.18413
    A4        2.11632  -0.00002  -0.00003   0.00002  -0.00002   2.11630
    A5        2.13683  -0.00001   0.00006  -0.00002   0.00004   2.13687
    A6        2.03004   0.00002  -0.00003   0.00001  -0.00002   2.03002
    A7        2.04056   0.00004  -0.00002   0.00008   0.00007   2.04062
    A8        2.11450  -0.00003   0.00005  -0.00006  -0.00001   2.11449
    A9        2.12813  -0.00001  -0.00004  -0.00002  -0.00006   2.12807
   A10        2.13392  -0.00004   0.00011  -0.00013  -0.00002   2.13390
   A11        2.04986   0.00002  -0.00007   0.00007   0.00000   2.04987
   A12        2.09940   0.00002  -0.00004   0.00005   0.00001   2.09942
   A13        2.10820   0.00001  -0.00016   0.00007  -0.00009   2.10811
   A14        2.06969  -0.00003   0.00025  -0.00010   0.00015   2.06984
   A15        2.10530   0.00002  -0.00009   0.00004  -0.00006   2.10524
   A16        2.04227   0.00001   0.00012   0.00002   0.00014   2.04241
   A17        1.71023  -0.00010   0.00012  -0.00030  -0.00018   1.71005
   A18        2.53065   0.00009  -0.00024   0.00028   0.00004   2.53069
   A19        2.07710   0.00009  -0.00007   0.00008   0.00001   2.07711
   A20        2.22264  -0.00021   0.00018  -0.00024  -0.00006   2.22258
   A21        1.98344   0.00013  -0.00010   0.00016   0.00006   1.98349
   A22        2.08952  -0.00002   0.00005   0.00002   0.00007   2.08959
   A23        2.09925  -0.00002   0.00005  -0.00002   0.00002   2.09927
   A24        2.08282   0.00002  -0.00009   0.00006  -0.00003   2.08278
   A25        2.10112  -0.00001   0.00005  -0.00003   0.00001   2.10113
   A26        2.10884  -0.00002  -0.00009  -0.00006  -0.00015   2.10869
   A27        2.09130   0.00002   0.00002   0.00004   0.00006   2.09136
   A28        2.08305   0.00000   0.00007   0.00001   0.00009   2.08313
   A29        2.07723   0.00003   0.00004   0.00009   0.00012   2.07735
   A30        2.10769  -0.00003   0.00002  -0.00007  -0.00005   2.10764
   A31        2.09827  -0.00001  -0.00006  -0.00001  -0.00007   2.09819
   A32        2.11442  -0.00006   0.00003  -0.00010  -0.00007   2.11435
   A33        2.06428   0.00005  -0.00007   0.00011   0.00004   2.06431
   A34        2.10449   0.00001   0.00004  -0.00001   0.00003   2.10452
   A35        2.24026  -0.00017  -0.00001   0.00014   0.00013   2.24039
    D1        0.00043   0.00000   0.00004  -0.00014  -0.00010   0.00033
    D2       -3.14070  -0.00000  -0.00009  -0.00017  -0.00025  -3.14095
    D3       -3.14083  -0.00000  -0.00041  -0.00017  -0.00058  -3.14141
    D4        0.00122  -0.00000  -0.00054  -0.00020  -0.00074   0.00049
    D5       -0.00005  -0.00001  -0.00021   0.00010  -0.00010  -0.00016
    D6       -3.13515  -0.00001  -0.00000   0.00014   0.00014  -3.13501
    D7        3.14117  -0.00000   0.00030   0.00014   0.00044  -3.14158
    D8        0.00607  -0.00001   0.00050   0.00018   0.00068   0.00675
    D9       -3.13784  -0.00004  -0.00414  -0.00000  -0.00414   3.14121
   D10        0.00410  -0.00005  -0.00460  -0.00003  -0.00464  -0.00054
   D11       -0.00024  -0.00000   0.00008   0.00004   0.00012  -0.00011
   D12        3.14145  -0.00000  -0.00001   0.00005   0.00004   3.14149
   D13        3.14092   0.00000   0.00020   0.00007   0.00027   3.14119
   D14       -0.00058   0.00000   0.00011   0.00008   0.00019  -0.00039
   D15       -0.00033  -0.00000  -0.00002   0.00008   0.00006  -0.00027
   D16        3.14116   0.00000   0.00005   0.00007   0.00012   3.14128
   D17        3.14117  -0.00000   0.00007   0.00007   0.00014   3.14131
   D18       -0.00053   0.00000   0.00014   0.00006   0.00020  -0.00032
   D19        0.00072  -0.00000  -0.00016  -0.00011  -0.00027   0.00045
   D20       -3.14093   0.00000  -0.00002  -0.00015  -0.00018  -3.14111
   D21       -3.14077  -0.00000  -0.00023  -0.00010  -0.00033  -3.14110
   D22        0.00077  -0.00000  -0.00009  -0.00015  -0.00024   0.00053
   D23       -0.00050   0.00000   0.00027   0.00001   0.00028  -0.00022
   D24        3.12987   0.00001  -0.00008  -0.00006  -0.00014   3.12973
   D25        3.14114   0.00000   0.00013   0.00006   0.00019   3.14133
   D26       -0.01167   0.00001  -0.00022  -0.00001  -0.00023  -0.01190
   D27       -0.00038  -0.00000   0.00023   0.00002   0.00025  -0.00013
   D28       -3.13995   0.00000  -0.00061  -0.00001  -0.00062  -3.14058
   D29        0.00010   0.00000  -0.00010  -0.00001  -0.00011  -0.00001
   D30       -3.14134   0.00000  -0.00004  -0.00003  -0.00007  -3.14141
   D31        3.13994  -0.00000   0.00062   0.00002   0.00064   3.14058
   D32       -0.00149  -0.00000   0.00069  -0.00001   0.00068  -0.00081
   D33       -0.01315  -0.00001   0.00575  -0.00001   0.00575  -0.00741
   D34        3.13036  -0.00001   0.00495  -0.00004   0.00492   3.13528
   D35        0.00040  -0.00000  -0.00019  -0.00002  -0.00022   0.00019
   D36       -3.14129  -0.00000  -0.00009  -0.00002  -0.00011  -3.14140
   D37       -0.00015   0.00000   0.00003   0.00001   0.00005  -0.00010
   D38       -3.14158  -0.00000   0.00012  -0.00002   0.00010  -3.14148
   D39        3.14155   0.00000  -0.00007   0.00001  -0.00006   3.14149
   D40        0.00012  -0.00000   0.00001  -0.00002  -0.00001   0.00011
   D41       -0.00013  -0.00000   0.00009  -0.00000   0.00009  -0.00004
   D42       -3.14157  -0.00000  -0.00003   0.00000  -0.00003   3.14159
   D43        3.14130   0.00000   0.00001   0.00003   0.00004   3.14134
   D44       -0.00014   0.00000  -0.00012   0.00003  -0.00008  -0.00022
   D45        0.00016  -0.00000  -0.00006  -0.00000  -0.00006   0.00010
   D46        3.14159   0.00000  -0.00012   0.00003  -0.00010   3.14149
   D47        3.14159  -0.00000   0.00007  -0.00001   0.00006  -3.14153
   D48       -0.00016   0.00000   0.00000   0.00002   0.00002  -0.00014
         Item               Value     Threshold  Converged?
 Maximum Force            0.000214     0.000450     YES
 RMS     Force            0.000041     0.000300     YES
 Maximum Displacement     0.009348     0.001800     NO 
 RMS     Displacement     0.002179     0.001200     NO 
 Predicted change in Energy=-1.815765D-07
 Lowest energy point so far.  Saving SCF results.
 GradGradGradGradGradGradGradGradGradGradGradGradGradGradGradGradGradGrad

 Leave Link  103 at Tue Sep 29 16:31:40 2026, MaxMem=  5100273664 cpu:               1.8 elap:               0.1
 (Enter /share/software/user/restricted/gaussian/g16.B01/l202.exe)
                          Input orientation:                          
 ---------------------------------------------------------------------
 Center     Atomic      Atomic             Coordinates (Angstroms)
 Number     Number       Type             X           Y           Z
 ---------------------------------------------------------------------
      1          6           0       -1.301006   -1.042654    0.081436
      2          6           0       -2.343238   -0.123463    0.239311
      3          6           0       -3.668302   -0.538305    0.294081
      4          6           0       -3.905378   -1.903908    0.184712
      5          6           0       -2.876898   -2.825097    0.027162
      6          6           0       -1.539360   -2.405561   -0.027848
      7          6           0        1.179772   -1.029142   -0.090733
      8          6           0        1.445940   -2.399735   -0.227054
      9          6           0        2.764662   -2.839061   -0.359773
     10          6           0        3.809971   -1.926208   -0.356995
     11          6           0        3.565417   -0.562059   -0.222676
     12          6           0        2.254763   -0.122294   -0.090676
     13          8           0       -0.030562   -0.436987    0.048323
     14         35           0       -2.026890    1.821192    0.395829
     15          1           0       -4.472396    0.173467    0.416220
     16         35           0       -5.783810   -2.511086    0.261144
     17          1           0       -3.130867   -3.881489   -0.052937
     18          1           0        0.607344   -3.084589   -0.225970
     19          1           0        2.963183   -3.900035   -0.464937
     20         35           0        5.633971   -2.549982   -0.542139
     21          1           0        4.382653    0.150112   -0.220629
     22          1           0        2.035409    0.934597    0.015640
 ---------------------------------------------------------------------
                    Distance matrix (angstroms):
                    1          2          3          4          5
     1  C    0.000000
     2  C    1.398601   0.000000
     3  C    2.429748   1.389564   0.000000
     4  C    2.745028   2.369229   1.390338   0.000000
     5  C    2.379808   2.761996   2.434539   1.389669   0.000000
     6  C    1.387902   2.434248   2.850031   2.427937   1.402870
     7  C    2.486782   3.652504   4.888029   5.167189   4.438010
     8  C    3.079374   4.444860   5.467355   5.389991   4.351148
     9  C    4.466699   5.815842   6.863238   6.757249   5.654831
    10  C    5.205283   6.439523   7.633790   7.734375   6.757943
    11  C    4.899544   5.942896   7.252193   7.601270   6.832802
    12  C    3.676979   4.609827   5.950109   6.418514   5.801118
    13  O    1.407820   2.341633   3.647440   4.145439   3.715528
    14  Br   2.971088   1.976426   2.876076   4.177279   4.737766
    15  H    3.413026   2.157030   1.080789   2.165778   3.418825
    16  Br   4.720606   4.187929   2.892805   1.975605   2.933170
    17  H    3.380153   3.850782   3.403841   2.137094   1.089440
    18  H    2.811725   4.206030   5.003516   4.682663   3.503050
    19  H    5.162020   6.551073   7.473548   7.182179   5.958540
    20  Br   7.124240   8.374636   9.553973   9.588791   8.534325
    21  H    5.815317   6.747148   8.096711   8.548378   7.849481
    22  H    3.878855   4.510219   5.897397   6.586247   6.185967
                    6          7          8          9         10
     6  C    0.000000
     7  C    3.048305   0.000000
     8  C    2.991945   1.402838   0.000000
     9  C    4.338514   2.420757   1.396299   0.000000
    10  C    5.380842   2.791696   2.414489   1.387796   0.000000
    11  C    5.430949   2.434518   2.805219   2.417590   1.392390
    12  C    4.428614   1.406406   2.420646   2.777270   2.396602
    13  O    2.481442   1.354582   2.471491   3.708069   4.139052
    14  Br   4.275819   4.317850   5.501341   6.726653   6.977012
    15  H    3.930812   5.800886   6.485512   7.877341   8.579283
    16  Br   4.255586   7.128216   7.247070   8.577266   9.631449
    17  H    2.170688   5.169035   4.813841   5.994836   7.217396
    18  H    2.260237   2.137949   1.082714   2.175364   3.408201
    19  H    4.764178   3.400384   2.146978   1.084498   2.150510
    20  Br   7.193194   4.728278   4.202554   2.889595   1.936582
    21  H    6.452819   3.415547   3.889222   3.401825   2.158163
    22  H    4.892599   2.144691   3.394723   3.861766   3.387054
                   11         12         13         14         15
    11  C    0.000000
    12  C    1.388752   0.000000
    13  O    3.608344   2.311073   0.000000
    14  Br   6.110346   4.727195   3.034050   0.000000
    15  H    8.096643   6.752710   4.498655   2.948884   0.000000
    16  Br   9.562471   8.393376   6.119399   5.735959   2.991769
    17  H    7.475804   6.567950   4.635379   5.825867   4.296799
    18  H    3.887591   3.392268   2.737144   5.602902   6.068863
    19  H    3.400508   3.861768   4.606369   7.640299   8.523948
    20  Br   2.886661   4.185277   6.074564   8.869935  10.510676
    21  H    1.084005   2.149188   4.460212   6.652426   8.877951
    22  H    2.153532   1.084638   2.480030   4.175268   6.564397
                   16         17         18         19         20
    16  Br   0.000000
    17  H    3.002459   0.000000
    18  H    6.435297   3.826122   0.000000
    19  H    8.886296   6.107989   2.504402   0.000000
    20  Br  11.446070   8.878886   5.064854   2.993612   0.000000
    21  H   10.520031   8.528476   4.971547   4.298637   2.993272
    22  H    8.548286   7.063271   4.272190   4.946250   5.040145
                   21         22
    21  H    0.000000
    22  H    2.486120   0.000000
 Stoichiometry    C12H6Br3O(1-)
 Framework group  C1[X(C12H6Br3O)]
 Deg. of freedom    60
 Full point group                 C1      NOp   1
 RotChk:  IX=2 Diff= 1.39D-03
 Largest Abelian subgroup         C1      NOp   1
 Largest concise Abelian subgroup C1      NOp   1
                         Standard orientation:                         
 ---------------------------------------------------------------------
 Center     Atomic      Atomic             Coordinates (Angstroms)
 Number     Number       Type             X           Y           Z
 ---------------------------------------------------------------------
      1          6           0        0.909415    0.097508    0.000351
      2          6           0        2.037066    0.924844   -0.000573
      3          6           0        3.321058    0.393571   -0.000309
      4          6           0        3.428713   -0.992592    0.001052
      5          6           0        2.314571   -1.823174    0.002428
      6          6           0        1.018582   -1.286093    0.001960
      7          6           0       -1.566547    0.329230   -0.000157
      8          6           0       -1.961216   -1.016926   -0.007521
      9          6           0       -3.319585   -1.340162   -0.007342
     10          6           0       -4.277763   -0.336259   -0.000144
     11          6           0       -3.905279    1.005364    0.007119
     12          6           0       -2.554939    1.329732    0.007132
     13          8           0       -0.301979    0.814781   -0.000325
     14         35           0        1.904931    2.896848   -0.001799
     15          1           0        4.191308    1.034485   -0.001120
     16         35           0        5.247160   -1.764774    0.000898
     17          1           0        2.468289   -2.901714    0.003919
     18          1           0       -1.188115   -1.774925   -0.012281
     19          1           0       -3.617602   -2.382895   -0.012878
     20         35           0       -6.158133   -0.799466    0.000205
     21          1           0       -4.654536    1.788722    0.012734
     22          1           0       -2.236500    2.366557    0.012605
 ---------------------------------------------------------------------
 Rotational constants (GHZ):           0.4394225           0.0763756           0.0650665
 Leave Link  202 at Tue Sep 29 16:31:40 2026, MaxMem=  5100273664 cpu:               0.5 elap:               0.1
 (Enter /share/software/user/restricted/gaussian/g16.B01/l301.exe)
 Standard basis: 6-311++G(d) (5D, 7F)
 Ernie: Thresh=  0.10000D-02 Tol=  0.10000D-05 Strict=F.
 There are   476 symmetry adapted cartesian basis functions of A   symmetry.
 There are   454 symmetry adapted basis functions of A   symmetry.
   454 basis functions,   786 primitive gaussians,   476 cartesian basis functions
    96 alpha electrons       96 beta electrons
       nuclear repulsion energy      1955.4445932761 Hartrees.
 IExCor=  402 DFT=T Ex+Corr=B3LYP ExCW=0 ScaHFX=  0.200000
 ScaDFX=  0.800000  0.720000  1.000000  0.810000 ScalE2=  1.000000  1.000000
 IRadAn=      5 IRanWt=     -1 IRanGd=            0 ICorTp=0 IEmpDi=  4
 NAtoms=   22 NActive=   22 NUniq=   22 SFac= 1.00D+00 NAtFMM=   60 NAOKFM=F Big=F
 Integral buffers will be    131072 words long.
 Raffenetti 2 integral format.
 Two-electron integral symmetry is turned on.
 Leave Link  301 at Tue Sep 29 16:31:40 2026, MaxMem=  5100273664 cpu:               0.6 elap:               0.0
 (Enter /share/software/user/restricted/gaussian/g16.B01/l302.exe)
 NPDir=0 NMtPBC=     1 NCelOv=     1 NCel=       1 NClECP=     1 NCelD=      1
         NCelK=      1 NCelE2=     1 NClLst=     1 CellRange=     0.0.
 One-electron integrals computed using PRISM.
 One-electron integral symmetry used in STVInt
 NBasis=   454 RedAO= T EigKep=  1.63D-06  NBF=   454
 NBsUse=   450 1.00D-06 EigRej=  9.04D-07 NBFU=   450
 Precomputing XC quadrature grid using
 IXCGrd= 4 IRadAn=           5 IRanWt=          -1 IRanGd=           0 AccXCQ= 0.00D+00.
 Generated NRdTot=       0 NPtTot=           0 NUsed=           0 NTot=          32
 NSgBfM=   447   447   447   447   447 MxSgAt=    22 MxSgA2=    22.
 Leave Link  302 at Tue Sep 29 16:31:41 2026, MaxMem=  5100273664 cpu:               4.2 elap:               0.3
 (Enter /share/software/user/restricted/gaussian/g16.B01/l303.exe)
 DipDrv:  MaxL=1.
 Leave Link  303 at Tue Sep 29 16:31:41 2026, MaxMem=  5100273664 cpu:               0.7 elap:               0.1
 (Enter /share/software/user/restricted/gaussian/g16.B01/l401.exe)
 Initial guess from the checkpoint file:  "calcs/b3lyp_gas/chks/BDE_24_2r4_anion.chk"
 B after Tr=    -0.000000   -0.000000    0.000000
         Rot=    1.000000    0.000000   -0.000000   -0.000003 Ang=  -0.00 deg.
 Guess basis will be translated and rotated to current coordinates.
 JPrj=2 DoOrth=T DoCkMO=T.
 Leave Link  401 at Tue Sep 29 16:31:41 2026, MaxMem=  5100273664 cpu:               3.7 elap:               0.2
 (Enter /share/software/user/restricted/gaussian/g16.B01/l502.exe)
 Integral symmetry usage will be decided dynamically.
 Closed shell SCF:
 Using DIIS extrapolation, IDIIS=  1040.
 NGot=  5100273664 LenX=  5099808623 LenY=  5099581571
 Requested convergence on RMS density matrix=1.00D-08 within 128 cycles.
 Requested convergence on MAX density matrix=1.00D-06.
 Requested convergence on             energy=1.00D-06.
 No special actions if energy rises.
 Fock matrices will be formed incrementally for  20 cycles.

 Cycle   1  Pass 1  IDiag  1:
 FoFJK:  IHMeth= 1 ICntrl=       0 DoSepK=F KAlg= 0 I1Cent=           0 FoldK=F
 IRaf= 770000000 NMat=       1 IRICut=       1 DoRegI=T DoRafI=F ISym2E= 0 IDoP0=0 IntGTp=1.
 FoFCou: FMM=F IPFlag=           0 FMFlag=      100000 FMFlg1=           0
         NFxFlg=           0 DoJE=F BraDBF=F KetDBF=F FulRan=T
         wScrn=  0.000000 ICntrl=         0 IOpCl=  0 I1Cent=           0 NGrid=           0
         NMat0=    1 NMatS0=      1 NMatT0=    0 NMatD0=    1 NMtDS0=    0 NMtDT0=    0
 Symmetry not used in FoFCou.
 E= -8258.67015449459    
 DIIS: error= 5.64D-04 at cycle   1 NSaved=   1.
 NSaved= 1 IEnMin= 1 EnMin= -8258.67015449459     IErMin= 1 ErrMin= 5.64D-04
 ErrMax= 5.64D-04  0.00D+00 EMaxC= 1.00D-01 BMatC= 9.50D-05 BMatP= 9.50D-05
 IDIUse=3 WtCom= 9.94D-01 WtEn= 5.64D-03
 Coeff-Com:  0.100D+01
 Coeff-En:   0.100D+01
 Coeff:      0.100D+01
 Gap=     0.307 Goal=   None    Shift=    0.000
 RMSDP=1.02D-04 MaxDP=5.15D-03              OVMax= 1.76D-03

 Cycle   2  Pass 1  IDiag  1:
 RMSU=  1.02D-04    CP:  1.00D+00
 E= -8258.67019100332     Delta-E=       -0.000036508734 Rises=F Damp=F
 DIIS: error= 2.63D-05 at cycle   2 NSaved=   2.
 NSaved= 2 IEnMin= 2 EnMin= -8258.67019100332     IErMin= 2 ErrMin= 2.63D-05
 ErrMax= 2.63D-05  0.00D+00 EMaxC= 1.00D-01 BMatC= 1.73D-07 BMatP= 9.50D-05
 IDIUse=1 WtCom= 1.00D+00 WtEn= 0.00D+00
 Coeff-Com: -0.740D-02 0.101D+01
 Coeff:     -0.740D-02 0.101D+01
 Gap=     0.122 Goal=   None    Shift=    0.000
 RMSDP=1.13D-05 MaxDP=8.55D-04 DE=-3.65D-05 OVMax= 1.62D-04

 Cycle   3  Pass 1  IDiag  1:
 RMSU=  1.12D-05    CP:  1.00D+00  1.02D+00
 E= -8258.67019131582     Delta-E=       -0.000000312499 Rises=F Damp=F
 DIIS: error= 8.47D-06 at cycle   3 NSaved=   3.
 NSaved= 3 IEnMin= 3 EnMin= -8258.67019131582     IErMin= 3 ErrMin= 8.47D-06
 ErrMax= 8.47D-06  0.00D+00 EMaxC= 1.00D-01 BMatC= 4.23D-08 BMatP= 1.73D-07
 IDIUse=1 WtCom= 1.00D+00 WtEn= 0.00D+00
 Coeff-Com: -0.305D-02 0.289D+00 0.714D+00
 Coeff:     -0.305D-02 0.289D+00 0.714D+00
 Gap=     0.122 Goal=   None    Shift=    0.000
 RMSDP=5.73D-06 MaxDP=4.73D-04 DE=-3.12D-07 OVMax= 9.43D-05

 Cycle   4  Pass 1  IDiag  1:
 RMSU=  3.07D-06    CP:  1.00D+00  1.03D+00  5.86D-01
 E= -8258.67019133838     Delta-E=       -0.000000022561 Rises=F Damp=F
 DIIS: error= 1.17D-05 at cycle   4 NSaved=   4.
 NSaved= 4 IEnMin= 4 EnMin= -8258.67019133838     IErMin= 3 ErrMin= 8.47D-06
 ErrMax= 1.17D-05  0.00D+00 EMaxC= 1.00D-01 BMatC= 2.58D-08 BMatP= 4.23D-08
 IDIUse=1 WtCom= 1.00D+00 WtEn= 0.00D+00
 Coeff-Com: -0.108D-02 0.716D-01 0.437D+00 0.492D+00
 Coeff:     -0.108D-02 0.716D-01 0.437D+00 0.492D+00
 Gap=     0.122 Goal=   None    Shift=    0.000
 RMSDP=1.92D-06 MaxDP=1.34D-04 DE=-2.26D-08 OVMax= 7.43D-05

 Cycle   5  Pass 1  IDiag  1:
 RMSU=  1.29D-06    CP:  1.00D+00  1.03D+00  6.57D-01  6.91D-01
 E= -8258.67019135733     Delta-E=       -0.000000018948 Rises=F Damp=F
 DIIS: error= 5.64D-06 at cycle   5 NSaved=   5.
 NSaved= 5 IEnMin= 5 EnMin= -8258.67019135733     IErMin= 5 ErrMin= 5.64D-06
 ErrMax= 5.64D-06  0.00D+00 EMaxC= 1.00D-01 BMatC= 5.58D-09 BMatP= 2.58D-08
 IDIUse=1 WtCom= 1.00D+00 WtEn= 0.00D+00
 Coeff-Com: -0.849D-04-0.177D-01 0.150D+00 0.345D+00 0.523D+00
 Coeff:     -0.849D-04-0.177D-01 0.150D+00 0.345D+00 0.523D+00
 Gap=     0.122 Goal=   None    Shift=    0.000
 RMSDP=1.10D-06 MaxDP=6.84D-05 DE=-1.89D-08 OVMax= 2.70D-05

 Cycle   6  Pass 1  IDiag  1:
 RMSU=  3.78D-07    CP:  1.00D+00  1.03D+00  7.17D-01  7.10D-01  4.87D-01
 E= -8258.67019136265     Delta-E=       -0.000000005319 Rises=F Damp=F
 DIIS: error= 1.21D-06 at cycle   6 NSaved=   6.
 NSaved= 6 IEnMin= 6 EnMin= -8258.67019136265     IErMin= 6 ErrMin= 1.21D-06
 ErrMax= 1.21D-06  0.00D+00 EMaxC= 1.00D-01 BMatC= 3.74D-10 BMatP= 5.58D-09
 IDIUse=1 WtCom= 1.00D+00 WtEn= 0.00D+00
 Coeff-Com:  0.436D-04-0.179D-01 0.507D-01 0.159D+00 0.305D+00 0.503D+00
 Coeff:      0.436D-04-0.179D-01 0.507D-01 0.159D+00 0.305D+00 0.503D+00
 Gap=     0.122 Goal=   None    Shift=    0.000
 RMSDP=2.44D-07 MaxDP=1.32D-05 DE=-5.32D-09 OVMax= 7.70D-06

 Cycle   7  Pass 1  IDiag  1:
 RMSU=  1.27D-07    CP:  1.00D+00  1.03D+00  7.14D-01  7.17D-01  5.49D-01
                    CP:  5.57D-01
 E= -8258.67019136300     Delta-E=       -0.000000000351 Rises=F Damp=F
 DIIS: error= 3.91D-07 at cycle   7 NSaved=   7.
 NSaved= 7 IEnMin= 7 EnMin= -8258.67019136300     IErMin= 7 ErrMin= 3.91D-07
 ErrMax= 3.91D-07  0.00D+00 EMaxC= 1.00D-01 BMatC= 4.44D-11 BMatP= 3.74D-10
 IDIUse=1 WtCom= 1.00D+00 WtEn= 0.00D+00
 Coeff-Com:  0.357D-04-0.924D-02 0.150D-01 0.610D-01 0.130D+00 0.308D+00
 Coeff-Com:  0.496D+00
 Coeff:      0.357D-04-0.924D-02 0.150D-01 0.610D-01 0.130D+00 0.308D+00
 Coeff:      0.496D+00
 Gap=     0.122 Goal=   None    Shift=    0.000
 RMSDP=1.02D-07 MaxDP=7.50D-06 DE=-3.51D-10 OVMax= 2.16D-06

 Cycle   8  Pass 1  IDiag  1:
 RMSU=  4.48D-08    CP:  1.00D+00  1.03D+00  7.11D-01  7.31D-01  5.57D-01
                    CP:  5.87D-01  5.00D-01
 E= -8258.67019136303     Delta-E=       -0.000000000029 Rises=F Damp=F
 DIIS: error= 7.16D-08 at cycle   8 NSaved=   8.
 NSaved= 8 IEnMin= 8 EnMin= -8258.67019136303     IErMin= 8 ErrMin= 7.16D-08
 ErrMax= 7.16D-08  0.00D+00 EMaxC= 1.00D-01 BMatC= 2.42D-12 BMatP= 4.44D-11
 IDIUse=1 WtCom= 1.00D+00 WtEn= 0.00D+00
 Coeff-Com:  0.102D-04-0.185D-02 0.598D-03 0.787D-02 0.211D-01 0.767D-01
 Coeff-Com:  0.228D+00 0.668D+00
 Coeff:      0.102D-04-0.185D-02 0.598D-03 0.787D-02 0.211D-01 0.767D-01
 Coeff:      0.228D+00 0.668D+00
 Gap=     0.122 Goal=   None    Shift=    0.000
 RMSDP=2.76D-08 MaxDP=3.34D-06 DE=-2.91D-11 OVMax= 8.78D-07

 Cycle   9  Pass 1  IDiag  1:
 RMSU=  1.86D-08    CP:  1.00D+00  1.03D+00  7.11D-01  7.30D-01  5.58D-01
                    CP:  5.92D-01  6.13D-01  6.99D-01
 E= -8258.67019136303     Delta-E=        0.000000000005 Rises=F Damp=F
 DIIS: error= 5.19D-08 at cycle   9 NSaved=   9.
 NSaved= 9 IEnMin= 8 EnMin= -8258.67019136303     IErMin= 9 ErrMin= 5.19D-08
 ErrMax= 5.19D-08  0.00D+00 EMaxC= 1.00D-01 BMatC= 1.07D-12 BMatP= 2.42D-12
 IDIUse=1 WtCom= 1.00D+00 WtEn= 0.00D+00
 Coeff-Com:  0.195D-05 0.511D-04-0.167D-02-0.314D-02-0.375D-02 0.894D-02
 Coeff-Com:  0.857D-01 0.456D+00 0.458D+00
 Coeff:      0.195D-05 0.511D-04-0.167D-02-0.314D-02-0.375D-02 0.894D-02
 Coeff:      0.857D-01 0.456D+00 0.458D+00
 Gap=     0.122 Goal=   None    Shift=    0.000
 RMSDP=1.34D-08 MaxDP=1.32D-06 DE= 5.46D-12 OVMax= 4.68D-07

 Cycle  10  Pass 1  IDiag  1:
 RMSU=  6.55D-09    CP:  1.00D+00  1.03D+00  7.11D-01  7.30D-01  5.57D-01
                    CP:  6.01D-01  5.97D-01  8.01D-01  5.00D-01
 E= -8258.67019136303     Delta-E=       -0.000000000005 Rises=F Damp=F
 DIIS: error= 2.25D-08 at cycle  10 NSaved=  10.
 NSaved=10 IEnMin= 8 EnMin= -8258.67019136303     IErMin=10 ErrMin= 2.25D-08
 ErrMax= 2.25D-08  0.00D+00 EMaxC= 1.00D-01 BMatC= 1.03D-13 BMatP= 1.07D-12
 IDIUse=1 WtCom= 1.00D+00 WtEn= 0.00D+00
 Coeff-Com: -0.137D-06 0.299D-03-0.119D-02-0.319D-02-0.552D-02-0.556D-02
 Coeff-Com:  0.218D-01 0.198D+00 0.289D+00 0.506D+00
 Coeff:     -0.137D-06 0.299D-03-0.119D-02-0.319D-02-0.552D-02-0.556D-02
 Coeff:      0.218D-01 0.198D+00 0.289D+00 0.506D+00
 Gap=     0.122 Goal=   None    Shift=    0.000
 RMSDP=5.62D-09 MaxDP=2.39D-07 DE=-5.46D-12 OVMax= 1.98D-07

 SCF Done:  E(RB3LYP) =  -8258.67019136     A.U. after   10 cycles
            NFock= 10  Conv=0.56D-08     -V/T= 2.0014
 KE= 8.247203126740D+03 PE=-2.364056876126D+04 EE= 5.179250849876D+03
 Leave Link  502 at Tue Sep 29 16:32:15 2026, MaxMem=  5100273664 cpu:             548.7 elap:              34.3
 (Enter /share/software/user/restricted/gaussian/g16.B01/l701.exe)
 ... and contract with generalized density number  0.
 Compute integral first derivatives.
 Leave Link  701 at Tue Sep 29 16:32:16 2026, MaxMem=  5100273664 cpu:               2.1 elap:               0.2
 (Enter /share/software/user/restricted/gaussian/g16.B01/l702.exe)
 L702 exits ... SP integral derivatives will be done elsewhere.
 Leave Link  702 at Tue Sep 29 16:32:16 2026, MaxMem=  5100273664 cpu:               0.5 elap:               0.0
 (Enter /share/software/user/restricted/gaussian/g16.B01/l703.exe)
 Integral derivatives from FoFJK, PRISM(SPDF).
 Compute integral first derivatives, UseDBF=F ICtDFT=           0.
 Calling FoFJK, ICntrl=      2127 FMM=F ISym2X=0 I1Cent= 0 IOpClX= 0 NMat=1 NMatS=1 NMatT=0.
 FoFJK:  IHMeth= 1 ICntrl=    2127 DoSepK=F KAlg= 0 I1Cent=           0 FoldK=F
 IRaf=         0 NMat=       1 IRICut=       1 DoRegI=T DoRafI=F ISym2E= 0 IDoP0=0 IntGTp=1.
 FoFCou: FMM=F IPFlag=           0 FMFlag=      100000 FMFlg1=         800
         NFxFlg=           0 DoJE=F BraDBF=F KetDBF=F FulRan=T
         wScrn=  0.000000 ICntrl=      2127 IOpCl=  0 I1Cent=           0 NGrid=           0
         NMat0=    1 NMatS0=      1 NMatT0=    0 NMatD0=    1 NMtDS0=    0 NMtDT0=    0
 Symmetry not used in FoFCou.
 Leave Link  703 at Tue Sep 29 16:32:28 2026, MaxMem=  5100273664 cpu:             192.6 elap:              12.1
 (Enter /share/software/user/restricted/gaussian/g16.B01/l716.exe)
 Dipole        =-1.40703628D+00 6.75472630D-01-1.63281437D-03
 ***** Axes restored to original set *****
 -------------------------------------------------------------------
 Center     Atomic                   Forces (Hartrees/Bohr)
 Number     Number              X              Y              Z
 -------------------------------------------------------------------
      1        6           0.000101383   -0.000043898    0.000020170
      2        6          -0.000098960    0.000018435    0.000009977
      3        6           0.000088573   -0.000053480   -0.000010018
      4        6          -0.000182027    0.000030640    0.000013811
      5        6           0.000184882    0.000019218   -0.000016687
      6        6          -0.000108531   -0.000089628   -0.000006820
      7        6           0.000103999    0.000129101   -0.000002599
      8        6          -0.000142102   -0.000002042    0.000039279
      9        6          -0.000032184   -0.000038523   -0.000000427
     10        6           0.000035792   -0.000012787   -0.000018385
     11        6          -0.000030572    0.000004963    0.000007219
     12        6          -0.000071287    0.000018416    0.000017987
     13        8           0.000018425   -0.000064423   -0.000036640
     14       35           0.000015023    0.000022297    0.000003711
     15        1          -0.000001233    0.000015166    0.000001159
     16       35           0.000052246    0.000018219   -0.000004289
     17        1          -0.000032209    0.000009755    0.000008318
     18        1           0.000055555    0.000020999   -0.000023050
     19        1           0.000016974    0.000008478    0.000002944
     20       35          -0.000005021    0.000007675    0.000003670
     21        1           0.000007416   -0.000008978   -0.000002911
     22        1           0.000023859   -0.000009604   -0.000006419
 -------------------------------------------------------------------
 Cartesian Forces:  Max     0.000184882 RMS     0.000054958
 Leave Link  716 at Tue Sep 29 16:32:28 2026, MaxMem=  5100273664 cpu:               0.5 elap:               0.0
 (Enter /share/software/user/restricted/gaussian/g16.B01/l103.exe)

 GradGradGradGradGradGradGradGradGradGradGradGradGradGradGradGradGradGrad
 Berny optimization.
 Using GEDIIS/GDIIS optimizer.
 FormGI is forming the generalized inverse of G from B-inverse, IUseBI=4.
 GSVD:  received Info=                   1 from GESDD.
 Internal  Forces:  Max     0.000245680 RMS     0.000047406
 Search for a local minimum.
 Step number  18 out of a maximum of  116
 All quantities printed in internal units (Hartrees-Bohrs-Radians)
 RMS Force = .47406D-04 SwitMx=.10000D-02 MixMth= 2
 Mixed Optimization -- En-DIIS/RFO-DIIS
 Swapping is turned off.
 Update second derivatives using D2CorX and points    6    8    7    9   10
                                                     11   12   13   14   15
                                                     16   17   18
 DE= -2.70D-07 DEPred=-1.82D-07 R= 1.49D+00
 Trust test= 1.49D+00 RLast= 9.99D-03 DXMaxT set to 3.00D-01
 ITU=  0  0  0  0  0  1  1  1  1  0 -1  1 -1  1  1 -1  0  0
     Eigenvalues ---    0.00151   0.01833   0.01931   0.02025   0.02057
     Eigenvalues ---    0.02088   0.02092   0.02108   0.02115   0.02123
     Eigenvalues ---    0.02130   0.02137   0.02167   0.02180   0.02190
     Eigenvalues ---    0.02249   0.02306   0.02762   0.04157   0.12198
     Eigenvalues ---    0.14610   0.16005   0.16007   0.16019   0.16079
     Eigenvalues ---    0.17276   0.19014   0.19813   0.22121   0.22884
     Eigenvalues ---    0.23527   0.24283   0.24351   0.24898   0.25001
     Eigenvalues ---    0.25010   0.25313   0.27034   0.33673   0.33716
     Eigenvalues ---    0.33775   0.33797   0.33921   0.38312   0.40036
     Eigenvalues ---    0.41439   0.42492   0.43331   0.44860   0.45298
     Eigenvalues ---    0.45645   0.45952   0.46333   0.46428   0.47150
     Eigenvalues ---    0.47512   0.47858   0.62672   1.43929  19.58148
 En-DIIS/RFO-DIIS/Sim-DIIS IScMMF=       -3 using points:    18   17   16   15   14   13   12
 RFO step:  Lambda=-3.08789712D-07.
 NNeg= 0 NGDIIS= 7 SimSw=  2.50D-01 Rises=F DC= -2.70D-07 SmlDif=  1.00D-05
 NRisDI= 0 DoIntr=F SqrtH=F CThrHd= 10.0 CDAdj=  3.0
 RMS Error=  0.8622036112D-03 NUsed= 7 OKEnD=F EnDIS=F
 InvSVX:  RCond= 2.63D-10 Info=           0 Equed=N FErr=  1.12D-09 BErr=  5.95D-17
 DIIS inversion failure, remove point   7.
 InvSVX:  RCond= 3.27D-10 Info=           0 Equed=N FErr=  9.58D-10 BErr=  1.03D-16
 DIIS inversion failure, remove point   6.
 InvSVX:  RCond= 4.22D-10 Info=           0 Equed=N FErr=  7.40D-10 BErr=  4.13D-17
 DIIS inversion failure, remove point   5.
 InvSVX:  RCond= 5.36D-10 Info=           0 Equed=N FErr=  5.61D-10 BErr=  6.50D-17
 DIIS inversion failure, remove point   4.
 InvSVX:  RCond= 4.18D-08 Info=           0 Equed=N FErr=  2.06D-12 BErr=  5.40D-17
 DIIS inversion failure, remove point   3.
 InvSVX:  RCond= 2.50D-05 Info=           0 Equed=N FErr=  3.86D-15 BErr=  0.00D+00
 RFO-DIIS uses    2 points instead of    7
 DidBck=F Rises=F RFO-DIIS coefs:    1.88549   -0.88549    0.00000    0.00000    0.00000
                  RFO-DIIS coefs:    0.00000    0.00000
 Iteration  1 RMS(Cart)=  0.00188733 RMS(Int)=  0.00000115
 Iteration  2 RMS(Cart)=  0.00000708 RMS(Int)=  0.00000003
 Iteration  3 RMS(Cart)=  0.00000000 RMS(Int)=  0.00000003
 ITry= 1 IFail=0 DXMaxC= 8.32D-03 DCOld= 1.00D+10 DXMaxT= 3.00D-01 DXLimC= 3.00D+00 Rises=F
 Variable       Old X    -DE/DX   Delta X   Delta X   Delta X     New X
                                 (Linear)    (Quad)   (Total)
    R1        2.64297   0.00003  -0.00002   0.00005   0.00003   2.64300
    R2        2.62275   0.00001  -0.00004   0.00004  -0.00000   2.62275
    R3        2.66039  -0.00005  -0.00003   0.00000  -0.00003   2.66036
    R4        2.62590  -0.00005   0.00001  -0.00005  -0.00005   2.62585
    R5        3.73490   0.00002   0.00003   0.00006   0.00009   3.73499
    R6        2.62736  -0.00001  -0.00001  -0.00002  -0.00003   2.62733
    R7        2.04240   0.00001  -0.00001   0.00002   0.00001   2.04240
    R8        2.62609   0.00009  -0.00001   0.00008   0.00007   2.62617
    R9        3.73335  -0.00006   0.00006  -0.00014  -0.00008   3.73327
   R10        2.65104  -0.00007   0.00001  -0.00006  -0.00005   2.65099
   R11        2.05874  -0.00000  -0.00002   0.00001  -0.00002   2.05873
   R12        4.27123   0.00005   0.00006   0.00005   0.00011   4.27134
   R13        2.65098  -0.00002  -0.00012   0.00003  -0.00009   2.65089
   R14        2.65772  -0.00006   0.00001  -0.00006  -0.00004   2.65768
   R15        2.55979  -0.00013   0.00003  -0.00008  -0.00006   2.55973
   R16        2.63862   0.00001  -0.00003   0.00002  -0.00001   2.63861
   R17        2.62255   0.00003   0.00003   0.00001   0.00004   2.62260
   R18        2.04940  -0.00001  -0.00000  -0.00001  -0.00001   2.04940
   R19        2.63124   0.00003   0.00007  -0.00000   0.00007   2.63130
   R20        3.65961  -0.00001  -0.00018   0.00005  -0.00013   3.65948
   R21        2.62436  -0.00000  -0.00004   0.00001  -0.00003   2.62433
   R22        2.04847  -0.00000   0.00000  -0.00000   0.00000   2.04848
   R23        2.04967  -0.00001  -0.00002  -0.00001  -0.00003   2.04964
    A1        2.12503   0.00002  -0.00007   0.00000  -0.00007   2.12496
    A2        1.97402   0.00003   0.00001  -0.00010  -0.00009   1.97393
    A3        2.18413  -0.00005   0.00006   0.00010   0.00016   2.18429
    A4        2.11630  -0.00002  -0.00002   0.00002   0.00000   2.11630
    A5        2.13687  -0.00001   0.00004  -0.00005  -0.00002   2.13685
    A6        2.03002   0.00003  -0.00002   0.00003   0.00001   2.03003
    A7        2.04062   0.00003   0.00006   0.00002   0.00008   2.04071
    A8        2.11449  -0.00002  -0.00001  -0.00005  -0.00005   2.11443
    A9        2.12807  -0.00000  -0.00005   0.00002  -0.00003   2.12805
   A10        2.13390  -0.00004  -0.00002  -0.00007  -0.00009   2.13381
   A11        2.04987   0.00002   0.00000   0.00004   0.00004   2.04991
   A12        2.09942   0.00002   0.00001   0.00004   0.00005   2.09947
   A13        2.10811   0.00002  -0.00008   0.00009   0.00001   2.10812
   A14        2.06984  -0.00005   0.00013  -0.00017  -0.00004   2.06980
   A15        2.10524   0.00002  -0.00005   0.00008   0.00003   2.10527
   A16        2.04241  -0.00002   0.00013  -0.00006   0.00006   2.04247
   A17        1.71005  -0.00007  -0.00016  -0.00007  -0.00024   1.70981
   A18        2.53069   0.00009   0.00003   0.00014   0.00017   2.53086
   A19        2.07711   0.00009   0.00000   0.00008   0.00009   2.07720
   A20        2.22258  -0.00024  -0.00005  -0.00017  -0.00022   2.22236
   A21        1.98349   0.00014   0.00005   0.00009   0.00014   1.98363
   A22        2.08959  -0.00004   0.00006  -0.00004   0.00002   2.08962
   A23        2.09927  -0.00002   0.00002  -0.00004  -0.00002   2.09925
   A24        2.08278   0.00003  -0.00003   0.00008   0.00005   2.08283
   A25        2.10113  -0.00001   0.00001  -0.00004  -0.00003   2.10110
   A26        2.10869   0.00000  -0.00013   0.00004  -0.00009   2.10860
   A27        2.09136   0.00001   0.00005   0.00001   0.00006   2.09142
   A28        2.08313  -0.00001   0.00008  -0.00005   0.00003   2.08316
   A29        2.07735   0.00002   0.00011   0.00001   0.00012   2.07747
   A30        2.10764  -0.00002  -0.00004  -0.00004  -0.00008   2.10756
   A31        2.09819   0.00000  -0.00006   0.00003  -0.00003   2.09816
   A32        2.11435  -0.00006  -0.00006  -0.00006  -0.00012   2.11423
   A33        2.06431   0.00005   0.00003   0.00009   0.00012   2.06443
   A34        2.10452   0.00001   0.00003  -0.00003   0.00000   2.10452
   A35        2.24039  -0.00025   0.00011   0.00002   0.00013   2.24052
    D1        0.00033   0.00001  -0.00009  -0.00004  -0.00013   0.00021
    D2       -3.14095   0.00000  -0.00022  -0.00004  -0.00027  -3.14122
    D3       -3.14141   0.00000  -0.00052  -0.00014  -0.00065   3.14112
    D4        0.00049  -0.00000  -0.00065  -0.00014  -0.00079  -0.00031
    D5       -0.00016  -0.00001  -0.00009   0.00002  -0.00007  -0.00023
    D6       -3.13501  -0.00002   0.00012   0.00006   0.00018  -3.13483
    D7       -3.14158  -0.00000   0.00039   0.00013   0.00052  -3.14106
    D8        0.00675  -0.00001   0.00060   0.00017   0.00077   0.00753
    D9        3.14121  -0.00006  -0.00367  -0.00011  -0.00377   3.13743
   D10       -0.00054  -0.00006  -0.00411  -0.00021  -0.00432  -0.00486
   D11       -0.00011  -0.00000   0.00011   0.00002   0.00013   0.00001
   D12        3.14149  -0.00000   0.00004   0.00002   0.00006   3.14155
   D13        3.14119   0.00000   0.00024   0.00003   0.00026   3.14145
   D14       -0.00039   0.00000   0.00017   0.00003   0.00019  -0.00020
   D15       -0.00027  -0.00000   0.00005   0.00001   0.00007  -0.00020
   D16        3.14128   0.00000   0.00011   0.00003   0.00014   3.14142
   D17        3.14131  -0.00000   0.00013   0.00001   0.00014   3.14145
   D18       -0.00032   0.00000   0.00018   0.00003   0.00021  -0.00012
   D19        0.00045   0.00000  -0.00024  -0.00003  -0.00027   0.00018
   D20       -3.14111   0.00000  -0.00016  -0.00005  -0.00020  -3.14131
   D21       -3.14110  -0.00000  -0.00030  -0.00005  -0.00034  -3.14144
   D22        0.00053   0.00000  -0.00021  -0.00006  -0.00028   0.00025
   D23       -0.00022   0.00000   0.00025   0.00001   0.00026   0.00004
   D24        3.12973   0.00002  -0.00012  -0.00006  -0.00018   3.12955
   D25        3.14133  -0.00000   0.00017   0.00003   0.00020   3.14153
   D26       -0.01190   0.00001  -0.00021  -0.00004  -0.00025  -0.01215
   D27       -0.00013  -0.00001   0.00022  -0.00005   0.00016   0.00003
   D28       -3.14058   0.00001  -0.00055   0.00010  -0.00046  -3.14103
   D29       -0.00001   0.00001  -0.00010   0.00006  -0.00004  -0.00005
   D30       -3.14141   0.00000  -0.00006   0.00002  -0.00004  -3.14145
   D31        3.14058  -0.00000   0.00057  -0.00007   0.00050   3.14108
   D32       -0.00081  -0.00001   0.00061  -0.00011   0.00049  -0.00031
   D33       -0.00741  -0.00004   0.00509  -0.00022   0.00487  -0.00254
   D34        3.13528  -0.00003   0.00435  -0.00008   0.00427   3.13955
   D35        0.00019   0.00000  -0.00019   0.00000  -0.00019  -0.00000
   D36       -3.14140  -0.00000  -0.00010   0.00000  -0.00009  -3.14149
   D37       -0.00010   0.00000   0.00004   0.00004   0.00009  -0.00002
   D38       -3.14148  -0.00000   0.00009  -0.00002   0.00006  -3.14141
   D39        3.14149   0.00001  -0.00005   0.00004  -0.00001   3.14148
   D40        0.00011  -0.00000  -0.00001  -0.00003  -0.00003   0.00008
   D41       -0.00004  -0.00000   0.00008  -0.00004   0.00004  -0.00000
   D42        3.14159  -0.00000  -0.00003  -0.00002  -0.00004   3.14154
   D43        3.14134   0.00000   0.00003   0.00003   0.00006   3.14140
   D44       -0.00022   0.00000  -0.00007   0.00005  -0.00002  -0.00024
   D45        0.00010  -0.00000  -0.00005  -0.00002  -0.00006   0.00004
   D46        3.14149   0.00000  -0.00009   0.00003  -0.00006   3.14143
   D47       -3.14153  -0.00000   0.00005  -0.00004   0.00002  -3.14151
   D48       -0.00014   0.00000   0.00002   0.00001   0.00002  -0.00012
         Item               Value     Threshold  Converged?
 Maximum Force            0.000246     0.000450     YES
 RMS     Force            0.000047     0.000300     YES
 Maximum Displacement     0.008323     0.001800     NO 
 RMS     Displacement     0.001887     0.001200     NO 
 Predicted change in Energy=-1.544011D-07
 Lowest energy point so far.  Saving SCF results.
 GradGradGradGradGradGradGradGradGradGradGradGradGradGradGradGradGradGrad

 Leave Link  103 at Tue Sep 29 16:32:28 2026, MaxMem=  5100273664 cpu:               1.1 elap:               0.1
 (Enter /share/software/user/restricted/gaussian/g16.B01/l202.exe)
                          Input orientation:                          
 ---------------------------------------------------------------------
 Center     Atomic      Atomic             Coordinates (Angstroms)
 Number     Number       Type             X           Y           Z
 ---------------------------------------------------------------------
      1          6           0       -1.301106   -1.042666    0.079438
      2          6           0       -2.343211   -0.123543    0.238678
      3          6           0       -3.668154   -0.538464    0.295109
      4          6           0       -3.905382   -1.904058    0.186148
      5          6           0       -2.876994   -2.825214    0.027478
      6          6           0       -1.539592   -2.405580   -0.029450
      7          6           0        1.179694   -1.028844   -0.092928
      8          6           0        1.445774   -2.399391   -0.229383
      9          6           0        2.764596   -2.838980   -0.360162
     10          6           0        3.810103   -1.926326   -0.355547
     11          6           0        3.565498   -0.562157   -0.221174
     12          6           0        2.254768   -0.122134   -0.090950
     13          8           0       -0.030876   -0.436725    0.043919
     14         35           0       -2.026739    1.821147    0.395120
     15          1           0       -4.472106    0.173303    0.418247
     16         35           0       -5.783678   -2.511244    0.264705
     17          1           0       -3.131003   -3.881631   -0.052034
     18          1           0        0.607095   -3.084142   -0.230015
     19          1           0        2.963086   -3.899952   -0.465360
     20         35           0        5.634224   -2.550290   -0.538103
     21          1           0        4.382875    0.149849   -0.217651
     22          1           0        2.035507    0.934757    0.015409
 ---------------------------------------------------------------------
                    Distance matrix (angstroms):
                    1          2          3          4          5
     1  C    0.000000
     2  C    1.398616   0.000000
     3  C    2.429743   1.389539   0.000000
     4  C    2.745111   2.369256   1.390322   0.000000
     5  C    2.379831   2.761984   2.434499   1.389707   0.000000
     6  C    1.387901   2.434213   2.849954   2.427955   1.402845
     7  C    2.486820   3.652450   4.888014   5.167386   4.438261
     8  C    3.079192   4.444656   5.467211   5.390073   4.351278
     9  C    4.466534   5.815659   6.863092   6.757303   5.654908
    10  C    5.205240   6.439441   7.633730   7.734509   6.758103
    11  C    4.899499   5.942784   7.252091   7.601358   6.832931
    12  C    3.677044   4.609779   5.950074   6.418682   5.801348
    13  O    1.407803   2.341560   3.647360   4.145490   3.715579
    14  Br   2.971131   1.976473   2.876111   4.177334   4.737801
    15  H    3.413006   2.156979   1.080794   2.165750   3.418799
    16  Br   4.720646   4.187913   2.892789   1.975562   2.933201
    17  H    3.380167   3.850761   3.403792   2.137098   1.089431
    18  H    2.811515   4.205844   5.003397   4.682759   3.503173
    19  H    5.161804   6.550856   7.473370   7.182193   5.958563
    20  Br   7.124120   8.374482   9.553843   9.588860   8.534418
    21  H    5.815324   6.747089   8.096652   8.548496   7.849635
    22  H    3.879083   4.510323   5.897488   6.586515   6.186290
                    6          7          8          9         10
     6  C    0.000000
     7  C    3.048598   0.000000
     8  C    2.992060   1.402789   0.000000
     9  C    4.338576   2.420727   1.396293   0.000000
    10  C    5.381009   2.791683   2.414490   1.387819   0.000000
    11  C    5.431106   2.434400   2.805125   2.417578   1.392424
    12  C    4.428892   1.406382   2.420648   2.777346   2.396703
    13  O    2.481531   1.354553   2.471284   3.707934   4.139034
    14  Br   4.275839   4.317621   5.501026   6.726375   6.976802
    15  H    3.930739   5.800802   6.485328   7.877158   8.579171
    16  Br   4.255580   7.128392   7.247180   8.577346   9.631588
    17  H    2.170674   5.169350   4.814081   5.995011   7.217637
    18  H    2.260296   2.137969   1.082712   2.175282   3.408160
    19  H    4.764165   3.400361   2.146999   1.084494   2.150511
    20  Br   7.193282   4.728193   4.202522   2.889597   1.936511
    21  H    6.453004   3.415441   3.889129   3.401799   2.158144
    22  H    4.892974   2.144733   3.394738   3.861827   3.387122
                   11         12         13         14         15
    11  C    0.000000
    12  C    1.388737   0.000000
    13  O    3.608312   2.311132   0.000000
    14  Br   6.110079   4.726934   3.033940   0.000000
    15  H    8.096470   6.752585   4.498530   2.948855   0.000000
    16  Br   9.562537   8.393507   6.119404   5.735958   2.991754
    17  H    7.476004   6.568247   4.635447   5.825892   4.296768
    18  H    3.887497   3.392294   2.736944   5.602654   6.068729
    19  H    3.400501   3.861840   4.606204   7.640010   8.523746
    20  Br   2.886650   4.185285   6.074477   8.869651  10.510493
    21  H    1.084007   2.149155   4.460234   6.652208   8.877815
    22  H    2.153507   1.084622   2.480265   4.175129   6.564382
                   16         17         18         19         20
    16  Br   0.000000
    17  H    3.002494   0.000000
    18  H    6.435444   3.826362   0.000000
    19  H    8.886360   6.108117   2.504321   0.000000
    20  Br  11.446157   8.879073   5.064775   2.993637   0.000000
    21  H   10.520119   8.528694   4.971455   4.298611   2.993212
    22  H    8.548493   7.063637   4.272252   4.946307   5.040108
                   21         22
    21  H    0.000000
    22  H    2.486068   0.000000
 Stoichiometry    C12H6Br3O(1-)
 Framework group  C1[X(C12H6Br3O)]
 Deg. of freedom    60
 Full point group                 C1      NOp   1
 RotChk:  IX=0 Diff= 1.08D-03
 Largest Abelian subgroup         C1      NOp   1
 Largest concise Abelian subgroup C1      NOp   1
                         Standard orientation:                         
 ---------------------------------------------------------------------
 Center     Atomic      Atomic             Coordinates (Angstroms)
 Number     Number       Type             X           Y           Z
 ---------------------------------------------------------------------
      1          6           0        0.909363    0.097324    0.003171
      2          6           0        2.036974    0.924737    0.000162
      3          6           0        3.320977    0.393554   -0.000938
      4          6           0        3.428837   -0.992577    0.001070
      5          6           0        2.314715   -1.823244    0.004284
      6          6           0        1.018712   -1.286260    0.005433
      7          6           0       -1.566613    0.329301    0.002904
      8          6           0       -1.961180   -1.016840   -0.003267
      9          6           0       -3.319517   -1.340187   -0.004696
     10          6           0       -4.277781   -0.336320   -0.000040
     11          6           0       -3.905260    1.005334    0.006131
     12          6           0       -2.554966    1.329824    0.007586
     13          8           0       -0.301992    0.814629    0.004477
     14         35           0        1.904683    2.896776   -0.002475
     15          1           0        4.191152    1.034572   -0.003304
     16         35           0        5.247325   -1.764550   -0.000764
     17          1           0        2.468534   -2.901760    0.005997
     18          1           0       -1.188110   -1.774879   -0.005796
     19          1           0       -3.617489   -2.382933   -0.009384
     20         35           0       -6.158079   -0.799518   -0.001790
     21          1           0       -4.654570    1.788656    0.009720
     22          1           0       -2.236631    2.366669    0.012200
 ---------------------------------------------------------------------
 Rotational constants (GHZ):           0.4394550           0.0763754           0.0650671
 Leave Link  202 at Tue Sep 29 16:32:28 2026, MaxMem=  5100273664 cpu:               0.5 elap:               0.1
 (Enter /share/software/user/restricted/gaussian/g16.B01/l301.exe)
 Standard basis: 6-311++G(d) (5D, 7F)
 Ernie: Thresh=  0.10000D-02 Tol=  0.10000D-05 Strict=F.
 There are   476 symmetry adapted cartesian basis functions of A   symmetry.
 There are   454 symmetry adapted basis functions of A   symmetry.
   454 basis functions,   786 primitive gaussians,   476 cartesian basis functions
    96 alpha electrons       96 beta electrons
       nuclear repulsion energy      1955.4557221030 Hartrees.
 IExCor=  402 DFT=T Ex+Corr=B3LYP ExCW=0 ScaHFX=  0.200000
 ScaDFX=  0.800000  0.720000  1.000000  0.810000 ScalE2=  1.000000  1.000000
 IRadAn=      5 IRanWt=     -1 IRanGd=            0 ICorTp=0 IEmpDi=  4
 NAtoms=   22 NActive=   22 NUniq=   22 SFac= 1.00D+00 NAtFMM=   60 NAOKFM=F Big=F
 Integral buffers will be    131072 words long.
 Raffenetti 2 integral format.
 Two-electron integral symmetry is turned on.
 Leave Link  301 at Tue Sep 29 16:32:28 2026, MaxMem=  5100273664 cpu:               0.5 elap:               0.0
 (Enter /share/software/user/restricted/gaussian/g16.B01/l302.exe)
 NPDir=0 NMtPBC=     1 NCelOv=     1 NCel=       1 NClECP=     1 NCelD=      1
         NCelK=      1 NCelE2=     1 NClLst=     1 CellRange=     0.0.
 One-electron integrals computed using PRISM.
 One-electron integral symmetry used in STVInt
 NBasis=   454 RedAO= T EigKep=  1.63D-06  NBF=   454
 NBsUse=   450 1.00D-06 EigRej=  9.04D-07 NBFU=   450
 Precomputing XC quadrature grid using
 IXCGrd= 4 IRadAn=           5 IRanWt=          -1 IRanGd=           0 AccXCQ= 0.00D+00.
 Generated NRdTot=       0 NPtTot=           0 NUsed=           0 NTot=          32
 NSgBfM=   447   447   447   447   447 MxSgAt=    22 MxSgA2=    22.
 Leave Link  302 at Tue Sep 29 16:32:28 2026, MaxMem=  5100273664 cpu:               4.1 elap:               0.3
 (Enter /share/software/user/restricted/gaussian/g16.B01/l303.exe)
 DipDrv:  MaxL=1.
 Leave Link  303 at Tue Sep 29 16:32:29 2026, MaxMem=  5100273664 cpu:               0.7 elap:               0.1
 (Enter /share/software/user/restricted/gaussian/g16.B01/l401.exe)
 Initial guess from the checkpoint file:  "calcs/b3lyp_gas/chks/BDE_24_2r4_anion.chk"
 B after Tr=     0.000000    0.000000   -0.000000
         Rot=    1.000000   -0.000000   -0.000000   -0.000012 Ang=  -0.00 deg.
 Guess basis will be translated and rotated to current coordinates.
 JPrj=2 DoOrth=T DoCkMO=T.
 Leave Link  401 at Tue Sep 29 16:32:29 2026, MaxMem=  5100273664 cpu:               3.8 elap:               0.3
 (Enter /share/software/user/restricted/gaussian/g16.B01/l502.exe)
 Integral symmetry usage will be decided dynamically.
 Closed shell SCF:
 Using DIIS extrapolation, IDIIS=  1040.
 NGot=  5100273664 LenX=  5099808623 LenY=  5099581571
 Requested convergence on RMS density matrix=1.00D-08 within 128 cycles.
 Requested convergence on MAX density matrix=1.00D-06.
 Requested convergence on             energy=1.00D-06.
 No special actions if energy rises.
 Fock matrices will be formed incrementally for  20 cycles.

 Cycle   1  Pass 1  IDiag  1:
 FoFJK:  IHMeth= 1 ICntrl=       0 DoSepK=F KAlg= 0 I1Cent=           0 FoldK=F
 IRaf= 770000000 NMat=       1 IRICut=       1 DoRegI=T DoRafI=F ISym2E= 0 IDoP0=0 IntGTp=1.
 FoFCou: FMM=F IPFlag=           0 FMFlag=      100000 FMFlg1=           0
         NFxFlg=           0 DoJE=F BraDBF=F KetDBF=F FulRan=T
         wScrn=  0.000000 ICntrl=         0 IOpCl=  0 I1Cent=           0 NGrid=           0
         NMat0=    1 NMatS0=      1 NMatT0=    0 NMatD0=    1 NMtDS0=    0 NMtDT0=    0
 Symmetry not used in FoFCou.
 E= -8258.67016556215    
 DIIS: error= 4.26D-04 at cycle   1 NSaved=   1.
 NSaved= 1 IEnMin= 1 EnMin= -8258.67016556215     IErMin= 1 ErrMin= 4.26D-04
 ErrMax= 4.26D-04  0.00D+00 EMaxC= 1.00D-01 BMatC= 6.68D-05 BMatP= 6.68D-05
 IDIUse=3 WtCom= 9.96D-01 WtEn= 4.26D-03
 Coeff-Com:  0.100D+01
 Coeff-En:   0.100D+01
 Coeff:      0.100D+01
 Gap=     0.307 Goal=   None    Shift=    0.000
 RMSDP=8.43D-05 MaxDP=4.13D-03              OVMax= 1.44D-03

 Cycle   2  Pass 1  IDiag  1:
 RMSU=  8.43D-05    CP:  1.00D+00
 E= -8258.67019132119     Delta-E=       -0.000025759035 Rises=F Damp=F
 DIIS: error= 2.24D-05 at cycle   2 NSaved=   2.
 NSaved= 2 IEnMin= 2 EnMin= -8258.67019132119     IErMin= 2 ErrMin= 2.24D-05
 ErrMax= 2.24D-05  0.00D+00 EMaxC= 1.00D-01 BMatC= 1.27D-07 BMatP= 6.68D-05
 IDIUse=1 WtCom= 1.00D+00 WtEn= 0.00D+00
 Coeff-Com: -0.745D-02 0.101D+01
 Coeff:     -0.745D-02 0.101D+01
 Gap=     0.122 Goal=   None    Shift=    0.000
 RMSDP=9.80D-06 MaxDP=7.04D-04 DE=-2.58D-05 OVMax= 1.35D-04

 Cycle   3  Pass 1  IDiag  1:
 RMSU=  9.61D-06    CP:  1.00D+00  1.02D+00
 E= -8258.67019154776     Delta-E=       -0.000000226572 Rises=F Damp=F
 DIIS: error= 7.63D-06 at cycle   3 NSaved=   3.
 NSaved= 3 IEnMin= 3 EnMin= -8258.67019154776     IErMin= 3 ErrMin= 7.63D-06
 ErrMax= 7.63D-06  0.00D+00 EMaxC= 1.00D-01 BMatC= 2.60D-08 BMatP= 1.27D-07
 IDIUse=1 WtCom= 1.00D+00 WtEn= 0.00D+00
 Coeff-Com: -0.292D-02 0.268D+00 0.735D+00
 Coeff:     -0.292D-02 0.268D+00 0.735D+00
 Gap=     0.122 Goal=   None    Shift=    0.000
 RMSDP=4.99D-06 MaxDP=4.12D-04 DE=-2.27D-07 OVMax= 6.22D-05

 Cycle   4  Pass 1  IDiag  1:
 RMSU=  2.56D-06    CP:  1.00D+00  1.03D+00  5.69D-01
 E= -8258.67019156524     Delta-E=       -0.000000017484 Rises=F Damp=F
 DIIS: error= 9.50D-06 at cycle   4 NSaved=   4.
 NSaved= 4 IEnMin= 4 EnMin= -8258.67019156524     IErMin= 3 ErrMin= 7.63D-06
 ErrMax= 9.50D-06  0.00D+00 EMaxC= 1.00D-01 BMatC= 1.26D-08 BMatP= 2.60D-08
 IDIUse=1 WtCom= 1.00D+00 WtEn= 0.00D+00
 Coeff-Com: -0.963D-03 0.592D-01 0.412D+00 0.529D+00
 Coeff:     -0.963D-03 0.592D-01 0.412D+00 0.529D+00
 Gap=     0.122 Goal=   None    Shift=    0.000
 RMSDP=1.78D-06 MaxDP=1.29D-04 DE=-1.75D-08 OVMax= 4.55D-05

 Cycle   5  Pass 1  IDiag  1:
 RMSU=  1.13D-06    CP:  1.00D+00  1.03D+00  6.63D-01  6.47D-01
 E= -8258.67019157464     Delta-E=       -0.000000009399 Rises=F Damp=F
 DIIS: error= 4.67D-06 at cycle   5 NSaved=   5.
 NSaved= 5 IEnMin= 5 EnMin= -8258.67019157464     IErMin= 5 ErrMin= 4.67D-06
 ErrMax= 4.67D-06  0.00D+00 EMaxC= 1.00D-01 BMatC= 3.83D-09 BMatP= 1.26D-08
 IDIUse=1 WtCom= 1.00D+00 WtEn= 0.00D+00
 Coeff-Com: -0.674D-04-0.187D-01 0.142D+00 0.380D+00 0.498D+00
 Coeff:     -0.674D-04-0.187D-01 0.142D+00 0.380D+00 0.498D+00
 Gap=     0.122 Goal=   None    Shift=    0.000
 RMSDP=9.45D-07 MaxDP=6.73D-05 DE=-9.40D-09 OVMax= 2.43D-05

 Cycle   6  Pass 1  IDiag  1:
 RMSU=  3.22D-07    CP:  1.00D+00  1.03D+00  7.12D-01  7.06D-01  4.20D-01
 E= -8258.67019157852     Delta-E=       -0.000000003873 Rises=F Damp=F
 DIIS: error= 8.08D-07 at cycle   6 NSaved=   6.
 NSaved= 6 IEnMin= 6 EnMin= -8258.67019157852     IErMin= 6 ErrMin= 8.08D-07
 ErrMax= 8.08D-07  0.00D+00 EMaxC= 1.00D-01 BMatC= 2.38D-10 BMatP= 3.83D-09
 IDIUse=1 WtCom= 1.00D+00 WtEn= 0.00D+00
 Coeff-Com:  0.425D-04-0.174D-01 0.491D-01 0.180D+00 0.292D+00 0.496D+00
 Coeff:      0.425D-04-0.174D-01 0.491D-01 0.180D+00 0.292D+00 0.496D+00
 Gap=     0.122 Goal=   None    Shift=    0.000
 RMSDP=2.53D-07 MaxDP=1.47D-05 DE=-3.87D-09 OVMax= 7.53D-06

 Cycle   7  Pass 1  IDiag  1:
 RMSU=  1.13D-07    CP:  1.00D+00  1.03D+00  7.07D-01  7.07D-01  5.25D-01
                    CP:  5.16D-01
 E= -8258.67019157871     Delta-E=       -0.000000000195 Rises=F Damp=F
 DIIS: error= 4.34D-07 at cycle   7 NSaved=   7.
 NSaved= 7 IEnMin= 7 EnMin= -8258.67019157871     IErMin= 7 ErrMin= 4.34D-07
 ErrMax= 4.34D-07  0.00D+00 EMaxC= 1.00D-01 BMatC= 4.25D-11 BMatP= 2.38D-10
 IDIUse=1 WtCom= 1.00D+00 WtEn= 0.00D+00
 Coeff-Com:  0.366D-04-0.957D-02 0.161D-01 0.757D-01 0.137D+00 0.332D+00
 Coeff-Com:  0.449D+00
 Coeff:      0.366D-04-0.957D-02 0.161D-01 0.757D-01 0.137D+00 0.332D+00
 Coeff:      0.449D+00
 Gap=     0.122 Goal=   None    Shift=    0.000
 RMSDP=9.83D-08 MaxDP=6.57D-06 DE=-1.95D-10 OVMax= 2.74D-06

 Cycle   8  Pass 1  IDiag  1:
 RMSU=  4.25D-08    CP:  1.00D+00  1.03D+00  7.04D-01  7.23D-01  5.10D-01
                    CP:  5.72D-01  4.65D-01
 E= -8258.67019157876     Delta-E=       -0.000000000047 Rises=F Damp=F
 DIIS: error= 1.00D-07 at cycle   8 NSaved=   8.
 NSaved= 8 IEnMin= 8 EnMin= -8258.67019157876     IErMin= 8 ErrMin= 1.00D-07
 ErrMax= 1.00D-07  0.00D+00 EMaxC= 1.00D-01 BMatC= 3.30D-12 BMatP= 4.25D-11
 IDIUse=1 WtCom= 1.00D+00 WtEn= 0.00D+00
 Coeff-Com:  0.131D-04-0.250D-02 0.137D-02 0.139D-01 0.303D-01 0.107D+00
 Coeff-Com:  0.254D+00 0.596D+00
 Coeff:      0.131D-04-0.250D-02 0.137D-02 0.139D-01 0.303D-01 0.107D+00
 Coeff:      0.254D+00 0.596D+00
 Gap=     0.122 Goal=   None    Shift=    0.000
 RMSDP=2.58D-08 MaxDP=2.09D-06 DE=-4.73D-11 OVMax= 8.77D-07

 Cycle   9  Pass 1  IDiag  1:
 RMSU=  1.60D-08    CP:  1.00D+00  1.03D+00  7.03D-01  7.22D-01  5.18D-01
                    CP:  5.71D-01  5.65D-01  6.89D-01
 E= -8258.67019157877     Delta-E=       -0.000000000007 Rises=F Damp=F
 DIIS: error= 4.40D-08 at cycle   9 NSaved=   9.
 NSaved= 9 IEnMin= 9 EnMin= -8258.67019157877     IErMin= 9 ErrMin= 4.40D-08
 ErrMax= 4.40D-08  0.00D+00 EMaxC= 1.00D-01 BMatC= 6.92D-13 BMatP= 3.30D-12
 IDIUse=1 WtCom= 1.00D+00 WtEn= 0.00D+00
 Coeff-Com:  0.231D-05-0.984D-05-0.167D-02-0.329D-02-0.288D-02 0.135D-01
 Coeff-Com:  0.874D-01 0.374D+00 0.533D+00
 Coeff:      0.231D-05-0.984D-05-0.167D-02-0.329D-02-0.288D-02 0.135D-01
 Coeff:      0.874D-01 0.374D+00 0.533D+00
 Gap=     0.122 Goal=   None    Shift=    0.000
 RMSDP=1.14D-08 MaxDP=4.46D-07 DE=-7.28D-12 OVMax= 3.58D-07

 Cycle  10  Pass 1  IDiag  1:
 RMSU=  5.58D-09    CP:  1.00D+00  1.03D+00  7.04D-01  7.22D-01  5.15D-01
                    CP:  5.83D-01  5.73D-01  7.57D-01  5.55D-01
 E= -8258.67019157878     Delta-E=       -0.000000000015 Rises=F Damp=F
 DIIS: error= 1.85D-08 at cycle  10 NSaved=  10.
 NSaved=10 IEnMin=10 EnMin= -8258.67019157878     IErMin=10 ErrMin= 1.85D-08
 ErrMax= 1.85D-08  0.00D+00 EMaxC= 1.00D-01 BMatC= 8.15D-14 BMatP= 6.92D-13
 IDIUse=1 WtCom= 1.00D+00 WtEn= 0.00D+00
 Coeff-Com: -0.108D-08 0.286D-03-0.122D-02-0.370D-02-0.539D-02-0.437D-02
 Coeff-Com:  0.243D-01 0.163D+00 0.326D+00 0.501D+00
 Coeff:     -0.108D-08 0.286D-03-0.122D-02-0.370D-02-0.539D-02-0.437D-02
 Coeff:      0.243D-01 0.163D+00 0.326D+00 0.501D+00
 Gap=     0.122 Goal=   None    Shift=    0.000
 RMSDP=4.37D-09 MaxDP=1.58D-07 DE=-1.46D-11 OVMax= 1.43D-07

 SCF Done:  E(RB3LYP) =  -8258.67019158     A.U. after   10 cycles
            NFock= 10  Conv=0.44D-08     -V/T= 2.0014
 KE= 8.247203366252D+03 PE=-2.364059109118D+04 EE= 5.179261811246D+03
 Leave Link  502 at Tue Sep 29 16:33:03 2026, MaxMem=  5100273664 cpu:             546.6 elap:              34.2
 (Enter /share/software/user/restricted/gaussian/g16.B01/l701.exe)
 ... and contract with generalized density number  0.
 Compute integral first derivatives.
 Leave Link  701 at Tue Sep 29 16:33:03 2026, MaxMem=  5100273664 cpu:               2.2 elap:               0.2
 (Enter /share/software/user/restricted/gaussian/g16.B01/l702.exe)
 L702 exits ... SP integral derivatives will be done elsewhere.
 Leave Link  702 at Tue Sep 29 16:33:03 2026, MaxMem=  5100273664 cpu:               0.4 elap:               0.0
 (Enter /share/software/user/restricted/gaussian/g16.B01/l703.exe)
 Integral derivatives from FoFJK, PRISM(SPDF).
 Compute integral first derivatives, UseDBF=F ICtDFT=           0.
 Calling FoFJK, ICntrl=      2127 FMM=F ISym2X=0 I1Cent= 0 IOpClX= 0 NMat=1 NMatS=1 NMatT=0.
 FoFJK:  IHMeth= 1 ICntrl=    2127 DoSepK=F KAlg= 0 I1Cent=           0 FoldK=F
 IRaf=         0 NMat=       1 IRICut=       1 DoRegI=T DoRafI=F ISym2E= 0 IDoP0=0 IntGTp=1.
 FoFCou: FMM=F IPFlag=           0 FMFlag=      100000 FMFlg1=         800
         NFxFlg=           0 DoJE=F BraDBF=F KetDBF=F FulRan=T
         wScrn=  0.000000 ICntrl=      2127 IOpCl=  0 I1Cent=           0 NGrid=           0
         NMat0=    1 NMatS0=      1 NMatT0=    0 NMatD0=    1 NMtDS0=    0 NMtDT0=    0
 Symmetry not used in FoFCou.
 Leave Link  703 at Tue Sep 29 16:33:15 2026, MaxMem=  5100273664 cpu:             193.6 elap:              12.1
 (Enter /share/software/user/restricted/gaussian/g16.B01/l716.exe)
 Dipole        =-1.40733398D+00 6.75429334D-01-3.76453498D-03
 ***** Axes restored to original set *****
 -------------------------------------------------------------------
 Center     Atomic                   Forces (Hartrees/Bohr)
 Number     Number              X              Y              Z
 -------------------------------------------------------------------
      1        6           0.000071022   -0.000024302    0.000004508
      2        6          -0.000077393    0.000014593    0.000009404
      3        6           0.000058604   -0.000029348   -0.000004838
      4        6          -0.000144377    0.000009098    0.000008608
      5        6           0.000152301    0.000034621   -0.000009512
      6        6          -0.000075361   -0.000089106   -0.000009124
      7        6           0.000054648    0.000116733   -0.000009192
      8        6          -0.000110457   -0.000046537    0.000012517
      9        6          -0.000006765   -0.000024745   -0.000001086
     10        6          -0.000012438    0.000010962   -0.000004849
     11        6           0.000009447   -0.000005133    0.000002741
     12        6          -0.000062787   -0.000000748    0.000014578
     13        8           0.000024167   -0.000039075   -0.000011880
     14       35           0.000010241    0.000014700    0.000001954
     15        1          -0.000001612    0.000013656    0.000001210
     16       35           0.000048568    0.000015876   -0.000003052
     17        1          -0.000031261    0.000002477    0.000004642
     18        1           0.000047182    0.000028530    0.000000061
     19        1           0.000013496    0.000004840   -0.000000901
     20       35           0.000008353    0.000002647    0.000002023
     21        1           0.000007801   -0.000006784   -0.000003284
     22        1           0.000016621   -0.000002956   -0.000004529
 -------------------------------------------------------------------
 Cartesian Forces:  Max     0.000152301 RMS     0.000043003
 Leave Link  716 at Tue Sep 29 16:33:16 2026, MaxMem=  5100273664 cpu:               0.4 elap:               0.0
 (Enter /share/software/user/restricted/gaussian/g16.B01/l103.exe)

 GradGradGradGradGradGradGradGradGradGradGradGradGradGradGradGradGradGrad
 Berny optimization.
 Using GEDIIS/GDIIS optimizer.
 FormGI is forming the generalized inverse of G from B-inverse, IUseBI=4.
 GSVD:  received Info=                   1 from GESDD.
 Internal  Forces:  Max     0.000238172 RMS     0.000039684
 Search for a local minimum.
 Step number  19 out of a maximum of  116
 All quantities printed in internal units (Hartrees-Bohrs-Radians)
 RMS Force = .39684D-04 SwitMx=.10000D-02 MixMth= 2
 Mixed Optimization -- En-DIIS/RFO-DIIS
 Swapping is turned off.
 Update second derivatives using D2CorX and points    6    8    7    9   10
                                                     11   12   13   14   15
                                                     16   17   18   19
 DE= -2.16D-07 DEPred=-1.54D-07 R= 1.40D+00
 Trust test= 1.40D+00 RLast= 8.88D-03 DXMaxT set to 3.00D-01
 ITU=  0  0  0  0  0  0  1  1  1  1  0 -1  1 -1  1  1 -1  0  0
     Eigenvalues ---    0.00166   0.01817   0.01867   0.02025   0.02060
     Eigenvalues ---    0.02088   0.02091   0.02108   0.02116   0.02122
     Eigenvalues ---    0.02131   0.02139   0.02167   0.02180   0.02191
     Eigenvalues ---    0.02250   0.02312   0.02756   0.04166   0.11358
     Eigenvalues ---    0.13512   0.16005   0.16006   0.16020   0.16073
     Eigenvalues ---    0.16722   0.19022   0.19604   0.22555   0.22855
     Eigenvalues ---    0.23414   0.24291   0.24505   0.24896   0.24978
     Eigenvalues ---    0.25014   0.25424   0.26620   0.33665   0.33714
     Eigenvalues ---    0.33755   0.33840   0.33913   0.36317   0.38893
     Eigenvalues ---    0.41444   0.42331   0.42709   0.44738   0.45224
     Eigenvalues ---    0.45614   0.45742   0.45983   0.46425   0.47238
     Eigenvalues ---    0.47558   0.47710   0.56900   1.24219  20.66559
 En-DIIS/RFO-DIIS/Sim-DIIS IScMMF=       -3 using points:    19   18   17   16   15   14   13   12
 RFO step:  Lambda=-2.06833606D-07.
 NNeg= 0 NGDIIS= 8 SimSw=  2.50D-01 Rises=F DC= -2.16D-07 SmlDif=  1.00D-05
 NRisDI= 0 DoIntr=F SqrtH=F CThrHd= 10.0 CDAdj=  3.0
 RMS Error=  0.4069140741D-03 NUsed= 8 OKEnD=F EnDIS=F
 InvSVX:  RCond= 1.62D-10 Info=           0 Equed=N FErr=  1.49D-09 BErr=  9.35D-17
 DIIS inversion failure, remove point   8.
 InvSVX:  RCond= 2.32D-10 Info=           0 Equed=N FErr=  1.00D-09 BErr=  8.73D-17
 DIIS inversion failure, remove point   7.
 InvSVX:  RCond= 2.72D-10 Info=           0 Equed=N FErr=  8.83D-10 BErr=  1.03D-16
 DIIS inversion failure, remove point   6.
 InvSVX:  RCond= 3.44D-10 Info=           0 Equed=N FErr=  8.11D-10 BErr=  2.42D-17
 DIIS inversion failure, remove point   5.
 InvSVX:  RCond= 1.12D-08 Info=           0 Equed=N FErr=  8.47D-12 BErr=  9.52D-17
 DIIS inversion failure, remove point   4.
 InvSVX:  RCond= 1.59D-08 Info=           0 Equed=N FErr=  3.71D-12 BErr=  9.87D-17
 DIIS inversion failure, remove point   3.
 InvSVX:  RCond= 1.97D-05 Info=           0 Equed=N FErr=  2.09D-15 BErr=  0.00D+00
 RFO-DIIS uses    2 points instead of    8
 DidBck=F Rises=F RFO-DIIS coefs:    1.45247   -0.45247    0.00000    0.00000    0.00000
                  RFO-DIIS coefs:    0.00000    0.00000    0.00000
 Iteration  1 RMS(Cart)=  0.00068304 RMS(Int)=  0.00000022
 Iteration  2 RMS(Cart)=  0.00000139 RMS(Int)=  0.00000003
 Iteration  3 RMS(Cart)=  0.00000000 RMS(Int)=  0.00000003
 ITry= 1 IFail=0 DXMaxC= 3.47D-03 DCOld= 1.00D+10 DXMaxT= 3.00D-01 DXLimC= 3.00D+00 Rises=F
 Variable       Old X    -DE/DX   Delta X   Delta X   Delta X     New X
                                 (Linear)    (Quad)   (Total)
    R1        2.64300   0.00003   0.00001   0.00006   0.00007   2.64307
    R2        2.62275   0.00000  -0.00000   0.00005   0.00005   2.62280
    R3        2.66036  -0.00005  -0.00001  -0.00003  -0.00004   2.66032
    R4        2.62585  -0.00003  -0.00002  -0.00005  -0.00007   2.62578
    R5        3.73499   0.00002   0.00004   0.00010   0.00014   3.73514
    R6        2.62733   0.00000  -0.00001  -0.00002  -0.00003   2.62730
    R7        2.04240   0.00001   0.00000   0.00001   0.00001   2.04242
    R8        2.62617   0.00007   0.00003   0.00011   0.00014   2.62630
    R9        3.73327  -0.00005  -0.00004  -0.00026  -0.00030   3.73297
   R10        2.65099  -0.00006  -0.00002  -0.00009  -0.00011   2.65089
   R11        2.05873   0.00000  -0.00001   0.00001   0.00001   2.05873
   R12        4.27134   0.00004   0.00005   0.00001   0.00006   4.27140
   R13        2.65089   0.00003  -0.00004  -0.00001  -0.00005   2.65084
   R14        2.65768  -0.00004  -0.00002  -0.00006  -0.00008   2.65759
   R15        2.55973  -0.00010  -0.00002  -0.00007  -0.00010   2.55964
   R16        2.63861   0.00001  -0.00001  -0.00000  -0.00001   2.63860
   R17        2.62260   0.00002   0.00002   0.00003   0.00005   2.62265
   R18        2.04940  -0.00000  -0.00000  -0.00001  -0.00001   2.04939
   R19        2.63130   0.00000   0.00003   0.00000   0.00003   2.63133
   R20        3.65948   0.00001  -0.00006  -0.00004  -0.00010   3.65937
   R21        2.62433   0.00001  -0.00001   0.00002   0.00000   2.62434
   R22        2.04848   0.00000   0.00000   0.00000   0.00000   2.04848
   R23        2.04964  -0.00001  -0.00001  -0.00002  -0.00004   2.04960
    A1        2.12496   0.00002  -0.00003  -0.00007  -0.00010   2.12486
    A2        1.97393   0.00006  -0.00004  -0.00010  -0.00014   1.97379
    A3        2.18429  -0.00008   0.00007   0.00017   0.00024   2.18453
    A4        2.11630  -0.00002   0.00000   0.00005   0.00005   2.11635
    A5        2.13685  -0.00001  -0.00001  -0.00004  -0.00004   2.13681
    A6        2.03003   0.00002   0.00001  -0.00001  -0.00001   2.03003
    A7        2.04071   0.00001   0.00004   0.00006   0.00010   2.04080
    A8        2.11443  -0.00002  -0.00002  -0.00006  -0.00009   2.11434
    A9        2.12805   0.00000  -0.00001   0.00000  -0.00001   2.12804
   A10        2.13381  -0.00002  -0.00004  -0.00014  -0.00018   2.13362
   A11        2.04991   0.00001   0.00002   0.00009   0.00011   2.05002
   A12        2.09947   0.00001   0.00002   0.00005   0.00007   2.09954
   A13        2.10812   0.00002   0.00000   0.00013   0.00013   2.10825
   A14        2.06980  -0.00004  -0.00002  -0.00018  -0.00019   2.06961
   A15        2.10527   0.00002   0.00001   0.00005   0.00006   2.10533
   A16        2.04247  -0.00002   0.00003  -0.00002   0.00000   2.04247
   A17        1.70981  -0.00008  -0.00011  -0.00034  -0.00045   1.70937
   A18        2.53086   0.00010   0.00008   0.00036   0.00044   2.53130
   A19        2.07720   0.00007   0.00004   0.00010   0.00014   2.07734
   A20        2.22236  -0.00017  -0.00010  -0.00026  -0.00036   2.22200
   A21        1.98363   0.00010   0.00006   0.00016   0.00022   1.98385
   A22        2.08962  -0.00004   0.00001  -0.00003  -0.00002   2.08960
   A23        2.09925  -0.00001  -0.00001  -0.00002  -0.00003   2.09922
   A24        2.08283   0.00002   0.00002   0.00008   0.00010   2.08293
   A25        2.10110  -0.00001  -0.00001  -0.00005  -0.00007   2.10103
   A26        2.10860   0.00002  -0.00004  -0.00001  -0.00005   2.10856
   A27        2.09142   0.00000   0.00003   0.00003   0.00006   2.09147
   A28        2.08316  -0.00002   0.00001  -0.00002  -0.00001   2.08315
   A29        2.07747   0.00000   0.00005   0.00005   0.00010   2.07757
   A30        2.10756  -0.00001  -0.00004  -0.00007  -0.00011   2.10745
   A31        2.09816   0.00001  -0.00002   0.00002   0.00000   2.09816
   A32        2.11423  -0.00004  -0.00006  -0.00009  -0.00015   2.11408
   A33        2.06443   0.00003   0.00005   0.00012   0.00017   2.06461
   A34        2.10452   0.00000   0.00000  -0.00003  -0.00003   2.10450
   A35        2.24052  -0.00024   0.00006   0.00013   0.00019   2.24071
    D1        0.00021  -0.00000  -0.00006  -0.00019  -0.00024  -0.00004
    D2       -3.14122  -0.00000  -0.00012  -0.00018  -0.00030  -3.14152
    D3        3.14112  -0.00000  -0.00029  -0.00026  -0.00056   3.14056
    D4       -0.00031  -0.00000  -0.00036  -0.00026  -0.00062  -0.00092
    D5       -0.00023   0.00000  -0.00003   0.00015   0.00012  -0.00011
    D6       -3.13483   0.00000   0.00008   0.00027   0.00035  -3.13448
    D7       -3.14106   0.00000   0.00023   0.00024   0.00047  -3.14059
    D8        0.00753   0.00000   0.00035   0.00036   0.00071   0.00823
    D9        3.13743  -0.00001  -0.00171   0.00011  -0.00160   3.13583
   D10       -0.00486  -0.00001  -0.00196   0.00002  -0.00193  -0.00679
   D11        0.00001  -0.00000   0.00006   0.00005   0.00011   0.00012
   D12        3.14155   0.00000   0.00003   0.00007   0.00010  -3.14154
   D13        3.14145  -0.00000   0.00012   0.00004   0.00016  -3.14157
   D14       -0.00020   0.00000   0.00009   0.00006   0.00015  -0.00005
   D15       -0.00020   0.00000   0.00003   0.00011   0.00014  -0.00006
   D16        3.14142   0.00000   0.00006   0.00007   0.00013   3.14155
   D17        3.14145   0.00000   0.00006   0.00009   0.00015  -3.14159
   D18       -0.00012   0.00000   0.00009   0.00005   0.00014   0.00003
   D19        0.00018  -0.00000  -0.00012  -0.00014  -0.00026  -0.00009
   D20       -3.14131  -0.00000  -0.00009  -0.00021  -0.00030   3.14158
   D21       -3.14144  -0.00000  -0.00016  -0.00010  -0.00026   3.14149
   D22        0.00025  -0.00000  -0.00013  -0.00017  -0.00029  -0.00004
   D23        0.00004   0.00000   0.00012   0.00001   0.00013   0.00017
   D24        3.12955  -0.00000  -0.00008  -0.00020  -0.00028   3.12927
   D25        3.14153   0.00000   0.00009   0.00007   0.00016  -3.14149
   D26       -0.01215  -0.00000  -0.00011  -0.00014  -0.00025  -0.01239
   D27        0.00003  -0.00000   0.00007  -0.00003   0.00005   0.00008
   D28       -3.14103   0.00000  -0.00021   0.00000  -0.00020  -3.14123
   D29       -0.00005   0.00000  -0.00002   0.00002   0.00001  -0.00004
   D30       -3.14145   0.00000  -0.00002  -0.00002  -0.00004  -3.14149
   D31        3.14108  -0.00000   0.00023  -0.00000   0.00023   3.14131
   D32       -0.00031  -0.00001   0.00022  -0.00005   0.00017  -0.00014
   D33       -0.00254  -0.00001   0.00220  -0.00013   0.00207  -0.00048
   D34        3.13955  -0.00000   0.00193  -0.00010   0.00183   3.14138
   D35       -0.00000   0.00000  -0.00009   0.00001  -0.00007  -0.00007
   D36       -3.14149   0.00000  -0.00004  -0.00000  -0.00005  -3.14154
   D37       -0.00002   0.00000   0.00004  -0.00000   0.00004   0.00002
   D38       -3.14141  -0.00000   0.00003  -0.00005  -0.00002  -3.14143
   D39        3.14148   0.00000  -0.00001   0.00002   0.00001   3.14149
   D40        0.00008  -0.00000  -0.00002  -0.00003  -0.00005   0.00003
   D41       -0.00000  -0.00000   0.00002  -0.00000   0.00002   0.00002
   D42        3.14154  -0.00000  -0.00002   0.00002  -0.00000   3.14154
   D43        3.14140   0.00000   0.00003   0.00005   0.00008   3.14147
   D44       -0.00024   0.00000  -0.00001   0.00007   0.00006  -0.00018
   D45        0.00004  -0.00000  -0.00003  -0.00001  -0.00004  -0.00001
   D46        3.14143   0.00000  -0.00003   0.00004   0.00001   3.14144
   D47       -3.14151  -0.00000   0.00001  -0.00003  -0.00002  -3.14153
   D48       -0.00012   0.00000   0.00001   0.00002   0.00003  -0.00009
         Item               Value     Threshold  Converged?
 Maximum Force            0.000238     0.000450     YES
 RMS     Force            0.000040     0.000300     YES
 Maximum Displacement     0.003465     0.001800     NO 
 RMS     Displacement     0.000683     0.001200     YES
 Predicted change in Energy=-1.034177D-07
 Lowest energy point so far.  Saving SCF results.
 GradGradGradGradGradGradGradGradGradGradGradGradGradGradGradGradGradGrad

 Leave Link  103 at Tue Sep 29 16:33:16 2026, MaxMem=  5100273664 cpu:               2.4 elap:               0.2
 (Enter /share/software/user/restricted/gaussian/g16.B01/l202.exe)
                          Input orientation:                          
 ---------------------------------------------------------------------
 Center     Atomic      Atomic             Coordinates (Angstroms)
 Number     Number       Type             X           Y           Z
 ---------------------------------------------------------------------
      1          6           0       -1.301094   -1.042929    0.078737
      2          6           0       -2.343130   -0.123772    0.238573
      3          6           0       -3.668046   -0.538583    0.295501
      4          6           0       -3.905555   -1.904114    0.186568
      5          6           0       -2.877157   -2.825316    0.027597
      6          6           0       -1.539791   -2.405848   -0.029980
      7          6           0        1.179740   -1.028626   -0.093852
      8          6           0        1.445699   -2.399172   -0.230297
      9          6           0        2.764542   -2.838909   -0.360325
     10          6           0        3.810145   -1.926326   -0.355054
     11          6           0        3.565515   -0.562142   -0.220707
     12          6           0        2.254776   -0.121943   -0.091159
     13          8           0       -0.031014   -0.436790    0.042086
     14         35           0       -2.026426    1.820934    0.395293
     15          1           0       -4.471835    0.173315    0.419011
     16         35           0       -5.783727   -2.511107    0.265593
     17          1           0       -3.131374   -3.881711   -0.051591
     18          1           0        0.607099   -3.083759   -0.230952
     19          1           0        2.963071   -3.899873   -0.465486
     20         35           0        5.634308   -2.550319   -0.536525
     21          1           0        4.382995    0.149744   -0.216676
     22          1           0        2.035637    0.934959    0.015141
 ---------------------------------------------------------------------
                    Distance matrix (angstroms):
                    1          2          3          4          5
     1  C    0.000000
     2  C    1.398655   0.000000
     3  C    2.429777   1.389501   0.000000
     4  C    2.745266   2.369281   1.390306   0.000000
     5  C    2.379810   2.761890   2.434426   1.389780   0.000000
     6  C    1.387929   2.434203   2.849928   2.428059   1.402788
     7  C    2.486870   3.652379   4.888023   5.167720   4.438609
     8  C    3.078923   4.444379   5.467051   5.390248   4.351458
     9  C    4.466287   5.815407   6.862930   6.757450   5.655036
    10  C    5.205125   6.439285   7.633636   7.734719   6.758299
    11  C    4.899459   5.942658   7.251995   7.601555   6.833127
    12  C    3.677130   4.609714   5.950035   6.418952   5.801643
    13  O    1.407782   2.341466   3.647271   4.145598   3.715615
    14  Br   2.971199   1.976549   2.876142   4.177400   4.737783
    15  H    3.413010   2.156897   1.080800   2.165736   3.418771
    16  Br   4.720642   4.187816   2.892724   1.975403   2.933176
    17  H    3.380177   3.850666   3.403674   2.137046   1.089434
    18  H    2.811067   4.205452   5.003194   4.682941   3.503381
    19  H    5.161532   6.550604   7.473225   7.182357   5.958697
    20  Br   7.123943   8.374271   9.553698   9.589026   8.534570
    21  H    5.815377   6.747061   8.096629   8.548743   7.849870
    22  H    3.879415   4.510481   5.897621   6.586918   6.186709
                    6          7          8          9         10
     6  C    0.000000
     7  C    3.049044   0.000000
     8  C    2.992210   1.402764   0.000000
     9  C    4.338658   2.420688   1.396290   0.000000
    10  C    5.381211   2.791617   2.414489   1.387848   0.000000
    11  C    5.431370   2.434260   2.805065   2.417585   1.392441
    12  C    4.429301   1.406337   2.420689   2.777448   2.396792
    13  O    2.481692   1.354502   2.470995   3.707728   4.138955
    14  Br   4.275905   4.317263   5.500573   6.725955   6.976428
    15  H    3.930720   5.800688   6.485098   7.876929   8.578978
    16  Br   4.255518   7.128591   7.247277   8.577420   9.631695
    17  H    2.170662   5.169873   4.814505   5.995380   7.218055
    18  H    2.260330   2.137822   1.082547   2.175143   3.408013
    19  H    4.764194   3.400359   2.147053   1.084489   2.150492
    20  Br   7.193411   4.728074   4.202507   2.889617   1.936458
    21  H    6.453318   3.415332   3.889071   3.401775   2.158095
    22  H    4.893539   2.144786   3.394805   3.861911   3.387163
                   11         12         13         14         15
    11  C    0.000000
    12  C    1.388738   0.000000
    13  O    3.608295   2.311216   0.000000
    14  Br   6.109690   4.726531   3.033767   0.000000
    15  H    8.096241   6.752388   4.498354   2.948768   0.000000
    16  Br   9.562598   8.393623   6.119350   5.735914   2.991776
    17  H    7.476394   6.568716   4.635568   5.825871   4.296689
    18  H    3.887271   3.392158   2.736455   5.602111   6.068489
    19  H    3.400485   3.861937   4.605988   7.639611   8.523557
    20  Br   2.886606   4.185283   6.074345   8.869215  10.510250
    21  H    1.084008   2.149160   4.460321   6.651922   8.877650
    22  H    2.153477   1.084603   2.480619   4.174905   6.564328
                   16         17         18         19         20
    16  Br   0.000000
    17  H    3.002355   0.000000
    18  H    6.435616   3.826890   0.000000
    19  H    8.886486   6.108511   2.504327   0.000000
    20  Br  11.446242   8.879468   5.064658   2.993634   0.000000
    21  H   10.520217   8.529105   4.971231   4.298545   2.993063
    22  H    8.548717   7.064190   4.272163   4.946386   5.040033
                   21         22
    21  H    0.000000
    22  H    2.486040   0.000000
 Stoichiometry    C12H6Br3O(1-)
 Framework group  C1[X(C12H6Br3O)]
 Deg. of freedom    60
 Full point group                 C1      NOp   1
 RotChk:  IX=0 Diff= 2.24D-04
 Largest Abelian subgroup         C1      NOp   1
 Largest concise Abelian subgroup C1      NOp   1
                         Standard orientation:                         
 ---------------------------------------------------------------------
 Center     Atomic      Atomic             Coordinates (Angstroms)
 Number     Number       Type             X           Y           Z
 ---------------------------------------------------------------------
      1          6           0        0.909293    0.097025    0.004147
      2          6           0        2.036864    0.924556    0.000367
      3          6           0        3.320902    0.393560   -0.001202
      4          6           0        3.429084   -0.992529    0.001004
      5          6           0        2.314947   -1.823296    0.004690
      6          6           0        1.018901   -1.286566    0.006455
      7          6           0       -1.566697    0.329399    0.004228
      8          6           0       -1.961109   -1.016763   -0.001726
      9          6           0       -3.319413   -1.340228   -0.003801
     10          6           0       -4.277754   -0.336391    0.000087
     11          6           0       -3.905244    1.005283    0.006070
     12          6           0       -2.554985    1.329927    0.008099
     13          8           0       -0.302001    0.814388    0.006559
     14         35           0        1.904314    2.896652   -0.002848
     15          1           0        4.190938    1.034776   -0.004074
     16         35           0        5.247521   -1.764213   -0.001259
     17          1           0        2.469028   -2.901778    0.006250
     18          1           0       -1.188085   -1.774613   -0.004146
     19          1           0       -3.617394   -2.382966   -0.008359
     20         35           0       -6.158000   -0.799573   -0.002587
     21          1           0       -4.654647    1.788519    0.009056
     22          1           0       -2.236802    2.366798    0.012595
 ---------------------------------------------------------------------
 Rotational constants (GHZ):           0.4395085           0.0763755           0.0650683
 Leave Link  202 at Tue Sep 29 16:33:16 2026, MaxMem=  5100273664 cpu:               0.5 elap:               0.1
 (Enter /share/software/user/restricted/gaussian/g16.B01/l301.exe)
 Standard basis: 6-311++G(d) (5D, 7F)
 Ernie: Thresh=  0.10000D-02 Tol=  0.10000D-05 Strict=F.
 There are   476 symmetry adapted cartesian basis functions of A   symmetry.
 There are   454 symmetry adapted basis functions of A   symmetry.
   454 basis functions,   786 primitive gaussians,   476 cartesian basis functions
    96 alpha electrons       96 beta electrons
       nuclear repulsion energy      1955.4784534534 Hartrees.
 IExCor=  402 DFT=T Ex+Corr=B3LYP ExCW=0 ScaHFX=  0.200000
 ScaDFX=  0.800000  0.720000  1.000000  0.810000 ScalE2=  1.000000  1.000000
 IRadAn=      5 IRanWt=     -1 IRanGd=            0 ICorTp=0 IEmpDi=  4
 NAtoms=   22 NActive=   22 NUniq=   22 SFac= 1.00D+00 NAtFMM=   60 NAOKFM=F Big=F
 Integral buffers will be    131072 words long.
 Raffenetti 2 integral format.
 Two-electron integral symmetry is turned on.
 Leave Link  301 at Tue Sep 29 16:33:16 2026, MaxMem=  5100273664 cpu:               0.4 elap:               0.0
 (Enter /share/software/user/restricted/gaussian/g16.B01/l302.exe)
 NPDir=0 NMtPBC=     1 NCelOv=     1 NCel=       1 NClECP=     1 NCelD=      1
         NCelK=      1 NCelE2=     1 NClLst=     1 CellRange=     0.0.
 One-electron integrals computed using PRISM.
 One-electron integral symmetry used in STVInt
 NBasis=   454 RedAO= T EigKep=  1.63D-06  NBF=   454
 NBsUse=   450 1.00D-06 EigRej=  9.04D-07 NBFU=   450
 Precomputing XC quadrature grid using
 IXCGrd= 4 IRadAn=           5 IRanWt=          -1 IRanGd=           0 AccXCQ= 0.00D+00.
 Generated NRdTot=       0 NPtTot=           0 NUsed=           0 NTot=          32
 NSgBfM=   447   447   447   447   447 MxSgAt=    22 MxSgA2=    22.
 Leave Link  302 at Tue Sep 29 16:33:16 2026, MaxMem=  5100273664 cpu:               4.2 elap:               0.3
 (Enter /share/software/user/restricted/gaussian/g16.B01/l303.exe)
 DipDrv:  MaxL=1.
 Leave Link  303 at Tue Sep 29 16:33:16 2026, MaxMem=  5100273664 cpu:               0.9 elap:               0.1
 (Enter /share/software/user/restricted/gaussian/g16.B01/l401.exe)
 Initial guess from the checkpoint file:  "calcs/b3lyp_gas/chks/BDE_24_2r4_anion.chk"
 B after Tr=     0.000000    0.000000    0.000000
         Rot=    1.000000   -0.000000   -0.000000   -0.000017 Ang=  -0.00 deg.
 Guess basis will be translated and rotated to current coordinates.
 JPrj=2 DoOrth=T DoCkMO=T.
 Leave Link  401 at Tue Sep 29 16:33:17 2026, MaxMem=  5100273664 cpu:               3.6 elap:               0.2
 (Enter /share/software/user/restricted/gaussian/g16.B01/l502.exe)
 Integral symmetry usage will be decided dynamically.
 Closed shell SCF:
 Using DIIS extrapolation, IDIIS=  1040.
 NGot=  5100273664 LenX=  5099808623 LenY=  5099581571
 Requested convergence on RMS density matrix=1.00D-08 within 128 cycles.
 Requested convergence on MAX density matrix=1.00D-06.
 Requested convergence on             energy=1.00D-06.
 No special actions if energy rises.
 Fock matrices will be formed incrementally for  20 cycles.

 Cycle   1  Pass 1  IDiag  1:
 FoFJK:  IHMeth= 1 ICntrl=       0 DoSepK=F KAlg= 0 I1Cent=           0 FoldK=F
 IRaf= 770000000 NMat=       1 IRICut=       1 DoRegI=T DoRafI=F ISym2E= 0 IDoP0=0 IntGTp=1.
 FoFCou: FMM=F IPFlag=           0 FMFlag=      100000 FMFlg1=           0
         NFxFlg=           0 DoJE=F BraDBF=F KetDBF=F FulRan=T
         wScrn=  0.000000 ICntrl=         0 IOpCl=  0 I1Cent=           0 NGrid=           0
         NMat0=    1 NMatS0=      1 NMatT0=    0 NMatD0=    1 NMtDS0=    0 NMtDT0=    0
 Symmetry not used in FoFCou.
 E= -8258.67018863659    
 DIIS: error= 1.43D-04 at cycle   1 NSaved=   1.
 NSaved= 1 IEnMin= 1 EnMin= -8258.67018863659     IErMin= 1 ErrMin= 1.43D-04
 ErrMax= 1.43D-04  0.00D+00 EMaxC= 1.00D-01 BMatC= 7.14D-06 BMatP= 7.14D-06
 IDIUse=3 WtCom= 9.99D-01 WtEn= 1.43D-03
 Coeff-Com:  0.100D+01
 Coeff-En:   0.100D+01
 Coeff:      0.100D+01
 Gap=     0.307 Goal=   None    Shift=    0.000
 RMSDP=3.90D-05 MaxDP=1.94D-03              OVMax= 4.39D-04

 Cycle   2  Pass 1  IDiag  1:
 RMSU=  3.85D-05    CP:  1.00D+00
 E= -8258.67019163980     Delta-E=       -0.000003003212 Rises=F Damp=F
 DIIS: error= 7.70D-06 at cycle   2 NSaved=   2.
 NSaved= 2 IEnMin= 2 EnMin= -8258.67019163980     IErMin= 2 ErrMin= 7.70D-06
 ErrMax= 7.70D-06  0.00D+00 EMaxC= 1.00D-01 BMatC= 2.27D-08 BMatP= 7.14D-06
 IDIUse=1 WtCom= 1.00D+00 WtEn= 0.00D+00
 Coeff-Com: -0.757D-02 0.101D+01
 Coeff:     -0.757D-02 0.101D+01
 Gap=     0.122 Goal=   None    Shift=    0.000
 RMSDP=4.53D-06 MaxDP=2.60D-04 DE=-3.00D-06 OVMax= 8.87D-05

 Cycle   3  Pass 1  IDiag  1:
 RMSU=  4.43D-06    CP:  1.00D+00  1.02D+00
 E= -8258.67019165187     Delta-E=       -0.000000012069 Rises=F Damp=F
 DIIS: error= 1.48D-05 at cycle   3 NSaved=   3.
 NSaved= 3 IEnMin= 3 EnMin= -8258.67019165187     IErMin= 2 ErrMin= 7.70D-06
 ErrMax= 1.48D-05  0.00D+00 EMaxC= 1.00D-01 BMatC= 2.30D-08 BMatP= 2.27D-08
 IDIUse=1 WtCom= 1.00D+00 WtEn= 0.00D+00
 Coeff-Com: -0.574D-02 0.510D+00 0.496D+00
 Coeff:     -0.574D-02 0.510D+00 0.496D+00
 Gap=     0.122 Goal=   None    Shift=    0.000
 RMSDP=2.03D-06 MaxDP=1.17D-04 DE=-1.21D-08 OVMax= 7.89D-05

 Cycle   4  Pass 1  IDiag  1:
 RMSU=  1.07D-06    CP:  1.00D+00  1.03D+00  6.21D-01
 E= -8258.67019167146     Delta-E=       -0.000000019589 Rises=F Damp=F
 DIIS: error= 6.60D-06 at cycle   4 NSaved=   4.
 NSaved= 4 IEnMin= 4 EnMin= -8258.67019167146     IErMin= 4 ErrMin= 6.60D-06
 ErrMax= 6.60D-06  0.00D+00 EMaxC= 1.00D-01 BMatC= 4.09D-09 BMatP= 2.27D-08
 IDIUse=1 WtCom= 1.00D+00 WtEn= 0.00D+00
 Coeff-Com: -0.174D-02 0.116D+00 0.299D+00 0.586D+00
 Coeff:     -0.174D-02 0.116D+00 0.299D+00 0.586D+00
 Gap=     0.122 Goal=   None    Shift=    0.000
 RMSDP=7.14D-07 MaxDP=5.66D-05 DE=-1.96D-08 OVMax= 2.48D-05

 Cycle   5  Pass 1  IDiag  1:
 RMSU=  5.65D-07    CP:  1.00D+00  1.03D+00  5.59D-01  7.07D-01
 E= -8258.67019167511     Delta-E=       -0.000000003658 Rises=F Damp=F
 DIIS: error= 1.37D-06 at cycle   5 NSaved=   5.
 NSaved= 5 IEnMin= 5 EnMin= -8258.67019167511     IErMin= 5 ErrMin= 1.37D-06
 ErrMax= 1.37D-06  0.00D+00 EMaxC= 1.00D-01 BMatC= 5.61D-10 BMatP= 4.09D-09
 IDIUse=1 WtCom= 1.00D+00 WtEn= 0.00D+00
 Coeff-Com: -0.349D-03 0.441D-02 0.117D+00 0.349D+00 0.530D+00
 Coeff:     -0.349D-03 0.441D-02 0.117D+00 0.349D+00 0.530D+00
 Gap=     0.122 Goal=   None    Shift=    0.000
 RMSDP=3.81D-07 MaxDP=1.82D-05 DE=-3.66D-09 OVMax= 8.39D-06

 Cycle   6  Pass 1  IDiag  1:
 RMSU=  1.75D-07    CP:  1.00D+00  1.03D+00  6.18D-01  7.53D-01  6.56D-01
 E= -8258.67019167566     Delta-E=       -0.000000000548 Rises=F Damp=F
 DIIS: error= 3.24D-07 at cycle   6 NSaved=   6.
 NSaved= 6 IEnMin= 6 EnMin= -8258.67019167566     IErMin= 6 ErrMin= 3.24D-07
 ErrMax= 3.24D-07  0.00D+00 EMaxC= 1.00D-01 BMatC= 5.91D-11 BMatP= 5.61D-10
 IDIUse=1 WtCom= 1.00D+00 WtEn= 0.00D+00
 Coeff-Com: -0.373D-05-0.136D-01 0.340D-01 0.138D+00 0.305D+00 0.536D+00
 Coeff:     -0.373D-05-0.136D-01 0.340D-01 0.138D+00 0.305D+00 0.536D+00
 Gap=     0.122 Goal=   None    Shift=    0.000
 RMSDP=1.13D-07 MaxDP=5.38D-06 DE=-5.48D-10 OVMax= 2.29D-06

 Cycle   7  Pass 1  IDiag  1:
 RMSU=  4.98D-08    CP:  1.00D+00  1.03D+00  6.33D-01  7.63D-01  6.70D-01
                    CP:  5.63D-01
 E= -8258.67019167579     Delta-E=       -0.000000000126 Rises=F Damp=F
 DIIS: error= 1.20D-07 at cycle   7 NSaved=   7.
 NSaved= 7 IEnMin= 7 EnMin= -8258.67019167579     IErMin= 7 ErrMin= 1.20D-07
 ErrMax= 1.20D-07  0.00D+00 EMaxC= 1.00D-01 BMatC= 6.13D-12 BMatP= 5.91D-11
 IDIUse=1 WtCom= 1.00D+00 WtEn= 0.00D+00
 Coeff-Com:  0.335D-04-0.908D-02 0.800D-02 0.468D-01 0.127D+00 0.306D+00
 Coeff-Com:  0.521D+00
 Coeff:      0.335D-04-0.908D-02 0.800D-02 0.468D-01 0.127D+00 0.306D+00
 Coeff:      0.521D+00
 Gap=     0.122 Goal=   None    Shift=    0.000
 RMSDP=3.33D-08 MaxDP=1.47D-06 DE=-1.26D-10 OVMax= 8.72D-07

 Cycle   8  Pass 1  IDiag  1:
 RMSU=  1.93D-08    CP:  1.00D+00  1.03D+00  6.29D-01  7.69D-01  6.78D-01
                    CP:  6.03D-01  6.63D-01
 E= -8258.67019167571     Delta-E=        0.000000000080 Rises=F Damp=F
 DIIS: error= 7.01D-08 at cycle   8 NSaved=   8.
 NSaved= 8 IEnMin= 7 EnMin= -8258.67019167579     IErMin= 8 ErrMin= 7.01D-08
 ErrMax= 7.01D-08  0.00D+00 EMaxC= 1.00D-01 BMatC= 1.07D-12 BMatP= 6.13D-12
 IDIUse=1 WtCom= 1.00D+00 WtEn= 0.00D+00
 Coeff-Com:  0.216D-04-0.423D-02 0.975D-03 0.135D-01 0.458D-01 0.136D+00
 Coeff-Com:  0.333D+00 0.475D+00
 Coeff:      0.216D-04-0.423D-02 0.975D-03 0.135D-01 0.458D-01 0.136D+00
 Coeff:      0.333D+00 0.475D+00
 Gap=     0.122 Goal=   None    Shift=    0.000
 RMSDP=1.42D-08 MaxDP=5.05D-07 DE= 8.00D-11 OVMax= 4.71D-07

 Cycle   9  Pass 1  IDiag  1:
 RMSU=  9.28D-09    CP:  1.00D+00  1.03D+00  6.28D-01  7.67D-01  6.85D-01
                    CP:  6.07D-01  7.03D-01  5.27D-01
 E= -8258.67019167578     Delta-E=       -0.000000000069 Rises=F Damp=F
 DIIS: error= 2.40D-08 at cycle   9 NSaved=   9.
 NSaved= 9 IEnMin= 7 EnMin= -8258.67019167579     IErMin= 9 ErrMin= 2.40D-08
 ErrMax= 2.40D-08  0.00D+00 EMaxC= 1.00D-01 BMatC= 1.63D-13 BMatP= 1.07D-12
 IDIUse=1 WtCom= 1.00D+00 WtEn= 0.00D+00
 Coeff-Com:  0.732D-05-0.925D-03-0.960D-03-0.328D-03 0.545D-02 0.304D-01
 Coeff-Com:  0.117D+00 0.307D+00 0.542D+00
 Coeff:      0.732D-05-0.925D-03-0.960D-03-0.328D-03 0.545D-02 0.304D-01
 Coeff:      0.117D+00 0.307D+00 0.542D+00
 Gap=     0.122 Goal=   None    Shift=    0.000
 RMSDP=5.41D-09 MaxDP=2.84D-07 DE=-6.91D-11 OVMax= 2.25D-07

 SCF Done:  E(RB3LYP) =  -8258.67019168     A.U. after    9 cycles
            NFock=  9  Conv=0.54D-08     -V/T= 2.0014
 KE= 8.247203810755D+03 PE=-2.364063663317D+04 EE= 5.179284177284D+03
 Leave Link  502 at Tue Sep 29 16:33:47 2026, MaxMem=  5100273664 cpu:             491.6 elap:              30.8
 (Enter /share/software/user/restricted/gaussian/g16.B01/l701.exe)
 ... and contract with generalized density number  0.
 Compute integral first derivatives.
 Leave Link  701 at Tue Sep 29 16:33:48 2026, MaxMem=  5100273664 cpu:               2.3 elap:               0.2
 (Enter /share/software/user/restricted/gaussian/g16.B01/l702.exe)
 L702 exits ... SP integral derivatives will be done elsewhere.
 Leave Link  702 at Tue Sep 29 16:33:48 2026, MaxMem=  5100273664 cpu:               0.5 elap:               0.0
 (Enter /share/software/user/restricted/gaussian/g16.B01/l703.exe)
 Integral derivatives from FoFJK, PRISM(SPDF).
 Compute integral first derivatives, UseDBF=F ICtDFT=           0.
 Calling FoFJK, ICntrl=      2127 FMM=F ISym2X=0 I1Cent= 0 IOpClX= 0 NMat=1 NMatS=1 NMatT=0.
 FoFJK:  IHMeth= 1 ICntrl=    2127 DoSepK=F KAlg= 0 I1Cent=           0 FoldK=F
 IRaf=         0 NMat=       1 IRICut=       1 DoRegI=T DoRafI=F ISym2E= 0 IDoP0=0 IntGTp=1.
 FoFCou: FMM=F IPFlag=           0 FMFlag=      100000 FMFlg1=         800
         NFxFlg=           0 DoJE=F BraDBF=F KetDBF=F FulRan=T
         wScrn=  0.000000 ICntrl=      2127 IOpCl=  0 I1Cent=           0 NGrid=           0
         NMat0=    1 NMatS0=      1 NMatT0=    0 NMatD0=    1 NMtDS0=    0 NMtDT0=    0
 Symmetry not used in FoFCou.
 Leave Link  703 at Tue Sep 29 16:34:00 2026, MaxMem=  5100273664 cpu:             192.7 elap:              12.1
 (Enter /share/software/user/restricted/gaussian/g16.B01/l716.exe)
 Dipole        =-1.40728207D+00 6.75424376D-01-4.56463589D-03
 ***** Axes restored to original set *****
 -------------------------------------------------------------------
 Center     Atomic                   Forces (Hartrees/Bohr)
 Number     Number              X              Y              Z
 -------------------------------------------------------------------
      1        6           0.000016072   -0.000001912   -0.000005080
      2        6          -0.000029675    0.000009567    0.000004113
      3        6           0.000016280   -0.000003387   -0.000000574
      4        6          -0.000062848   -0.000010215    0.000004392
      5        6           0.000072760    0.000032496    0.000002790
      6        6          -0.000017048   -0.000056946   -0.000009760
      7        6          -0.000003230    0.000068081   -0.000016719
      8        6           0.000021058   -0.000000797    0.000041501
      9        6           0.000013042   -0.000011521   -0.000002601
     10        6          -0.000051819    0.000026247   -0.000003249
     11        6           0.000036750   -0.000010401   -0.000000179
     12        6          -0.000036389   -0.000014861    0.000000702
     13        8           0.000023485    0.000001053    0.000010723
     14       35           0.000003938    0.000002440    0.000000365
     15        1          -0.000003179    0.000010108    0.000001137
     16       35           0.000028374    0.000008881   -0.000001165
     17        1          -0.000019795   -0.000003429   -0.000001381
     18        1          -0.000042354   -0.000043610   -0.000024291
     19        1           0.000006436   -0.000001487    0.000002380
     20       35           0.000017978   -0.000003706   -0.000001058
     21        1           0.000005259   -0.000001649   -0.000001258
     22        1           0.000004904    0.000005049   -0.000000787
 -------------------------------------------------------------------
 Cartesian Forces:  Max     0.000072760 RMS     0.000023437
 Leave Link  716 at Tue Sep 29 16:34:00 2026, MaxMem=  5100273664 cpu:               0.5 elap:               0.0
 (Enter /share/software/user/restricted/gaussian/g16.B01/l103.exe)

 GradGradGradGradGradGradGradGradGradGradGradGradGradGradGradGradGradGrad
 Berny optimization.
 Using GEDIIS/GDIIS optimizer.
 FormGI is forming the generalized inverse of G from B-inverse, IUseBI=4.
 GSVD:  received Info=                   1 from GESDD.
 Internal  Forces:  Max     0.000247168 RMS     0.000044340
 Search for a local minimum.
 Step number  20 out of a maximum of  116
 All quantities printed in internal units (Hartrees-Bohrs-Radians)
 RMS Force = .44340D-04 SwitMx=.10000D-02 MixMth= 2
 Mixed Optimization -- En-DIIS/RFO-DIIS
 Swapping is turned off.
 Update second derivatives using D2CorX and points    6    8    7    9   10
                                                     11   12   13   14   15
                                                     16   17   18   19   20
 DE= -9.70D-08 DEPred=-1.03D-07 R= 9.38D-01
 Trust test= 9.38D-01 RLast= 4.19D-03 DXMaxT set to 3.00D-01
 ITU=  0  0  0  0  0  0  0  1  1  1  1  0 -1  1 -1  1  1 -1  0  0
     Eigenvalues ---    0.00108   0.01783   0.01884   0.02024   0.02060
     Eigenvalues ---    0.02088   0.02091   0.02108   0.02117   0.02121
     Eigenvalues ---    0.02131   0.02140   0.02167   0.02180   0.02190
     Eigenvalues ---    0.02251   0.02304   0.02785   0.04180   0.12467
     Eigenvalues ---    0.14290   0.16005   0.16011   0.16023   0.16049
     Eigenvalues ---    0.16375   0.19063   0.19315   0.22624   0.23006
     Eigenvalues ---    0.23332   0.24352   0.24577   0.24894   0.24959
     Eigenvalues ---    0.25013   0.25930   0.26091   0.33685   0.33710
     Eigenvalues ---    0.33751   0.33825   0.34026   0.37503   0.41346
     Eigenvalues ---    0.41552   0.42616   0.42937   0.44788   0.45071
     Eigenvalues ---    0.45627   0.45715   0.46039   0.46464   0.47535
     Eigenvalues ---    0.47681   0.49621   0.53889   1.19589  23.92338
 En-DIIS/RFO-DIIS/Sim-DIIS IScMMF=       -3 using points:    20   19   18   17   16   15   14   13   12
 RFO step:  Lambda=-9.06819714D-08.
 NNeg= 0 NGDIIS= 9 SimSw=  2.50D-01 Rises=F DC= -9.70D-08 SmlDif=  1.00D-05
 NRisDI= 0 DoIntr=F SqrtH=F CThrHd= 10.0 CDAdj=  3.0
 RMS Error=  0.1950589493D-03 NUsed= 9 OKEnD=F EnDIS=F
 InvSVX:  RCond= 4.46D-11 Info=           0 Equed=N FErr=  9.38D-09 BErr=  1.00D-16
 DIIS inversion failure, remove point   9.
 InvSVX:  RCond= 5.86D-11 Info=           0 Equed=N FErr=  6.05D-09 BErr=  5.20D-17
 DIIS inversion failure, remove point   8.
 InvSVX:  RCond= 7.42D-11 Info=           0 Equed=N FErr=  3.64D-09 BErr=  4.26D-17
 DIIS inversion failure, remove point   7.
 InvSVX:  RCond= 1.43D-10 Info=           0 Equed=N FErr=  2.22D-09 BErr=  9.30D-17
 DIIS inversion failure, remove point   6.
 InvSVX:  RCond= 8.04D-10 Info=           0 Equed=N FErr=  2.52D-10 BErr=  2.35D-17
 DIIS inversion failure, remove point   5.
 InvSVX:  RCond= 1.05D-08 Info=           0 Equed=N FErr=  1.45D-11 BErr=  7.84D-17
 DIIS inversion failure, remove point   4.
 InvSVX:  RCond= 1.74D-07 Info=           0 Equed=N FErr=  2.67D-14 BErr=  6.25D-17
 RFO-DIIS uses    3 points instead of    9
 DidBck=F Rises=F RFO-DIIS coefs:    1.13627   -0.04886   -0.08741    0.00000    0.00000
                  RFO-DIIS coefs:    0.00000    0.00000    0.00000    0.00000
 Iteration  1 RMS(Cart)=  0.00038433 RMS(Int)=  0.00000004
 Iteration  2 RMS(Cart)=  0.00000019 RMS(Int)=  0.00000001
 ITry= 1 IFail=0 DXMaxC= 1.74D-03 DCOld= 1.00D+10 DXMaxT= 3.00D-01 DXLimC= 3.00D+00 Rises=F
 Variable       Old X    -DE/DX   Delta X   Delta X   Delta X     New X
                                 (Linear)    (Quad)   (Total)
    R1        2.64307   0.00003   0.00001   0.00003   0.00004   2.64311
    R2        2.62280   0.00010   0.00001   0.00003   0.00004   2.62284
    R3        2.66032   0.00006  -0.00001   0.00001   0.00000   2.66033
    R4        2.62578  -0.00002  -0.00001  -0.00002  -0.00004   2.62574
    R5        3.73514   0.00000   0.00003   0.00000   0.00003   3.73516
    R6        2.62730  -0.00002  -0.00001  -0.00000  -0.00001   2.62729
    R7        2.04242   0.00001   0.00000   0.00002   0.00002   2.04243
    R8        2.62630   0.00001   0.00003   0.00003   0.00006   2.62636
    R9        3.73297  -0.00003  -0.00005  -0.00006  -0.00011   3.73286
   R10        2.65089  -0.00002  -0.00002  -0.00002  -0.00004   2.65085
   R11        2.05873   0.00001  -0.00000   0.00001   0.00001   2.05874
   R12        4.27140  -0.00002   0.00002  -0.00003  -0.00001   4.27139
   R13        2.65084   0.00001  -0.00001   0.00007   0.00005   2.65089
   R14        2.65759  -0.00001  -0.00002  -0.00003  -0.00004   2.65755
   R15        2.55964  -0.00002  -0.00002  -0.00004  -0.00006   2.55957
   R16        2.63860   0.00001  -0.00000   0.00002   0.00002   2.63863
   R17        2.62265  -0.00001   0.00001  -0.00002  -0.00000   2.62265
   R18        2.04939   0.00000  -0.00000  -0.00000  -0.00000   2.04938
   R19        2.63133  -0.00002   0.00001  -0.00002  -0.00001   2.63132
   R20        3.65937   0.00002  -0.00003   0.00011   0.00008   3.65946
   R21        2.62434   0.00002  -0.00000   0.00002   0.00002   2.62435
   R22        2.04848   0.00000   0.00000  -0.00000  -0.00000   2.04848
   R23        2.04960   0.00000  -0.00001   0.00001  -0.00000   2.04960
    A1        2.12486  -0.00004  -0.00002   0.00004   0.00002   2.12489
    A2        1.97379  -0.00016  -0.00003  -0.00005  -0.00008   1.97371
    A3        2.18453   0.00020   0.00005   0.00001   0.00005   2.18458
    A4        2.11635   0.00004   0.00001   0.00001   0.00001   2.11637
    A5        2.13681  -0.00003  -0.00001  -0.00004  -0.00005   2.13676
    A6        2.03003  -0.00001   0.00000   0.00003   0.00003   2.03006
    A7        2.04080  -0.00001   0.00002  -0.00002   0.00000   2.04081
    A8        2.11434  -0.00000  -0.00002  -0.00001  -0.00003   2.11431
    A9        2.12804   0.00001  -0.00000   0.00003   0.00003   2.12806
   A10        2.13362  -0.00001  -0.00003  -0.00001  -0.00004   2.13358
   A11        2.05002   0.00001   0.00002   0.00000   0.00002   2.05004
   A12        2.09954   0.00000   0.00001   0.00001   0.00002   2.09956
   A13        2.10825   0.00005   0.00002   0.00006   0.00008   2.10833
   A14        2.06961  -0.00004  -0.00003  -0.00012  -0.00015   2.06946
   A15        2.10533  -0.00001   0.00001   0.00005   0.00006   2.10539
   A16        2.04247  -0.00004   0.00001  -0.00008  -0.00008   2.04240
   A17        1.70937   0.00014  -0.00008   0.00011   0.00003   1.70940
   A18        2.53130  -0.00010   0.00007  -0.00003   0.00004   2.53135
   A19        2.07734  -0.00001   0.00003   0.00002   0.00005   2.07739
   A20        2.22200   0.00005  -0.00007  -0.00001  -0.00008   2.22191
   A21        1.98385  -0.00004   0.00004  -0.00001   0.00003   1.98388
   A22        2.08960   0.00000  -0.00000  -0.00003  -0.00003   2.08956
   A23        2.09922  -0.00001  -0.00001  -0.00003  -0.00003   2.09919
   A24        2.08293   0.00001   0.00002   0.00004   0.00006   2.08299
   A25        2.10103  -0.00000  -0.00001  -0.00001  -0.00003   2.10101
   A26        2.10856   0.00002  -0.00001   0.00007   0.00006   2.10862
   A27        2.09147  -0.00000   0.00001  -0.00002  -0.00001   2.09146
   A28        2.08315  -0.00001   0.00000  -0.00005  -0.00005   2.08310
   A29        2.07757  -0.00001   0.00002  -0.00004  -0.00002   2.07756
   A30        2.10745   0.00000  -0.00002   0.00001  -0.00001   2.10743
   A31        2.09816   0.00001  -0.00000   0.00004   0.00003   2.09820
   A32        2.11408   0.00001  -0.00003   0.00001  -0.00002   2.11406
   A33        2.06461   0.00000   0.00003   0.00001   0.00005   2.06466
   A34        2.10450  -0.00001  -0.00000  -0.00002  -0.00003   2.10447
   A35        2.24071   0.00025   0.00004  -0.00006  -0.00002   2.24069
    D1       -0.00004   0.00001  -0.00004   0.00004   0.00000  -0.00004
    D2       -3.14152   0.00000  -0.00006   0.00004  -0.00002  -3.14154
    D3        3.14056   0.00001  -0.00013   0.00000  -0.00013   3.14043
    D4       -0.00092   0.00000  -0.00015   0.00000  -0.00015  -0.00107
    D5       -0.00011  -0.00001   0.00001  -0.00003  -0.00002  -0.00013
    D6       -3.13448  -0.00002   0.00006   0.00002   0.00009  -3.13439
    D7       -3.14059  -0.00001   0.00011   0.00001   0.00012  -3.14046
    D8        0.00823  -0.00002   0.00016   0.00007   0.00023   0.00847
    D9        3.13583  -0.00007  -0.00055  -0.00017  -0.00072   3.13512
   D10       -0.00679  -0.00007  -0.00064  -0.00021  -0.00085  -0.00764
   D11        0.00012  -0.00000   0.00003  -0.00002   0.00001   0.00013
   D12       -3.14154  -0.00000   0.00002  -0.00001   0.00001  -3.14153
   D13       -3.14157   0.00000   0.00004  -0.00001   0.00003  -3.14154
   D14       -0.00005   0.00000   0.00004  -0.00001   0.00003  -0.00002
   D15       -0.00006  -0.00000   0.00002  -0.00002   0.00000  -0.00006
   D16        3.14155   0.00000   0.00003  -0.00000   0.00003   3.14158
   D17       -3.14159  -0.00000   0.00003  -0.00003   0.00001  -3.14158
   D18        0.00003   0.00000   0.00004  -0.00001   0.00003   0.00006
   D19       -0.00009   0.00000  -0.00006   0.00003  -0.00003  -0.00011
   D20        3.14158   0.00001  -0.00006   0.00005  -0.00001   3.14156
   D21        3.14149  -0.00000  -0.00006   0.00002  -0.00005   3.14144
   D22       -0.00004   0.00000  -0.00006   0.00003  -0.00004  -0.00007
   D23        0.00017   0.00000   0.00004  -0.00001   0.00004   0.00021
   D24        3.12927   0.00002  -0.00005  -0.00010  -0.00016   3.12912
   D25       -3.14149  -0.00000   0.00004  -0.00002   0.00002  -3.14147
   D26       -0.01239   0.00001  -0.00006  -0.00011  -0.00017  -0.01256
   D27        0.00008  -0.00001   0.00002  -0.00005  -0.00003   0.00005
   D28       -3.14123   0.00001  -0.00007   0.00010   0.00003  -3.14120
   D29       -0.00004   0.00001  -0.00000   0.00005   0.00005   0.00001
   D30       -3.14149   0.00001  -0.00001   0.00003   0.00002  -3.14147
   D31        3.14131  -0.00000   0.00007  -0.00008  -0.00001   3.14130
   D32       -0.00014  -0.00001   0.00007  -0.00010  -0.00004  -0.00018
   D33       -0.00048  -0.00006   0.00071  -0.00023   0.00047  -0.00000
   D34        3.14138  -0.00004   0.00062  -0.00009   0.00053  -3.14127
   D35       -0.00007   0.00000  -0.00003   0.00001  -0.00002  -0.00009
   D36       -3.14154   0.00000  -0.00001   0.00002   0.00000  -3.14154
   D37        0.00002   0.00000   0.00001   0.00004   0.00005   0.00007
   D38       -3.14143  -0.00000   0.00000  -0.00001  -0.00001  -3.14144
   D39        3.14149   0.00001   0.00000   0.00002   0.00003   3.14151
   D40        0.00003   0.00000  -0.00001  -0.00002  -0.00003   0.00000
   D41        0.00002  -0.00000   0.00001  -0.00003  -0.00003  -0.00001
   D42        3.14154  -0.00000  -0.00000  -0.00002  -0.00002   3.14152
   D43        3.14147   0.00000   0.00002   0.00001   0.00003   3.14150
   D44       -0.00018   0.00000   0.00001   0.00003   0.00004  -0.00015
   D45       -0.00001  -0.00000  -0.00001  -0.00001  -0.00002  -0.00003
   D46        3.14144   0.00000  -0.00000   0.00001   0.00001   3.14145
   D47       -3.14153  -0.00000  -0.00000  -0.00003  -0.00003  -3.14156
   D48       -0.00009  -0.00000   0.00001  -0.00001   0.00000  -0.00009
         Item               Value     Threshold  Converged?
 Maximum Force            0.000247     0.000450     YES
 RMS     Force            0.000044     0.000300     YES
 Maximum Displacement     0.001741     0.001800     YES
 RMS     Displacement     0.000384     0.001200     YES
 Predicted change in Energy=-4.499337D-08
 Optimization completed.
    -- Stationary point found.
                           ----------------------------
                           !   Optimized Parameters   !
                           ! (Angstroms and Degrees)  !
 --------------------------                            --------------------------
 ! Name  Definition              Value          Derivative Info.                !
 --------------------------------------------------------------------------------
 ! R1    R(1,2)                  1.3987         -DE/DX =    0.0                 !
 ! R2    R(1,6)                  1.3879         -DE/DX =    0.0001              !
 ! R3    R(1,13)                 1.4078         -DE/DX =    0.0001              !
 ! R4    R(2,3)                  1.3895         -DE/DX =    0.0                 !
 ! R5    R(2,14)                 1.9765         -DE/DX =    0.0                 !
 ! R6    R(3,4)                  1.3903         -DE/DX =    0.0                 !
 ! R7    R(3,15)                 1.0808         -DE/DX =    0.0                 !
 ! R8    R(4,5)                  1.3898         -DE/DX =    0.0                 !
 ! R9    R(4,16)                 1.9754         -DE/DX =    0.0                 !
 ! R10   R(5,6)                  1.4028         -DE/DX =    0.0                 !
 ! R11   R(5,17)                 1.0894         -DE/DX =    0.0                 !
 ! R12   R(6,18)                 2.2603         -DE/DX =    0.0                 !
 ! R13   R(7,8)                  1.4028         -DE/DX =    0.0                 !
 ! R14   R(7,12)                 1.4063         -DE/DX =    0.0                 !
 ! R15   R(7,13)                 1.3545         -DE/DX =    0.0                 !
 ! R16   R(8,9)                  1.3963         -DE/DX =    0.0                 !
 ! R17   R(9,10)                 1.3878         -DE/DX =    0.0                 !
 ! R18   R(9,19)                 1.0845         -DE/DX =    0.0                 !
 ! R19   R(10,11)                1.3924         -DE/DX =    0.0                 !
 ! R20   R(10,20)                1.9365         -DE/DX =    0.0                 !
 ! R21   R(11,12)                1.3887         -DE/DX =    0.0                 !
 ! R22   R(11,21)                1.084          -DE/DX =    0.0                 !
 ! R23   R(12,22)                1.0846         -DE/DX =    0.0                 !
 ! A1    A(2,1,6)              121.7458         -DE/DX =    0.0                 !
 ! A2    A(2,1,13)             113.0898         -DE/DX =   -0.0002              !
 ! A3    A(6,1,13)             125.1644         -DE/DX =    0.0002              !
 ! A4    A(1,2,3)              121.2581         -DE/DX =    0.0                 !
 ! A5    A(1,2,14)             122.4301         -DE/DX =    0.0                 !
 ! A6    A(3,2,14)             116.3119         -DE/DX =    0.0                 !
 ! A7    A(2,3,4)              116.9295         -DE/DX =    0.0                 !
 ! A8    A(2,3,15)             121.143          -DE/DX =    0.0                 !
 ! A9    A(4,3,15)             121.9275         -DE/DX =    0.0                 !
 ! A10   A(3,4,5)              122.2477         -DE/DX =    0.0                 !
 ! A11   A(3,4,16)             117.4574         -DE/DX =    0.0                 !
 ! A12   A(5,4,16)             120.2949         -DE/DX =    0.0                 !
 ! A13   A(4,5,6)              120.7939         -DE/DX =    0.0001              !
 ! A14   A(4,5,17)             118.5797         -DE/DX =    0.0                 !
 ! A15   A(6,5,17)             120.6264         -DE/DX =    0.0                 !
 ! A16   A(1,6,5)              117.0252         -DE/DX =    0.0                 !
 ! A17   A(1,6,18)              97.9395         -DE/DX =    0.0001              !
 ! A18   A(5,6,18)             145.0331         -DE/DX =   -0.0001              !
 ! A19   A(8,7,12)             119.0229         -DE/DX =    0.0                 !
 ! A20   A(8,7,13)             127.3111         -DE/DX =    0.0001              !
 ! A21   A(12,7,13)            113.666          -DE/DX =    0.0                 !
 ! A22   A(7,8,9)              119.725          -DE/DX =    0.0                 !
 ! A23   A(8,9,10)             120.2765         -DE/DX =    0.0                 !
 ! A24   A(8,9,19)             119.3432         -DE/DX =    0.0                 !
 ! A25   A(10,9,19)            120.3804         -DE/DX =    0.0                 !
 ! A26   A(9,10,11)            120.8115         -DE/DX =    0.0                 !
 ! A27   A(9,10,20)            119.8326         -DE/DX =    0.0                 !
 ! A28   A(11,10,20)           119.3559         -DE/DX =    0.0                 !
 ! A29   A(10,11,12)           119.0362         -DE/DX =    0.0                 !
 ! A30   A(10,11,21)           120.7478         -DE/DX =    0.0                 !
 ! A31   A(12,11,21)           120.2159         -DE/DX =    0.0                 !
 ! A32   A(7,12,11)            121.1279         -DE/DX =    0.0                 !
 ! A33   A(7,12,22)            118.2934         -DE/DX =    0.0                 !
 ! A34   A(11,12,22)           120.5787         -DE/DX =    0.0                 !
 ! A35   A(1,13,7)             128.3835         -DE/DX =    0.0002              !
 ! D1    D(6,1,2,3)             -0.0021         -DE/DX =    0.0                 !
 ! D2    D(6,1,2,14)          -179.9958         -DE/DX =    0.0                 !
 ! D3    D(13,1,2,3)           179.941          -DE/DX =    0.0                 !
 ! D4    D(13,1,2,14)           -0.0527         -DE/DX =    0.0                 !
 ! D5    D(2,1,6,5)             -0.0064         -DE/DX =    0.0                 !
 ! D6    D(2,1,6,18)          -179.5922         -DE/DX =    0.0                 !
 ! D7    D(13,1,6,5)          -179.9424         -DE/DX =    0.0                 !
 ! D8    D(13,1,6,18)            0.4718         -DE/DX =    0.0                 !
 ! D9    D(2,1,13,7)           179.67           -DE/DX =   -0.0001              !
 ! D10   D(6,1,13,7)            -0.3893         -DE/DX =   -0.0001              !
 ! D11   D(1,2,3,4)              0.007          -DE/DX =    0.0                 !
 ! D12   D(1,2,3,15)          -179.9969         -DE/DX =    0.0                 !
 ! D13   D(14,2,3,4)          -179.9988         -DE/DX =    0.0                 !
 ! D14   D(14,2,3,15)           -0.0028         -DE/DX =    0.0                 !
 ! D15   D(2,3,4,5)             -0.0036         -DE/DX =    0.0                 !
 ! D16   D(2,3,4,16)           179.9976         -DE/DX =    0.0                 !
 ! D17   D(15,3,4,5)          -179.9996         -DE/DX =    0.0                 !
 ! D18   D(15,3,4,16)            0.0016         -DE/DX =    0.0                 !
 ! D19   D(3,4,5,6)             -0.005          -DE/DX =    0.0                 !
 ! D20   D(3,4,5,17)           179.9991         -DE/DX =    0.0                 !
 ! D21   D(16,4,5,6)           179.9938         -DE/DX =    0.0                 !
 ! D22   D(16,4,5,17)           -0.0021         -DE/DX =    0.0                 !
 ! D23   D(4,5,6,1)              0.0098         -DE/DX =    0.0                 !
 ! D24   D(4,5,6,18)           179.2941         -DE/DX =    0.0                 !
 ! D25   D(17,5,6,1)          -179.9943         -DE/DX =    0.0                 !
 ! D26   D(17,5,6,18)           -0.7101         -DE/DX =    0.0                 !
 ! D27   D(12,7,8,9)             0.0046         -DE/DX =    0.0                 !
 ! D28   D(13,7,8,9)          -179.9795         -DE/DX =    0.0                 !
 ! D29   D(8,7,12,11)           -0.0024         -DE/DX =    0.0                 !
 ! D30   D(8,7,12,22)         -179.9943         -DE/DX =    0.0                 !
 ! D31   D(13,7,12,11)         179.9838         -DE/DX =    0.0                 !
 ! D32   D(13,7,12,22)          -0.008          -DE/DX =    0.0                 !
 ! D33   D(8,7,13,1)            -0.0272         -DE/DX =   -0.0001              !
 ! D34   D(12,7,13,1)         -180.0121         -DE/DX =    0.0                 !
 ! D35   D(7,8,9,10)            -0.0041         -DE/DX =    0.0                 !
 ! D36   D(7,8,9,19)          -179.997          -DE/DX =    0.0                 !
 ! D37   D(8,9,10,11)            0.0014         -DE/DX =    0.0                 !
 ! D38   D(8,9,10,20)         -179.9909         -DE/DX =    0.0                 !
 ! D39   D(19,9,10,11)         179.9941         -DE/DX =    0.0                 !
 ! D40   D(19,9,10,20)           0.0018         -DE/DX =    0.0                 !
 ! D41   D(9,10,11,12)           0.0009         -DE/DX =    0.0                 !
 ! D42   D(9,10,11,21)         179.9971         -DE/DX =    0.0                 !
 ! D43   D(20,10,11,12)        179.9932         -DE/DX =    0.0                 !
 ! D44   D(20,10,11,21)         -0.0105         -DE/DX =    0.0                 !
 ! D45   D(10,11,12,7)          -0.0003         -DE/DX =    0.0                 !
 ! D46   D(10,11,12,22)        179.9913         -DE/DX =    0.0                 !
 ! D47   D(21,11,12,7)        -179.9966         -DE/DX =    0.0                 !
 ! D48   D(21,11,12,22)         -0.005          -DE/DX =    0.0                 !
 --------------------------------------------------------------------------------
 Lowest energy point so far.  Saving SCF results.
 Largest change from initial coordinates is atom   17       0.324 Angstoms.
 GradGradGradGradGradGradGradGradGradGradGradGradGradGradGradGradGradGrad

 Leave Link  103 at Tue Sep 29 16:34:00 2026, MaxMem=  5100273664 cpu:               0.9 elap:               0.1
 (Enter /share/software/user/restricted/gaussian/g16.B01/l202.exe)
                          Input orientation:                          
 ---------------------------------------------------------------------
 Center     Atomic      Atomic             Coordinates (Angstroms)
 Number     Number       Type             X           Y           Z
 ---------------------------------------------------------------------
      1          6           0       -1.301094   -1.042929    0.078737
      2          6           0       -2.343130   -0.123772    0.238573
      3          6           0       -3.668046   -0.538583    0.295501
      4          6           0       -3.905555   -1.904114    0.186568
      5          6           0       -2.877157   -2.825316    0.027597
      6          6           0       -1.539791   -2.405848   -0.029980
      7          6           0        1.179740   -1.028626   -0.093852
      8          6           0        1.445699   -2.399172   -0.230297
      9          6           0        2.764542   -2.838909   -0.360325
     10          6           0        3.810145   -1.926326   -0.355054
     11          6           0        3.565515   -0.562142   -0.220707
     12          6           0        2.254776   -0.121943   -0.091159
     13          8           0       -0.031014   -0.436790    0.042086
     14         35           0       -2.026426    1.820934    0.395293
     15          1           0       -4.471835    0.173315    0.419011
     16         35           0       -5.783727   -2.511107    0.265593
     17          1           0       -3.131374   -3.881711   -0.051591
     18          1           0        0.607099   -3.083759   -0.230952
     19          1           0        2.963071   -3.899873   -0.465486
     20         35           0        5.634308   -2.550319   -0.536525
     21          1           0        4.382995    0.149744   -0.216676
     22          1           0        2.035637    0.934959    0.015141
 ---------------------------------------------------------------------
                    Distance matrix (angstroms):
                    1          2          3          4          5
     1  C    0.000000
     2  C    1.398655   0.000000
     3  C    2.429777   1.389501   0.000000
     4  C    2.745266   2.369281   1.390306   0.000000
     5  C    2.379810   2.761890   2.434426   1.389780   0.000000
     6  C    1.387929   2.434203   2.849928   2.428059   1.402788
     7  C    2.486870   3.652379   4.888023   5.167720   4.438609
     8  C    3.078923   4.444379   5.467051   5.390248   4.351458
     9  C    4.466287   5.815407   6.862930   6.757450   5.655036
    10  C    5.205125   6.439285   7.633636   7.734719   6.758299
    11  C    4.899459   5.942658   7.251995   7.601555   6.833127
    12  C    3.677130   4.609714   5.950035   6.418952   5.801643
    13  O    1.407782   2.341466   3.647271   4.145598   3.715615
    14  Br   2.971199   1.976549   2.876142   4.177400   4.737783
    15  H    3.413010   2.156897   1.080800   2.165736   3.418771
    16  Br   4.720642   4.187816   2.892724   1.975403   2.933176
    17  H    3.380177   3.850666   3.403674   2.137046   1.089434
    18  H    2.811067   4.205452   5.003194   4.682941   3.503381
    19  H    5.161532   6.550604   7.473225   7.182357   5.958697
    20  Br   7.123943   8.374271   9.553698   9.589026   8.534570
    21  H    5.815377   6.747061   8.096629   8.548743   7.849870
    22  H    3.879415   4.510481   5.897621   6.586918   6.186709
                    6          7          8          9         10
     6  C    0.000000
     7  C    3.049044   0.000000
     8  C    2.992210   1.402764   0.000000
     9  C    4.338658   2.420688   1.396290   0.000000
    10  C    5.381211   2.791617   2.414489   1.387848   0.000000
    11  C    5.431370   2.434260   2.805065   2.417585   1.392441
    12  C    4.429301   1.406337   2.420689   2.777448   2.396792
    13  O    2.481692   1.354502   2.470995   3.707728   4.138955
    14  Br   4.275905   4.317263   5.500573   6.725955   6.976428
    15  H    3.930720   5.800688   6.485098   7.876929   8.578978
    16  Br   4.255518   7.128591   7.247277   8.577420   9.631695
    17  H    2.170662   5.169873   4.814505   5.995380   7.218055
    18  H    2.260330   2.137822   1.082547   2.175143   3.408013
    19  H    4.764194   3.400359   2.147053   1.084489   2.150492
    20  Br   7.193411   4.728074   4.202507   2.889617   1.936458
    21  H    6.453318   3.415332   3.889071   3.401775   2.158095
    22  H    4.893539   2.144786   3.394805   3.861911   3.387163
                   11         12         13         14         15
    11  C    0.000000
    12  C    1.388738   0.000000
    13  O    3.608295   2.311216   0.000000
    14  Br   6.109690   4.726531   3.033767   0.000000
    15  H    8.096241   6.752388   4.498354   2.948768   0.000000
    16  Br   9.562598   8.393623   6.119350   5.735914   2.991776
    17  H    7.476394   6.568716   4.635568   5.825871   4.296689
    18  H    3.887271   3.392158   2.736455   5.602111   6.068489
    19  H    3.400485   3.861937   4.605988   7.639611   8.523557
    20  Br   2.886606   4.185283   6.074345   8.869215  10.510250
    21  H    1.084008   2.149160   4.460321   6.651922   8.877650
    22  H    2.153477   1.084603   2.480619   4.174905   6.564328
                   16         17         18         19         20
    16  Br   0.000000
    17  H    3.002355   0.000000
    18  H    6.435616   3.826890   0.000000
    19  H    8.886486   6.108511   2.504327   0.000000
    20  Br  11.446242   8.879468   5.064658   2.993634   0.000000
    21  H   10.520217   8.529105   4.971231   4.298545   2.993063
    22  H    8.548717   7.064190   4.272163   4.946386   5.040033
                   21         22
    21  H    0.000000
    22  H    2.486040   0.000000
 Stoichiometry    C12H6Br3O(1-)
 Framework group  C1[X(C12H6Br3O)]
 Deg. of freedom    60
 Full point group                 C1      NOp   1
 RotChk:  IX=0 Diff= 8.59D-16
 Largest Abelian subgroup         C1      NOp   1
 Largest concise Abelian subgroup C1      NOp   1
                         Standard orientation:                         
 ---------------------------------------------------------------------
 Center     Atomic      Atomic             Coordinates (Angstroms)
 Number     Number       Type             X           Y           Z
 ---------------------------------------------------------------------
      1          6           0        0.909293    0.097025    0.004147
      2          6           0        2.036864    0.924556    0.000367
      3          6           0        3.320902    0.393560   -0.001202
      4          6           0        3.429084   -0.992529    0.001004
      5          6           0        2.314947   -1.823296    0.004690
      6          6           0        1.018901   -1.286566    0.006455
      7          6           0       -1.566697    0.329399    0.004228
      8          6           0       -1.961109   -1.016763   -0.001726
      9          6           0       -3.319413   -1.340228   -0.003801
     10          6           0       -4.277754   -0.336391    0.000087
     11          6           0       -3.905244    1.005283    0.006070
     12          6           0       -2.554985    1.329927    0.008099
     13          8           0       -0.302001    0.814388    0.006559
     14         35           0        1.904314    2.896652   -0.002848
     15          1           0        4.190938    1.034776   -0.004074
     16         35           0        5.247521   -1.764213   -0.001259
     17          1           0        2.469028   -2.901778    0.006250
     18          1           0       -1.188085   -1.774613   -0.004146
     19          1           0       -3.617394   -2.382966   -0.008359
     20         35           0       -6.158000   -0.799573   -0.002587
     21          1           0       -4.654647    1.788519    0.009056
     22          1           0       -2.236802    2.366798    0.012595
 ---------------------------------------------------------------------
 Rotational constants (GHZ):           0.4395085           0.0763755           0.0650683
 Leave Link  202 at Tue Sep 29 16:34:00 2026, MaxMem=  5100273664 cpu:               0.0 elap:               0.0
 (Enter /share/software/user/restricted/gaussian/g16.B01/l601.exe)
 Copying SCF densities to generalized density rwf, IOpCl= 0 IROHF=0.

 **********************************************************************

            Population analysis using the SCF Density.

 **********************************************************************

 Orbital symmetries:
       Occupied  (A) (A) (A) (A) (A) (A) (A) (A) (A) (A) (A) (A)
                 (A) (A) (A) (A) (A) (A) (A) (A) (A) (A) (A) (A)
                 (A) (A) (A) (A) (A) (A) (A) (A) (A) (A) (A) (A)
                 (A) (A) (A) (A) (A) (A) (A) (A) (A) (A) (A) (A)
                 (A) (A) (A) (A) (A) (A) (A) (A) (A) (A) (A) (A)
                 (A) (A) (A) (A) (A) (A) (A) (A) (A) (A) (A) (A)
                 (A) (A) (A) (A) (A) (A) (A) (A) (A) (A) (A) (A)
                 (A) (A) (A) (A) (A) (A) (A) (A) (A) (A) (A) (A)
       Virtual   (A) (A) (A) (A) (A) (A) (A) (A) (A) (A) (A) (A)
                 (A) (A) (A) (A) (A) (A) (A) (A) (A) (A) (A) (A)
                 (A) (A) (A) (A) (A) (A) (A) (A) (A) (A) (A) (A)
                 (A) (A) (A) (A) (A) (A) (A) (A) (A) (A) (A) (A)
                 (A) (A) (A) (A) (A) (A) (A) (A) (A) (A) (A) (A)
                 (A) (A) (A) (A) (A) (A) (A) (A) (A) (A) (A) (A)
                 (A) (A) (A) (A) (A) (A) (A) (A) (A) (A) (A) (A)
                 (A) (A) (A) (A) (A) (A) (A) (A) (A) (A) (A) (A)
                 (A) (A) (A) (A) (A) (A) (A) (A) (A) (A) (A) (A)
                 (A) (A) (A) (A) (A) (A) (A) (A) (A) (A) (A) (A)
                 (A) (A) (A) (A) (A) (A) (A) (A) (A) (A) (A) (A)
                 (A) (A) (A) (A) (A) (A) (A) (A) (A) (A) (A) (A)
                 (A) (A) (A) (A) (A) (A) (A) (A) (A) (A) (A) (A)
                 (A) (A) (A) (A) (A) (A) (A) (A) (A) (A) (A) (A)
                 (A) (A) (A) (A) (A) (A) (A) (A) (A) (A) (A) (A)
                 (A) (A) (A) (A) (A) (A) (A) (A) (A) (A) (A) (A)
                 (A) (A) (A) (A) (A) (A) (A) (A) (A) (A) (A) (A)
                 (A) (A) (A) (A) (A) (A) (A) (A) (A) (A) (A) (A)
                 (A) (A) (A) (A) (A) (A) (A) (A) (A) (A) (A) (A)
                 (A) (A) (A) (A) (A) (A) (A) (A) (A) (A) (A) (A)
                 (A) (A) (A) (A) (A) (A) (A) (A) (A) (A) (A) (A)
                 (A) (A) (A) (A) (A) (A) (A) (A) (A) (A) (A) (A)
                 (A) (A) (A) (A) (A) (A) (A) (A) (A) (A) (A) (A)
                 (A) (A) (A) (A) (A) (A) (A) (A) (A) (A) (A) (A)
                 (A) (A) (A) (A) (A) (A) (A) (A) (A) (A) (A) (A)
                 (A) (A) (A) (A) (A) (A) (A) (A) (A) (A) (A) (A)
                 (A) (A) (A) (A) (A) (A) (A) (A) (A) (A) (A) (A)
                 (A) (A) (A) (A) (A) (A) (A) (A) (A) (A) (A) (A)
                 (A) (A) (A) (A) (A) (A) (A) (A) (A) (A) (A) (A)
                 (A) (A) (A) (A) (A) (A)
 The electronic state is 1-A.
 Alpha  occ. eigenvalues -- -482.74154-482.70937-482.70603 -62.39440 -62.36223
 Alpha  occ. eigenvalues --  -62.35883 -56.21457 -56.21093 -56.21091 -56.18225
 Alpha  occ. eigenvalues --  -56.17895 -56.17885 -56.17881 -56.17547 -56.17530
 Alpha  occ. eigenvalues --  -19.04794 -10.14009 -10.13130 -10.11102 -10.10716
 Alpha  occ. eigenvalues --  -10.10336 -10.09368 -10.08994 -10.08145 -10.06764
 Alpha  occ. eigenvalues --  -10.06669 -10.04917 -10.00199  -8.60403  -8.57174
 Alpha  occ. eigenvalues --   -8.56833  -6.43486  -6.42273  -6.42269  -6.40206
 Alpha  occ. eigenvalues --   -6.39894  -6.39071  -6.39067  -6.38734  -6.38688
 Alpha  occ. eigenvalues --   -2.54589  -2.54240  -2.54234  -2.53273  -2.53272
 Alpha  occ. eigenvalues --   -2.51315  -2.50997  -2.50988  -2.50988  -2.50674
 Alpha  occ. eigenvalues --   -2.50641  -2.50086  -2.50086  -2.49720  -2.49719
 Alpha  occ. eigenvalues --   -0.96446  -0.77776  -0.75128  -0.71080  -0.68926
 Alpha  occ. eigenvalues --   -0.66282  -0.65663  -0.63873  -0.60568  -0.58964
 Alpha  occ. eigenvalues --   -0.52899  -0.51281  -0.47567  -0.46546  -0.42860
 Alpha  occ. eigenvalues --   -0.39205  -0.38004  -0.35744  -0.34625  -0.33578
 Alpha  occ. eigenvalues --   -0.33427  -0.33131  -0.29628  -0.28437  -0.28274
 Alpha  occ. eigenvalues --   -0.27797  -0.27107  -0.25751  -0.24703  -0.21865
 Alpha  occ. eigenvalues --   -0.21626  -0.20722  -0.20195  -0.17890  -0.17427
 Alpha  occ. eigenvalues --   -0.17045  -0.16681  -0.14182  -0.11941  -0.09712
 Alpha  occ. eigenvalues --   -0.05736
 Alpha virt. eigenvalues --    0.06490   0.07542   0.07594   0.07671   0.08224
 Alpha virt. eigenvalues --    0.09037   0.09375   0.09527   0.10903   0.10978
 Alpha virt. eigenvalues --    0.11402   0.11557   0.12619   0.12717   0.12950
 Alpha virt. eigenvalues --    0.13705   0.14190   0.14230   0.14543   0.14860
 Alpha virt. eigenvalues --    0.15319   0.16273   0.16757   0.16827   0.16903
 Alpha virt. eigenvalues --    0.17411   0.18051   0.18681   0.19687   0.19956
 Alpha virt. eigenvalues --    0.20604   0.20619   0.20803   0.21489   0.22128
 Alpha virt. eigenvalues --    0.22548   0.22764   0.23080   0.23196   0.23304
 Alpha virt. eigenvalues --    0.23838   0.24094   0.24313   0.24483   0.25230
 Alpha virt. eigenvalues --    0.26170   0.26484   0.26853   0.27662   0.27772
 Alpha virt. eigenvalues --    0.27866   0.28708   0.28824   0.29828   0.29890
 Alpha virt. eigenvalues --    0.30649   0.30837   0.31339   0.31842   0.32111
 Alpha virt. eigenvalues --    0.32466   0.33659   0.34453   0.34924   0.35432
 Alpha virt. eigenvalues --    0.35881   0.36138   0.36354   0.37393   0.38161
 Alpha virt. eigenvalues --    0.38282   0.38356   0.38944   0.39292   0.39349
 Alpha virt. eigenvalues --    0.40344   0.41187   0.41430   0.42165   0.42695
 Alpha virt. eigenvalues --    0.43375   0.44771   0.45189   0.45562   0.46430
 Alpha virt. eigenvalues --    0.47144   0.47706   0.48483   0.50308   0.50348
 Alpha virt. eigenvalues --    0.50482   0.52696   0.52730   0.53800   0.54392
 Alpha virt. eigenvalues --    0.54866   0.55263   0.56720   0.58344   0.60332
 Alpha virt. eigenvalues --    0.60862   0.63187   0.63216   0.63461   0.64373
 Alpha virt. eigenvalues --    0.64409   0.64953   0.65870   0.66493   0.67516
 Alpha virt. eigenvalues --    0.68127   0.68793   0.69041   0.69312   0.70580
 Alpha virt. eigenvalues --    0.70691   0.71624   0.72140   0.72331   0.73536
 Alpha virt. eigenvalues --    0.73638   0.74841   0.74866   0.75052   0.75641
 Alpha virt. eigenvalues --    0.75786   0.76791   0.78737   0.80328   0.80950
 Alpha virt. eigenvalues --    0.81406   0.82008   0.82821   0.83167   0.84052
 Alpha virt. eigenvalues --    0.84731   0.85769   0.86055   0.86458   0.87444
 Alpha virt. eigenvalues --    0.87455   0.88590   0.89326   0.91461   0.92332
 Alpha virt. eigenvalues --    0.92842   0.94032   0.94623   0.95992   0.96541
 Alpha virt. eigenvalues --    0.97266   0.97599   0.99020   0.99348   1.00580
 Alpha virt. eigenvalues --    1.01186   1.02455   1.03348   1.04386   1.06139
 Alpha virt. eigenvalues --    1.08833   1.09530   1.10048   1.10300   1.11797
 Alpha virt. eigenvalues --    1.12914   1.13081   1.15397   1.17211   1.17579
 Alpha virt. eigenvalues --    1.18602   1.19879   1.20241   1.23792   1.24049
 Alpha virt. eigenvalues --    1.24632   1.25448   1.26873   1.29276   1.30733
 Alpha virt. eigenvalues --    1.31645   1.32056   1.33388   1.37354   1.37469
 Alpha virt. eigenvalues --    1.39054   1.41503   1.42945   1.47417   1.49575
 Alpha virt. eigenvalues --    1.50500   1.53378   1.61781   1.63012   1.64327
 Alpha virt. eigenvalues --    1.66078   1.67657   1.68062   1.71829   1.74424
 Alpha virt. eigenvalues --    1.78089   1.84967   1.85417   1.87740   1.89222
 Alpha virt. eigenvalues --    1.89992   1.91463   1.91885   1.93213   1.94841
 Alpha virt. eigenvalues --    1.97316   1.98552   1.99416   2.00032   2.01872
 Alpha virt. eigenvalues --    2.02255   2.04130   2.04361   2.04645   2.08869
 Alpha virt. eigenvalues --    2.11539   2.12494   2.13477   2.14323   2.15347
 Alpha virt. eigenvalues --    2.16196   2.19067   2.20843   2.21958   2.23744
 Alpha virt. eigenvalues --    2.24119   2.30304   2.34392   2.35514   2.36840
 Alpha virt. eigenvalues --    2.37849   2.39822   2.41859   2.43797   2.44952
 Alpha virt. eigenvalues --    2.45204   2.46082   2.48492   2.48933   2.52719
 Alpha virt. eigenvalues --    2.57674   2.60323   2.64200   2.73087   2.74325
 Alpha virt. eigenvalues --    2.76335   2.76925   2.80734   2.81379   2.84466
 Alpha virt. eigenvalues --    2.84850   2.87580   2.90269   2.95906   2.97183
 Alpha virt. eigenvalues --    2.99042   2.99290   3.02720   3.06470   3.11104
 Alpha virt. eigenvalues --    3.14130   3.15302   3.15789   3.20762   3.23373
 Alpha virt. eigenvalues --    3.25066   3.26957   3.28617   3.32536   3.37512
 Alpha virt. eigenvalues --    3.37802   3.41337   3.42251   3.44102   3.48089
 Alpha virt. eigenvalues --    3.49613   3.52015   3.59110   3.64449   3.68893
 Alpha virt. eigenvalues --    3.75925   3.80576   3.82256   4.02509   4.05127
 Alpha virt. eigenvalues --    4.09162   4.12507   4.22961   4.25992   4.26829
 Alpha virt. eigenvalues --    4.27229   4.30024   4.30195   4.32608   4.32670
 Alpha virt. eigenvalues --    4.33711   4.34252   4.35931   4.46176   4.48405
 Alpha virt. eigenvalues --    4.52302   4.65126   4.67090   4.69466   4.89653
 Alpha virt. eigenvalues --    4.93713   5.13102   5.49417   6.01842   6.85162
 Alpha virt. eigenvalues --    6.87864   6.90572   7.64443   7.67436   7.68674
 Alpha virt. eigenvalues --    7.76864   7.79480   7.82130   7.83118   7.85489
 Alpha virt. eigenvalues --    7.87431  23.42515  23.49970  23.95115  23.96921
 Alpha virt. eigenvalues --   23.98498  24.00365  24.10979  24.14755  24.15136
 Alpha virt. eigenvalues --   24.17842  24.23175  24.25924  48.11002  48.13925
 Alpha virt. eigenvalues --   48.16216  50.09691 289.84282 289.87349 289.88591
 Alpha virt. eigenvalues --  289.96860 289.99633 290.02157 290.05406 290.07822
 Alpha virt. eigenvalues --  290.094211020.921281020.950191020.97792
          Condensed to atoms (all electrons):
               1          2          3          4          5          6
     1  C    9.818484  -0.773485  -2.224193   0.162895  -0.854333   0.979229
     2  C   -0.773485   9.709017   0.276121  -1.679410   0.854294  -2.405211
     3  C   -2.224193   0.276121   9.264273   0.089691  -0.984366  -0.866933
     4  C    0.162895  -1.679410   0.089691   8.779103  -0.963190  -0.024894
     5  C   -0.854333   0.854294  -0.984366  -0.963190   8.851587  -0.433876
     6  C    0.979229  -2.405211  -0.866933  -0.024894  -0.433876   9.749802
     7  C    0.478721  -0.233848   0.144162  -0.021376  -0.563477  -0.664016
     8  C   -0.576647  -1.423995  -0.273465   0.312200  -0.194366   2.264454
     9  C   -0.259148   0.477704   0.045922  -0.049782   0.008673  -0.821814
    10  C    0.084765  -0.004329  -0.011428   0.011332   0.007629   0.037717
    11  C   -0.068553  -0.192806  -0.008183   0.003780  -0.027123   0.302242
    12  C   -0.550015   1.646474   0.323519  -0.212491   0.224298  -1.968973
    13  O    0.209133  -0.332312   0.025802  -0.044145   0.067022  -0.162319
    14  Br   0.147140  -0.263343  -0.004288   0.057967   0.084048   0.036779
    15  H    0.048942   0.031089   0.150775  -0.132018   0.097021   0.053824
    16  Br   0.017161   0.017331   0.061330  -0.128901   0.105087  -0.011827
    17  H    0.003226   0.053499   0.033500  -0.334165   0.428024  -0.086472
    18  H   -0.084195  -0.065890  -0.012376   0.017535   0.007277   0.191641
    19  H   -0.003135   0.001252   0.001372   0.001947  -0.005934   0.011136
    20  Br   0.000690   0.000633  -0.000129   0.000055   0.001449   0.001543
    21  H   -0.004932  -0.006621  -0.000308  -0.000027  -0.001289   0.005316
    22  H   -0.038350   0.037863   0.012974  -0.001083   0.002781  -0.031625
               7          8          9         10         11         12
     1  C    0.478721  -0.576647  -0.259148   0.084765  -0.068553  -0.550015
     2  C   -0.233848  -1.423995   0.477704  -0.004329  -0.192806   1.646474
     3  C    0.144162  -0.273465   0.045922  -0.011428  -0.008183   0.323519
     4  C   -0.021376   0.312200  -0.049782   0.011332   0.003780  -0.212491
     5  C   -0.563477  -0.194366   0.008673   0.007629  -0.027123   0.224298
     6  C   -0.664016   2.264454  -0.821814   0.037717   0.302242  -1.968973
     7  C    9.486472   0.648577  -1.237144   0.609625  -0.634211  -2.039817
     8  C    0.648577  11.304918  -2.511591  -0.970194   1.653695  -4.661565
     9  C   -1.237144  -2.511591   9.416897   0.023731  -1.756031   2.938508
    10  C    0.609625  -0.970194   0.023731   7.861995  -0.770258  -0.722003
    11  C   -0.634211   1.653695  -1.756031  -0.770258   7.905671  -0.774672
    12  C   -2.039817  -4.661565   2.938508  -0.722003  -0.774672  12.036015
    13  O    0.122475  -0.071996   0.004246   0.020568   0.049841  -0.276953
    14  Br  -0.040344   0.011977   0.000373   0.004106  -0.015649  -0.045881
    15  H   -0.011372  -0.004719  -0.001570  -0.000299   0.001260   0.003769
    16  Br  -0.001656   0.001044   0.001140   0.000367  -0.000220   0.000052
    17  H   -0.002478  -0.020022   0.001204   0.001188  -0.000449   0.009856
    18  H   -0.113966   0.563350  -0.064926   0.005915   0.021938  -0.125058
    19  H   -0.031301   0.042647   0.223975  -0.138931   0.116601   0.013723
    20  Br   0.083415  -0.043531   0.087720   0.104653  -0.084645   0.014169
    21  H    0.024620   0.102152  -0.004617  -0.136363   0.422360  -0.140970
    22  H   -0.001052  -0.053244   0.039388   0.016795  -0.094092   0.428020
              13         14         15         16         17         18
     1  C    0.209133   0.147140   0.048942   0.017161   0.003226  -0.084195
     2  C   -0.332312  -0.263343   0.031089   0.017331   0.053499  -0.065890
     3  C    0.025802  -0.004288   0.150775   0.061330   0.033500  -0.012376
     4  C   -0.044145   0.057967  -0.132018  -0.128901  -0.334165   0.017535
     5  C    0.067022   0.084048   0.097021   0.105087   0.428024   0.007277
     6  C   -0.162319   0.036779   0.053824  -0.011827  -0.086472   0.191641
     7  C    0.122475  -0.040344  -0.011372  -0.001656  -0.002478  -0.113966
     8  C   -0.071996   0.011977  -0.004719   0.001044  -0.020022   0.563350
     9  C    0.004246   0.000373  -0.001570   0.001140   0.001204  -0.064926
    10  C    0.020568   0.004106  -0.000299   0.000367   0.001188   0.005915
    11  C    0.049841  -0.015649   0.001260  -0.000220  -0.000449   0.021938
    12  C   -0.276953  -0.045881   0.003769   0.000052   0.009856  -0.125058
    13  O    8.477018  -0.023872  -0.000508   0.001783   0.005303  -0.014127
    14  Br  -0.023872  35.385953  -0.070820   0.013818   0.006439  -0.004329
    15  H   -0.000508  -0.070820   0.554556  -0.075138   0.004905   0.000418
    16  Br   0.001783   0.013818  -0.075138  35.378211  -0.025747   0.002849
    17  H    0.005303   0.006439   0.004905  -0.025747   0.647053  -0.008173
    18  H   -0.014127  -0.004329   0.000418   0.002849  -0.008173   0.372519
    19  H   -0.004531  -0.000491  -0.000023  -0.000155  -0.001250  -0.017440
    20  Br  -0.000382  -0.000076  -0.000007   0.000006   0.000025   0.008906
    21  H   -0.002238   0.000196   0.000027  -0.000009  -0.000008   0.001478
    22  H   -0.019827  -0.002293  -0.000257   0.000022  -0.000246  -0.002012
              19         20         21         22
     1  C   -0.003135   0.000690  -0.004932  -0.038350
     2  C    0.001252   0.000633  -0.006621   0.037863
     3  C    0.001372  -0.000129  -0.000308   0.012974
     4  C    0.001947   0.000055  -0.000027  -0.001083
     5  C   -0.005934   0.001449  -0.001289   0.002781
     6  C    0.011136   0.001543   0.005316  -0.031625
     7  C   -0.031301   0.083415   0.024620  -0.001052
     8  C    0.042647  -0.043531   0.102152  -0.053244
     9  C    0.223975   0.087720  -0.004617   0.039388
    10  C   -0.138931   0.104653  -0.136363   0.016795
    11  C    0.116601  -0.084645   0.422360  -0.094092
    12  C    0.013723   0.014169  -0.140970   0.428020
    13  O   -0.004531  -0.000382  -0.002238  -0.019827
    14  Br  -0.000491  -0.000076   0.000196  -0.002293
    15  H   -0.000023  -0.000007   0.000027  -0.000257
    16  Br  -0.000155   0.000006  -0.000009   0.000022
    17  H   -0.001250   0.000025  -0.000008  -0.000246
    18  H   -0.017440   0.008906   0.001478  -0.002012
    19  H    0.528739  -0.065300   0.001239   0.002092
    20  Br  -0.065300  35.242564  -0.057630   0.005489
    21  H    0.001239  -0.057630   0.525568  -0.030907
    22  H    0.002092   0.005489  -0.030907   0.481530
 Mulliken charges:
               1
     1  C   -0.513400
     2  C    0.275974
     3  C   -0.043774
     4  C    0.154978
     5  C   -0.711238
     6  C   -0.155724
     7  C   -0.002009
     8  C   -0.099679
     9  C   -0.562859
    10  C   -0.036580
    11  C   -0.050497
    12  C   -0.120006
    13  O   -0.029981
    14  Br  -0.277407
    15  H    0.350144
    16  Br  -0.356549
    17  H    0.284790
    18  H    0.318667
    19  H    0.323767
    20  Br  -0.299616
    21  H    0.302963
    22  H    0.248034
 Sum of Mulliken charges =  -1.00000
 Mulliken charges with hydrogens summed into heavy atoms:
               1
     1  C   -0.513400
     2  C    0.275974
     3  C    0.306371
     4  C    0.154978
     5  C   -0.426448
     6  C   -0.155724
     7  C   -0.002009
     8  C    0.218989
     9  C   -0.239092
    10  C   -0.036580
    11  C    0.252466
    12  C    0.128028
    13  O   -0.029981
    14  Br  -0.277407
    16  Br  -0.356549
    20  Br  -0.299616
 Electronic spatial extent (au):  <R**2>=          13101.8007
 Charge=             -1.0000 electrons
 Dipole moment (field-independent basis, Debye):
    X=             -3.5770    Y=              1.7168    Z=             -0.0116  Tot=              3.9676
 Quadrupole moment (field-independent basis, Debye-Ang):
   XX=           -200.6682   YY=           -147.9775   ZZ=           -140.0641
   XY=              2.0265   XZ=             -0.0145   YZ=              0.0515
 Traceless Quadrupole moment (field-independent basis, Debye-Ang):
   XX=            -37.7650   YY=             14.9258   ZZ=             22.8392
   XY=              2.0265   XZ=             -0.0145   YZ=              0.0515
 Octapole moment (field-independent basis, Debye-Ang**2):
  XXX=             41.3845  YYY=             10.9038  ZZZ=             -0.2555  XYY=            -39.1937
  XXY=             78.7788  XXZ=              0.0118  XZZ=             10.1900  YZZ=              8.6478
  YYZ=             -0.0925  XYZ=             -0.0896
 Hexadecapole moment (field-independent basis, Debye-Ang**3):
 XXXX=         -13234.5496 YYYY=          -2176.7143 ZZZZ=           -178.5975 XXXY=            162.8312
 XXXZ=             -0.3190 YYYX=             24.1724 YYYZ=              0.2011 ZZZX=              0.1472
 ZZZY=             -0.0431 XXYY=          -2361.8214 XXZZ=          -2013.8878 YYZZ=           -407.5167
 XXYZ=              0.2737 YYXZ=              0.0527 ZZXY=             19.2911
 N-N= 1.955478453453D+03 E-N=-2.364063663376D+04  KE= 8.247203810755D+03
 No NMR shielding tensors so no spin-rotation constants.
 Leave Link  601 at Tue Sep 29 16:34:00 2026, MaxMem=  5100273664 cpu:               2.1 elap:               0.2
 (Enter /share/software/user/restricted/gaussian/g16.B01/l9999.exe)
 1\1\GINC-SH03-01N43\FOpt\RB3LYP\6-311++G(d)\C12H6Br3O1(1-)\JLAPIER\29-
 Sep-2026\0\\#p Opt Freq B3LYP/6-311++G(d) Int=UltraFine Geom=Check\\BD
 E_24_2r4_anion b3lyp_gas\\-1,1\C,-1.3010936514,-1.0429288484,0.0787366
 011\C,-2.3431299019,-0.1237723593,0.2385729653\C,-3.6680464912,-0.5385
 826495,0.2955012107\C,-3.9055549728,-1.9041137617,0.186567996\C,-2.877
 1566759,-2.8253164169,0.0275967115\C,-1.5397911396,-2.4058484388,-0.02
 99802003\C,1.179739536,-1.0286262095,-0.0938518382\C,1.4456986369,-2.3
 99171911,-0.2302969723\C,2.7645422793,-2.8389088905,-0.3603253166\C,3.
 810145192,-1.9263259526,-0.3550538425\C,3.5655147458,-0.5621419121,-0.
 2207073832\C,2.2547758281,-0.1219430019,-0.0911587887\O,-0.0310144551,
 -0.4367896673,0.0420855035\Br,-2.0264264551,1.8209338498,0.3952929544\
 H,-4.4718348257,0.173315318,0.4190108879\Br,-5.7837269545,-2.511107001
 3,0.2655926104\H,-3.1313744751,-3.8817108247,-0.0515910089\H,0.6070993
 928,-3.0837589403,-0.2309520762\H,2.9630714981,-3.8998727128,-0.465486
 0254\Br,5.6343078992,-2.5503185756,-0.5365248094\H,4.3829954685,0.1497
 442771,-0.216676206\H,2.0356371916,0.9349592889,0.0151408567\\Version=
 ES64L-G16RevB.01\State=1-A\HF=-8258.6701917\RMSD=5.413e-09\RMSF=2.344e
 -05\Dipole=1.4612815,0.5467879,-0.0483857\Quadrupole=-27.7973961,11.11
 32641,16.684132,1.8877367,3.2931253,-0.6995029\PG=C01 [X(C12H6Br3O1)]\
 \@


 IT TAKES GREATER CHARACTER TO CARRY OFF GOOD FORTUNE THAN BAD.
                     FRENCH PROVERB.
 Leave Link 9999 at Tue Sep 29 16:34:00 2026, MaxMem=  5100273664 cpu:               0.7 elap:               0.1
 Job cpu time:       0 days  5 hours  4 minutes 17.9 seconds.
 Elapsed time:       0 days  0 hours 19 minutes  4.7 seconds.
 File lengths (MBytes):  RWF=    127 Int=      0 D2E=      0 Chk=     67 Scr=      1
 Normal termination of Gaussian 16 at Tue Sep 29 16:34:00 2026.
 (Enter /share/software/user/restricted/gaussian/g16.B01/l1.exe)
 Link1:  Proceeding to internal job step number  2.
 ----------------------------------------------------------------------
 #P Geom=AllCheck Guess=TCheck SCRF=Check GenChk RB3LYP/6-311++G(d) Fre
 q
 ----------------------------------------------------------------------
 1/10=4,29=7,30=1,38=1,40=1/1,3;
 2/12=2,40=1/2;
 3/5=4,6=6,7=1011,11=2,14=-4,25=1,30=1,70=2,71=2,74=-5,75=-5,116=1,140=1/1,2,3;
 4/5=101/1;
 5/5=2,38=6,98=1/2;
 8/6=4,10=90,11=11/1;
 11/6=1,8=1,9=11,15=111,16=1/1,2,10;
 10/6=1/2;
 6/7=2,8=2,9=2,10=2,28=1/1;
 7/8=1,10=1,25=1/1,2,3,16;
 1/10=4,30=1/3;
 99//99;
 Leave Link    1 at Tue Sep 29 16:34:01 2026, MaxMem=  5100273664 cpu:               0.3 elap:               0.0
 (Enter /share/software/user/restricted/gaussian/g16.B01/l101.exe)
 Structure from the checkpoint file:  "calcs/b3lyp_gas/chks/BDE_24_2r4_anion.chk"
 --------------------------
 BDE_24_2r4_anion b3lyp_gas
 --------------------------
 Charge = -1 Multiplicity = 1
 Redundant internal coordinates found in file.  (old form).
 C,0,-1.3010936514,-1.0429288484,0.0787366011
 C,0,-2.3431299019,-0.1237723593,0.2385729653
 C,0,-3.6680464912,-0.5385826495,0.2955012107
 C,0,-3.9055549728,-1.9041137617,0.186567996
 C,0,-2.8771566759,-2.8253164169,0.0275967115
 C,0,-1.5397911396,-2.4058484388,-0.0299802003
 C,0,1.179739536,-1.0286262095,-0.0938518382
 C,0,1.4456986369,-2.399171911,-0.2302969723
 C,0,2.7645422793,-2.8389088905,-0.3603253166
 C,0,3.810145192,-1.9263259526,-0.3550538425
 C,0,3.5655147458,-0.5621419121,-0.2207073832
 C,0,2.2547758281,-0.1219430019,-0.0911587887
 O,0,-0.0310144551,-0.4367896673,0.0420855035
 Br,0,-2.0264264551,1.8209338498,0.3952929544
 H,0,-4.4718348257,0.173315318,0.4190108879
 Br,0,-5.7837269545,-2.5111070013,0.2655926104
 H,0,-3.1313744751,-3.8817108247,-0.0515910089
 H,0,0.6070993928,-3.0837589403,-0.2309520762
 H,0,2.9630714981,-3.8998727128,-0.4654860254
 Br,0,5.6343078992,-2.5503185756,-0.5365248094
 H,0,4.3829954685,0.1497442771,-0.216676206
 H,0,2.0356371916,0.9349592889,0.0151408567
 Recover connectivity data from disk.
 ITRead=  0  0  0  0  0  0  0  0  0  0  0  0  0  0  0  0  0  0  0  0
 ITRead=  0  0
 MicOpt= -1 -1 -1 -1 -1 -1 -1 -1 -1 -1 -1 -1 -1 -1 -1 -1 -1 -1 -1 -1
 MicOpt= -1 -1
 NAtoms=     22 NQM=       22 NQMF=       0 NMMI=      0 NMMIF=      0
                NMic=       0 NMicF=      0.
                    Isotopes and Nuclear Properties:
 (Nuclear quadrupole moments (NQMom) in fm**2, nuclear magnetic moments (NMagM)
  in nuclear magnetons)

  Atom         1           2           3           4           5           6           7           8           9          10
 IAtWgt=          12          12          12          12          12          12          12          12          12          12
 AtmWgt=  12.0000000  12.0000000  12.0000000  12.0000000  12.0000000  12.0000000  12.0000000  12.0000000  12.0000000  12.0000000
 NucSpn=           0           0           0           0           0           0           0           0           0           0
 AtZEff=   3.6000000   3.6000000   3.6000000   3.6000000   3.6000000   3.6000000   3.6000000   3.6000000   3.6000000   3.6000000
 NQMom=    0.0000000   0.0000000   0.0000000   0.0000000   0.0000000   0.0000000   0.0000000   0.0000000   0.0000000   0.0000000
 NMagM=    0.0000000   0.0000000   0.0000000   0.0000000   0.0000000   0.0000000   0.0000000   0.0000000   0.0000000   0.0000000
 AtZNuc=   6.0000000   6.0000000   6.0000000   6.0000000   6.0000000   6.0000000   6.0000000   6.0000000   6.0000000   6.0000000

  Atom        11          12          13          14          15          16          17          18          19          20
 IAtWgt=          12          12          16          79           1          79           1           1           1          79
 AtmWgt=  12.0000000  12.0000000  15.9949146  78.9183361   1.0078250  78.9183361   1.0078250   1.0078250   1.0078250  78.9183361
 NucSpn=           0           0           0           3           1           3           1           1           1           3
 AtZEff=   3.6000000   3.6000000   5.6000000  24.5000000   1.0000000  24.5000000   1.0000000   1.0000000   1.0000000  24.5000000
 NQMom=    0.0000000   0.0000000   0.0000000  31.3000000   0.0000000  31.3000000   0.0000000   0.0000000   0.0000000  31.3000000
 NMagM=    0.0000000   0.0000000   0.0000000   2.1063990   2.7928460   2.1063990   2.7928460   2.7928460   2.7928460   2.1063990
 AtZNuc=   6.0000000   6.0000000   8.0000000  35.0000000   1.0000000  35.0000000   1.0000000   1.0000000   1.0000000  35.0000000

  Atom        21          22
 IAtWgt=           1           1
 AtmWgt=   1.0078250   1.0078250
 NucSpn=           1           1
 AtZEff=   1.0000000   1.0000000
 NQMom=    0.0000000   0.0000000
 NMagM=    2.7928460   2.7928460
 AtZNuc=   1.0000000   1.0000000
 Leave Link  101 at Tue Sep 29 16:34:01 2026, MaxMem=  5100273664 cpu:               5.8 elap:               0.4
 (Enter /share/software/user/restricted/gaussian/g16.B01/l103.exe)

 GradGradGradGradGradGradGradGradGradGradGradGradGradGradGradGradGradGrad
 Berny optimization.
 Initialization pass.
                           ----------------------------
                           !    Initial Parameters    !
                           ! (Angstroms and Degrees)  !
 --------------------------                            --------------------------
 ! Name  Definition              Value          Derivative Info.                !
 --------------------------------------------------------------------------------
 ! R1    R(1,2)                  1.3987         calculate D2E/DX2 analytically  !
 ! R2    R(1,6)                  1.3879         calculate D2E/DX2 analytically  !
 ! R3    R(1,13)                 1.4078         calculate D2E/DX2 analytically  !
 ! R4    R(2,3)                  1.3895         calculate D2E/DX2 analytically  !
 ! R5    R(2,14)                 1.9765         calculate D2E/DX2 analytically  !
 ! R6    R(3,4)                  1.3903         calculate D2E/DX2 analytically  !
 ! R7    R(3,15)                 1.0808         calculate D2E/DX2 analytically  !
 ! R8    R(4,5)                  1.3898         calculate D2E/DX2 analytically  !
 ! R9    R(4,16)                 1.9754         calculate D2E/DX2 analytically  !
 ! R10   R(5,6)                  1.4028         calculate D2E/DX2 analytically  !
 ! R11   R(5,17)                 1.0894         calculate D2E/DX2 analytically  !
 ! R12   R(6,18)                 2.2603         calculate D2E/DX2 analytically  !
 ! R13   R(7,8)                  1.4028         calculate D2E/DX2 analytically  !
 ! R14   R(7,12)                 1.4063         calculate D2E/DX2 analytically  !
 ! R15   R(7,13)                 1.3545         calculate D2E/DX2 analytically  !
 ! R16   R(8,9)                  1.3963         calculate D2E/DX2 analytically  !
 ! R17   R(9,10)                 1.3878         calculate D2E/DX2 analytically  !
 ! R18   R(9,19)                 1.0845         calculate D2E/DX2 analytically  !
 ! R19   R(10,11)                1.3924         calculate D2E/DX2 analytically  !
 ! R20   R(10,20)                1.9365         calculate D2E/DX2 analytically  !
 ! R21   R(11,12)                1.3887         calculate D2E/DX2 analytically  !
 ! R22   R(11,21)                1.084          calculate D2E/DX2 analytically  !
 ! R23   R(12,22)                1.0846         calculate D2E/DX2 analytically  !
 ! A1    A(2,1,6)              121.7458         calculate D2E/DX2 analytically  !
 ! A2    A(2,1,13)             113.0898         calculate D2E/DX2 analytically  !
 ! A3    A(6,1,13)             125.1644         calculate D2E/DX2 analytically  !
 ! A4    A(1,2,3)              121.2581         calculate D2E/DX2 analytically  !
 ! A5    A(1,2,14)             122.4301         calculate D2E/DX2 analytically  !
 ! A6    A(3,2,14)             116.3119         calculate D2E/DX2 analytically  !
 ! A7    A(2,3,4)              116.9295         calculate D2E/DX2 analytically  !
 ! A8    A(2,3,15)             121.143          calculate D2E/DX2 analytically  !
 ! A9    A(4,3,15)             121.9275         calculate D2E/DX2 analytically  !
 ! A10   A(3,4,5)              122.2477         calculate D2E/DX2 analytically  !
 ! A11   A(3,4,16)             117.4574         calculate D2E/DX2 analytically  !
 ! A12   A(5,4,16)             120.2949         calculate D2E/DX2 analytically  !
 ! A13   A(4,5,6)              120.7939         calculate D2E/DX2 analytically  !
 ! A14   A(4,5,17)             118.5797         calculate D2E/DX2 analytically  !
 ! A15   A(6,5,17)             120.6264         calculate D2E/DX2 analytically  !
 ! A16   A(1,6,5)              117.0252         calculate D2E/DX2 analytically  !
 ! A17   A(1,6,18)              97.9395         calculate D2E/DX2 analytically  !
 ! A18   A(5,6,18)             145.0331         calculate D2E/DX2 analytically  !
 ! A19   A(8,7,12)             119.0229         calculate D2E/DX2 analytically  !
 ! A20   A(8,7,13)             127.3111         calculate D2E/DX2 analytically  !
 ! A21   A(12,7,13)            113.666          calculate D2E/DX2 analytically  !
 ! A22   A(7,8,9)              119.725          calculate D2E/DX2 analytically  !
 ! A23   A(8,9,10)             120.2765         calculate D2E/DX2 analytically  !
 ! A24   A(8,9,19)             119.3432         calculate D2E/DX2 analytically  !
 ! A25   A(10,9,19)            120.3804         calculate D2E/DX2 analytically  !
 ! A26   A(9,10,11)            120.8115         calculate D2E/DX2 analytically  !
 ! A27   A(9,10,20)            119.8326         calculate D2E/DX2 analytically  !
 ! A28   A(11,10,20)           119.3559         calculate D2E/DX2 analytically  !
 ! A29   A(10,11,12)           119.0362         calculate D2E/DX2 analytically  !
 ! A30   A(10,11,21)           120.7478         calculate D2E/DX2 analytically  !
 ! A31   A(12,11,21)           120.2159         calculate D2E/DX2 analytically  !
 ! A32   A(7,12,11)            121.1279         calculate D2E/DX2 analytically  !
 ! A33   A(7,12,22)            118.2934         calculate D2E/DX2 analytically  !
 ! A34   A(11,12,22)           120.5787         calculate D2E/DX2 analytically  !
 ! A35   A(1,13,7)             128.3835         calculate D2E/DX2 analytically  !
 ! D1    D(6,1,2,3)             -0.0021         calculate D2E/DX2 analytically  !
 ! D2    D(6,1,2,14)          -179.9958         calculate D2E/DX2 analytically  !
 ! D3    D(13,1,2,3)           179.941          calculate D2E/DX2 analytically  !
 ! D4    D(13,1,2,14)           -0.0527         calculate D2E/DX2 analytically  !
 ! D5    D(2,1,6,5)             -0.0064         calculate D2E/DX2 analytically  !
 ! D6    D(2,1,6,18)          -179.5922         calculate D2E/DX2 analytically  !
 ! D7    D(13,1,6,5)          -179.9424         calculate D2E/DX2 analytically  !
 ! D8    D(13,1,6,18)            0.4718         calculate D2E/DX2 analytically  !
 ! D9    D(2,1,13,7)           179.67           calculate D2E/DX2 analytically  !
 ! D10   D(6,1,13,7)            -0.3893         calculate D2E/DX2 analytically  !
 ! D11   D(1,2,3,4)              0.007          calculate D2E/DX2 analytically  !
 ! D12   D(1,2,3,15)          -179.9969         calculate D2E/DX2 analytically  !
 ! D13   D(14,2,3,4)          -179.9988         calculate D2E/DX2 analytically  !
 ! D14   D(14,2,3,15)           -0.0028         calculate D2E/DX2 analytically  !
 ! D15   D(2,3,4,5)             -0.0036         calculate D2E/DX2 analytically  !
 ! D16   D(2,3,4,16)           179.9976         calculate D2E/DX2 analytically  !
 ! D17   D(15,3,4,5)          -179.9996         calculate D2E/DX2 analytically  !
 ! D18   D(15,3,4,16)            0.0016         calculate D2E/DX2 analytically  !
 ! D19   D(3,4,5,6)             -0.005          calculate D2E/DX2 analytically  !
 ! D20   D(3,4,5,17)           179.9991         calculate D2E/DX2 analytically  !
 ! D21   D(16,4,5,6)           179.9938         calculate D2E/DX2 analytically  !
 ! D22   D(16,4,5,17)           -0.0021         calculate D2E/DX2 analytically  !
 ! D23   D(4,5,6,1)              0.0098         calculate D2E/DX2 analytically  !
 ! D24   D(4,5,6,18)           179.2941         calculate D2E/DX2 analytically  !
 ! D25   D(17,5,6,1)          -179.9943         calculate D2E/DX2 analytically  !
 ! D26   D(17,5,6,18)           -0.7101         calculate D2E/DX2 analytically  !
 ! D27   D(12,7,8,9)             0.0046         calculate D2E/DX2 analytically  !
 ! D28   D(13,7,8,9)          -179.9795         calculate D2E/DX2 analytically  !
 ! D29   D(8,7,12,11)           -0.0024         calculate D2E/DX2 analytically  !
 ! D30   D(8,7,12,22)         -179.9943         calculate D2E/DX2 analytically  !
 ! D31   D(13,7,12,11)         179.9838         calculate D2E/DX2 analytically  !
 ! D32   D(13,7,12,22)          -0.008          calculate D2E/DX2 analytically  !
 ! D33   D(8,7,13,1)            -0.0272         calculate D2E/DX2 analytically  !
 ! D34   D(12,7,13,1)          179.9879         calculate D2E/DX2 analytically  !
 ! D35   D(7,8,9,10)            -0.0041         calculate D2E/DX2 analytically  !
 ! D36   D(7,8,9,19)          -179.997          calculate D2E/DX2 analytically  !
 ! D37   D(8,9,10,11)            0.0014         calculate D2E/DX2 analytically  !
 ! D38   D(8,9,10,20)         -179.9909         calculate D2E/DX2 analytically  !
 ! D39   D(19,9,10,11)         179.9941         calculate D2E/DX2 analytically  !
 ! D40   D(19,9,10,20)           0.0018         calculate D2E/DX2 analytically  !
 ! D41   D(9,10,11,12)           0.0009         calculate D2E/DX2 analytically  !
 ! D42   D(9,10,11,21)         179.9971         calculate D2E/DX2 analytically  !
 ! D43   D(20,10,11,12)        179.9932         calculate D2E/DX2 analytically  !
 ! D44   D(20,10,11,21)         -0.0105         calculate D2E/DX2 analytically  !
 ! D45   D(10,11,12,7)          -0.0003         calculate D2E/DX2 analytically  !
 ! D46   D(10,11,12,22)        179.9913         calculate D2E/DX2 analytically  !
 ! D47   D(21,11,12,7)        -179.9966         calculate D2E/DX2 analytically  !
 ! D48   D(21,11,12,22)         -0.005          calculate D2E/DX2 analytically  !
 --------------------------------------------------------------------------------
 Trust Radius=3.00D-01 FncErr=1.00D-07 GrdErr=1.00D-07 EigMax=2.50D+02 EigMin=1.00D-04
 Number of steps in this run=      2 maximum allowed number of steps=      2.
 GradGradGradGradGradGradGradGradGradGradGradGradGradGradGradGradGradGrad

 Leave Link  103 at Tue Sep 29 16:34:01 2026, MaxMem=  5100273664 cpu:               0.3 elap:               0.0
 (Enter /share/software/user/restricted/gaussian/g16.B01/l202.exe)
                          Input orientation:                          
 ---------------------------------------------------------------------
 Center     Atomic      Atomic             Coordinates (Angstroms)
 Number     Number       Type             X           Y           Z
 ---------------------------------------------------------------------
      1          6           0       -1.301094   -1.042929    0.078737
      2          6           0       -2.343130   -0.123772    0.238573
      3          6           0       -3.668046   -0.538583    0.295501
      4          6           0       -3.905555   -1.904114    0.186568
      5          6           0       -2.877157   -2.825316    0.027597
      6          6           0       -1.539791   -2.405848   -0.029980
      7          6           0        1.179740   -1.028626   -0.093852
      8          6           0        1.445699   -2.399172   -0.230297
      9          6           0        2.764542   -2.838909   -0.360325
     10          6           0        3.810145   -1.926326   -0.355054
     11          6           0        3.565515   -0.562142   -0.220707
     12          6           0        2.254776   -0.121943   -0.091159
     13          8           0       -0.031014   -0.436790    0.042086
     14         35           0       -2.026426    1.820934    0.395293
     15          1           0       -4.471835    0.173315    0.419011
     16         35           0       -5.783727   -2.511107    0.265593
     17          1           0       -3.131374   -3.881711   -0.051591
     18          1           0        0.607099   -3.083759   -0.230952
     19          1           0        2.963071   -3.899873   -0.465486
     20         35           0        5.634308   -2.550319   -0.536525
     21          1           0        4.382995    0.149744   -0.216676
     22          1           0        2.035637    0.934959    0.015141
 ---------------------------------------------------------------------
                    Distance matrix (angstroms):
                    1          2          3          4          5
     1  C    0.000000
     2  C    1.398655   0.000000
     3  C    2.429777   1.389501   0.000000
     4  C    2.745266   2.369281   1.390306   0.000000
     5  C    2.379810   2.761890   2.434426   1.389780   0.000000
     6  C    1.387929   2.434203   2.849928   2.428059   1.402788
     7  C    2.486870   3.652379   4.888023   5.167720   4.438609
     8  C    3.078923   4.444379   5.467051   5.390248   4.351458
     9  C    4.466287   5.815407   6.862930   6.757450   5.655036
    10  C    5.205125   6.439285   7.633636   7.734719   6.758299
    11  C    4.899459   5.942658   7.251995   7.601555   6.833127
    12  C    3.677130   4.609714   5.950035   6.418952   5.801643
    13  O    1.407782   2.341466   3.647271   4.145598   3.715615
    14  Br   2.971199   1.976549   2.876142   4.177400   4.737783
    15  H    3.413010   2.156897   1.080800   2.165736   3.418771
    16  Br   4.720642   4.187816   2.892724   1.975403   2.933176
    17  H    3.380177   3.850666   3.403674   2.137046   1.089434
    18  H    2.811067   4.205452   5.003194   4.682941   3.503381
    19  H    5.161532   6.550604   7.473225   7.182357   5.958697
    20  Br   7.123943   8.374271   9.553698   9.589026   8.534570
    21  H    5.815377   6.747061   8.096629   8.548743   7.849870
    22  H    3.879415   4.510481   5.897621   6.586918   6.186709
                    6          7          8          9         10
     6  C    0.000000
     7  C    3.049044   0.000000
     8  C    2.992210   1.402764   0.000000
     9  C    4.338658   2.420688   1.396290   0.000000
    10  C    5.381211   2.791617   2.414489   1.387848   0.000000
    11  C    5.431370   2.434260   2.805065   2.417585   1.392441
    12  C    4.429301   1.406337   2.420689   2.777448   2.396792
    13  O    2.481692   1.354502   2.470995   3.707728   4.138955
    14  Br   4.275905   4.317263   5.500573   6.725955   6.976428
    15  H    3.930720   5.800688   6.485098   7.876929   8.578978
    16  Br   4.255518   7.128591   7.247277   8.577420   9.631695
    17  H    2.170662   5.169873   4.814505   5.995380   7.218055
    18  H    2.260330   2.137822   1.082547   2.175143   3.408013
    19  H    4.764194   3.400359   2.147053   1.084489   2.150492
    20  Br   7.193411   4.728074   4.202507   2.889617   1.936458
    21  H    6.453318   3.415332   3.889071   3.401775   2.158095
    22  H    4.893539   2.144786   3.394805   3.861911   3.387163
                   11         12         13         14         15
    11  C    0.000000
    12  C    1.388738   0.000000
    13  O    3.608295   2.311216   0.000000
    14  Br   6.109690   4.726531   3.033767   0.000000
    15  H    8.096241   6.752388   4.498354   2.948768   0.000000
    16  Br   9.562598   8.393623   6.119350   5.735914   2.991776
    17  H    7.476394   6.568716   4.635568   5.825871   4.296689
    18  H    3.887271   3.392158   2.736455   5.602111   6.068489
    19  H    3.400485   3.861937   4.605988   7.639611   8.523557
    20  Br   2.886606   4.185283   6.074345   8.869215  10.510250
    21  H    1.084008   2.149160   4.460321   6.651922   8.877650
    22  H    2.153477   1.084603   2.480619   4.174905   6.564328
                   16         17         18         19         20
    16  Br   0.000000
    17  H    3.002355   0.000000
    18  H    6.435616   3.826890   0.000000
    19  H    8.886486   6.108511   2.504327   0.000000
    20  Br  11.446242   8.879468   5.064658   2.993634   0.000000
    21  H   10.520217   8.529105   4.971231   4.298545   2.993063
    22  H    8.548717   7.064190   4.272163   4.946386   5.040033
                   21         22
    21  H    0.000000
    22  H    2.486040   0.000000
 Stoichiometry    C12H6Br3O(1-)
 Framework group  C1[X(C12H6Br3O)]
 Deg. of freedom    60
 Full point group                 C1      NOp   1
 RotChk:  IX=0 Diff= 5.94D-16
 Largest Abelian subgroup         C1      NOp   1
 Largest concise Abelian subgroup C1      NOp   1
                         Standard orientation:                         
 ---------------------------------------------------------------------
 Center     Atomic      Atomic             Coordinates (Angstroms)
 Number     Number       Type             X           Y           Z
 ---------------------------------------------------------------------
      1          6           0        0.909293    0.097025    0.004147
      2          6           0        2.036864    0.924556    0.000367
      3          6           0        3.320902    0.393560   -0.001202
      4          6           0        3.429084   -0.992529    0.001004
      5          6           0        2.314947   -1.823296    0.004690
      6          6           0        1.018901   -1.286566    0.006455
      7          6           0       -1.566697    0.329399    0.004228
      8          6           0       -1.961109   -1.016763   -0.001726
      9          6           0       -3.319413   -1.340228   -0.003801
     10          6           0       -4.277754   -0.336391    0.000087
     11          6           0       -3.905244    1.005283    0.006070
     12          6           0       -2.554985    1.329927    0.008099
     13          8           0       -0.302001    0.814388    0.006559
     14         35           0        1.904314    2.896652   -0.002848
     15          1           0        4.190938    1.034776   -0.004074
     16         35           0        5.247521   -1.764213   -0.001259
     17          1           0        2.469028   -2.901778    0.006250
     18          1           0       -1.188085   -1.774613   -0.004146
     19          1           0       -3.617394   -2.382966   -0.008359
     20         35           0       -6.158000   -0.799573   -0.002587
     21          1           0       -4.654647    1.788519    0.009056
     22          1           0       -2.236802    2.366798    0.012595
 ---------------------------------------------------------------------
 Rotational constants (GHZ):           0.4395085           0.0763755           0.0650683
 Leave Link  202 at Tue Sep 29 16:34:01 2026, MaxMem=  5100273664 cpu:               0.5 elap:               0.0
 (Enter /share/software/user/restricted/gaussian/g16.B01/l301.exe)
 Standard basis: 6-311++G(d) (5D, 7F)
 Ernie: Thresh=  0.10000D-02 Tol=  0.10000D-05 Strict=F.
 There are   476 symmetry adapted cartesian basis functions of A   symmetry.
 There are   454 symmetry adapted basis functions of A   symmetry.
   454 basis functions,   786 primitive gaussians,   476 cartesian basis functions
    96 alpha electrons       96 beta electrons
       nuclear repulsion energy      1955.4784534533 Hartrees.
 IExCor=  402 DFT=T Ex+Corr=B3LYP ExCW=0 ScaHFX=  0.200000
 ScaDFX=  0.800000  0.720000  1.000000  0.810000 ScalE2=  1.000000  1.000000
 IRadAn=      5 IRanWt=     -1 IRanGd=            0 ICorTp=0 IEmpDi=  4
 NAtoms=   22 NActive=   22 NUniq=   22 SFac= 1.00D+00 NAtFMM=   60 NAOKFM=F Big=F
 Integral buffers will be    131072 words long.
 Raffenetti 2 integral format.
 Two-electron integral symmetry is turned on.
 Leave Link  301 at Tue Sep 29 16:34:01 2026, MaxMem=  5100273664 cpu:               0.3 elap:               0.0
 (Enter /share/software/user/restricted/gaussian/g16.B01/l302.exe)
 NPDir=0 NMtPBC=     1 NCelOv=     1 NCel=       1 NClECP=     1 NCelD=      1
         NCelK=      1 NCelE2=     1 NClLst=     1 CellRange=     0.0.
 One-electron integrals computed using PRISM.
 One-electron integral symmetry used in STVInt
 NBasis=   454 RedAO= T EigKep=  1.63D-06  NBF=   454
 NBsUse=   450 1.00D-06 EigRej=  9.04D-07 NBFU=   450
 Precomputing XC quadrature grid using
 IXCGrd= 4 IRadAn=           5 IRanWt=          -1 IRanGd=           0 AccXCQ= 0.00D+00.
 Generated NRdTot=       0 NPtTot=           0 NUsed=           0 NTot=          32
 NSgBfM=   447   447   447   447   447 MxSgAt=    22 MxSgA2=    22.
 Leave Link  302 at Tue Sep 29 16:34:01 2026, MaxMem=  5100273664 cpu:               4.2 elap:               0.3
 (Enter /share/software/user/restricted/gaussian/g16.B01/l303.exe)
 DipDrv:  MaxL=1.
 Leave Link  303 at Tue Sep 29 16:34:02 2026, MaxMem=  5100273664 cpu:               1.1 elap:               0.1
 (Enter /share/software/user/restricted/gaussian/g16.B01/l401.exe)
 Initial guess from the checkpoint file:  "calcs/b3lyp_gas/chks/BDE_24_2r4_anion.chk"
 B after Tr=     0.000000   -0.000000   -0.000000
         Rot=    1.000000   -0.000000    0.000000   -0.000000 Ang=   0.00 deg.
 Guess basis will be translated and rotated to current coordinates.
 JPrj=2 DoOrth=T DoCkMO=T.
 Leave Link  401 at Tue Sep 29 16:34:02 2026, MaxMem=  5100273664 cpu:               4.2 elap:               0.3
 (Enter /share/software/user/restricted/gaussian/g16.B01/l502.exe)
 Integral symmetry usage will be decided dynamically.
 Closed shell SCF:
 Using DIIS extrapolation, IDIIS=  1040.
 NGot=  5100273664 LenX=  5099808623 LenY=  5099581571
 Requested convergence on RMS density matrix=1.00D-08 within 128 cycles.
 Requested convergence on MAX density matrix=1.00D-06.
 Requested convergence on             energy=1.00D-06.
 No special actions if energy rises.
 Fock matrices will be formed incrementally for  20 cycles.

 Cycle   1  Pass 1  IDiag  1:
 FoFJK:  IHMeth= 1 ICntrl=       0 DoSepK=F KAlg= 0 I1Cent=           0 FoldK=F
 IRaf= 770000000 NMat=       1 IRICut=       1 DoRegI=T DoRafI=F ISym2E= 0 IDoP0=0 IntGTp=1.
 FoFCou: FMM=F IPFlag=           0 FMFlag=      100000 FMFlg1=           0
         NFxFlg=           0 DoJE=F BraDBF=F KetDBF=F FulRan=T
         wScrn=  0.000000 ICntrl=         0 IOpCl=  0 I1Cent=           0 NGrid=           0
         NMat0=    1 NMatS0=      1 NMatT0=    0 NMatD0=    1 NMtDS0=    0 NMtDT0=    0
 Symmetry not used in FoFCou.
 E= -8258.67019167576    
 DIIS: error= 7.31D-09 at cycle   1 NSaved=   1.
 NSaved= 1 IEnMin= 1 EnMin= -8258.67019167576     IErMin= 1 ErrMin= 7.31D-09
 ErrMax= 7.31D-09  0.00D+00 EMaxC= 1.00D-01 BMatC= 2.52D-14 BMatP= 2.52D-14
 IDIUse=1 WtCom= 1.00D+00 WtEn= 0.00D+00
 Coeff-Com:  0.100D+01
 Coeff:      0.100D+01
 Gap=     0.122 Goal=   None    Shift=    0.000
 RMSDP=5.83D-09 MaxDP=4.31D-07              OVMax= 1.73D-07

 SCF Done:  E(RB3LYP) =  -8258.67019168     A.U. after    1 cycles
            NFock=  1  Conv=0.58D-08     -V/T= 2.0014
 KE= 8.247203810530D+03 PE=-2.364063663354D+04 EE= 5.179284177877D+03
 Leave Link  502 at Tue Sep 29 16:34:06 2026, MaxMem=  5100273664 cpu:              59.8 elap:               3.7
 (Enter /share/software/user/restricted/gaussian/g16.B01/l801.exe)
 DoSCS=F DFT=T ScalE2(SS,OS)=  1.000000  1.000000
 Range of M.O.s used for correlation:     1   450
 NBasis=   454 NAE=    96 NBE=    96 NFC=     0 NFV=     0
 NROrb=    450 NOA=    96 NOB=    96 NVA=   354 NVB=   354

 **** Warning!!: The largest alpha MO coefficient is  0.14328780D+03

 Leave Link  801 at Tue Sep 29 16:34:06 2026, MaxMem=  5100273664 cpu:               0.4 elap:               0.0
 (Enter /share/software/user/restricted/gaussian/g16.B01/l1101.exe)
 Using compressed storage, NAtomX=    22.
 Will process     23 centers per pass.
 Leave Link 1101 at Tue Sep 29 16:34:06 2026, MaxMem=  5100273664 cpu:               5.6 elap:               0.4
 (Enter /share/software/user/restricted/gaussian/g16.B01/l1102.exe)
 Symmetrizing basis deriv contribution to polar:
 IMax=3 JMax=2 DiffMx= 0.00D+00
 Leave Link 1102 at Tue Sep 29 16:34:06 2026, MaxMem=  5100273664 cpu:               0.9 elap:               0.1
 (Enter /share/software/user/restricted/gaussian/g16.B01/l1110.exe)
 Forming Gx(P) for the SCF density, NAtomX=    22.
 Integral derivatives from FoFJK, PRISM(SPDF).
 Do as many integral derivatives as possible in FoFJK.
 G2DrvN: MDV=    5100271812.
 G2DrvN: will do    23 centers at a time, making    1 passes.
 Calling FoFCou, ICntrl=  3107 FMM=F I1Cent=   0 AccDes= 0.00D+00.
 FoFJK:  IHMeth= 1 ICntrl=    3107 DoSepK=F KAlg= 0 I1Cent=           0 FoldK=F
 IRaf=         0 NMat=       1 IRICut=       1 DoRegI=T DoRafI=F ISym2E= 0 IDoP0=0 IntGTp=1.
 FoFCou: FMM=F IPFlag=           0 FMFlag=      100000 FMFlg1=           0
         NFxFlg=           0 DoJE=F BraDBF=F KetDBF=F FulRan=T
         wScrn=  0.000000 ICntrl=      3107 IOpCl=  0 I1Cent=           0 NGrid=           0
         NMat0=    1 NMatS0=      1 NMatT0=    0 NMatD0=    1 NMtDS0=    0 NMtDT0=    0
 Symmetry not used in FoFCou.
 End of G2Drv F.D. properties file   721 does not exist.
 End of G2Drv F.D. properties file   722 does not exist.
 End of G2Drv F.D. properties file   788 does not exist.
 Leave Link 1110 at Tue Sep 29 16:35:26 2026, MaxMem=  5100273664 cpu:            1278.1 elap:              79.9
 (Enter /share/software/user/restricted/gaussian/g16.B01/l1002.exe)
 Minotr:  Closed shell wavefunction.
          IDoAtm=1111111111111111111111
          Direct CPHF calculation.
          Differentiating once with respect to electric field.
                with respect to dipole field.
          Differentiating once with respect to nuclear coordinates.
          Requested convergence is 1.0D-08 RMS, and 1.0D-07 maximum.
          Secondary convergence is 1.0D-12 RMS, and 1.0D-12 maximum.
          NewPWx=T KeepS1=F KeepF1=F KeepIn=T MapXYZ=F SortEE=F KeepMc=T.
         6809 words used for storage of precomputed grid.
 Two-electron integrals replicated using symmetry.
          MDV=    5100273664 using IRadAn=       1.
          Solving linear equations simultaneously, MaxMat=     384.
 FoF2E skips out because all densities are zero.
 CalDSu exits because no D1Ps are significant.
 FoFJK:  IHMeth= 1 ICntrl=       0 DoSepK=F KAlg= 0 I1Cent=           0 FoldK=F
 IRaf= 770000000 NMat=      66 IRICut=     165 DoRegI=T DoRafI=T ISym2E= 2 IDoP0=3 IntGTp=3.
 FoFCou: FMM=F IPFlag=           0 FMFlag=      100000 FMFlg1=           0
         NFxFlg=           0 DoJE=F BraDBF=F KetDBF=F FulRan=T
         wScrn=  0.000000 ICntrl=         0 IOpCl=  0 I1Cent=           0 NGrid=           0
         NMat0=   66 NMatS0=     66 NMatT0=    0 NMatD0=   66 NMtDS0=    0 NMtDT0=    0
 Integrals replicated using symmetry in FoFCou.
 Raff kept on since  75.55% of shell-pairs survive, threshold=   0.20 IRatSp=76.
          There are    69 degrees of freedom in the 1st order CPHF.  IDoFFX=6 NUNeed=     3.
     66 vectors produced by pass  0 Test12= 4.93D-14 1.45D-09 XBig12= 5.07D+02 1.08D+01.
 AX will form    66 AO Fock derivatives at one time.
     66 vectors produced by pass  1 Test12= 4.93D-14 1.45D-09 XBig12= 1.18D+02 2.21D+00.
     66 vectors produced by pass  2 Test12= 4.93D-14 1.45D-09 XBig12= 1.68D+00 1.61D-01.
     66 vectors produced by pass  3 Test12= 4.93D-14 1.45D-09 XBig12= 4.77D-02 3.03D-02.
     66 vectors produced by pass  4 Test12= 4.93D-14 1.45D-09 XBig12= 3.06D-04 1.75D-03.
     66 vectors produced by pass  5 Test12= 4.93D-14 1.45D-09 XBig12= 7.22D-07 8.69D-05.
     45 vectors produced by pass  6 Test12= 4.93D-14 1.45D-09 XBig12= 1.57D-09 3.43D-06.
      5 vectors produced by pass  7 Test12= 4.93D-14 1.45D-09 XBig12= 2.98D-12 1.37D-07.
      2 vectors produced by pass  8 Test12= 4.93D-14 1.45D-09 XBig12= 6.38D-15 7.29D-09.
 InvSVY:  IOpt=1 It=  1 EMax= 4.26D-14
 Solved reduced A of dimension   448 with    69 vectors.
 FullF1:  Do perturbations      1 to       3.
 Isotropic polarizability for W=    0.000000      251.52 Bohr**3.
 End of Minotr F.D. properties file   721 does not exist.
 End of Minotr F.D. properties file   722 does not exist.
 End of Minotr F.D. properties file   788 does not exist.
 Leave Link 1002 at Tue Sep 29 16:39:19 2026, MaxMem=  5100273664 cpu:            3723.0 elap:             232.7
 (Enter /share/software/user/restricted/gaussian/g16.B01/l601.exe)
 Copying SCF densities to generalized density rwf, IOpCl= 0 IROHF=0.

 **********************************************************************

            Population analysis using the SCF Density.

 **********************************************************************

 Orbital symmetries:
       Occupied  (A) (A) (A) (A) (A) (A) (A) (A) (A) (A) (A) (A)
                 (A) (A) (A) (A) (A) (A) (A) (A) (A) (A) (A) (A)
                 (A) (A) (A) (A) (A) (A) (A) (A) (A) (A) (A) (A)
                 (A) (A) (A) (A) (A) (A) (A) (A) (A) (A) (A) (A)
                 (A) (A) (A) (A) (A) (A) (A) (A) (A) (A) (A) (A)
                 (A) (A) (A) (A) (A) (A) (A) (A) (A) (A) (A) (A)
                 (A) (A) (A) (A) (A) (A) (A) (A) (A) (A) (A) (A)
                 (A) (A) (A) (A) (A) (A) (A) (A) (A) (A) (A) (A)
       Virtual   (A) (A) (A) (A) (A) (A) (A) (A) (A) (A) (A) (A)
                 (A) (A) (A) (A) (A) (A) (A) (A) (A) (A) (A) (A)
                 (A) (A) (A) (A) (A) (A) (A) (A) (A) (A) (A) (A)
                 (A) (A) (A) (A) (A) (A) (A) (A) (A) (A) (A) (A)
                 (A) (A) (A) (A) (A) (A) (A) (A) (A) (A) (A) (A)
                 (A) (A) (A) (A) (A) (A) (A) (A) (A) (A) (A) (A)
                 (A) (A) (A) (A) (A) (A) (A) (A) (A) (A) (A) (A)
                 (A) (A) (A) (A) (A) (A) (A) (A) (A) (A) (A) (A)
                 (A) (A) (A) (A) (A) (A) (A) (A) (A) (A) (A) (A)
                 (A) (A) (A) (A) (A) (A) (A) (A) (A) (A) (A) (A)
                 (A) (A) (A) (A) (A) (A) (A) (A) (A) (A) (A) (A)
                 (A) (A) (A) (A) (A) (A) (A) (A) (A) (A) (A) (A)
                 (A) (A) (A) (A) (A) (A) (A) (A) (A) (A) (A) (A)
                 (A) (A) (A) (A) (A) (A) (A) (A) (A) (A) (A) (A)
                 (A) (A) (A) (A) (A) (A) (A) (A) (A) (A) (A) (A)
                 (A) (A) (A) (A) (A) (A) (A) (A) (A) (A) (A) (A)
                 (A) (A) (A) (A) (A) (A) (A) (A) (A) (A) (A) (A)
                 (A) (A) (A) (A) (A) (A) (A) (A) (A) (A) (A) (A)
                 (A) (A) (A) (A) (A) (A) (A) (A) (A) (A) (A) (A)
                 (A) (A) (A) (A) (A) (A) (A) (A) (A) (A) (A) (A)
                 (A) (A) (A) (A) (A) (A) (A) (A) (A) (A) (A) (A)
                 (A) (A) (A) (A) (A) (A) (A) (A) (A) (A) (A) (A)
                 (A) (A) (A) (A) (A) (A) (A) (A) (A) (A) (A) (A)
                 (A) (A) (A) (A) (A) (A) (A) (A) (A) (A) (A) (A)
                 (A) (A) (A) (A) (A) (A) (A) (A) (A) (A) (A) (A)
                 (A) (A) (A) (A) (A) (A) (A) (A) (A) (A) (A) (A)
                 (A) (A) (A) (A) (A) (A) (A) (A) (A) (A) (A) (A)
                 (A) (A) (A) (A) (A) (A) (A) (A) (A) (A) (A) (A)
                 (A) (A) (A) (A) (A) (A) (A) (A) (A) (A) (A) (A)
                 (A) (A) (A) (A) (A) (A)
 The electronic state is 1-A.
 Alpha  occ. eigenvalues -- -482.74154-482.70936-482.70603 -62.39440 -62.36223
 Alpha  occ. eigenvalues --  -62.35883 -56.21457 -56.21093 -56.21091 -56.18225
 Alpha  occ. eigenvalues --  -56.17895 -56.17885 -56.17881 -56.17547 -56.17530
 Alpha  occ. eigenvalues --  -19.04794 -10.14009 -10.13130 -10.11102 -10.10716
 Alpha  occ. eigenvalues --  -10.10336 -10.09368 -10.08994 -10.08145 -10.06764
 Alpha  occ. eigenvalues --  -10.06669 -10.04917 -10.00199  -8.60403  -8.57174
 Alpha  occ. eigenvalues --   -8.56833  -6.43486  -6.42273  -6.42269  -6.40206
 Alpha  occ. eigenvalues --   -6.39894  -6.39071  -6.39067  -6.38734  -6.38688
 Alpha  occ. eigenvalues --   -2.54589  -2.54240  -2.54234  -2.53273  -2.53272
 Alpha  occ. eigenvalues --   -2.51315  -2.50997  -2.50988  -2.50988  -2.50674
 Alpha  occ. eigenvalues --   -2.50641  -2.50086  -2.50086  -2.49720  -2.49719
 Alpha  occ. eigenvalues --   -0.96446  -0.77776  -0.75128  -0.71080  -0.68926
 Alpha  occ. eigenvalues --   -0.66282  -0.65663  -0.63873  -0.60568  -0.58964
 Alpha  occ. eigenvalues --   -0.52899  -0.51281  -0.47567  -0.46546  -0.42860
 Alpha  occ. eigenvalues --   -0.39205  -0.38004  -0.35744  -0.34625  -0.33578
 Alpha  occ. eigenvalues --   -0.33427  -0.33131  -0.29628  -0.28437  -0.28274
 Alpha  occ. eigenvalues --   -0.27797  -0.27107  -0.25751  -0.24703  -0.21865
 Alpha  occ. eigenvalues --   -0.21626  -0.20722  -0.20195  -0.17890  -0.17427
 Alpha  occ. eigenvalues --   -0.17045  -0.16681  -0.14182  -0.11941  -0.09712
 Alpha  occ. eigenvalues --   -0.05736
 Alpha virt. eigenvalues --    0.06490   0.07542   0.07594   0.07671   0.08224
 Alpha virt. eigenvalues --    0.09037   0.09375   0.09527   0.10903   0.10978
 Alpha virt. eigenvalues --    0.11402   0.11557   0.12619   0.12717   0.12950
 Alpha virt. eigenvalues --    0.13705   0.14190   0.14230   0.14543   0.14860
 Alpha virt. eigenvalues --    0.15319   0.16273   0.16757   0.16827   0.16903
 Alpha virt. eigenvalues --    0.17411   0.18051   0.18681   0.19687   0.19956
 Alpha virt. eigenvalues --    0.20604   0.20619   0.20803   0.21489   0.22128
 Alpha virt. eigenvalues --    0.22548   0.22764   0.23080   0.23196   0.23304
 Alpha virt. eigenvalues --    0.23838   0.24094   0.24313   0.24483   0.25230
 Alpha virt. eigenvalues --    0.26170   0.26484   0.26853   0.27662   0.27772
 Alpha virt. eigenvalues --    0.27866   0.28708   0.28824   0.29828   0.29890
 Alpha virt. eigenvalues --    0.30649   0.30837   0.31339   0.31842   0.32111
 Alpha virt. eigenvalues --    0.32466   0.33659   0.34453   0.34924   0.35432
 Alpha virt. eigenvalues --    0.35881   0.36138   0.36354   0.37393   0.38161
 Alpha virt. eigenvalues --    0.38282   0.38356   0.38944   0.39292   0.39349
 Alpha virt. eigenvalues --    0.40344   0.41187   0.41430   0.42165   0.42695
 Alpha virt. eigenvalues --    0.43375   0.44771   0.45189   0.45562   0.46430
 Alpha virt. eigenvalues --    0.47144   0.47706   0.48483   0.50308   0.50348
 Alpha virt. eigenvalues --    0.50482   0.52696   0.52730   0.53800   0.54392
 Alpha virt. eigenvalues --    0.54866   0.55263   0.56720   0.58344   0.60332
 Alpha virt. eigenvalues --    0.60862   0.63187   0.63216   0.63461   0.64373
 Alpha virt. eigenvalues --    0.64409   0.64953   0.65870   0.66493   0.67516
 Alpha virt. eigenvalues --    0.68127   0.68793   0.69041   0.69312   0.70580
 Alpha virt. eigenvalues --    0.70691   0.71624   0.72140   0.72331   0.73536
 Alpha virt. eigenvalues --    0.73638   0.74841   0.74866   0.75052   0.75641
 Alpha virt. eigenvalues --    0.75786   0.76791   0.78737   0.80328   0.80950
 Alpha virt. eigenvalues --    0.81406   0.82008   0.82821   0.83167   0.84052
 Alpha virt. eigenvalues --    0.84731   0.85769   0.86055   0.86458   0.87444
 Alpha virt. eigenvalues --    0.87455   0.88590   0.89326   0.91461   0.92332
 Alpha virt. eigenvalues --    0.92842   0.94032   0.94623   0.95992   0.96541
 Alpha virt. eigenvalues --    0.97266   0.97599   0.99020   0.99348   1.00580
 Alpha virt. eigenvalues --    1.01186   1.02455   1.03348   1.04386   1.06139
 Alpha virt. eigenvalues --    1.08833   1.09530   1.10048   1.10300   1.11797
 Alpha virt. eigenvalues --    1.12914   1.13081   1.15397   1.17211   1.17579
 Alpha virt. eigenvalues --    1.18602   1.19879   1.20241   1.23792   1.24049
 Alpha virt. eigenvalues --    1.24632   1.25448   1.26873   1.29276   1.30733
 Alpha virt. eigenvalues --    1.31645   1.32056   1.33388   1.37354   1.37469
 Alpha virt. eigenvalues --    1.39054   1.41503   1.42945   1.47417   1.49575
 Alpha virt. eigenvalues --    1.50500   1.53378   1.61781   1.63012   1.64327
 Alpha virt. eigenvalues --    1.66078   1.67657   1.68062   1.71829   1.74424
 Alpha virt. eigenvalues --    1.78089   1.84967   1.85417   1.87740   1.89222
 Alpha virt. eigenvalues --    1.89992   1.91463   1.91885   1.93213   1.94841
 Alpha virt. eigenvalues --    1.97316   1.98552   1.99416   2.00032   2.01872
 Alpha virt. eigenvalues --    2.02255   2.04130   2.04361   2.04645   2.08869
 Alpha virt. eigenvalues --    2.11539   2.12494   2.13477   2.14323   2.15347
 Alpha virt. eigenvalues --    2.16196   2.19067   2.20843   2.21958   2.23744
 Alpha virt. eigenvalues --    2.24119   2.30304   2.34392   2.35514   2.36840
 Alpha virt. eigenvalues --    2.37849   2.39822   2.41859   2.43797   2.44952
 Alpha virt. eigenvalues --    2.45204   2.46082   2.48492   2.48933   2.52719
 Alpha virt. eigenvalues --    2.57674   2.60323   2.64200   2.73087   2.74325
 Alpha virt. eigenvalues --    2.76335   2.76925   2.80734   2.81379   2.84466
 Alpha virt. eigenvalues --    2.84850   2.87580   2.90269   2.95906   2.97183
 Alpha virt. eigenvalues --    2.99042   2.99290   3.02720   3.06470   3.11104
 Alpha virt. eigenvalues --    3.14130   3.15302   3.15789   3.20762   3.23373
 Alpha virt. eigenvalues --    3.25066   3.26957   3.28617   3.32536   3.37512
 Alpha virt. eigenvalues --    3.37802   3.41337   3.42251   3.44102   3.48089
 Alpha virt. eigenvalues --    3.49613   3.52015   3.59110   3.64449   3.68893
 Alpha virt. eigenvalues --    3.75925   3.80576   3.82256   4.02509   4.05127
 Alpha virt. eigenvalues --    4.09162   4.12507   4.22961   4.25992   4.26829
 Alpha virt. eigenvalues --    4.27229   4.30024   4.30195   4.32608   4.32670
 Alpha virt. eigenvalues --    4.33711   4.34251   4.35931   4.46176   4.48405
 Alpha virt. eigenvalues --    4.52302   4.65126   4.67090   4.69466   4.89653
 Alpha virt. eigenvalues --    4.93713   5.13102   5.49417   6.01842   6.85162
 Alpha virt. eigenvalues --    6.87864   6.90572   7.64443   7.67436   7.68674
 Alpha virt. eigenvalues --    7.76864   7.79480   7.82130   7.83118   7.85489
 Alpha virt. eigenvalues --    7.87431  23.42515  23.49970  23.95115  23.96921
 Alpha virt. eigenvalues --   23.98498  24.00365  24.10979  24.14755  24.15136
 Alpha virt. eigenvalues --   24.17842  24.23175  24.25924  48.11002  48.13925
 Alpha virt. eigenvalues --   48.16216  50.09691 289.84282 289.87349 289.88591
 Alpha virt. eigenvalues --  289.96860 289.99633 290.02157 290.05406 290.07822
 Alpha virt. eigenvalues --  290.094211020.921281020.950191020.97792
          Condensed to atoms (all electrons):
               1          2          3          4          5          6
     1  C    9.818484  -0.773486  -2.224194   0.162895  -0.854333   0.979229
     2  C   -0.773486   9.709016   0.276121  -1.679410   0.854294  -2.405211
     3  C   -2.224194   0.276121   9.264273   0.089691  -0.984365  -0.866933
     4  C    0.162895  -1.679410   0.089691   8.779102  -0.963190  -0.024893
     5  C   -0.854333   0.854294  -0.984365  -0.963190   8.851588  -0.433876
     6  C    0.979229  -2.405211  -0.866933  -0.024893  -0.433876   9.749802
     7  C    0.478722  -0.233848   0.144162  -0.021376  -0.563477  -0.664016
     8  C   -0.576647  -1.423995  -0.273465   0.312200  -0.194366   2.264454
     9  C   -0.259148   0.477704   0.045922  -0.049782   0.008673  -0.821815
    10  C    0.084765  -0.004329  -0.011428   0.011332   0.007629   0.037717
    11  C   -0.068553  -0.192806  -0.008183   0.003780  -0.027123   0.302242
    12  C   -0.550015   1.646474   0.323519  -0.212491   0.224298  -1.968973
    13  O    0.209133  -0.332311   0.025802  -0.044145   0.067022  -0.162319
    14  Br   0.147140  -0.263343  -0.004288   0.057967   0.084048   0.036779
    15  H    0.048942   0.031089   0.150775  -0.132018   0.097021   0.053824
    16  Br   0.017161   0.017331   0.061330  -0.128901   0.105087  -0.011827
    17  H    0.003226   0.053499   0.033500  -0.334165   0.428024  -0.086472
    18  H   -0.084195  -0.065890  -0.012376   0.017535   0.007277   0.191641
    19  H   -0.003135   0.001252   0.001372   0.001947  -0.005934   0.011136
    20  Br   0.000690   0.000633  -0.000129   0.000055   0.001449   0.001543
    21  H   -0.004932  -0.006621  -0.000308  -0.000027  -0.001289   0.005316
    22  H   -0.038350   0.037863   0.012974  -0.001083   0.002781  -0.031625
               7          8          9         10         11         12
     1  C    0.478722  -0.576647  -0.259148   0.084765  -0.068553  -0.550015
     2  C   -0.233848  -1.423995   0.477704  -0.004329  -0.192806   1.646474
     3  C    0.144162  -0.273465   0.045922  -0.011428  -0.008183   0.323519
     4  C   -0.021376   0.312200  -0.049782   0.011332   0.003780  -0.212491
     5  C   -0.563477  -0.194366   0.008673   0.007629  -0.027123   0.224298
     6  C   -0.664016   2.264454  -0.821815   0.037717   0.302242  -1.968973
     7  C    9.486473   0.648577  -1.237144   0.609625  -0.634211  -2.039818
     8  C    0.648577  11.304918  -2.511591  -0.970194   1.653695  -4.661565
     9  C   -1.237144  -2.511591   9.416897   0.023732  -1.756031   2.938508
    10  C    0.609625  -0.970194   0.023732   7.861994  -0.770258  -0.722003
    11  C   -0.634211   1.653695  -1.756031  -0.770258   7.905671  -0.774672
    12  C   -2.039818  -4.661565   2.938508  -0.722003  -0.774672  12.036015
    13  O    0.122474  -0.071996   0.004246   0.020568   0.049841  -0.276953
    14  Br  -0.040344   0.011977   0.000373   0.004106  -0.015649  -0.045881
    15  H   -0.011372  -0.004719  -0.001570  -0.000299   0.001260   0.003769
    16  Br  -0.001656   0.001044   0.001140   0.000367  -0.000220   0.000052
    17  H   -0.002478  -0.020022   0.001204   0.001188  -0.000449   0.009856
    18  H   -0.113966   0.563350  -0.064926   0.005915   0.021938  -0.125058
    19  H   -0.031301   0.042647   0.223975  -0.138931   0.116601   0.013723
    20  Br   0.083415  -0.043531   0.087720   0.104653  -0.084645   0.014169
    21  H    0.024620   0.102152  -0.004617  -0.136363   0.422360  -0.140970
    22  H   -0.001052  -0.053244   0.039388   0.016795  -0.094092   0.428020
              13         14         15         16         17         18
     1  C    0.209133   0.147140   0.048942   0.017161   0.003226  -0.084195
     2  C   -0.332311  -0.263343   0.031089   0.017331   0.053499  -0.065890
     3  C    0.025802  -0.004288   0.150775   0.061330   0.033500  -0.012376
     4  C   -0.044145   0.057967  -0.132018  -0.128901  -0.334165   0.017535
     5  C    0.067022   0.084048   0.097021   0.105087   0.428024   0.007277
     6  C   -0.162319   0.036779   0.053824  -0.011827  -0.086472   0.191641
     7  C    0.122474  -0.040344  -0.011372  -0.001656  -0.002478  -0.113966
     8  C   -0.071996   0.011977  -0.004719   0.001044  -0.020022   0.563350
     9  C    0.004246   0.000373  -0.001570   0.001140   0.001204  -0.064926
    10  C    0.020568   0.004106  -0.000299   0.000367   0.001188   0.005915
    11  C    0.049841  -0.015649   0.001260  -0.000220  -0.000449   0.021938
    12  C   -0.276953  -0.045881   0.003769   0.000052   0.009856  -0.125058
    13  O    8.477019  -0.023872  -0.000508   0.001783   0.005303  -0.014127
    14  Br  -0.023872  35.385953  -0.070820   0.013818   0.006439  -0.004329
    15  H   -0.000508  -0.070820   0.554556  -0.075138   0.004905   0.000418
    16  Br   0.001783   0.013818  -0.075138  35.378211  -0.025747   0.002849
    17  H    0.005303   0.006439   0.004905  -0.025747   0.647053  -0.008173
    18  H   -0.014127  -0.004329   0.000418   0.002849  -0.008173   0.372519
    19  H   -0.004531  -0.000491  -0.000023  -0.000155  -0.001250  -0.017440
    20  Br  -0.000382  -0.000076  -0.000007   0.000006   0.000025   0.008906
    21  H   -0.002238   0.000196   0.000027  -0.000009  -0.000008   0.001478
    22  H   -0.019827  -0.002293  -0.000257   0.000022  -0.000246  -0.002012
              19         20         21         22
     1  C   -0.003135   0.000690  -0.004932  -0.038350
     2  C    0.001252   0.000633  -0.006621   0.037863
     3  C    0.001372  -0.000129  -0.000308   0.012974
     4  C    0.001947   0.000055  -0.000027  -0.001083
     5  C   -0.005934   0.001449  -0.001289   0.002781
     6  C    0.011136   0.001543   0.005316  -0.031625
     7  C   -0.031301   0.083415   0.024620  -0.001052
     8  C    0.042647  -0.043531   0.102152  -0.053244
     9  C    0.223975   0.087720  -0.004617   0.039388
    10  C   -0.138931   0.104653  -0.136363   0.016795
    11  C    0.116601  -0.084645   0.422360  -0.094092
    12  C    0.013723   0.014169  -0.140970   0.428020
    13  O   -0.004531  -0.000382  -0.002238  -0.019827
    14  Br  -0.000491  -0.000076   0.000196  -0.002293
    15  H   -0.000023  -0.000007   0.000027  -0.000257
    16  Br  -0.000155   0.000006  -0.000009   0.000022
    17  H   -0.001250   0.000025  -0.000008  -0.000246
    18  H   -0.017440   0.008906   0.001478  -0.002012
    19  H    0.528739  -0.065300   0.001239   0.002092
    20  Br  -0.065300  35.242564  -0.057630   0.005489
    21  H    0.001239  -0.057630   0.525568  -0.030907
    22  H    0.002092   0.005489  -0.030907   0.481530
 Mulliken charges:
               1
     1  C   -0.513400
     2  C    0.275975
     3  C   -0.043773
     4  C    0.154979
     5  C   -0.711238
     6  C   -0.155725
     7  C   -0.002009
     8  C   -0.099679
     9  C   -0.562859
    10  C   -0.036580
    11  C   -0.050497
    12  C   -0.120006
    13  O   -0.029981
    14  Br  -0.277407
    15  H    0.350144
    16  Br  -0.356549
    17  H    0.284790
    18  H    0.318667
    19  H    0.323767
    20  Br  -0.299616
    21  H    0.302963
    22  H    0.248034
 Sum of Mulliken charges =  -1.00000
 Mulliken charges with hydrogens summed into heavy atoms:
               1
     1  C   -0.513400
     2  C    0.275975
     3  C    0.306371
     4  C    0.154979
     5  C   -0.426448
     6  C   -0.155725
     7  C   -0.002009
     8  C    0.218989
     9  C   -0.239092
    10  C   -0.036580
    11  C    0.252466
    12  C    0.128028
    13  O   -0.029981
    14  Br  -0.277407
    16  Br  -0.356549
    20  Br  -0.299616
 APT charges:
               1
     1  C    0.712428
     2  C    0.541899
     3  C   -0.281857
     4  C    0.628479
     5  C    0.038284
     6  C   -0.790721
     7  C    0.907043
     8  C   -0.292939
     9  C   -0.022066
    10  C    0.319398
    11  C   -0.062624
    12  C   -0.198738
    13  O   -1.264476
    14  Br  -0.558095
    15  H    0.061589
    16  Br  -0.635666
    17  H   -0.032139
    18  H    0.221579
    19  H    0.035258
    20  Br  -0.406722
    21  H    0.037082
    22  H    0.043004
 Sum of APT charges =  -1.00000
 APT charges with hydrogens summed into heavy atoms:
               1
     1  C    0.712428
     2  C    0.541899
     3  C   -0.220268
     4  C    0.628479
     5  C    0.006145
     6  C   -0.790721
     7  C    0.907043
     8  C   -0.071360
     9  C    0.013192
    10  C    0.319398
    11  C   -0.025542
    12  C   -0.155735
    13  O   -1.264476
    14  Br  -0.558095
    16  Br  -0.635666
    20  Br  -0.406722
 Electronic spatial extent (au):  <R**2>=          13101.8007
 Charge=             -1.0000 electrons
 Dipole moment (field-independent basis, Debye):
    X=             -3.5770    Y=              1.7168    Z=             -0.0116  Tot=              3.9676
 Quadrupole moment (field-independent basis, Debye-Ang):
   XX=           -200.6682   YY=           -147.9775   ZZ=           -140.0641
   XY=              2.0265   XZ=             -0.0145   YZ=              0.0515
 Traceless Quadrupole moment (field-independent basis, Debye-Ang):
   XX=            -37.7649   YY=             14.9258   ZZ=             22.8392
   XY=              2.0265   XZ=             -0.0145   YZ=              0.0515
 Octapole moment (field-independent basis, Debye-Ang**2):
  XXX=             41.3846  YYY=             10.9038  ZZZ=             -0.2555  XYY=            -39.1937
  XXY=             78.7788  XXZ=              0.0118  XZZ=             10.1900  YZZ=              8.6478
  YYZ=             -0.0925  XYZ=             -0.0896
 Hexadecapole moment (field-independent basis, Debye-Ang**3):
 XXXX=         -13234.5488 YYYY=          -2176.7143 ZZZZ=           -178.5975 XXXY=            162.8312
 XXXZ=             -0.3190 YYYX=             24.1724 YYYZ=              0.2011 ZZZX=              0.1472
 ZZZY=             -0.0431 XXYY=          -2361.8214 XXZZ=          -2013.8878 YYZZ=           -407.5167
 XXYZ=              0.2737 YYXZ=              0.0527 ZZXY=             19.2911
 N-N= 1.955478453453D+03 E-N=-2.364063663229D+04  KE= 8.247203810530D+03
  Exact polarizability: 382.909  -5.820 250.268  -0.067   0.004 121.397
 Approx polarizability: 505.670   6.802 437.240  -0.162   0.024 190.537
 No NMR shielding tensors so no spin-rotation constants.
 Leave Link  601 at Tue Sep 29 16:39:20 2026, MaxMem=  5100273664 cpu:               3.7 elap:               0.3
 (Enter /share/software/user/restricted/gaussian/g16.B01/l701.exe)
 ... and contract with generalized density number  0.
 Compute integral second derivatives.
 Leave Link  701 at Tue Sep 29 16:39:20 2026, MaxMem=  5100273664 cpu:               4.1 elap:               0.3
 (Enter /share/software/user/restricted/gaussian/g16.B01/l702.exe)
 L702 exits ... SP integral derivatives will be done elsewhere.
 Leave Link  702 at Tue Sep 29 16:39:20 2026, MaxMem=  5100273664 cpu:               0.4 elap:               0.0
 (Enter /share/software/user/restricted/gaussian/g16.B01/l703.exe)
 Integral derivatives from FoFJK, PRISM(SPDF).
 Compute integral second derivatives, UseDBF=F ICtDFT=           0.
 Calling FoFJK, ICntrl=    100127 FMM=F ISym2X=0 I1Cent= 0 IOpClX= 0 NMat=1 NMatS=1 NMatT=0.
 FoFJK:  IHMeth= 1 ICntrl=  100127 DoSepK=F KAlg= 0 I1Cent=           0 FoldK=F
 IRaf=         0 NMat=       1 IRICut=       1 DoRegI=T DoRafI=F ISym2E= 0 IDoP0=0 IntGTp=1.
 FoFCou: FMM=F IPFlag=           0 FMFlag=      100000 FMFlg1=         800
         NFxFlg=           0 DoJE=F BraDBF=F KetDBF=F FulRan=T
         wScrn=  0.000000 ICntrl=    100127 IOpCl=  0 I1Cent=           0 NGrid=           0
         NMat0=    1 NMatS0=      1 NMatT0=    0 NMatD0=    1 NMtDS0=    0 NMtDT0=    0
 Symmetry not used in FoFCou.
 Leave Link  703 at Tue Sep 29 16:41:57 2026, MaxMem=  5100273664 cpu:            2518.8 elap:             157.4
 (Enter /share/software/user/restricted/gaussian/g16.B01/l716.exe)
 Dipole        =-1.40728106D+00 6.75425257D-01-4.56521541D-03
 Polarizability= 3.82909441D+02-5.82033647D+00 2.50267864D+02
                -6.71942003D-02 4.42812622D-03 1.21397177D+02
 Full mass-weighted force constant matrix:
 Low frequencies ---  -16.4459   -1.1349   -0.0124   -0.0101   -0.0098    1.7585
 Low frequencies ---    2.6962   20.2980   51.4878
 ******    1 imaginary frequencies (negative Signs) ****** 
 Diagonal vibrational polarizability:
       65.4288438      31.7395164     161.6184323
 Harmonic frequencies (cm**-1), IR intensities (KM/Mole), Raman scattering
 activities (A**4/AMU), depolarization ratios for plane and unpolarized
 incident light, reduced masses (AMU), force constants (mDyne/A),
 and normal coordinates:
                      1                      2                      3
                      A                      A                      A
 Frequencies --    -16.4048                20.2927                51.4878
 Red. masses --      5.6610                 6.5643                25.7482
 Frc consts  --      0.0009                 0.0016                 0.0402
 IR Inten    --      1.0559                 0.6022                 1.0894
  Atom  AN      X      Y      Z        X      Y      Z        X      Y      Z
     1   6    -0.00   0.00   0.12     0.00  -0.00   0.15     0.05  -0.24  -0.00
     2   6    -0.00   0.00   0.01    -0.00  -0.00   0.05    -0.02  -0.15  -0.00
     3   6    -0.00  -0.00  -0.04    -0.00  -0.00  -0.02     0.03  -0.04  -0.00
     4   6    -0.00   0.00   0.04     0.00  -0.00   0.02     0.13  -0.03  -0.01
     5   6    -0.00   0.00   0.15     0.00  -0.00   0.13     0.19  -0.12  -0.01
     6   6    -0.00   0.00   0.20     0.00  -0.00   0.20     0.13  -0.24  -0.01
     7   6     0.00   0.00   0.12     0.00  -0.00   0.15     0.03  -0.21   0.01
     8   6     0.00   0.00  -0.14     0.00  -0.00   0.33    -0.07  -0.18   0.00
     9   6     0.00   0.00  -0.19     0.00  -0.00   0.26    -0.11  -0.06   0.00
    10   6     0.00   0.00   0.00     0.00   0.00   0.02    -0.02   0.03   0.00
    11   6    -0.00  -0.00   0.25     0.00   0.00  -0.16     0.09  -0.00   0.01
    12   6    -0.00  -0.00   0.30     0.00   0.00  -0.09     0.11  -0.12   0.01
    13   8     0.00   0.00   0.18     0.00  -0.00   0.20     0.04  -0.28   0.01
    14  35    -0.00  -0.00  -0.08    -0.00  -0.00  -0.01    -0.24  -0.18  -0.00
    15   1    -0.00  -0.00  -0.12    -0.00   0.00  -0.10    -0.03   0.03   0.00
    16  35    -0.00  -0.00  -0.03     0.00   0.00  -0.10     0.23   0.18   0.00
    17   1    -0.00   0.00   0.21     0.00  -0.00   0.15     0.29  -0.11  -0.02
    18   1     0.00   0.00  -0.24     0.00  -0.00   0.50    -0.14  -0.24   0.00
    19   1     0.00   0.00  -0.38     0.00  -0.00   0.40    -0.20  -0.03  -0.00
    20  35     0.00  -0.00  -0.06     0.00   0.00  -0.09    -0.08   0.27  -0.00
    21   1    -0.00  -0.00   0.39     0.00   0.00  -0.35     0.15   0.06   0.01
    22   1    -0.00  -0.00   0.49     0.00   0.00  -0.23     0.21  -0.15   0.01
                      4                      5                      6
                      A                      A                      A
 Frequencies --     67.4041               102.2119               114.6273
 Red. masses --      8.0159                34.2208                 9.0029
 Frc consts  --      0.0215                 0.2106                 0.0697
 IR Inten    --      1.6313                 0.1980                 0.0524
  Atom  AN      X      Y      Z        X      Y      Z        X      Y      Z
     1   6     0.00  -0.00   0.09    -0.09  -0.05  -0.00    -0.00  -0.00   0.15
     2   6    -0.00  -0.00   0.05    -0.06  -0.07  -0.00    -0.00  -0.00   0.11
     3   6     0.00  -0.00   0.04    -0.08  -0.10   0.00    -0.00  -0.00   0.06
     4   6     0.00  -0.00   0.16    -0.04  -0.08   0.00    -0.00  -0.00  -0.06
     5   6     0.00  -0.00   0.38    -0.04  -0.08   0.01    -0.00  -0.00  -0.22
     6   6     0.00  -0.00   0.33    -0.04  -0.05   0.00    -0.00  -0.00  -0.07
     7   6     0.00  -0.00  -0.18    -0.15  -0.13  -0.00    -0.00   0.00   0.05
     8   6    -0.00  -0.00  -0.21    -0.20  -0.12   0.00    -0.00   0.00  -0.10
     9   6    -0.00  -0.00  -0.18    -0.22  -0.10   0.01    -0.00   0.00  -0.25
    10   6    -0.00   0.00  -0.14    -0.23  -0.10   0.01    -0.00   0.00  -0.27
    11   6     0.00   0.00  -0.18    -0.18  -0.11   0.01    -0.00   0.00  -0.28
    12   6     0.00  -0.00  -0.21    -0.17  -0.13   0.00    -0.00   0.00  -0.14
    13   8     0.00  -0.00  -0.15    -0.14  -0.10  -0.01    -0.00  -0.00   0.48
    14  35    -0.00  -0.00   0.05     0.47  -0.03  -0.00     0.00  -0.00  -0.04
    15   1    -0.00  -0.00  -0.06    -0.08  -0.10  -0.00    -0.00  -0.00   0.09
    16  35     0.00   0.00  -0.09     0.09   0.24  -0.00     0.00   0.00   0.02
    17   1     0.00  -0.00   0.57    -0.06  -0.08   0.01    -0.00  -0.00  -0.44
    18   1    -0.00  -0.00  -0.19    -0.23  -0.15   0.00    -0.00   0.00  -0.04
    19   1    -0.00  -0.00  -0.16    -0.22  -0.10   0.01    -0.00   0.00  -0.28
    20  35    -0.00   0.00   0.08    -0.29  -0.01  -0.00    -0.00  -0.00   0.09
    21   1     0.00   0.00  -0.17    -0.15  -0.08   0.01    -0.00   0.00  -0.35
    22   1     0.00  -0.00  -0.22    -0.17  -0.13   0.00    -0.00   0.00  -0.11
                      7                      8                      9
                      A                      A                      A
 Frequencies --    136.2809               145.7654               170.6121
 Red. masses --      6.7978                17.7509                16.6462
 Frc consts  --      0.0744                 0.2222                 0.2855
 IR Inten    --      0.6406                 4.1524                 2.5099
  Atom  AN      X      Y      Z        X      Y      Z        X      Y      Z
     1   6     0.00   0.00   0.06     0.09   0.07   0.00     0.02   0.04  -0.00
     2   6     0.00   0.00   0.31     0.07   0.13  -0.00     0.05  -0.01  -0.00
     3   6     0.00   0.00   0.50     0.10   0.15  -0.01     0.08  -0.01  -0.00
     4   6     0.00   0.00   0.26     0.15   0.14  -0.00     0.12  -0.02   0.00
     5   6     0.00   0.00  -0.06     0.17   0.12  -0.00     0.08   0.01   0.00
     6   6     0.00   0.00  -0.13     0.17   0.09   0.00     0.06   0.04   0.00
     7   6     0.00  -0.00  -0.03     0.03  -0.24   0.00    -0.08   0.26   0.00
     8   6    -0.00  -0.00  -0.00    -0.01  -0.24  -0.00    -0.12   0.28   0.00
     9   6    -0.00  -0.00   0.03    -0.04  -0.23  -0.00    -0.11   0.27   0.00
    10   6    -0.00  -0.00   0.05    -0.04  -0.21  -0.00    -0.16   0.23   0.00
    11   6     0.00  -0.00   0.05     0.01  -0.23  -0.00    -0.15   0.24   0.00
    12   6     0.00  -0.00   0.02     0.01  -0.25  -0.00    -0.11   0.25   0.00
    13   8     0.00  -0.00  -0.09    -0.00  -0.11   0.01    -0.01   0.12  -0.00
    14  35    -0.00   0.00  -0.07    -0.02   0.26   0.00    -0.06  -0.01   0.00
    15   1     0.00   0.00   0.65     0.09   0.18  -0.01     0.06   0.01  -0.00
    16  35     0.00  -0.00  -0.06     0.07  -0.20   0.00     0.26  -0.12  -0.00
    17   1     0.00   0.00  -0.32     0.19   0.13   0.00     0.03   0.01   0.00
    18   1    -0.00  -0.00  -0.05    -0.04  -0.27  -0.00    -0.13   0.26   0.00
    19   1    -0.00  -0.00   0.03    -0.04  -0.23  -0.01    -0.08   0.26   0.00
    20  35    -0.00   0.00  -0.01    -0.15   0.08   0.00    -0.14  -0.14  -0.00
    21   1     0.00  -0.00   0.08     0.04  -0.21  -0.01    -0.13   0.25   0.00
    22   1     0.00  -0.00   0.02     0.02  -0.26  -0.00    -0.16   0.26   0.00
                     10                     11                     12
                      A                      A                      A
 Frequencies --    255.0455               266.3906               298.8566
 Red. masses --     13.7598                 6.7405                 7.3282
 Frc consts  --      0.5273                 0.2818                 0.3856
 IR Inten    --     22.9559                 1.9539                 2.2513
  Atom  AN      X      Y      Z        X      Y      Z        X      Y      Z
     1   6    -0.18  -0.12  -0.00     0.08  -0.13  -0.00     0.00  -0.00   0.14
     2   6    -0.17  -0.12   0.00     0.02  -0.02  -0.00     0.00  -0.00   0.09
     3   6    -0.22  -0.24   0.00     0.05   0.05  -0.00     0.00  -0.00  -0.03
     4   6    -0.19  -0.26   0.00     0.08   0.06   0.00    -0.00  -0.00  -0.11
     5   6    -0.20  -0.26   0.00     0.15  -0.02   0.00     0.00  -0.00  -0.07
     6   6    -0.15  -0.13   0.00     0.12  -0.13  -0.00     0.00  -0.00   0.10
     7   6    -0.13  -0.08  -0.00     0.04  -0.12   0.00     0.00   0.00  -0.24
     8   6    -0.13  -0.07  -0.00    -0.12  -0.07   0.00     0.00   0.00  -0.29
     9   6    -0.12   0.01   0.00    -0.17   0.16  -0.00     0.00   0.00   0.14
    10   6    -0.02   0.08   0.00    -0.06   0.26  -0.00    -0.00  -0.00   0.45
    11   6    -0.04   0.07   0.00     0.09   0.23   0.00     0.00   0.00   0.15
    12   6    -0.04  -0.00   0.00     0.16   0.00   0.00     0.00   0.00  -0.29
    13   8    -0.14  -0.12  -0.00     0.06  -0.21  -0.00     0.00  -0.00   0.17
    14  35    -0.01   0.20  -0.00     0.01   0.05  -0.00    -0.00   0.00  -0.00
    15   1    -0.18  -0.28   0.00     0.03   0.08  -0.00     0.00  -0.00  -0.07
    16  35     0.13  -0.01  -0.00    -0.09   0.02   0.00    -0.00   0.00   0.01
    17   1    -0.28  -0.27   0.00     0.26  -0.00   0.00     0.00  -0.00  -0.16
    18   1    -0.15  -0.09  -0.00    -0.25  -0.19  -0.00    -0.00   0.00  -0.39
    19   1    -0.22   0.04   0.00    -0.33   0.21  -0.00    -0.00   0.00   0.17
    20  35     0.16   0.01   0.00    -0.00  -0.07  -0.00    -0.00  -0.00  -0.03
    21   1    -0.04   0.08  -0.00     0.21   0.35   0.00     0.00   0.00   0.17
    22   1     0.06  -0.03  -0.00     0.32  -0.05   0.00     0.00   0.00  -0.45
                     13                     14                     15
                      A                      A                      A
 Frequencies --    315.6467               338.8766               377.0166
 Red. masses --      9.5510                 9.2320                 5.9206
 Frc consts  --      0.5607                 0.6246                 0.4958
 IR Inten    --      9.6613                 0.0730                14.4458
  Atom  AN      X      Y      Z        X      Y      Z        X      Y      Z
     1   6    -0.13   0.04   0.00    -0.00  -0.00  -0.34     0.01   0.22  -0.00
     2   6    -0.14   0.08  -0.00    -0.00  -0.00  -0.33     0.06   0.13  -0.00
     3   6    -0.05   0.25  -0.00    -0.00  -0.00   0.04     0.01  -0.01  -0.00
     4   6     0.09   0.28  -0.00     0.00   0.00   0.42    -0.13  -0.02   0.00
     5   6     0.11   0.25  -0.00     0.00  -0.00   0.25    -0.23   0.09   0.00
     6   6     0.03   0.06  -0.00     0.00  -0.00  -0.34    -0.15   0.23  -0.00
     7   6    -0.21  -0.07  -0.00    -0.00   0.00  -0.00     0.09  -0.19  -0.00
     8   6    -0.19  -0.08  -0.00     0.00   0.00  -0.08    -0.03  -0.18  -0.00
     9   6    -0.18  -0.03   0.00     0.00  -0.00   0.03    -0.10   0.04   0.00
    10   6    -0.10   0.03   0.00     0.00  -0.00   0.13    -0.01   0.12   0.00
    11   6    -0.16   0.03   0.00    -0.00  -0.00   0.01     0.13   0.09   0.00
    12   6    -0.17  -0.02  -0.00    -0.00   0.00  -0.08     0.17  -0.14  -0.00
    13   8    -0.21  -0.06   0.00     0.00  -0.00   0.31     0.00   0.08   0.00
    14  35     0.04  -0.09   0.00     0.00   0.00   0.02    -0.01  -0.05   0.00
    15   1    -0.16   0.40  -0.00    -0.00  -0.00   0.05     0.08  -0.10  -0.00
    16  35     0.03  -0.05  -0.00    -0.00   0.00  -0.03     0.05  -0.00  -0.00
    17   1     0.21   0.26   0.00     0.00  -0.00   0.50    -0.36   0.07   0.00
    18   1    -0.18  -0.08  -0.00     0.00   0.00  -0.14    -0.15  -0.29  -0.00
    19   1    -0.27  -0.00   0.00     0.00  -0.00   0.03    -0.24   0.08   0.00
    20  35     0.14   0.03  -0.00    -0.00   0.00  -0.01    -0.01  -0.02  -0.00
    21   1    -0.18   0.00   0.00    -0.00  -0.00  -0.05     0.26   0.21  -0.00
    22   1    -0.10  -0.05  -0.00    -0.00   0.00  -0.14     0.34  -0.19  -0.00
                     16                     17                     18
                      A                      A                      A
 Frequencies --    423.0238               452.9241               453.9120
 Red. masses --      3.2576                 5.2433                 7.4499
 Frc consts  --      0.3435                 0.6337                 0.9044
 IR Inten    --      0.0001                 0.8021                13.8249
  Atom  AN      X      Y      Z        X      Y      Z        X      Y      Z
     1   6    -0.00   0.00  -0.01     0.01   0.01   0.16     0.19   0.13  -0.01
     2   6    -0.00   0.00  -0.01     0.01   0.00   0.36     0.30  -0.00  -0.02
     3   6    -0.00  -0.00   0.01     0.01  -0.01  -0.28     0.27  -0.19   0.01
     4   6    -0.00  -0.00   0.01     0.00  -0.01   0.07     0.11  -0.20  -0.00
     5   6    -0.00   0.00  -0.00     0.00  -0.00   0.16     0.02  -0.08  -0.01
     6   6    -0.00   0.00   0.01     0.00   0.00  -0.35     0.13   0.15   0.02
     7   6     0.00  -0.00  -0.00    -0.00  -0.00   0.00    -0.07  -0.01   0.00
     8   6    -0.00  -0.00   0.24    -0.01  -0.00   0.01    -0.18  -0.01  -0.00
     9   6     0.00   0.00  -0.22    -0.01  -0.00  -0.01    -0.18  -0.02   0.00
    10   6     0.00   0.00   0.00    -0.01  -0.00  -0.01    -0.17  -0.03   0.00
    11   6    -0.00  -0.00   0.22    -0.01  -0.00   0.01    -0.18  -0.06  -0.00
    12   6     0.00   0.00  -0.23    -0.01  -0.00  -0.01    -0.17  -0.06  -0.00
    13   8     0.00  -0.00   0.00     0.00   0.00  -0.03     0.01   0.05   0.00
    14  35    -0.00  -0.00   0.00    -0.00   0.00  -0.01    -0.03   0.00   0.00
    15   1     0.00  -0.00   0.01     0.01  -0.01  -0.72     0.37  -0.32   0.04
    16  35     0.00  -0.00  -0.00    -0.00   0.00   0.00    -0.04   0.03  -0.00
    17   1    -0.00   0.00   0.00    -0.00  -0.00   0.30    -0.15  -0.11  -0.02
    18   1     0.00  -0.00   0.40    -0.01  -0.00  -0.05    -0.22  -0.05   0.00
    19   1     0.00   0.00  -0.49    -0.01  -0.00  -0.04    -0.19  -0.02   0.00
    20  35    -0.00  -0.00   0.00     0.00   0.00   0.00     0.07   0.02   0.00
    21   1    -0.00  -0.00   0.47    -0.01  -0.00   0.02    -0.19  -0.06  -0.00
    22   1     0.00   0.00  -0.42    -0.01  -0.00  -0.01    -0.24  -0.04   0.00
                     19                     20                     21
                      A                      A                      A
 Frequencies --    501.7608               546.6003               604.1868
 Red. masses --      2.8780                 4.4445                 8.9916
 Frc consts  --      0.4269                 0.7824                 1.9339
 IR Inten    --     11.7549                 0.9598                36.0919
  Atom  AN      X      Y      Z        X      Y      Z        X      Y      Z
     1   6    -0.00  -0.00  -0.01     0.00   0.00   0.25    -0.15   0.14  -0.00
     2   6    -0.00  -0.00  -0.00    -0.00  -0.00  -0.17    -0.12  -0.06   0.00
     3   6    -0.00   0.00   0.01    -0.00  -0.00  -0.14    -0.16  -0.18   0.00
     4   6     0.00   0.00  -0.01     0.00   0.00   0.39     0.19  -0.16  -0.00
     5   6     0.00   0.00  -0.00    -0.00  -0.00  -0.20     0.20  -0.09  -0.00
     6   6    -0.00  -0.00   0.00     0.00  -0.00   0.06     0.35   0.22  -0.00
     7   6    -0.00  -0.00   0.27     0.00  -0.00  -0.00    -0.10  -0.12  -0.00
     8   6     0.00   0.00  -0.00    -0.00  -0.00  -0.00     0.24  -0.18  -0.00
     9   6     0.00   0.00  -0.12    -0.00   0.00  -0.00     0.17   0.08   0.00
    10   6    -0.00  -0.00   0.24    -0.00   0.00  -0.00     0.14   0.12   0.00
    11   6     0.00   0.00  -0.12    -0.00   0.00   0.00    -0.07   0.18   0.00
    12   6    -0.00   0.00   0.01    -0.00  -0.00  -0.00    -0.05  -0.06  -0.00
    13   8    -0.00   0.00  -0.08     0.00   0.00  -0.07    -0.22   0.11   0.00
    14  35     0.00  -0.00  -0.00     0.00   0.00   0.01    -0.00  -0.01   0.00
    15   1    -0.00   0.00   0.02    -0.00  -0.00  -0.40    -0.23  -0.08   0.00
    16  35     0.00  -0.00   0.00    -0.00  -0.00  -0.00    -0.03   0.01   0.00
    17   1     0.00   0.00   0.00    -0.00  -0.00  -0.73    -0.01  -0.12   0.00
    18   1     0.00   0.00  -0.33    -0.00  -0.00  -0.02     0.30  -0.13  -0.00
    19   1     0.00   0.00  -0.53    -0.00   0.00  -0.01    -0.02   0.13   0.00
    20  35    -0.00   0.00  -0.00     0.00   0.00   0.00    -0.03  -0.00  -0.00
    21   1     0.00   0.00  -0.53     0.00   0.00   0.01    -0.06   0.19   0.00
    22   1     0.00   0.00  -0.40     0.00  -0.00  -0.00     0.21  -0.15  -0.00
                     22                     23                     24
                      A                      A                      A
 Frequencies --    632.3355               644.4380               668.5339
 Red. masses --      8.5771                 8.7770                 7.8020
 Frc consts  --      2.0206                 2.1476                 2.0545
 IR Inten    --     32.3528                95.4226                45.5771
  Atom  AN      X      Y      Z        X      Y      Z        X      Y      Z
     1   6     0.12   0.13  -0.00     0.20  -0.02  -0.00    -0.08   0.00   0.00
     2   6    -0.03   0.31   0.00    -0.06   0.34  -0.00    -0.18  -0.06  -0.00
     3   6    -0.16  -0.01  -0.00    -0.20   0.11   0.00    -0.22  -0.05   0.00
     4   6    -0.15  -0.03   0.00    -0.28   0.08   0.00     0.07  -0.02  -0.00
     5   6     0.02  -0.18  -0.00     0.02  -0.25   0.00     0.16  -0.08   0.00
     6   6     0.26   0.21   0.00     0.15  -0.04  -0.00     0.16   0.00  -0.00
     7   6    -0.12   0.09   0.00     0.14  -0.03  -0.00     0.16   0.06   0.00
     8   6    -0.17   0.09   0.00     0.14   0.02   0.00    -0.20   0.11   0.00
     9   6    -0.07  -0.22  -0.00     0.08   0.25   0.00    -0.22  -0.02   0.00
    10   6     0.12  -0.06  -0.00    -0.17   0.03   0.00    -0.19  -0.07  -0.00
    11   6     0.19  -0.02  -0.00    -0.24  -0.02  -0.00     0.19  -0.19  -0.00
    12   6     0.12   0.30   0.00    -0.16  -0.25  -0.00     0.16  -0.10  -0.00
    13   8    -0.05  -0.25  -0.00     0.13  -0.03  -0.00     0.09   0.35   0.00
    14  35     0.00  -0.03   0.00     0.01  -0.02   0.00     0.00  -0.00   0.00
    15   1    -0.03  -0.18  -0.00    -0.05  -0.09  -0.00    -0.32   0.09   0.01
    16  35     0.00  -0.00   0.00     0.01  -0.01  -0.00    -0.01  -0.00   0.00
    17   1    -0.09  -0.19  -0.00     0.13  -0.23  -0.00     0.15  -0.09   0.00
    18   1     0.01   0.26   0.00    -0.00  -0.12  -0.00    -0.40  -0.08  -0.00
    19   1    -0.03  -0.24  -0.00     0.12   0.24   0.00    -0.08  -0.06  -0.00
    20  35    -0.01  -0.01  -0.00     0.02   0.01   0.00     0.02  -0.00   0.00
    21   1     0.04  -0.17  -0.00    -0.12   0.10   0.00     0.33  -0.06   0.00
    22   1     0.09   0.31   0.00    -0.26  -0.22  -0.00    -0.01  -0.05  -0.00
                     25                     26                     27
                      A                      A                      A
 Frequencies --    688.2529               696.0473               768.4927
 Red. masses --      5.3588                 4.6414                 7.5915
 Frc consts  --      1.4956                 1.3249                 2.6415
 IR Inten    --      1.1741                 7.5565                20.5391
  Atom  AN      X      Y      Z        X      Y      Z        X      Y      Z
     1   6     0.00   0.00   0.33     0.00   0.00   0.26     0.09  -0.07  -0.00
     2   6     0.00   0.00  -0.24     0.00   0.00  -0.18     0.08   0.10   0.00
     3   6     0.00   0.00   0.10     0.00   0.00   0.07     0.10   0.13  -0.00
     4   6    -0.00  -0.00  -0.14    -0.00   0.00  -0.10    -0.16   0.09   0.00
     5   6    -0.00   0.00   0.13    -0.00  -0.00   0.10     0.07  -0.23  -0.00
     6   6    -0.00  -0.00  -0.19    -0.00  -0.00  -0.15    -0.02  -0.24   0.00
     7   6    -0.00  -0.00   0.20    -0.00   0.00  -0.24    -0.10  -0.03   0.00
     8   6     0.00  -0.00  -0.11     0.00  -0.00   0.14    -0.02  -0.23  -0.00
     9   6     0.00  -0.00   0.13     0.00   0.00  -0.15    -0.07  -0.24  -0.00
    10   6     0.00   0.00  -0.19     0.00  -0.00   0.21     0.19   0.06   0.00
    11   6    -0.00   0.00   0.15    -0.00   0.00  -0.17    -0.04   0.17   0.00
    12   6    -0.00   0.00  -0.11    -0.00   0.00   0.11    -0.03   0.11   0.00
    13   8    -0.00  -0.00  -0.05    -0.00  -0.00  -0.00    -0.05   0.36   0.00
    14  35     0.00  -0.00   0.00     0.00  -0.00   0.00     0.00  -0.00  -0.00
    15   1     0.00  -0.00   0.41     0.00  -0.00   0.30     0.22  -0.03  -0.00
    16  35     0.00   0.00  -0.00     0.00  -0.00  -0.00     0.00  -0.00  -0.00
    17   1    -0.00   0.00   0.12     0.00  -0.00   0.10     0.34  -0.19   0.00
    18   1     0.00   0.00  -0.40     0.00  -0.00   0.38     0.06  -0.16  -0.00
    19   1    -0.00  -0.00   0.09    -0.00   0.00  -0.16    -0.36  -0.16  -0.00
    20  35    -0.00  -0.00   0.00    -0.00  -0.00  -0.00    -0.01  -0.00  -0.00
    21   1    -0.00  -0.00   0.07    -0.00   0.00  -0.01    -0.17   0.04  -0.00
    22   1     0.00   0.00  -0.49     0.00  -0.00   0.63     0.17   0.05  -0.00
                     28                     29                     30
                      A                      A                      A
 Frequencies --    811.0404               818.4054               845.5452
 Red. masses --      1.3797                 1.3308                 1.4111
 Frc consts  --      0.5347                 0.5252                 0.5944
 IR Inten    --     17.3757                17.8644                42.5797
  Atom  AN      X      Y      Z        X      Y      Z        X      Y      Z
     1   6     0.00  -0.00  -0.01     0.00  -0.00   0.00     0.00   0.00   0.00
     2   6     0.00   0.00   0.00     0.00   0.00   0.04    -0.00   0.00  -0.00
     3   6     0.00   0.00  -0.00    -0.00  -0.00  -0.16    -0.00  -0.00   0.00
     4   6    -0.00   0.00   0.00     0.00   0.00   0.04     0.00  -0.00   0.00
     5   6     0.00  -0.00  -0.00    -0.00  -0.00  -0.00     0.00  -0.00  -0.00
     6   6     0.00  -0.00   0.01     0.00   0.00   0.01    -0.00  -0.00  -0.01
     7   6    -0.00  -0.00   0.09    -0.00   0.00  -0.00    -0.00  -0.00   0.11
     8   6    -0.00  -0.00  -0.00    -0.00  -0.00   0.00     0.00   0.00  -0.07
     9   6    -0.00  -0.00   0.06    -0.00   0.00  -0.00    -0.00   0.00  -0.13
    10   6     0.00  -0.00   0.02    -0.00   0.00  -0.00    -0.00  -0.00   0.05
    11   6     0.00   0.00  -0.10     0.00  -0.00   0.00     0.00   0.00  -0.02
    12   6     0.00   0.00  -0.10     0.00  -0.00   0.00     0.00   0.00  -0.03
    13   8    -0.00   0.00  -0.01    -0.00   0.00   0.00     0.00   0.00  -0.02
    14  35    -0.00   0.00  -0.00    -0.00  -0.00  -0.00    -0.00  -0.00  -0.00
    15   1     0.00   0.00   0.01     0.00   0.00   0.98    -0.00  -0.00   0.01
    16  35     0.00  -0.00  -0.00    -0.00  -0.00  -0.00    -0.00  -0.00  -0.00
    17   1     0.00  -0.00   0.00     0.00   0.00   0.02     0.00   0.00   0.02
    18   1    -0.00   0.00  -0.21     0.00   0.00  -0.01     0.00  -0.00   0.41
    19   1     0.00   0.00  -0.24     0.00  -0.00   0.00    -0.00  -0.00   0.86
    20  35    -0.00   0.00  -0.00     0.00  -0.00   0.00     0.00   0.00  -0.00
    21   1    -0.00  -0.00   0.74     0.00   0.00  -0.01    -0.00  -0.00   0.21
    22   1    -0.00  -0.00   0.56     0.00   0.00  -0.01    -0.00  -0.00   0.05
                     31                     32                     33
                      A                      A                      A
 Frequencies --    875.8108               887.9088               923.5547
 Red. masses --      1.3426                 6.7591                 9.8986
 Frc consts  --      0.6068                 3.1396                 4.9745
 IR Inten    --      6.1420                41.1883               383.5537
  Atom  AN      X      Y      Z        X      Y      Z        X      Y      Z
     1   6     0.00   0.00   0.05     0.11  -0.02  -0.00     0.08   0.02  -0.00
     2   6    -0.00   0.00  -0.01    -0.09   0.10   0.00     0.02   0.54  -0.00
     3   6    -0.00  -0.00   0.01    -0.26  -0.14   0.00    -0.07  -0.12   0.00
     4   6     0.00  -0.00   0.04     0.21  -0.09  -0.00     0.37  -0.19  -0.00
     5   6    -0.00  -0.00  -0.16    -0.02   0.19   0.00     0.09   0.03  -0.00
     6   6    -0.00   0.00   0.01    -0.09   0.00   0.00    -0.29  -0.30   0.00
     7   6     0.00   0.00  -0.00     0.13   0.03   0.00    -0.10  -0.02   0.00
     8   6    -0.00  -0.00  -0.00    -0.01  -0.14  -0.00    -0.01   0.07  -0.00
     9   6    -0.00  -0.00   0.00    -0.08  -0.21  -0.00     0.05   0.11   0.00
    10   6     0.00   0.00  -0.00     0.09   0.03   0.00    -0.03  -0.01  -0.00
    11   6    -0.00   0.00   0.00    -0.21   0.15   0.00     0.13  -0.08   0.00
    12   6    -0.00   0.00   0.00    -0.08   0.10   0.00     0.04  -0.06  -0.00
    13   8     0.00  -0.00  -0.00     0.32  -0.01   0.00    -0.22   0.04   0.00
    14  35    -0.00  -0.00  -0.00     0.00   0.00  -0.00    -0.00  -0.01   0.00
    15   1    -0.00  -0.00  -0.02    -0.37   0.02   0.00     0.07  -0.26   0.00
    16  35    -0.00  -0.00  -0.00    -0.00  -0.00   0.00    -0.01   0.00   0.00
    17   1     0.00   0.00   0.98    -0.17   0.17  -0.00     0.10   0.02  -0.00
    18   1    -0.00  -0.00  -0.00     0.00  -0.14  -0.00     0.05   0.13   0.00
    19   1    -0.00   0.00  -0.02    -0.30  -0.15  -0.00     0.16   0.08  -0.00
    20  35    -0.00   0.00   0.00    -0.00   0.00   0.00    -0.00  -0.00   0.00
    21   1    -0.00  -0.00  -0.01    -0.39  -0.01  -0.00     0.24   0.01  -0.00
    22   1    -0.00   0.00  -0.01    -0.14   0.13   0.00     0.10  -0.09   0.00
                     34                     35                     36
                      A                      A                      A
 Frequencies --    931.0685               993.8062              1012.8209
 Red. masses --      1.3050                 1.2592                 5.3096
 Frc consts  --      0.6666                 0.7328                 3.2091
 IR Inten    --      1.1526                 2.4180                28.2404
  Atom  AN      X      Y      Z        X      Y      Z        X      Y      Z
     1   6    -0.00  -0.00  -0.00    -0.00   0.00   0.00    -0.00   0.01  -0.00
     2   6    -0.00  -0.00   0.00    -0.00  -0.00   0.00     0.00   0.01  -0.00
     3   6     0.00   0.00  -0.00     0.00   0.00  -0.00    -0.00  -0.00   0.00
     4   6    -0.00   0.00   0.00    -0.00   0.00   0.00     0.00  -0.00  -0.00
     5   6    -0.00  -0.00  -0.00     0.00  -0.00   0.00     0.00   0.00  -0.00
     6   6     0.00   0.00  -0.00     0.00   0.00  -0.01    -0.01  -0.01   0.00
     7   6     0.00  -0.00   0.04    -0.00  -0.00   0.03    -0.01  -0.01  -0.00
     8   6     0.00   0.00  -0.02     0.00   0.00  -0.13     0.19  -0.31  -0.00
     9   6    -0.00  -0.00  -0.00    -0.00  -0.00   0.07    -0.02   0.15   0.00
    10   6    -0.00   0.00  -0.00    -0.00  -0.00   0.00    -0.29  -0.07  -0.00
    11   6    -0.00  -0.00   0.10     0.00   0.00  -0.02     0.07  -0.14  -0.00
    12   6     0.00   0.00  -0.12     0.00   0.00   0.02     0.03   0.35   0.00
    13   8     0.00   0.00  -0.01     0.00   0.00  -0.01     0.00   0.01   0.00
    14  35     0.00   0.00  -0.00    -0.00   0.00  -0.00    -0.00  -0.00   0.00
    15   1    -0.00   0.00   0.00    -0.00   0.00   0.01     0.00  -0.01  -0.00
    16  35     0.00  -0.00  -0.00     0.00  -0.00  -0.00    -0.00   0.00   0.00
    17   1    -0.00  -0.00  -0.00    -0.00  -0.00  -0.01     0.01   0.00  -0.00
    18   1     0.00  -0.00   0.11     0.00  -0.00   0.87     0.10  -0.42  -0.01
    19   1    -0.00   0.00  -0.04    -0.00   0.00  -0.46    -0.22   0.20   0.00
    20  35     0.00  -0.00   0.00     0.00   0.00   0.00     0.01   0.00   0.00
    21   1     0.00   0.00  -0.65     0.00   0.00   0.06    -0.06  -0.25  -0.00
    22   1    -0.00  -0.00   0.74    -0.00   0.00  -0.09    -0.26   0.45   0.00
                     37                     38                     39
                      A                      A                      A
 Frequencies --   1070.1898              1087.9182              1117.0718
 Red. masses --      2.2945                 2.5866                 1.3161
 Frc consts  --      1.5483                 1.8037                 0.9676
 IR Inten    --     21.8995                 9.6231                13.2214
  Atom  AN      X      Y      Z        X      Y      Z        X      Y      Z
     1   6     0.03  -0.02  -0.00     0.04  -0.05  -0.00     0.01  -0.00  -0.00
     2   6     0.00  -0.01   0.00     0.04  -0.01  -0.00    -0.00  -0.00   0.00
     3   6    -0.01  -0.01   0.00    -0.07  -0.19   0.00    -0.00  -0.00   0.00
     4   6    -0.01   0.00   0.00    -0.17   0.07   0.00     0.00  -0.00   0.00
     5   6    -0.00   0.02  -0.00     0.07   0.22  -0.00     0.00  -0.00   0.00
     6   6     0.01   0.01  -0.00     0.05  -0.04  -0.00    -0.00   0.00  -0.00
     7   6     0.02  -0.00   0.00    -0.03  -0.00   0.00     0.02  -0.04  -0.00
     8   6    -0.08  -0.02  -0.00     0.01   0.00  -0.00    -0.06   0.01  -0.00
     9   6     0.00   0.15   0.00     0.01  -0.00   0.00     0.06   0.03   0.00
    10   6     0.24   0.06   0.00    -0.02  -0.00  -0.00    -0.02  -0.06  -0.00
    11   6     0.05  -0.13  -0.00     0.02   0.00   0.00    -0.07   0.03   0.00
    12   6    -0.06  -0.00   0.00     0.00  -0.01  -0.00     0.05   0.06   0.00
    13   8    -0.02   0.01  -0.00    -0.03   0.02   0.00    -0.02   0.01   0.00
    14  35    -0.00   0.00   0.00    -0.00   0.00  -0.00    -0.00  -0.00   0.00
    15   1    -0.01  -0.02   0.00     0.28  -0.69   0.00    -0.01   0.00   0.00
    16  35     0.00  -0.00  -0.00     0.00  -0.00  -0.00    -0.00   0.00  -0.00
    17   1     0.01   0.02  -0.00     0.45   0.28  -0.00     0.02  -0.00  -0.00
    18   1    -0.45  -0.36   0.00     0.04   0.03   0.00    -0.44  -0.33   0.00
    19   1    -0.28   0.24  -0.00     0.03  -0.01  -0.00     0.50  -0.09  -0.00
    20  35    -0.01  -0.00  -0.00     0.00   0.00   0.00     0.00   0.00   0.00
    21   1    -0.24  -0.42  -0.00     0.06   0.05   0.00    -0.32  -0.20  -0.00
    22   1    -0.41   0.10  -0.00     0.07  -0.03  -0.00     0.51  -0.07  -0.00
                     40                     41                     42
                      A                      A                      A
 Frequencies --   1156.7870              1178.3335              1218.7373
 Red. masses --      3.8315                 1.2177                 2.0336
 Frc consts  --      3.0208                 0.9961                 1.7797
 IR Inten    --    280.1519                30.9323                 9.5461
  Atom  AN      X      Y      Z        X      Y      Z        X      Y      Z
     1   6     0.33  -0.23  -0.00     0.02   0.01  -0.00     0.09   0.16  -0.00
     2   6     0.03  -0.07   0.00     0.01  -0.02   0.00     0.11  -0.09  -0.00
     3   6    -0.10   0.03   0.00    -0.02  -0.00   0.00    -0.09  -0.05   0.00
     4   6     0.01  -0.02   0.00    -0.00   0.01  -0.00    -0.03   0.02   0.00
     5   6    -0.14   0.10   0.00    -0.00  -0.00  -0.00     0.07  -0.05  -0.00
     6   6     0.08   0.05  -0.00    -0.00  -0.01   0.00    -0.12  -0.00   0.00
     7   6    -0.10   0.00   0.00    -0.07  -0.02  -0.00    -0.05  -0.04  -0.00
     8   6     0.00  -0.01  -0.00     0.01   0.02   0.00    -0.02  -0.00   0.00
     9   6     0.03   0.01   0.00    -0.03   0.05   0.00     0.02   0.02   0.00
    10   6    -0.03  -0.00  -0.00     0.01   0.00  -0.00     0.01  -0.00  -0.00
    11   6     0.06  -0.01   0.00    -0.02  -0.06  -0.00     0.02   0.00   0.00
    12   6    -0.02  -0.01  -0.00     0.04  -0.01  -0.00    -0.02   0.01   0.00
    13   8    -0.11   0.07   0.00     0.04   0.01   0.00     0.01  -0.02   0.00
    14  35     0.00   0.00  -0.00    -0.00   0.00  -0.00    -0.00   0.00  -0.00
    15   1    -0.42   0.45   0.00    -0.07   0.06  -0.00    -0.49   0.47   0.00
    16  35     0.00  -0.00  -0.00     0.00  -0.00   0.00     0.00  -0.00   0.00
    17   1    -0.51   0.05   0.00     0.01   0.00   0.00     0.62   0.02  -0.00
    18   1     0.03   0.02   0.00     0.35   0.33  -0.00     0.01   0.03  -0.00
    19   1     0.11  -0.01  -0.00    -0.36   0.15   0.00     0.17  -0.02   0.00
    20  35     0.00  -0.00   0.00    -0.00  -0.00  -0.00    -0.00  -0.00  -0.00
    21   1     0.24   0.16   0.00    -0.36  -0.38  -0.00     0.11   0.09   0.00
    22   1     0.10  -0.05  -0.00     0.54  -0.16  -0.00    -0.13   0.04   0.00
                     43                     44                     45
                      A                      A                      A
 Frequencies --   1272.7306              1300.4621              1320.2970
 Red. masses --      4.3147                 7.9538                 1.3917
 Frc consts  --      4.1179                 7.9254                 1.4294
 IR Inten    --    549.4360                 2.9414                34.5232
  Atom  AN      X      Y      Z        X      Y      Z        X      Y      Z
     1   6     0.04  -0.08   0.00     0.17   0.29  -0.00    -0.01  -0.05   0.00
     2   6     0.08  -0.00  -0.00    -0.21  -0.08   0.00     0.03   0.00  -0.00
     3   6    -0.02   0.02   0.00     0.08  -0.18   0.00    -0.02   0.03  -0.00
     4   6    -0.04  -0.07   0.00     0.11   0.27  -0.00    -0.02  -0.04   0.00
     5   6     0.07   0.01  -0.00    -0.26  -0.02   0.00     0.04   0.01  -0.00
     6   6    -0.07   0.08  -0.00     0.17  -0.29   0.00    -0.02   0.03   0.00
     7   6     0.32   0.01   0.00     0.12  -0.22  -0.00     0.03  -0.11  -0.00
     8   6     0.16   0.13   0.00     0.07   0.13   0.00    -0.02  -0.01   0.00
     9   6    -0.13  -0.07  -0.00    -0.14   0.04   0.00    -0.05   0.01  -0.00
    10   6    -0.01  -0.10  -0.00     0.03  -0.13  -0.00    -0.02   0.07   0.00
    11   6    -0.03   0.09   0.00     0.06   0.12   0.00     0.04   0.03   0.00
    12   6     0.02   0.02   0.00    -0.06   0.06   0.00     0.03  -0.01  -0.00
    13   8    -0.23  -0.04  -0.00    -0.07   0.01   0.00    -0.01   0.02   0.00
    14  35    -0.00   0.00  -0.00    -0.00   0.00  -0.00     0.00   0.00  -0.00
    15   1    -0.15   0.20   0.00     0.01  -0.10   0.00     0.02  -0.02  -0.00
    16  35     0.00   0.00  -0.00     0.00  -0.00   0.00     0.00  -0.00  -0.00
    17   1     0.32   0.04  -0.00    -0.29  -0.03   0.00    -0.08  -0.00   0.00
    18   1    -0.09  -0.09   0.00     0.11   0.17   0.00     0.31   0.30   0.00
    19   1    -0.63   0.06  -0.00     0.11  -0.03  -0.00     0.53  -0.16  -0.00
    20  35     0.00   0.00   0.00     0.00  -0.00   0.00     0.00  -0.00  -0.00
    21   1    -0.32  -0.17  -0.00    -0.24  -0.16  -0.00    -0.37  -0.36  -0.00
    22   1     0.03   0.04   0.00    -0.33   0.15   0.00    -0.42   0.13   0.00
                     46                     47                     48
                      A                      A                      A
 Frequencies --   1325.0461              1369.8764              1391.3748
 Red. masses --      6.7484                 2.3392                 2.0522
 Frc consts  --      6.9809                 2.5863                 2.3408
 IR Inten    --    134.2127               133.3843               164.9458
  Atom  AN      X      Y      Z        X      Y      Z        X      Y      Z
     1   6     0.08   0.10  -0.00    -0.10  -0.06   0.00     0.10  -0.06  -0.00
     2   6    -0.07  -0.01   0.00    -0.03   0.12  -0.00    -0.14  -0.04   0.00
     3   6     0.06  -0.10   0.00     0.13  -0.06  -0.00     0.01   0.05  -0.00
     4   6     0.02   0.08  -0.00    -0.05  -0.13   0.00     0.11   0.01  -0.00
     5   6    -0.12  -0.01   0.00    -0.14   0.08   0.00    -0.11  -0.08   0.00
     6   6     0.06  -0.08  -0.00     0.13  -0.03  -0.00    -0.06   0.14  -0.00
     7   6     0.12   0.31   0.00    -0.02  -0.02  -0.00    -0.01  -0.02  -0.00
     8   6    -0.06  -0.14  -0.00     0.01   0.01   0.00    -0.01  -0.01  -0.00
     9   6     0.14  -0.16  -0.00    -0.03   0.01   0.00    -0.00   0.01   0.00
    10   6    -0.12   0.35   0.00     0.01  -0.02  -0.00     0.00  -0.00  -0.00
    11   6    -0.13  -0.13  -0.00     0.02   0.01   0.00     0.01  -0.00   0.00
    12   6     0.24  -0.11  -0.00    -0.02   0.00  -0.00    -0.02   0.00   0.00
    13   8    -0.16  -0.05  -0.00     0.04   0.02  -0.00     0.01   0.01   0.00
    14  35    -0.00   0.00  -0.00     0.00  -0.00   0.00     0.00   0.00  -0.00
    15   1    -0.15   0.19  -0.00    -0.31   0.57  -0.00     0.34  -0.38   0.00
    16  35     0.00  -0.00  -0.00     0.00   0.00  -0.00    -0.00   0.00   0.00
    17   1     0.27   0.04  -0.00     0.65   0.18  -0.00     0.80   0.02  -0.00
    18   1     0.08  -0.02   0.00    -0.00  -0.01  -0.00     0.07   0.07   0.00
    19   1     0.05  -0.16  -0.00     0.08  -0.02  -0.00     0.05  -0.00   0.00
    20  35     0.00  -0.00  -0.00    -0.00  -0.00  -0.00    -0.00  -0.00  -0.00
    21   1    -0.38  -0.36  -0.00    -0.02  -0.03  -0.00     0.01  -0.00   0.00
    22   1    -0.22   0.03   0.00    -0.00  -0.01  -0.00     0.02  -0.01  -0.00
                     49                     50                     51
                      A                      A                      A
 Frequencies --   1432.5742              1508.9858              1539.2594
 Red. masses --      3.1222                 2.3579                 9.0563
 Frc consts  --      3.7752                 3.1634                12.6423
 IR Inten    --     26.7541               461.6296                 0.2305
  Atom  AN      X      Y      Z        X      Y      Z        X      Y      Z
     1   6    -0.00   0.03   0.00     0.02   0.01  -0.00    -0.27  -0.16   0.00
     2   6     0.01  -0.01  -0.00    -0.04   0.00   0.00     0.49   0.06  -0.00
     3   6    -0.01  -0.00   0.00     0.04  -0.02  -0.00    -0.27  -0.04   0.00
     4   6     0.01   0.02  -0.00    -0.03  -0.01   0.00     0.23   0.30  -0.00
     5   6     0.00  -0.01   0.00     0.04   0.01  -0.00    -0.32  -0.13   0.00
     6   6    -0.02  -0.00  -0.00    -0.01   0.00   0.00     0.13   0.01  -0.00
     7   6    -0.06   0.13   0.00     0.15   0.04   0.00     0.05   0.02   0.00
     8   6     0.20   0.02   0.00    -0.04  -0.10  -0.00     0.00  -0.03  -0.00
     9   6    -0.17  -0.07  -0.00    -0.14   0.07   0.00    -0.08   0.04   0.00
    10   6    -0.02   0.13   0.00     0.12   0.03   0.00     0.06  -0.02  -0.00
    11   6     0.18  -0.00   0.00    -0.09  -0.13  -0.00    -0.07  -0.04  -0.00
    12   6    -0.19  -0.06  -0.00    -0.08   0.08   0.00     0.03   0.02   0.00
    13   8     0.03  -0.04  -0.00    -0.04  -0.01  -0.00    -0.02   0.01   0.00
    14  35    -0.00  -0.00   0.00     0.00   0.00  -0.00    -0.00  -0.00   0.00
    15   1     0.00  -0.03   0.00    -0.02   0.06  -0.00    -0.12  -0.29   0.00
    16  35    -0.00  -0.00   0.00     0.00   0.00  -0.00    -0.00  -0.00   0.00
    17   1    -0.03  -0.02   0.00    -0.06   0.00   0.00     0.29  -0.09  -0.00
    18   1    -0.24  -0.42  -0.00     0.35   0.25   0.00     0.10   0.04   0.00
    19   1     0.40  -0.25  -0.00     0.48  -0.09  -0.00     0.18  -0.03  -0.00
    20  35     0.00  -0.00  -0.00    -0.00  -0.00  -0.00    -0.00   0.00   0.00
    21   1    -0.15  -0.35  -0.00     0.39   0.31   0.00     0.11   0.13   0.00
    22   1     0.38  -0.26  -0.00     0.43  -0.06  -0.00     0.04   0.02   0.00
                     52                     53                     54
                      A                      A                      A
 Frequencies --   1547.8540              1600.0261              1620.3800
 Red. masses --      6.7339                 7.4014                 5.6194
 Frc consts  --      9.5056                11.1640                 8.6931
 IR Inten    --     26.3358                38.2462               120.7082
  Atom  AN      X      Y      Z        X      Y      Z        X      Y      Z
     1   6     0.03   0.23  -0.00     0.03   0.04  -0.00     0.04  -0.01  -0.00
     2   6     0.10  -0.14   0.00    -0.01  -0.02   0.00    -0.04  -0.00   0.00
     3   6    -0.21   0.39  -0.00    -0.01   0.03  -0.00     0.02  -0.01  -0.00
     4   6     0.00  -0.34   0.00    -0.01  -0.03   0.00    -0.01  -0.00   0.00
     5   6    -0.13   0.14   0.00     0.00   0.01  -0.00     0.02  -0.00  -0.00
     6   6     0.16  -0.23   0.00     0.01  -0.02   0.00    -0.03   0.02  -0.00
     7   6     0.02  -0.01  -0.00    -0.04   0.39   0.00    -0.23  -0.01  -0.00
     8   6     0.02   0.02   0.00    -0.09  -0.26  -0.00     0.25   0.11   0.00
     9   6    -0.02  -0.01  -0.00    -0.13   0.20   0.00    -0.27   0.03  -0.00
    10   6     0.01   0.04   0.00     0.08  -0.37  -0.00     0.12  -0.02  -0.00
    11   6    -0.04  -0.05  -0.00     0.09   0.28   0.00    -0.25  -0.09  -0.00
    12   6     0.01   0.02   0.00     0.11  -0.20  -0.00     0.35  -0.03   0.00
    13   8    -0.03  -0.01  -0.00    -0.02  -0.04  -0.00     0.02   0.01   0.00
    14  35     0.00  -0.00   0.00     0.00   0.00  -0.00     0.00   0.00  -0.00
    15   1     0.40  -0.42  -0.00     0.03  -0.03  -0.00    -0.00   0.02  -0.00
    16  35     0.00   0.00  -0.00     0.00   0.00   0.00    -0.00   0.00   0.00
    17   1     0.30   0.18  -0.00     0.01   0.02  -0.00    -0.02  -0.01   0.00
    18   1    -0.03  -0.03  -0.00     0.32   0.08  -0.00    -0.22  -0.35  -0.00
    19   1     0.04  -0.03  -0.00     0.27   0.11   0.00     0.28  -0.13  -0.00
    20  35    -0.00  -0.00  -0.00    -0.00   0.00   0.00     0.00   0.00   0.00
    21   1     0.08   0.06   0.00    -0.36  -0.12  -0.00     0.12   0.27   0.00
    22   1     0.05   0.01   0.00    -0.25  -0.11  -0.00    -0.43   0.21   0.00
                     55                     56                     57
                      A                      A                      A
 Frequencies --   3101.9470              3174.3210              3177.3433
 Red. masses --      1.0880                 1.0904                 1.0885
 Frc consts  --      6.1679                 6.4734                 6.4743
 IR Inten    --     57.4689                35.7402                24.4332
  Atom  AN      X      Y      Z        X      Y      Z        X      Y      Z
     1   6    -0.00   0.00   0.00    -0.00   0.00   0.00    -0.00   0.00   0.00
     2   6     0.00   0.00  -0.00     0.00   0.00  -0.00     0.00   0.00  -0.00
     3   6    -0.00   0.00   0.00     0.00  -0.00  -0.00     0.00   0.00  -0.00
     4   6     0.00  -0.00  -0.00     0.00  -0.00   0.00     0.00  -0.00   0.00
     5   6     0.01  -0.08   0.00     0.00  -0.00   0.00     0.00  -0.00  -0.00
     6   6     0.00   0.00  -0.00     0.00  -0.00  -0.00     0.00  -0.00  -0.00
     7   6    -0.00  -0.00  -0.00     0.00   0.00   0.00    -0.00   0.00   0.00
     8   6    -0.00   0.00   0.00     0.04  -0.05  -0.00     0.02  -0.02  -0.00
     9   6     0.00   0.00   0.00     0.01   0.04   0.00     0.01   0.03   0.00
    10   6    -0.00  -0.00  -0.00     0.00   0.00   0.00    -0.00  -0.00  -0.00
    11   6     0.00  -0.00   0.00     0.02  -0.02  -0.00    -0.04   0.04   0.00
    12   6    -0.00  -0.00  -0.00     0.01   0.03   0.00    -0.01  -0.05  -0.00
    13   8     0.00  -0.00  -0.00     0.00  -0.00  -0.00     0.00  -0.00  -0.00
    14  35    -0.00  -0.00   0.00    -0.00  -0.00   0.00    -0.00  -0.00   0.00
    15   1     0.00   0.00  -0.00    -0.00  -0.00   0.00    -0.00  -0.00   0.00
    16  35    -0.00   0.00   0.00    -0.00  -0.00   0.00     0.00  -0.00   0.00
    17   1    -0.12   0.99  -0.00    -0.00   0.00  -0.00    -0.00   0.00  -0.00
    18   1     0.00  -0.01  -0.00    -0.49   0.54   0.00    -0.22   0.24   0.00
    19   1    -0.00  -0.00  -0.00    -0.13  -0.45  -0.00    -0.10  -0.36  -0.00
    20  35     0.00   0.00   0.00    -0.00  -0.00  -0.00     0.00  -0.00   0.00
    21   1    -0.00   0.00   0.00    -0.21   0.23   0.00     0.44  -0.46  -0.00
    22   1     0.00   0.00   0.00    -0.11  -0.36  -0.00     0.17   0.56   0.00
                     58                     59                     60
                      A                      A                      A
 Frequencies --   3182.2404              3193.1555              3219.8134
 Red. masses --      1.0934                 1.0946                 1.0918
 Frc consts  --      6.5236                 6.5758                 6.6691
 IR Inten    --     70.8251                 9.9421                 1.0410
  Atom  AN      X      Y      Z        X      Y      Z        X      Y      Z
     1   6    -0.00   0.00   0.00    -0.00   0.00   0.00     0.00   0.00  -0.00
     2   6     0.00   0.00  -0.00     0.00  -0.00  -0.00     0.00  -0.00  -0.00
     3   6    -0.00  -0.00  -0.00     0.00   0.00  -0.00    -0.07  -0.05   0.00
     4   6     0.00  -0.00   0.00    -0.00   0.00   0.00    -0.00   0.00  -0.00
     5   6     0.00  -0.00   0.00    -0.00   0.00  -0.00     0.00   0.00  -0.00
     6   6     0.00  -0.00  -0.00     0.00  -0.00   0.00    -0.00   0.00   0.00
     7   6    -0.00   0.00   0.00    -0.00   0.00   0.00     0.00   0.00  -0.00
     8   6     0.04  -0.04  -0.00     0.00  -0.00  -0.00     0.00  -0.00  -0.00
     9   6    -0.02  -0.07  -0.00     0.00   0.00   0.00     0.00   0.00   0.00
    10   6    -0.00   0.00   0.00     0.00   0.00   0.00     0.00   0.00   0.00
    11   6    -0.00   0.00   0.00     0.04  -0.04  -0.00     0.00  -0.00  -0.00
    12   6    -0.00  -0.01  -0.00    -0.02  -0.06  -0.00    -0.00  -0.00  -0.00
    13   8     0.00  -0.00  -0.00     0.00  -0.00  -0.00    -0.00  -0.00   0.00
    14  35    -0.00  -0.00   0.00    -0.00   0.00  -0.00     0.00   0.00  -0.00
    15   1    -0.00  -0.00   0.00    -0.00  -0.00   0.00     0.80   0.59  -0.00
    16  35    -0.00   0.00   0.00     0.00  -0.00   0.00     0.00  -0.00  -0.00
    17   1    -0.00   0.01  -0.00     0.00  -0.00   0.00     0.00  -0.00   0.00
    18   1    -0.40   0.43   0.00    -0.02   0.02   0.00    -0.00   0.00   0.00
    19   1     0.22   0.76   0.00    -0.01  -0.05  -0.00    -0.00  -0.00  -0.00
    20  35     0.00   0.00   0.00    -0.00  -0.00  -0.00    -0.00  -0.00   0.00
    21   1     0.05  -0.05  -0.00    -0.48   0.50   0.00    -0.00   0.00   0.00
    22   1     0.03   0.10   0.00     0.20   0.68   0.00     0.00   0.00   0.00

 -------------------
 - Thermochemistry -
 -------------------
 Temperature   298.150 Kelvin.  Pressure   1.00000 Atm.
 Atom     1 has atomic number  6 and mass  12.00000
 Atom     2 has atomic number  6 and mass  12.00000
 Atom     3 has atomic number  6 and mass  12.00000
 Atom     4 has atomic number  6 and mass  12.00000
 Atom     5 has atomic number  6 and mass  12.00000
 Atom     6 has atomic number  6 and mass  12.00000
 Atom     7 has atomic number  6 and mass  12.00000
 Atom     8 has atomic number  6 and mass  12.00000
 Atom     9 has atomic number  6 and mass  12.00000
 Atom    10 has atomic number  6 and mass  12.00000
 Atom    11 has atomic number  6 and mass  12.00000
 Atom    12 has atomic number  6 and mass  12.00000
 Atom    13 has atomic number  8 and mass  15.99491
 Atom    14 has atomic number 35 and mass  78.91834
 Atom    15 has atomic number  1 and mass   1.00783
 Atom    16 has atomic number 35 and mass  78.91834
 Atom    17 has atomic number  1 and mass   1.00783
 Atom    18 has atomic number  1 and mass   1.00783
 Atom    19 has atomic number  1 and mass   1.00783
 Atom    20 has atomic number 35 and mass  78.91834
 Atom    21 has atomic number  1 and mass   1.00783
 Atom    22 has atomic number  1 and mass   1.00783
 Molecular mass:   402.79687 amu.
 Principal axes and moments of inertia in atomic units:
                           1         2         3
     Eigenvalues --  4106.27183********************
           X            1.00000  -0.00294  -0.00001
           Y            0.00294   1.00000   0.00007
           Z            0.00001  -0.00007   1.00000
 This molecule is an asymmetric top.
 Rotational symmetry number  1.
 Warning -- assumption of classical behavior for rotation
           may cause significant error
 Rotational temperatures (Kelvin)      0.02109     0.00367     0.00312
 Rotational constants (GHZ):           0.43951     0.07638     0.06507
    1 imaginary frequencies ignored.
 Zero-point vibrational energy     364548.3 (Joules/Mol)
                                   87.12912 (Kcal/Mol)
 Warning -- explicit consideration of  20 degrees of freedom as
           vibrations may cause significant error
 Vibrational temperatures:     29.20    74.08    96.98   147.06   164.92
          (Kelvin)            196.08   209.72   245.47   366.95   383.28
                              429.99   454.15   487.57   542.44   608.64
                              651.66   653.08   721.92   786.44   869.29
                              909.79   927.20   961.87   990.24  1001.46
                             1105.69  1166.91  1177.50  1216.55  1260.10
                             1277.50  1328.79  1339.60  1429.87  1457.22
                             1539.76  1565.27  1607.22  1664.36  1695.36
                             1753.49  1831.18  1871.07  1899.61  1906.45
                             1970.95  2001.88  2061.15  2171.09  2214.65
                             2227.02  2302.08  2331.37  4463.01  4567.14
                             4571.49  4578.53  4594.24  4632.59
 
 Zero-point correction=                           0.138849 (Hartree/Particle)
 Thermal correction to Energy=                    0.152872
 Thermal correction to Enthalpy=                  0.153816
 Thermal correction to Gibbs Free Energy=         0.093675
 Sum of electronic and zero-point Energies=          -8258.531343
 Sum of electronic and thermal Energies=             -8258.517320
 Sum of electronic and thermal Enthalpies=           -8258.516375
 Sum of electronic and thermal Free Energies=        -8258.576517
 
                     E (Thermal)             CV                S
                      KCal/Mol        Cal/Mol-Kelvin    Cal/Mol-Kelvin
 Total                   95.929             51.413            126.578
 Electronic               0.000              0.000              0.000
 Translational            0.889              2.981             43.871
 Rotational               0.889              2.981             36.241
 Vibrational             94.151             45.452             46.466
 Vibration     1          0.593              1.986              6.605
 Vibration     2          0.596              1.977              4.759
 Vibration     3          0.598              1.970              4.228
 Vibration     4          0.604              1.947              3.412
 Vibration     5          0.608              1.937              3.189
 Vibration     6          0.614              1.917              2.855
 Vibration     7          0.617              1.907              2.727
 Vibration     8          0.626              1.879              2.429
 Vibration     9          0.665              1.754              1.695
 Vibration    10          0.672              1.735              1.620
 Vibration    11          0.692              1.676              1.423
 Vibration    12          0.703              1.644              1.333
 Vibration    13          0.719              1.598              1.217
 Vibration    14          0.748              1.519              1.051
 Vibration    15          0.785              1.420              0.882
 Vibration    16          0.811              1.354              0.787
 Vibration    17          0.812              1.352              0.784
 Vibration    18          0.857              1.246              0.654
 Vibration    19          0.902              1.147              0.551
 Vibration    20          0.963              1.023              0.443
                       Q            Log10(Q)             Ln(Q)
 Total Bot       0.817643D-43        -43.087436        -99.212488
 Total V=0       0.600701D+21         20.778658         47.844629
 Vib (Bot)       0.138567D-58        -58.858342       -135.526340
 Vib (Bot)    1  0.102077D+02          1.008927          2.323140
 Vib (Bot)    2  0.401440D+01          0.603620          1.389887
 Vib (Bot)    3  0.306085D+01          0.485842          1.118693
 Vib (Bot)    4  0.200699D+01          0.302546          0.696638
 Vib (Bot)    5  0.178497D+01          0.251630          0.579400
 Vib (Bot)    6  0.149351D+01          0.174208          0.401128
 Vib (Bot)    7  0.139274D+01          0.143870          0.331272
 Vib (Bot)    8  0.118096D+01          0.072234          0.166325
 Vib (Bot)    9  0.763397D+00         -0.117250         -0.269977
 Vib (Bot)   10  0.726808D+00         -0.138580         -0.319093
 Vib (Bot)   11  0.636756D+00         -0.196027         -0.451369
 Vib (Bot)   12  0.597088D+00         -0.223962         -0.515691
 Vib (Bot)   13  0.548331D+00         -0.260957         -0.600877
 Vib (Bot)   14  0.480567D+00         -0.318246         -0.732790
 Vib (Bot)   15  0.414120D+00         -0.382874         -0.881600
 Vib (Bot)   16  0.377722D+00         -0.422828         -0.973597
 Vib (Bot)   17  0.376596D+00         -0.424124         -0.976582
 Vib (Bot)   18  0.327040D+00         -0.485399         -1.117673
 Vib (Bot)   19  0.288042D+00         -0.540544         -1.244649
 Vib (Bot)   20  0.246076D+00         -0.608930         -1.402113
 Vib (V=0)       0.101801D+06          5.007753         11.530777
 Vib (V=0)    1  0.107199D+02          1.030192          2.372104
 Vib (V=0)    2  0.454542D+01          0.657574          1.514119
 Vib (V=0)    3  0.360142D+01          0.556474          1.281328
 Vib (V=0)    4  0.256834D+01          0.409652          0.943259
 Vib (V=0)    5  0.235367D+01          0.371746          0.855978
 Vib (V=0)    6  0.207498D+01          0.317014          0.729953
 Vib (V=0)    7  0.197977D+01          0.296615          0.682981
 Vib (V=0)    8  0.178244D+01          0.251015          0.577985
 Vib (V=0)    9  0.141257D+01          0.150008          0.345407
 Vib (V=0)   10  0.138218D+01          0.140566          0.323665
 Vib (V=0)   11  0.130960D+01          0.117140          0.269725
 Vib (V=0)   12  0.127879D+01          0.106799          0.245914
 Vib (V=0)   13  0.124207D+01          0.094146          0.216779
 Vib (V=0)   14  0.119350D+01          0.076823          0.176891
 Vib (V=0)   15  0.114923D+01          0.060406          0.139089
 Vib (V=0)   16  0.112664D+01          0.051784          0.119237
 Vib (V=0)   17  0.112596D+01          0.051523          0.118635
 Vib (V=0)   18  0.109746D+01          0.040388          0.092996
 Vib (V=0)   19  0.107703D+01          0.032229          0.074211
 Vib (V=0)   20  0.105727D+01          0.024187          0.055693
 Electronic      0.100000D+01          0.000000          0.000000
 Translational   0.317748D+09          8.502083         19.576770
 Rotational      0.185705D+08          7.268823         16.737082
 
                                                      BDE_24_2r4_anion b3lyp_gas
                                                             IR Spectrum
 
   33333  3                                                         11 111  1111111 1 11111 1                                        
   21111  1                                                         66 555  4333332 2 11100 09 99888887 666666 5 5444333222 11111    
   29877  0                                                         20 430  3972207 1 75187 19 32874116 986430 4 0552731965 7431065 2
   03274  2                                                         00 899  3105003 9 87780 34 14866818 689424 7 2433796965 1665271 0
 
   XXXXX  X                                                         XX XXX  XXXXXXX X XXXXX XX XXXXXXXX XXXXXX X XXX XXXXXX XXXXXXX X
     X    X                                                         X    X   XXX  X    X        X  X      XX                         
     X                                                              X    X   XXX  X    X        X          X                         
                                                                    X    X   XXX  X    X        X                                    
                                                                         X   XXX  X    X        X                                    
                                                                         X   X    X    X        X                                    
                                                                         X        X    X        X                                    
                                                                         X        X    X        X                                    
                                                                         X        X    X        X                                    
                                                                         X        X    X        X                                    
                                                                         X        X             X                                    
                                                                         X        X             X                                    
                                                                         X        X             X                                    
                                                                         X        X             X                                    
                                                                         X        X                                                  
                                                                         X        X                                                  
                                                                         X        X                                                  
                                                                                  X                                                  
                                                                                  X                                                  
                                                                                  X                                                  
 
 ***** Axes restored to original set *****
 -------------------------------------------------------------------
 Center     Atomic                   Forces (Hartrees/Bohr)
 Number     Number              X              Y              Z
 -------------------------------------------------------------------
      1        6           0.000015927   -0.000001881   -0.000005060
      2        6          -0.000029707    0.000009601    0.000004118
      3        6           0.000016369   -0.000003428   -0.000000587
      4        6          -0.000062894   -0.000010107    0.000004405
      5        6           0.000072685    0.000032474    0.000002796
      6        6          -0.000016965   -0.000057004   -0.000009773
      7        6          -0.000003131    0.000068067   -0.000016728
      8        6           0.000021098   -0.000000862    0.000041495
      9        6           0.000013049   -0.000011488   -0.000002597
     10        6          -0.000051834    0.000026235   -0.000003248
     11        6           0.000036760   -0.000010437   -0.000000183
     12        6          -0.000036399   -0.000014810    0.000000705
     13        8           0.000023489    0.000001078    0.000010723
     14       35           0.000003943    0.000002411    0.000000362
     15        1          -0.000003167    0.000010094    0.000001134
     16       35           0.000028400    0.000008884   -0.000001168
     17        1          -0.000019776   -0.000003442   -0.000001383
     18        1          -0.000042386   -0.000043613   -0.000024292
     19        1           0.000006427   -0.000001483    0.000002380
     20       35           0.000017965   -0.000003700   -0.000001057
     21        1           0.000005254   -0.000001646   -0.000001258
     22        1           0.000004894    0.000005057   -0.000000785
 -------------------------------------------------------------------
 Cartesian Forces:  Max     0.000072685 RMS     0.000023437
 FormGI is forming the generalized inverse of G from B-inverse, IUseBI=4.
 GSVD:  received Info=                   1 from GESDD.
 Leave Link  716 at Tue Sep 29 16:41:58 2026, MaxMem=  5100273664 cpu:               1.1 elap:               0.1
 (Enter /share/software/user/restricted/gaussian/g16.B01/l103.exe)

 GradGradGradGradGradGradGradGradGradGradGradGradGradGradGradGradGradGrad
 Berny optimization.
 Red2BG is reusing G-inverse.
 Internal  Forces:  Max     0.000247471 RMS     0.000044371
 Search for a local minimum.
 Step number   1 out of a maximum of    2
 All quantities printed in internal units (Hartrees-Bohrs-Radians)
 Second derivative matrix not updated -- analytic derivatives used.
 ITU=  0
     Eigenvalues ---   -0.00036   0.00150   0.00816   0.01462   0.01546
     Eigenvalues ---    0.01582   0.01712   0.02000   0.02047   0.02195
     Eigenvalues ---    0.02287   0.02446   0.02521   0.02523   0.02711
     Eigenvalues ---    0.02770   0.02899   0.03197   0.04211   0.08625
     Eigenvalues ---    0.08949   0.10349   0.10941   0.11259   0.11510
     Eigenvalues ---    0.12119   0.12272   0.13256   0.14690   0.16723
     Eigenvalues ---    0.16951   0.17177   0.18998   0.19808   0.20457
     Eigenvalues ---    0.20824   0.22413   0.22528   0.26577   0.27839
     Eigenvalues ---    0.29165   0.33488   0.35085   0.35721   0.35878
     Eigenvalues ---    0.36372   0.36623   0.36992   0.39770   0.42260
     Eigenvalues ---    0.43765   0.44818   0.44947   0.46244   0.46851
     Eigenvalues ---    0.49694   0.50305   0.63798   1.19183  18.00332
 Eigenvalue     1 is  -3.65D-04 should be greater than     0.000000 Eigenvector:
                          D26       D24       D8        D6        D10
   1                    0.55964   0.55802  -0.36822  -0.32335   0.25727
                          D9        D33       D34       D7        D3
   1                    0.21579   0.10056   0.07321  -0.04276   0.04234
 Angle between quadratic step and forces=  88.33 degrees.
 Linear search not attempted -- first point.
 Iteration  1 RMS(Cart)=  0.00444049 RMS(Int)=  0.00000732
 Iteration  2 RMS(Cart)=  0.00001026 RMS(Int)=  0.00000223
 Iteration  3 RMS(Cart)=  0.00000000 RMS(Int)=  0.00000223
 ITry= 1 IFail=0 DXMaxC= 1.76D-02 DCOld= 1.00D+10 DXMaxT= 3.00D-01 DXLimC= 3.00D+00 Rises=F
 Variable       Old X    -DE/DX   Delta X   Delta X   Delta X     New X
                                 (Linear)    (Quad)   (Total)
    R1        2.64307   0.00003   0.00000   0.00005   0.00005   2.64313
    R2        2.62280   0.00010   0.00000   0.00011   0.00011   2.62291
    R3        2.66032   0.00006   0.00000   0.00001   0.00001   2.66033
    R4        2.62578  -0.00002   0.00000  -0.00003  -0.00003   2.62575
    R5        3.73514   0.00000   0.00000  -0.00000  -0.00000   3.73513
    R6        2.62730  -0.00002   0.00000   0.00001   0.00001   2.62731
    R7        2.04242   0.00001   0.00000   0.00003   0.00003   2.04244
    R8        2.62630   0.00001   0.00000   0.00010   0.00010   2.62640
    R9        3.73297  -0.00003   0.00000  -0.00036  -0.00036   3.73261
   R10        2.65089  -0.00002   0.00000  -0.00008  -0.00008   2.65081
   R11        2.05873   0.00001   0.00000   0.00004   0.00004   2.05878
   R12        4.27140  -0.00002   0.00000  -0.00016  -0.00016   4.27125
   R13        2.65084   0.00001   0.00000   0.00012   0.00012   2.65096
   R14        2.65759  -0.00001   0.00000  -0.00006  -0.00006   2.65753
   R15        2.55964  -0.00002   0.00000  -0.00007  -0.00007   2.55957
   R16        2.63860   0.00001   0.00000   0.00001   0.00001   2.63862
   R17        2.62265  -0.00001   0.00000  -0.00000  -0.00000   2.62265
   R18        2.04939   0.00000   0.00000   0.00000   0.00000   2.04939
   R19        2.63133  -0.00002   0.00000  -0.00008  -0.00008   2.63125
   R20        3.65937   0.00002   0.00000   0.00018   0.00018   3.65955
   R21        2.62434   0.00002   0.00000   0.00006   0.00006   2.62440
   R22        2.04848   0.00000   0.00000   0.00000   0.00000   2.04848
   R23        2.04960   0.00000   0.00000   0.00001   0.00001   2.04961
    A1        2.12486  -0.00004   0.00000   0.00004   0.00005   2.12491
    A2        1.97379  -0.00016   0.00000  -0.00009  -0.00009   1.97370
    A3        2.18453   0.00020   0.00000   0.00004   0.00004   2.18457
    A4        2.11635   0.00004   0.00000   0.00004   0.00004   2.11640
    A5        2.13681  -0.00003   0.00000  -0.00005  -0.00005   2.13676
    A6        2.03003  -0.00001   0.00000   0.00001   0.00001   2.03003
    A7        2.04080  -0.00001   0.00000  -0.00001  -0.00001   2.04080
    A8        2.11434  -0.00000   0.00000  -0.00005  -0.00005   2.11430
    A9        2.12804   0.00001   0.00000   0.00005   0.00005   2.12809
   A10        2.13362  -0.00001   0.00000  -0.00011  -0.00011   2.13351
   A11        2.05002   0.00001   0.00000   0.00009   0.00009   2.05011
   A12        2.09954   0.00000   0.00000   0.00002   0.00002   2.09957
   A13        2.10825   0.00005   0.00000   0.00021   0.00022   2.10847
   A14        2.06961  -0.00004   0.00000  -0.00028  -0.00028   2.06933
   A15        2.10533  -0.00001   0.00000   0.00006   0.00006   2.10539
   A16        2.04247  -0.00004   0.00000  -0.00018  -0.00019   2.04229
   A17        1.70937   0.00014   0.00000  -0.00003  -0.00005   1.70932
   A18        2.53130  -0.00010   0.00000   0.00014   0.00012   2.53143
   A19        2.07734  -0.00001   0.00000   0.00004   0.00004   2.07739
   A20        2.22200   0.00005   0.00000  -0.00008  -0.00008   2.22192
   A21        1.98385  -0.00004   0.00000   0.00003   0.00003   1.98388
   A22        2.08960   0.00000   0.00000  -0.00006  -0.00006   2.08954
   A23        2.09922  -0.00001   0.00000  -0.00005  -0.00005   2.09917
   A24        2.08293   0.00001   0.00000   0.00009   0.00009   2.08302
   A25        2.10103  -0.00000   0.00000  -0.00004  -0.00004   2.10100
   A26        2.10856   0.00002   0.00000   0.00014   0.00014   2.10869
   A27        2.09147  -0.00000   0.00000  -0.00005  -0.00004   2.09143
   A28        2.08315  -0.00001   0.00000  -0.00009  -0.00009   2.08306
   A29        2.07757  -0.00001   0.00000  -0.00008  -0.00008   2.07749
   A30        2.10745   0.00000   0.00000   0.00002   0.00002   2.10746
   A31        2.09816   0.00001   0.00000   0.00007   0.00007   2.09823
   A32        2.11408   0.00001   0.00000   0.00001   0.00001   2.11409
   A33        2.06461   0.00000   0.00000   0.00004   0.00004   2.06465
   A34        2.10450  -0.00001   0.00000  -0.00005  -0.00005   2.10444
   A35        2.24071   0.00025   0.00000  -0.00002  -0.00002   2.24069
    D1       -0.00004   0.00001   0.00000  -0.00005  -0.00005  -0.00009
    D2       -3.14152   0.00000   0.00000   0.00009   0.00009  -3.14143
    D3        3.14056   0.00001   0.00000  -0.00077  -0.00077   3.13979
    D4       -0.00092   0.00000   0.00000  -0.00062  -0.00062  -0.00154
    D5       -0.00011  -0.00001   0.00000   0.00000   0.00000  -0.00011
    D6       -3.13448  -0.00002   0.00000   0.00681   0.00681  -3.12766
    D7       -3.14059  -0.00001   0.00000   0.00081   0.00081  -3.13978
    D8        0.00823  -0.00002   0.00000   0.00762   0.00762   0.01585
    D9        3.13583  -0.00007   0.00000  -0.00356  -0.00356   3.13227
   D10       -0.00679  -0.00007   0.00000  -0.00430  -0.00430  -0.01110
   D11        0.00012  -0.00000   0.00000   0.00007   0.00007   0.00020
   D12       -3.14154  -0.00000   0.00000   0.00006   0.00006  -3.14148
   D13       -3.14157   0.00000   0.00000  -0.00007  -0.00007   3.14155
   D14       -0.00005   0.00000   0.00000  -0.00008  -0.00008  -0.00013
   D15       -0.00006  -0.00000   0.00000  -0.00005  -0.00004  -0.00011
   D16        3.14155   0.00000   0.00000  -0.00006  -0.00006   3.14149
   D17       -3.14159  -0.00000   0.00000  -0.00003  -0.00003   3.14157
   D18        0.00003   0.00000   0.00000  -0.00004  -0.00004  -0.00002
   D19       -0.00009   0.00000   0.00000  -0.00000  -0.00000  -0.00009
   D20        3.14158   0.00001   0.00000   0.00000   0.00000   3.14158
   D21        3.14149  -0.00000   0.00000   0.00001   0.00001   3.14150
   D22       -0.00004   0.00000   0.00000   0.00002   0.00002  -0.00002
   D23        0.00017   0.00000   0.00000   0.00003   0.00003   0.00020
   D24        3.12927   0.00002   0.00000  -0.01175  -0.01175   3.11752
   D25       -3.14149  -0.00000   0.00000   0.00002   0.00002  -3.14147
   D26       -0.01239   0.00001   0.00000  -0.01176  -0.01176  -0.02415
   D27        0.00008  -0.00001   0.00000  -0.00009  -0.00009  -0.00001
   D28       -3.14123   0.00001   0.00000   0.00086   0.00086  -3.14037
   D29       -0.00004   0.00001   0.00000   0.00005   0.00005   0.00001
   D30       -3.14149   0.00001   0.00000   0.00012   0.00012  -3.14137
   D31        3.14131  -0.00000   0.00000  -0.00078  -0.00078   3.14053
   D32       -0.00014  -0.00001   0.00000  -0.00071  -0.00071  -0.00085
   D33       -0.00048  -0.00006   0.00000  -0.00382  -0.00382  -0.00430
   D34        3.14138  -0.00004   0.00000  -0.00291  -0.00291   3.13847
   D35       -0.00007   0.00000   0.00000   0.00007   0.00007  -0.00000
   D36       -3.14154   0.00000   0.00000   0.00016   0.00016  -3.14138
   D37        0.00002   0.00000   0.00000  -0.00000  -0.00000   0.00002
   D38       -3.14143  -0.00000   0.00000   0.00002   0.00002  -3.14141
   D39        3.14149   0.00001   0.00000  -0.00009  -0.00009   3.14139
   D40        0.00003   0.00000   0.00000  -0.00007  -0.00007  -0.00004
   D41        0.00002  -0.00000   0.00000  -0.00004  -0.00004  -0.00002
   D42        3.14154  -0.00000   0.00000   0.00001   0.00001   3.14155
   D43        3.14147   0.00000   0.00000  -0.00006  -0.00006   3.14141
   D44       -0.00018   0.00000   0.00000  -0.00002  -0.00002  -0.00020
   D45       -0.00001  -0.00000   0.00000   0.00001   0.00001   0.00001
   D46        3.14144   0.00000   0.00000  -0.00006  -0.00006   3.14138
   D47       -3.14153  -0.00000   0.00000  -0.00003  -0.00003  -3.14156
   D48       -0.00009  -0.00000   0.00000  -0.00010  -0.00010  -0.00019
         Item               Value     Threshold  Converged?
 Maximum Force            0.000247     0.000450     YES
 RMS     Force            0.000044     0.000300     YES
 Maximum Displacement     0.017583     0.001800     NO 
 RMS     Displacement     0.004441     0.001200     NO 
 Predicted change in Energy=-2.968395D-07
                           ----------------------------
                           ! Non-Optimized Parameters !
                           ! (Angstroms and Degrees)  !
 --------------------------                            --------------------------
 ! Name  Definition              Value          Derivative Info.                !
 --------------------------------------------------------------------------------
 ! R1    R(1,2)                  1.3987         -DE/DX =    0.0                 !
 ! R2    R(1,6)                  1.388          -DE/DX =    0.0001              !
 ! R3    R(1,13)                 1.4078         -DE/DX =    0.0001              !
 ! R4    R(2,3)                  1.3895         -DE/DX =    0.0                 !
 ! R5    R(2,14)                 1.9765         -DE/DX =    0.0                 !
 ! R6    R(3,4)                  1.3903         -DE/DX =    0.0                 !
 ! R7    R(3,15)                 1.0808         -DE/DX =    0.0                 !
 ! R8    R(4,5)                  1.3898         -DE/DX =    0.0                 !
 ! R9    R(4,16)                 1.9752         -DE/DX =    0.0                 !
 ! R10   R(5,6)                  1.4027         -DE/DX =    0.0                 !
 ! R11   R(5,17)                 1.0895         -DE/DX =    0.0                 !
 ! R12   R(6,18)                 2.2602         -DE/DX =    0.0                 !
 ! R13   R(7,8)                  1.4028         -DE/DX =    0.0                 !
 ! R14   R(7,12)                 1.4063         -DE/DX =    0.0                 !
 ! R15   R(7,13)                 1.3545         -DE/DX =    0.0                 !
 ! R16   R(8,9)                  1.3963         -DE/DX =    0.0                 !
 ! R17   R(9,10)                 1.3878         -DE/DX =    0.0                 !
 ! R18   R(9,19)                 1.0845         -DE/DX =    0.0                 !
 ! R19   R(10,11)                1.3924         -DE/DX =    0.0                 !
 ! R20   R(10,20)                1.9366         -DE/DX =    0.0                 !
 ! R21   R(11,12)                1.3888         -DE/DX =    0.0                 !
 ! R22   R(11,21)                1.084          -DE/DX =    0.0                 !
 ! R23   R(12,22)                1.0846         -DE/DX =    0.0                 !
 ! A1    A(2,1,6)              121.7484         -DE/DX =    0.0                 !
 ! A2    A(2,1,13)             113.0847         -DE/DX =   -0.0002              !
 ! A3    A(6,1,13)             125.1668         -DE/DX =    0.0002              !
 ! A4    A(1,2,3)              121.2606         -DE/DX =    0.0                 !
 ! A5    A(1,2,14)             122.427          -DE/DX =    0.0                 !
 ! A6    A(3,2,14)             116.3124         -DE/DX =    0.0                 !
 ! A7    A(2,3,4)              116.9291         -DE/DX =    0.0                 !
 ! A8    A(2,3,15)             121.1403         -DE/DX =    0.0                 !
 ! A9    A(4,3,15)             121.9306         -DE/DX =    0.0                 !
 ! A10   A(3,4,5)              122.2411         -DE/DX =    0.0                 !
 ! A11   A(3,4,16)             117.4626         -DE/DX =    0.0                 !
 ! A12   A(5,4,16)             120.2963         -DE/DX =    0.0                 !
 ! A13   A(4,5,6)              120.8063         -DE/DX =    0.0001              !
 ! A14   A(4,5,17)             118.5637         -DE/DX =    0.0                 !
 ! A15   A(6,5,17)             120.63           -DE/DX =    0.0                 !
 ! A16   A(1,6,5)              117.0145         -DE/DX =    0.0                 !
 ! A17   A(1,6,18)              97.9368         -DE/DX =    0.0001              !
 ! A18   A(5,6,18)             145.04           -DE/DX =   -0.0001              !
 ! A19   A(8,7,12)             119.0255         -DE/DX =    0.0                 !
 ! A20   A(8,7,13)             127.3066         -DE/DX =    0.0001              !
 ! A21   A(12,7,13)            113.6679         -DE/DX =    0.0                 !
 ! A22   A(7,8,9)              119.7216         -DE/DX =    0.0                 !
 ! A23   A(8,9,10)             120.2737         -DE/DX =    0.0                 !
 ! A24   A(8,9,19)             119.3481         -DE/DX =    0.0                 !
 ! A25   A(10,9,19)            120.3782         -DE/DX =    0.0                 !
 ! A26   A(9,10,11)            120.8193         -DE/DX =    0.0                 !
 ! A27   A(9,10,20)            119.83           -DE/DX =    0.0                 !
 ! A28   A(11,10,20)           119.3507         -DE/DX =    0.0                 !
 ! A29   A(10,11,12)           119.0315         -DE/DX =    0.0                 !
 ! A30   A(10,11,21)           120.7487         -DE/DX =    0.0                 !
 ! A31   A(12,11,21)           120.2198         -DE/DX =    0.0                 !
 ! A32   A(7,12,11)            121.1285         -DE/DX =    0.0                 !
 ! A33   A(7,12,22)            118.2957         -DE/DX =    0.0                 !
 ! A34   A(11,12,22)           120.5758         -DE/DX =    0.0                 !
 ! A35   A(1,13,7)             128.3824         -DE/DX =    0.0002              !
 ! D1    D(6,1,2,3)             -0.0051         -DE/DX =    0.0                 !
 ! D2    D(6,1,2,14)          -179.9904         -DE/DX =    0.0                 !
 ! D3    D(13,1,2,3)           179.8969         -DE/DX =    0.0                 !
 ! D4    D(13,1,2,14)           -0.0884         -DE/DX =    0.0                 !
 ! D5    D(2,1,6,5)             -0.0063         -DE/DX =    0.0                 !
 ! D6    D(2,1,6,18)          -179.2019         -DE/DX =    0.0                 !
 ! D7    D(13,1,6,5)          -179.8961         -DE/DX =    0.0                 !
 ! D8    D(13,1,6,18)            0.9083         -DE/DX =    0.0                 !
 ! D9    D(2,1,13,7)           179.466          -DE/DX =   -0.0001              !
 ! D10   D(6,1,13,7)            -0.6359         -DE/DX =   -0.0001              !
 ! D11   D(1,2,3,4)              0.0112         -DE/DX =    0.0                 !
 ! D12   D(1,2,3,15)          -179.9937         -DE/DX =    0.0                 !
 ! D13   D(14,2,3,4)           179.9974         -DE/DX =    0.0                 !
 ! D14   D(14,2,3,15)           -0.0076         -DE/DX =    0.0                 !
 ! D15   D(2,3,4,5)             -0.0061         -DE/DX =    0.0                 !
 ! D16   D(2,3,4,16)           179.994          -DE/DX =    0.0                 !
 ! D17   D(15,3,4,5)           179.9989         -DE/DX =    0.0                 !
 ! D18   D(15,3,4,16)           -0.001          -DE/DX =    0.0                 !
 ! D19   D(3,4,5,6)             -0.0052         -DE/DX =    0.0                 !
 ! D20   D(3,4,5,17)           179.9991         -DE/DX =    0.0                 !
 ! D21   D(16,4,5,6)           179.9946         -DE/DX =    0.0                 !
 ! D22   D(16,4,5,17)           -0.0011         -DE/DX =    0.0                 !
 ! D23   D(4,5,6,1)              0.0113         -DE/DX =    0.0                 !
 ! D24   D(4,5,6,18)           178.6208         -DE/DX =    0.0                 !
 ! D25   D(17,5,6,1)          -179.9931         -DE/DX =    0.0                 !
 ! D26   D(17,5,6,18)           -1.3836         -DE/DX =    0.0                 !
 ! D27   D(12,7,8,9)            -0.0006         -DE/DX =    0.0                 !
 ! D28   D(13,7,8,9)          -179.9301         -DE/DX =    0.0                 !
 ! D29   D(8,7,12,11)            0.0005         -DE/DX =    0.0                 !
 ! D30   D(8,7,12,22)         -179.9873         -DE/DX =    0.0                 !
 ! D31   D(13,7,12,11)         179.9393         -DE/DX =    0.0                 !
 ! D32   D(13,7,12,22)          -0.0485         -DE/DX =    0.0                 !
 ! D33   D(8,7,13,1)            -0.2464         -DE/DX =   -0.0001              !
 ! D34   D(12,7,13,1)          179.8209         -DE/DX =    0.0                 !
 ! D35   D(7,8,9,10)            -0.0002         -DE/DX =    0.0                 !
 ! D36   D(7,8,9,19)          -179.9879         -DE/DX =    0.0                 !
 ! D37   D(8,9,10,11)            0.0011         -DE/DX =    0.0                 !
 ! D38   D(8,9,10,20)         -179.9898         -DE/DX =    0.0                 !
 ! D39   D(19,9,10,11)         179.9887         -DE/DX =    0.0                 !
 ! D40   D(19,9,10,20)          -0.0022         -DE/DX =    0.0                 !
 ! D41   D(9,10,11,12)          -0.0012         -DE/DX =    0.0                 !
 ! D42   D(9,10,11,21)         179.9976         -DE/DX =    0.0                 !
 ! D43   D(20,10,11,12)        179.9898         -DE/DX =    0.0                 !
 ! D44   D(20,10,11,21)         -0.0115         -DE/DX =    0.0                 !
 ! D45   D(10,11,12,7)           0.0004         -DE/DX =    0.0                 !
 ! D46   D(10,11,12,22)        179.9879         -DE/DX =    0.0                 !
 ! D47   D(21,11,12,7)        -179.9983         -DE/DX =    0.0                 !
 ! D48   D(21,11,12,22)         -0.0109         -DE/DX =    0.0                 !
 --------------------------------------------------------------------------------
 GradGradGradGradGradGradGradGradGradGradGradGradGradGradGradGradGradGrad

 Leave Link  103 at Tue Sep 29 16:41:58 2026, MaxMem=  5100273664 cpu:               0.9 elap:               0.1
 (Enter /share/software/user/restricted/gaussian/g16.B01/l9999.exe)

 ----------------------------------------------------------------------

 Electric dipole moment (input orientation):
 (Debye = 10**-18 statcoulomb cm , SI units = C m)
                  (au)            (Debye)         (10**-30 SI)
   Tot        0.156098D+01      0.396762D+01      0.132345D+02
   x          0.146128D+01      0.371420D+01      0.123893D+02
   y          0.546789D+00      0.138980D+01      0.463587D+01
   z         -0.483850D-01     -0.122982D+00     -0.410225D+00

 Dipole polarizability, Alpha (input orientation).
 (esu units = cm**3 , SI units = C**2 m**2 J**-1)
 Alpha(0;0):
               (au)            (10**-24 esu)      (10**-40 SI)
   iso        0.251525D+03      0.372721D+02      0.414708D+02
   aniso      0.226708D+03      0.335947D+02      0.373792D+02
   xx         0.381552D+03      0.565401D+02      0.629093D+02
   yx        -0.500693D+01     -0.741951D+00     -0.825531D+00
   yy         0.249233D+03      0.369325D+02      0.410929D+02
   zx        -0.187455D+02     -0.277780D+01     -0.309071D+01
   zy         0.119000D+02      0.176340D+01      0.196204D+01
   zz         0.123790D+03      0.183438D+02      0.204103D+02

 ----------------------------------------------------------------------

 Dipole orientation:
     6          0.29252983         -0.94137787         -2.99664480
     6         -0.76632190          1.13620073         -4.24097002
     6         -0.84119126          1.26116512         -6.86270180
     6          0.18183388         -0.76857057         -8.18038511
     6          1.23799922         -2.84137758         -6.96159094
     6          1.31328722         -2.96618630         -4.31471549
     6          1.03701220         -2.38998930          1.41159854
     6          2.20289580         -4.73175097          0.98285624
     6          2.95245590         -6.21482251          3.03246451
     6          2.54849778         -5.38079829          5.48593631
     6          1.39424933         -3.06178636          5.94832150
     6          0.64670714         -1.58281773          3.91338459
     8          0.19926622         -0.72891996         -0.34646077
    35         -2.22994682          4.03955376         -2.40260635
     1         -1.66018675          2.86836574         -7.82062511
    35          0.09079439         -0.62161942        -11.90935042
     1          2.00769520         -4.36990619         -8.10594479
     1          2.49029488         -5.32491361         -0.95376999
     1          3.85283746         -8.02322589          2.68753005
    35          3.59820739         -7.45706560          8.31051519
     1          1.07960405         -2.41229784          7.86546119
     1         -0.25681630          0.23130788          4.21910517

 Electric dipole moment (dipole orientation):
 (Debye = 10**-18 statcoulomb cm , SI units = C m)
                  (au)            (Debye)         (10**-30 SI)
   Tot        0.156098D+01      0.396762D+01      0.132345D+02
   x          0.000000D+00      0.000000D+00      0.000000D+00
   y          0.000000D+00      0.000000D+00      0.000000D+00
   z          0.156098D+01      0.396762D+01      0.132345D+02

 Dipole polarizability, Alpha (dipole orientation).
 (esu units = cm**3 , SI units = C**2 m**2 J**-1)
 Alpha(0;0):
               (au)            (10**-24 esu)      (10**-40 SI)
   iso        0.251525D+03      0.372721D+02      0.414708D+02
   aniso      0.226708D+03      0.335947D+02      0.373792D+02
   xx         0.151732D+03      0.224844D+02      0.250173D+02
   yx        -0.600368D+02     -0.889654D+01     -0.989874D+01
   yy         0.240228D+03      0.355981D+02      0.396082D+02
   zx         0.223294D+02      0.330887D+01      0.368162D+01
   zy        -0.426112D+02     -0.631433D+01     -0.702564D+01
   zz         0.362614D+03      0.537339D+02      0.597870D+02

 ----------------------------------------------------------------------
 1\1\GINC-SH03-01N43\Freq\RB3LYP\6-311++G(d)\C12H6Br3O1(1-)\JLAPIER\29-
 Sep-2026\0\\#P Geom=AllCheck Guess=TCheck SCRF=Check GenChk RB3LYP/6-3
 11++G(d) Freq\\BDE_24_2r4_anion b3lyp_gas\\-1,1\C,-1.3010936514,-1.042
 9288484,0.0787366011\C,-2.3431299019,-0.1237723593,0.2385729653\C,-3.6
 680464912,-0.5385826495,0.2955012107\C,-3.9055549728,-1.9041137617,0.1
 86567996\C,-2.8771566759,-2.8253164169,0.0275967115\C,-1.5397911396,-2
 .4058484388,-0.0299802003\C,1.179739536,-1.0286262095,-0.0938518382\C,
 1.4456986369,-2.399171911,-0.2302969723\C,2.7645422793,-2.8389088905,-
 0.3603253166\C,3.810145192,-1.9263259526,-0.3550538425\C,3.5655147458,
 -0.5621419121,-0.2207073832\C,2.2547758281,-0.1219430019,-0.0911587887
 \O,-0.0310144551,-0.4367896673,0.0420855035\Br,-2.0264264551,1.8209338
 498,0.3952929544\H,-4.4718348257,0.173315318,0.4190108879\Br,-5.783726
 9545,-2.5111070013,0.2655926104\H,-3.1313744751,-3.8817108247,-0.05159
 10089\H,0.6070993928,-3.0837589403,-0.2309520762\H,2.9630714981,-3.899
 8727128,-0.4654860254\Br,5.6343078992,-2.5503185756,-0.5365248094\H,4.
 3829954685,0.1497442771,-0.216676206\H,2.0356371916,0.9349592889,0.015
 1408567\\Version=ES64L-G16RevB.01\State=1-A\HF=-8258.6701917\RMSD=5.82
 8e-09\RMSF=2.344e-05\ZeroPoint=0.1388491\Thermal=0.1528722\Dipole=1.46
 12806,0.5467888,-0.048385\DipoleDeriv=2.0680008,-0.1300934,-0.1528871,
 1.0174175,-0.0127058,-0.0801388,-0.0516815,0.0016703,0.0819883,-0.0758
 613,0.1683158,0.018728,-0.0627308,1.7156139,0.1649866,-0.0020972,0.148
 4739,-0.0140549,-0.3791715,-0.1780852,-0.0001404,-0.1721323,-0.3163869
 ,-0.0031176,0.0001687,-0.002505,-0.1500117,1.6859217,0.4142771,-0.0846
 788,0.6438407,0.2224028,-0.0229501,-0.0634543,-0.0065664,-0.022887,-0.
 0016181,0.0378778,-0.0058653,-0.2851803,0.2470536,0.0558842,-0.0356691
 ,0.0326032,-0.1305837,-1.1963689,0.311751,0.0876621,-0.054157,-0.80229
 49,-0.0367154,0.0537792,-0.0638536,-0.3734984,2.3758795,-0.3170993,-0.
 1870236,-1.0884633,0.22663,0.087161,-0.2539978,0.0328863,0.1186185,-0.
 6253706,0.0648555,0.041855,0.4457204,-0.1360796,-0.0334905,0.0728649,-
 0.0054192,-0.117368,-0.0406612,0.0417555,-0.002283,0.0778428,0.0932422
 ,0.0129255,0.0018428,0.0154924,-0.1187795,1.0180208,-0.3723167,-0.1087
 092,-0.3610779,0.005885,0.0326938,-0.1077671,0.033121,-0.0657104,-0.14
 31291,0.0909139,0.0086676,-0.0552171,0.0896462,0.023116,-0.0040542,0.0
 130858,-0.1343894,-0.4657475,0.0614572,0.0253975,-0.140192,0.0450152,0
 .0287921,0.007927,0.0148875,-0.1754825,-3.2462652,0.1186023,0.2270696,
 0.2588068,-0.3739087,-0.0372182,0.2412446,-0.0272156,-0.1732534,-0.113
 7884,-0.1336961,-0.0164183,0.0364127,-1.3814781,-0.1143514,-0.0006872,
 -0.1022198,-0.179018,0.0040826,0.0648727,0.015812,0.0601467,0.0417354,
 -0.0135203,0.0154106,-0.013841,0.1389495,-1.4834704,-0.2815288,0.06794
 24,-0.3898944,-0.2506465,0.0204341,0.058486,0.0128188,-0.1728796,-0.01
 3572,-0.0955409,-0.0021375,-0.1721432,-0.1623403,-0.0101231,-0.0092505
 ,-0.0155332,0.0794949,0.4674471,-0.0801293,-0.030562,-0.0194285,0.0700
 463,-0.0032132,-0.0242947,0.000324,0.1272433,0.0634054,0.0397526,0.008
 0518,0.0781503,-0.0851228,-0.0239687,0.010987,-0.0213271,0.1274912,-0.
 914505,0.2105353,0.0743987,0.252287,-0.1861781,-0.0240505,0.078174,-0.
 021179,-0.119483,-0.0396456,-0.0922977,0.004403,-0.0953838,0.0155044,-
 0.0036805,0.0040338,-0.0039588,0.1353865,0.056417,0.0558209,0.0107174,
 0.0253757,-0.065633,-0.0194552,0.0080347,-0.0217445,0.1382271\Polar=38
 1.5515333,-5.0069305,249.2326936,-18.7454916,11.8999857,123.7902554\Qu
 adrupole=-27.7973745,11.1132537,16.6841208,1.8877279,3.2931225,-0.6995
 024\PG=C01 [X(C12H6Br3O1)]\NImag=1\\0.53996114,-0.03979129,0.56919164,
 -0.03280783,0.04277292,0.14125360,-0.20131627,0.06869020,0.01657614,0.
 64998560,0.14259031,-0.16014308,-0.01955904,-0.02491872,0.37083601,0.0
 2337808,-0.01425537,-0.06220887,-0.04204750,0.02699820,0.10334670,-0.0
 4749005,0.04599228,0.00803847,-0.31938761,-0.08101328,0.01198605,0.692
 62727,-0.00337767,0.04981783,0.00434449,-0.02936293,-0.11057949,-0.003
 58347,-0.05851313,0.68129933,0.00348186,0.00080750,0.00509724,0.016741
 21,0.00012140,-0.05001578,-0.04756942,0.05729738,0.11480212,-0.0116321
 5,0.01597539,0.00196101,0.00204230,-0.03199157,-0.00291381,-0.09966885
 ,-0.05352456,-0.00139415,0.39293898,0.02171408,-0.05962334,-0.00662091
 ,-0.08984756,-0.01500248,0.00481836,0.00259953,-0.32331110,-0.02537415
 ,-0.06670627,0.62212374,0.00250328,-0.00621216,-0.00551542,-0.00825852
 ,0.00067430,0.00327366,0.00378959,-0.02133970,-0.05257592,-0.02756479,
 0.05343160,0.10206276,0.00071408,-0.05443591,-0.00557773,-0.05522221,0
 .00875067,0.00458136,0.03500947,0.05310678,0.00289113,-0.18472010,0.07
 418528,0.01631012,0.56224555,-0.04016482,-0.01347116,0.00231176,0.0210
 8593,-0.00898286,-0.00209268,0.01065043,-0.04588701,-0.00565411,0.1477
 6219,-0.21387727,-0.02546073,0.02855182,0.69417267,-0.00428373,0.00333
 331,-0.00643683,0.00573496,-0.00121311,-0.00323083,-0.00103550,-0.0087
 1071,0.00633279,0.02309902,-0.02016352,-0.05665070,-0.02901386,0.05070
 627,0.12914910,-0.10078429,-0.02495528,0.00138843,0.04527720,-0.013216
 43,-0.00342631,-0.01960964,-0.02932468,-0.00154095,-0.04887518,0.05010
 357,0.00927668,-0.26778380,-0.08814061,0.00774712,0.43852463,-0.027930
 04,-0.26737810,-0.01813649,0.05039732,-0.03138418,-0.00787309,-0.03024
 132,-0.03188688,-0.00045011,-0.01749581,0.05222635,0.00460750,-0.06954
 663,-0.10830051,-0.00065230,0.14460652,0.42904301,0.00107991,-0.018368
 02,-0.05121147,0.00246309,-0.00331599,0.01423219,-0.00163533,-0.000510
 04,-0.00342496,0.00304750,-0.00024806,0.01566284,0.00948462,0.00067344
 ,-0.04775761,-0.01323153,0.02295059,0.07114269,-0.05930633,0.00021909,
 0.00359408,0.00118542,-0.00031179,-0.00008059,0.00219287,0.00276935,0.
 00019250,0.00052986,-0.00347578,-0.00031938,-0.00227928,0.00113790,0.0
 0030627,0.00875130,0.01256688,0.00033103,0.64228093,0.00305174,0.02252
 291,0.00249303,-0.00433689,-0.00354980,-0.00007790,-0.00188808,-0.0004
 6910,-0.00001820,0.00002141,0.00192402,0.00012882,0.00113291,-0.000290
 20,-0.00013498,-0.00212768,-0.00577548,-0.00016089,0.00384836,0.664745
 40,0.00385403,0.00264780,-0.00840876,-0.00036376,-0.00035790,0.0009008
 8,-0.00022188,-0.00035680,0.00115547,-0.00001019,0.00036179,0.00058575
 ,0.00030095,-0.00014269,0.00039065,-0.00097587,-0.00115495,-0.00246504
 ,-0.03376095,0.04347767,0.16228585,0.00656728,0.00158469,-0.00038140,-
 0.00129901,-0.00155198,-0.00012242,0.00066070,0.00095902,0.00009116,0.
 00124310,-0.00096726,-0.00024111,-0.00171628,0.00166099,0.00031793,-0.
 01055586,0.00059579,0.00101108,-0.13373153,-0.01458136,0.00350075,0.71
 299970,-0.00665797,-0.00096367,0.00042530,0.00107182,0.00114132,0.0001
 0690,0.00023348,0.00057976,-0.00001832,-0.00114184,-0.00049879,0.00011
 168,0.00037356,-0.00068094,-0.00015571,0.00595947,0.00380573,-0.000385
 77,0.03750601,-0.29360615,-0.02217795,0.04807913,0.65862623,-0.0010807
 7,-0.00014335,-0.00061339,0.00009279,0.00030692,-0.00107941,0.00003467
 ,-0.00007608,0.00070163,-0.00024457,0.00010263,-0.00093912,0.00018960,
 -0.00022756,0.00068589,0.00146485,-0.00005824,0.00401368,0.00793988,-0
 .01854174,-0.06823661,-0.03713378,0.04284084,0.12813277,-0.00317900,-0
 .00103650,0.00009161,0.00038295,0.00019620,0.00003537,-0.00021595,-0.0
 0039997,-0.00006022,-0.00026193,0.00046978,0.00007879,0.00059729,0.000
 16766,-0.00007028,-0.00249681,-0.00010537,0.00020173,0.01035719,0.0839
 7501,0.00651263,-0.30437878,0.02806507,0.02000781,0.63822284,-0.001988
 93,-0.00101690,0.00012381,0.00031946,-0.00080532,-0.00014171,0.0000431
 0,-0.00008588,0.00002815,0.00039503,0.00009223,-0.00002450,0.00002806,
 0.00050939,0.00011330,-0.00287639,0.00082288,0.00013099,0.03980768,-0.
 00002908,-0.00284083,0.09019794,-0.14576918,-0.01425588,-0.00601786,0.
 72907280,-0.00001667,0.00005481,-0.00079847,0.00004499,-0.00013893,0.0
 0055431,-0.00001940,0.00006320,-0.00048906,0.00006140,-0.00003017,0.00
 010752,-0.00009045,0.00010187,-0.00074286,0.00001093,-0.00003718,0.001
 23894,0.00274719,-0.00591961,-0.00015074,0.02533373,-0.00991245,-0.055
 86552,-0.03669689,0.05267467,0.12847293,0.00087822,-0.00030285,-0.0000
 8807,-0.00028393,0.00036127,0.00005107,0.00032239,0.00008651,-0.000006
 00,-0.00042750,-0.00037858,-0.00000882,-0.00023447,-0.00019877,-0.0000
 0102,0.00088324,0.00031068,-0.00005899,-0.00643361,-0.02441976,-0.0020
 0025,-0.05705445,0.00826524,0.00520629,-0.21466641,-0.14291566,-0.0009
 7002,0.46758959,0.00140978,0.00004254,-0.00011463,-0.00052301,-0.00027
 993,0.00001274,0.00037902,0.00066791,0.00002502,0.00065877,-0.00061081
 ,-0.00010388,-0.00055917,0.00007508,0.00003628,0.00034981,0.00013482,0
 .00005912,-0.02437364,-0.06730740,-0.00363280,-0.05010298,0.05549655,0
 .00763717,-0.08215708,-0.21501244,-0.00817869,0.06379181,0.61497283,0.
 00007077,0.00001417,0.00011993,-0.00002719,-0.00004465,-0.00004368,0.0
 0001633,0.00003870,0.00012346,0.00008171,-0.00002156,-0.00003047,-0.00
 002285,0.00001161,0.00004110,-0.00006814,0.00004350,-0.00056576,-0.001
 99905,-0.00363650,-0.00529865,0.00019162,0.00356904,0.00763914,0.00426
 667,-0.00393071,-0.05358958,-0.02081247,0.04049446,0.09688387,-0.00011
 126,0.00000120,0.00012321,-0.00030039,-0.00060152,-0.00003945,0.000172
 39,0.00055682,0.00002987,0.00059961,-0.00034418,-0.00007364,-0.0003032
 3,0.00009747,0.00000336,-0.00042510,0.00035390,0.00010584,-0.05105161,
 -0.04165601,0.00015485,-0.02485585,0.02469857,0.00373005,0.04107423,-0
 .01115997,-0.00343012,-0.10473193,-0.00562592,0.00322287,0.70350311,-0
 .00127840,0.00122532,0.00006242,0.00025625,-0.00076991,-0.00008527,-0.
 00058798,-0.00044748,0.00001371,-0.00025350,0.00068616,0.00007979,0.00
 047570,-0.00015724,-0.00001264,-0.00048784,-0.00005952,-0.00002622,0.0
 0542213,0.06261134,0.00480335,0.03403112,-0.03620080,-0.00533393,-0.05
 831553,-0.04653566,-0.00040782,0.05336247,-0.31536816,-0.02638347,0.04
 892139,0.67972203,0.00001949,-0.00003461,0.00169375,0.00003591,-0.0000
 2261,-0.00003141,-0.00007366,-0.00006118,-0.00015861,-0.00005895,0.000
 07828,0.00005094,0.00003317,0.00001609,-0.00035985,0.00002540,-0.00007
 811,0.00046603,0.00419554,0.00811032,0.00262423,0.00454618,-0.00468829
 ,-0.00246588,-0.00749818,-0.00370498,0.00586035,0.00828816,-0.02224756
 ,-0.05438379,-0.03677157,0.04488418,0.12426811,0.00791548,0.00735024,0
 .00021091,-0.00156597,-0.00105099,0.00005917,-0.00081308,-0.00046028,0
 .00000656,-0.00035500,0.00096312,0.00011158,0.00055395,-0.00029115,-0.
 00007040,-0.00085011,-0.00308639,-0.00024059,-0.19874988,-0.06161594,0
 .00382346,0.04699515,-0.04640968,-0.00665147,-0.05548063,-0.01782402,0
 .00217607,0.00510946,0.08626167,0.00757207,-0.32410514,0.03318334,0.02
 185422,0.68561357,0.00178533,-0.00276206,-0.00049508,0.00107187,0.0013
 3970,0.00000043,0.00005498,-0.00062742,-0.00005397,-0.00012933,0.00010
 996,0.00002314,0.00012946,0.00004472,0.00000344,0.00006402,0.00083063,
 0.00007151,-0.12136643,-0.21038290,-0.00373265,-0.01594454,-0.03669075
 ,-0.00278797,-0.00765714,-0.00484388,0.00032322,0.03129249,-0.00924744
 ,-0.00362054,0.09617515,-0.14737624,-0.01489258,-0.03605496,0.71121098
 ,-0.00030912,-0.00089051,0.00144046,0.00024179,0.00012973,0.00056198,0
 .00005417,-0.00001000,-0.00010567,0.00000903,-0.00005348,-0.00004666,-
 0.00003047,0.00002984,-0.00008957,0.00006000,0.00030742,-0.00010649,-0
 .00129263,-0.00791914,-0.06873050,-0.00405859,-0.00065593,0.00892928,0
 .00306425,0.00103643,-0.00249120,0.00284862,-0.00746917,0.00657910,0.0
 2727378,-0.01048248,-0.05527660,-0.04269210,0.05337753,0.12758823,-0.1
 4416210,-0.02571745,0.00604221,-0.06685729,-0.01362062,0.00386525,-0.0
 0321340,0.00247064,0.00064690,-0.00119646,0.00425548,0.00045964,0.0056
 2346,0.00189878,0.00043729,-0.01545023,-0.04222057,-0.00274333,-0.2375
 6986,0.07665555,0.02060073,-0.01215765,0.02095097,0.00324303,0.0040222
 3,-0.00133356,0.00010233,-0.00167787,0.00280102,0.00030877,0.00361314,
 -0.00722676,-0.00062135,-0.07842974,0.01320086,0.00719080,0.56625272,-
 0.02665059,-0.10724667,-0.00503564,0.01863442,0.00890919,-0.00085566,0
 .00096823,-0.00422966,-0.00072097,-0.00108087,0.00143087,0.00023535,0.
 00131631,-0.00325629,-0.00124138,-0.04219282,-0.02780494,0.00053064,0.
 05901306,-0.14009463,-0.01295915,0.04567652,-0.01676459,-0.00536041,-0
 .00945048,-0.00599242,-0.00046151,0.00338622,0.00431422,0.00018980,-0.
 00118774,-0.00638845,-0.00078563,-0.01837729,0.01945763,0.00230258,-0.
 03497526,0.27399765,0.00589578,-0.00509290,-0.02955436,0.00677463,0.00
 144685,0.00305453,0.00048785,-0.00082196,0.00270203,-0.00001672,-0.000
 13292,-0.00028321,0.00036533,-0.00128375,0.00895594,-0.00279183,0.0004
 7907,0.00006280,0.01909775,-0.01423041,-0.04024205,0.00536964,-0.00360
 423,0.00757544,-0.00061262,-0.00102630,0.00696766,0.00036707,0.0002347
 4,-0.00066682,-0.00010543,-0.00036136,0.00360891,0.00446249,0.00009071
 ,0.00737050,-0.04054435,0.02355187,0.03791048,0.00271131,0.00566447,0.
 00045779,-0.03062733,-0.00580168,0.00058882,-0.00356261,-0.02466395,-0
 .00190436,-0.00191614,0.00100994,0.00063909,-0.00015414,-0.00057512,-0
 .00001141,0.00009247,0.00130968,0.00028267,-0.00019905,0.00066913,0.00
 005094,0.00006822,-0.00041965,-0.00001969,0.00002059,0.00013775,-0.000
 00085,0.00006457,0.00001528,-0.00000757,0.00005683,0.00005566,0.000007
 09,0.00011328,-0.00026397,-0.00002959,-0.00030349,0.00598705,0.0005971
 6,0.03239192,-0.02242403,-0.02917948,-0.00124452,-0.00410837,-0.057222
 48,-0.00359913,-0.00918605,-0.02767929,-0.00204168,-0.00010814,0.00343
 892,-0.00019802,-0.00188769,0.00375853,0.00044099,0.01858772,-0.012675
 22,-0.00271602,0.00059914,0.00003976,-0.00000792,0.00141535,-0.0006084
 0,-0.00016407,0.00000185,0.00088864,0.00009050,-0.00038970,0.00042689,
 0.00006773,0.00062261,-0.00002474,-0.00005288,-0.00041033,-0.00043126,
 -0.00000693,0.00130787,0.00009406,-0.00011740,0.01858241,0.11876221,-0
 .00213014,-0.00325609,0.00161764,0.00074487,-0.00347565,-0.01537319,-0
 .00047775,-0.00093240,0.00155531,0.00053395,-0.00027481,0.00559100,-0.
 00013037,0.00034924,0.00047546,0.00188001,-0.00149191,0.00208442,0.000
 04486,-0.00001690,-0.00031420,0.00014171,-0.00004906,0.00026785,-0.000
 00990,0.00008442,-0.00014358,-0.00004567,0.00004150,-0.00005223,0.0000
 5871,-0.00001237,0.00007828,-0.00004528,-0.00001975,-0.00000165,0.0001
 6667,-0.00045435,0.00027886,-0.00012505,0.00899470,0.00767823,-0.00269
 595,-0.00230153,0.00027591,-0.01686396,0.02027883,0.00315398,-0.214109
 50,0.14254451,0.02656233,0.00639603,-0.00638303,-0.00098832,0.00054747
 ,-0.00190029,0.00006311,-0.00039211,-0.00052544,-0.00002922,0.00024518
 ,-0.00038596,-0.00004195,-0.00007556,0.00003766,0.00000216,0.00002745,
 0.00000145,-0.00000005,0.00001230,-0.00000826,-0.00000168,-0.00001670,
 -0.00005332,-0.00000407,-0.00015803,0.00009359,0.00001379,-0.00170665,
 0.00070640,0.00022634,0.00061650,0.00016732,-0.00018800,0.22706949,-0.
 00176353,0.00013060,-0.00023895,-0.00953699,0.00759983,0.00130175,0.14
 321979,-0.17940303,-0.02430568,0.02381526,-0.01421116,-0.00310094,-0.0
 0199785,-0.00480222,-0.00065664,-0.00120677,-0.00012398,0.00008600,-0.
 00015410,-0.00001414,0.00000183,0.00000675,-0.00003284,0.00000571,0.00
 000472,0.00001292,-0.00000197,-0.00000706,0.00000273,0.00000106,-0.000
 00654,-0.00001530,-0.00000054,-0.00003187,0.00003245,0.00001165,-0.000
 69411,0.00025678,0.00001692,-0.00157152,0.00055695,0.00036888,-0.15090
 659,0.19028792,0.00032543,-0.00020176,0.00404911,0.00039926,-0.0008418
 8,0.00083349,0.02662605,-0.02425895,-0.03181378,0.00179833,-0.00092763
 ,0.00062038,0.00005437,-0.00066339,0.00380266,-0.00009204,0.00003878,-
 0.00011033,-0.00002009,0.00001558,0.00010295,0.00000090,0.00000249,-0.
 00009076,0.,-0.00000059,0.00002578,-0.00000159,0.00000171,-0.00000269,
 0.00000063,0.00000252,-0.00000610,0.00000271,0.00000227,-0.00007199,0.
 00009806,-0.00008232,0.00058269,-0.00034894,0.00024363,-0.00216786,-0.
 02874748,0.02647823,0.02549848,0.00621731,0.00273047,-0.00012627,-0.00
 124545,0.00032511,0.00045865,-0.02050241,-0.00584153,0.00098814,-0.059
 22429,-0.01130399,0.00221638,-0.03232380,-0.02650801,-0.00003751,-0.00
 822337,0.01112491,0.00188000,0.00243601,-0.00118968,-0.00028938,-0.001
 50146,0.00171618,0.00023303,-0.00005511,-0.00064468,-0.00004048,0.0005
 2933,-0.00029474,-0.00005612,-0.00032733,-0.00001269,0.00002245,-0.000
 33785,0.00001319,0.00003306,-0.00453107,-0.00126529,0.00009069,0.00039
 671,-0.00079064,-0.00007897,0.00071493,-0.00016783,-0.00021371,0.11739
 983,0.00142518,0.00073681,-0.00012710,0.00108550,-0.00184340,-0.000682
 58,-0.02676612,-0.00671087,0.00123793,-0.00997743,-0.03334291,-0.00108
 663,0.00598200,0.00200149,-0.00035168,-0.00220197,0.00181248,-0.000007
 15,0.00082502,-0.00044726,-0.00007112,-0.00033075,0.00046095,0.0000679
 4,-0.00001761,-0.00014871,-0.00002737,0.00013274,-0.00004250,-0.000017
 22,-0.00005129,-0.00003913,-0.00000217,-0.00016261,-0.00001291,0.00000
 215,-0.00149352,0.00009895,0.00025817,-0.00029218,0.00007233,-0.000001
 40,-0.00108565,0.00050167,0.00031235,0.03235689,0.03576556,-0.00024541
 ,-0.00022152,0.00098889,0.00052853,-0.00062852,0.00461612,-0.00094330,
 -0.00026654,0.00077102,0.00233968,-0.00099053,-0.01407769,0.00295878,0
 .00198419,0.00112345,0.00064926,-0.00096145,0.00348401,-0.00011887,0.0
 0006524,-0.00024934,0.00007516,-0.00007286,-0.00009957,0.00001140,0.00
 001806,0.00016931,-0.00002108,0.00001479,0.00005225,0.00002094,-0.0000
 0639,0.00002313,0.00001541,-0.00000961,0.00008842,0.00007505,0.0002433
 5,-0.00154287,-0.00003317,0.00003421,0.00031998,-0.00029818,0.00024641
 ,-0.00199308,-0.00492308,0.00029669,0.00773927,-0.00289781,-0.00589572
 ,0.00030281,-0.00186276,0.00066027,0.00024368,-0.00245497,0.00319740,0
 .00086435,0.00463578,0.02412339,0.00203162,-0.05994516,-0.05557409,-0.
 00329891,-0.01252106,-0.02565937,-0.00172961,0.00046959,-0.00011586,-0
 .00003333,-0.00041942,0.00009366,0.00004743,-0.00001099,-0.00008008,-0
 .00000463,0.00003638,-0.00003896,-0.00001342,-0.00004206,0.00000342,0.
 00000619,-0.00004049,0.00001057,-0.00000393,-0.00019662,-0.00074194,-0
 .00001680,0.00015682,-0.00060570,-0.00020516,0.00042858,0.00100013,0.0
 0010952,0.00074503,0.00064074,-0.00008262,0.07371526,-0.00009973,-0.00
 012724,-0.00082133,-0.00014696,0.00169448,0.00010406,0.00406551,-0.000
 90737,-0.00087963,-0.00640926,-0.02172596,-0.00172358,-0.04553500,-0.3
 0140445,-0.02135006,-0.01047906,-0.00215805,0.00088538,0.00036203,-0.0
 0015212,-0.00004739,-0.00031512,0.00020727,0.00001960,-0.00001476,-0.0
 0012541,-0.00001119,0.00010264,-0.00004754,-0.00000141,-0.00006185,0.0
 0000392,0.00000119,-0.00003532,-0.00002220,0.00001033,-0.00042060,-0.0
 0010085,-0.00002995,-0.00008685,-0.00077444,0.00011213,-0.00027643,-0.
 00077839,-0.00011345,0.00025029,0.00124778,0.00021026,0.05907487,0.325
 21935,0.00084106,-0.00040072,0.00875612,0.00016851,0.00004702,0.000670
 74,0.00094502,-0.00081811,0.00531651,-0.00078768,-0.00391710,0.0016315
 3,-0.00237291,-0.02062978,-0.03625005,-0.00031934,0.00197325,-0.003380
 16,0.00000643,-0.00001141,0.00009490,0.00000591,-0.00000116,0.00018806
 ,-0.00000070,-0.00000952,0.00000933,-0.00000027,0.00000742,-0.00009821
 ,0.00000017,-0.00000256,0.00003328,-0.00000776,0.00000499,-0.00009853,
 0.00001249,-0.00000724,0.00053898,-0.00015743,0.00015002,-0.00189613,-
 0.00000832,-0.00020531,0.00064832,-0.00011852,0.00018200,-0.00120192,0
 .00180692,0.02363452,0.02508145,0.00587144,0.00432230,-0.00000888,-0.0
 0168066,0.00236779,0.00034749,0.00031432,-0.00035750,-0.00005776,-0.00
 082014,-0.00031785,0.00006102,-0.00063479,-0.00011162,0.00005682,-0.00
 372573,-0.00363876,-0.00025243,0.01620305,0.00292048,-0.00046815,-0.21
 400292,-0.14289444,-0.00002181,-0.01446427,-0.01387525,-0.00003868,-0.
 00280182,0.00258862,0.00090277,0.00079292,0.00024247,-0.00007496,-0.00
 124175,0.00249209,0.00066590,-0.00723956,-0.00142370,0.00013602,0.0000
 2688,-0.00241828,-0.00022429,0.00003806,-0.00000040,0.00000170,0.00085
 641,0.00018921,-0.00005442,0.00033350,0.00021014,-0.00000617,0.2200233
 4,0.00174212,-0.00117115,-0.00025699,0.00007436,-0.00082217,-0.0000924
 3,-0.00007726,-0.00014025,-0.00000288,0.00037733,0.00023237,-0.0000514
 8,-0.00016105,0.00065744,0.00004477,-0.00275745,-0.00194077,0.00028796
 ,-0.02594881,-0.01557727,-0.00004941,-0.13860563,-0.18065160,-0.002595
 57,0.01171619,0.01283366,0.00010418,0.00195081,0.00051387,-0.00070473,
 0.00106851,-0.00057644,-0.00007669,0.00185801,-0.00503656,-0.00102288,
 0.00029129,0.00176947,0.00043875,0.00012662,0.00047729,0.00003154,-0.0
 0001252,0.00000224,-0.00000500,-0.00075755,-0.00018740,0.00005107,-0.0
 0014891,-0.00010480,0.00000444,0.14934979,0.18988593,-0.00019713,-0.00
 042533,0.00039844,0.00012825,-0.00023750,0.00010954,-0.00003304,0.0000
 1993,-0.00004915,0.00012577,-0.00001217,0.00054955,0.00004852,0.000031
 60,0.00033720,-0.00019891,0.00035493,-0.00326023,-0.00294046,-0.002067
 88,0.00605231,0.00031968,-0.00233189,-0.03871439,0.00218257,0.00191602
 ,0.00212862,0.00085744,-0.00075688,0.00695613,-0.00001284,-0.00001322,
 -0.00056969,0.00062532,-0.00105636,0.00519095,0.00025603,0.00056063,-0
 .00355183,0.00001040,0.00019191,0.00004666,0.00000179,-0.00000663,0.00
 007400,-0.00012749,-0.00001270,-0.00014939,-0.00003945,-0.00001472,-0.
 00007001,-0.00050841,0.00346932,0.02944586,0.00086673,0.00039047,-0.00
 001952,-0.00007034,0.00002980,0.00000149,-0.00003726,-0.00001031,0.000
 00503,-0.00003319,0.00004770,0.00000149,-0.00000829,0.00002517,0.00000
 433,-0.00009696,-0.00033804,-0.00000996,-0.00463524,0.00071528,0.00093
 049,-0.00227149,0.02945035,0.00290581,-0.06462685,0.04998191,0.0064880
 8,0.00608525,-0.02408572,-0.00239064,-0.00352818,-0.00304857,0.0003395
 8,-0.00098852,0.00004362,-0.00000292,-0.00085580,0.00161575,0.00017053
 ,-0.00002842,-0.00008132,-0.00000519,-0.00000824,-0.00000461,0.0000001
 8,-0.00001935,-0.00001198,0.00000048,-0.00002132,-0.00000717,0.0000014
 1,0.00121179,-0.00044311,-0.00043574,0.06776226,-0.00052518,-0.0002752
 0,0.00000485,0.00002353,0.00011204,0.00001522,0.00003981,-0.00000154,-
 0.00000620,-0.00009909,-0.00004320,0.00000846,0.00001480,-0.00007786,-
 0.00000923,0.00024050,0.00010623,-0.00002174,0.00088236,0.00194248,-0.
 00056394,0.00173789,-0.00539343,-0.00084948,0.04602163,-0.32359700,-0.
 02819076,0.00713640,-0.01713451,-0.00210169,-0.00418726,-0.00065000,-0
 .00019841,-0.00005780,0.00079569,0.00016513,0.00060531,-0.00055982,-0.
 00005501,0.00001611,-0.00009399,-0.00001013,0.00000847,-0.00000044,-0.
 00000071,0.00014994,0.00004066,-0.00000732,0.00002809,0.00003517,0.000
 00070,-0.00021836,0.00073157,0.00046210,-0.05228780,0.34375640,-0.0001
 0197,-0.00005954,0.00008900,0.00000170,0.00001363,-0.00007729,0.000009
 00,-0.00000260,0.00003644,-0.00001006,-0.00000195,-0.00006336,0.000001
 57,-0.00000767,0.00000905,0.00003713,0.00001525,0.00019970,0.00094506,
 -0.00055190,0.00767013,0.00051491,-0.00279541,0.00280068,0.00615379,-0
 .02846834,-0.03620688,0.00029486,0.00008196,0.00149887,0.00024222,-0.0
 0027646,0.00502674,-0.00001123,0.00015609,-0.00106809,0.00008376,-0.00
 012296,-0.00043267,0.00000380,-0.00000141,0.00000330,0.00000133,0.0000
 0027,0.00000056,0.00001322,0.00000391,0.00000146,0.00000423,0.00000243
 ,0.00000992,-0.00040706,0.00048397,-0.00441301,-0.00758762,0.03119822,
 0.02681410,0.00176432,0.00102923,-0.00003103,-0.00016436,-0.00086876,-
 0.00006592,-0.00019076,0.00005092,0.00001702,0.00069456,0.00021721,-0.
 00002440,-0.00006000,0.00041401,0.00005218,-0.00151862,-0.00068786,0.0
 0001056,0.00210392,-0.00074628,-0.00025924,-0.00039350,-0.00694466,-0.
 00028996,-0.03498365,0.01638471,0.00390951,-0.09503487,0.02279490,0.00
 777480,-0.02350495,0.00597680,0.00219651,0.00267815,0.00284263,0.00032
 313,-0.00361203,0.00065200,0.00027116,0.00002686,0.00073153,0.00006769
 ,-0.00004303,0.00001234,0.00000407,-0.00091862,-0.00023104,0.00004177,
 -0.00010089,-0.00016497,-0.00000814,0.00041053,0.00163496,0.00015348,0
 .00080495,0.00023293,-0.00018484,0.15184575,-0.00079205,-0.00049447,0.
 00000935,0.00009978,0.00012324,0.00000339,0.00005551,-0.00000850,-0.00
 000416,-0.00017080,-0.00006094,0.00000226,0.00002245,-0.00009363,-0.00
 002218,0.00024467,0.00035119,0.00004147,-0.00047511,0.00122941,0.00019
 725,0.00015453,-0.00088174,-0.00042344,-0.00782918,0.00437334,0.000864
 93,0.02240644,-0.03790317,-0.00380092,0.02974467,-0.00659722,-0.002693
 05,-0.00284705,-0.00325129,-0.00040792,0.00155404,-0.00001870,-0.00006
 289,0.00001026,-0.00008703,-0.00001157,0.00001135,-0.00000347,-0.00000
 086,0.00022912,0.00006311,-0.00000683,0.00002867,0.00004164,0.00000071
 ,-0.00037382,-0.00007051,-0.00002286,-0.00078538,0.00119431,0.00033825
 ,-0.04315811,0.04150846,-0.00018566,-0.00011661,0.00003332,0.00001980,
 0.00007194,0.00001045,0.00001874,-0.00000308,-0.00000527,-0.00005976,-
 0.00002627,0.00005149,0.00001509,-0.00005008,0.00013483,0.00010870,0.0
 0010505,-0.00029719,-0.00023757,0.00021369,-0.00063374,0.00031542,0.00
 007522,0.00389204,0.00182292,-0.00083110,0.00047768,0.00775013,-0.0038
 3141,-0.01281265,0.00423383,-0.00102464,0.00008639,-0.00016259,-0.0008
 0505,0.00375643,0.00034470,0.00000208,-0.00058904,0.00000131,-0.000062
 26,0.00002796,0.00000375,-0.00000085,-0.00000373,0.00008129,0.00002607
 ,-0.00004964,0.00001076,0.00001393,0.00001507,-0.00002806,-0.00016465,
 0.00048367,-0.00027045,0.00026631,-0.00205366,-0.01382522,0.00595084,0
 .00895185,0.00063723,0.00063054,0.00000211,-0.00018103,-0.00024269,-0.
 00001643,-0.00004544,0.00005851,0.00001060,0.00007158,0.00004171,-0.00
 000255,0.00001874,-0.00002457,0.00000032,-0.00016179,-0.00016991,-0.00
 000464,-0.00191557,0.00320256,0.00094621,-0.00036013,0.00080930,0.0000
 1515,0.00115320,0.00163505,0.00041014,0.00529082,0.00614542,0.00022040
 ,-0.21445160,-0.14036559,0.00072205,-0.01783039,-0.02093608,-0.0003887
 1,-0.00225124,-0.00097027,0.00008954,0.00001110,0.00009553,0.00000723,
 -0.00001884,-0.00000409,0.00000187,-0.00009438,-0.00002534,0.00000377,
 -0.00001160,-0.00001399,-0.00000006,0.00000453,-0.00009139,-0.00005121
 ,0.00042778,0.00020523,0.00003553,0.00133363,0.00078434,-0.00016562,0.
 22738126,0.00020934,-0.00005193,-0.00000954,0.00002532,0.00000525,0.00
 000759,-0.00000864,-0.00002761,-0.00000437,0.00003386,0.00002538,0.000
 00152,0.00001875,0.00000416,-0.00000556,-0.00008920,0.00001203,0.00000
 775,0.00257418,0.00019664,-0.00082315,0.00082077,0.00009089,0.00004805
 ,0.00299062,-0.00525011,-0.00109181,-0.02519884,-0.01564737,0.00034097
 ,-0.13723118,-0.17840423,-0.00302377,0.00879368,0.01048841,0.00008542,
 0.00016485,0.00042151,0.00000673,-0.00000236,0.00001653,0.00000263,0.0
 0000145,0.00000192,-0.00000099,-0.00004913,-0.00001397,0.00000309,-0.0
 0000161,-0.00000864,-0.00000128,-0.00000725,0.00002876,0.00005634,-0.0
 0123419,-0.00081276,-0.00004207,-0.00015616,0.00073609,0.00024636,0.14
 874183,0.18739684,-0.00003289,-0.00003696,-0.00011750,0.00000776,0.000
 02757,-0.00009730,0.00000419,-0.00000938,0.00002541,-0.00000328,0.0000
 0105,-0.00001708,0.00000417,-0.00000290,0.00005496,0.00000196,0.000013
 00,-0.00001446,0.00089161,-0.00086594,0.00753915,0.00001829,0.00004802
 ,-0.00112605,0.00052568,-0.00099616,0.00488952,-0.00247432,-0.00184759
 ,0.00090175,0.00099122,-0.00280815,-0.03190855,0.00216752,0.00216302,0
 .00238049,0.00018492,0.00008534,0.00020516,-0.00000187,-0.00000477,-0.
 00001077,0.00000238,-0.00000064,0.00001198,0.00000148,0.00000138,-0.00
 000967,0.00000111,-0.00000035,0.00000619,-0.00004352,0.00006205,-0.000
 60813,-0.00008809,-0.00014314,0.00067765,-0.00024558,0.00018006,-0.001
 96751,-0.00150534,0.00372754,0.02345650,-0.00052932,-0.00014402,-0.000
 02394,0.00005510,-0.00037021,-0.00003803,0.00000212,0.00003605,0.00000
 421,-0.00002088,-0.00000628,0.00000223,0.00007554,0.00003669,-0.000000
 08,-0.00005817,0.00037981,0.00003759,0.00911664,-0.02312893,-0.0022501
 0,-0.00376027,-0.00284224,0.00032950,-0.00103755,-0.00021575,0.0000238
 6,-0.00345470,0.00057339,0.00077035,-0.00205691,0.02969945,0.00281080,
 -0.06803246,0.05308260,0.00702975,0.00189951,0.00036029,-0.00031422,0.
 00003713,0.00029891,0.00002008,-0.00000742,-0.00000513,0.00000080,0.00
 000894,0.00001022,-0.00000010,0.00000423,0.00000159,-0.00000065,0.0005
 2488,-0.00118631,-0.00016459,0.00007071,0.00003249,-0.00003934,-0.0011
 3737,0.00108568,0.00020849,0.00099214,-0.00039610,-0.00040738,0.067308
 11,-0.00048364,0.00023680,0.00011229,-0.00005430,-0.00037597,-0.000029
 35,-0.00001981,0.00003766,0.00000334,0.00004925,0.00001796,-0.00000279
 ,0.00003472,0.00005816,0.00000134,-0.00010008,0.00034230,0.00003505,0.
 00857245,-0.01751645,-0.00257103,-0.00452087,-0.00166581,-0.00021113,-
 0.00060726,0.00060613,0.00013207,0.00122551,0.00195385,-0.00050763,-0.
 00012684,-0.00463826,-0.00052697,0.05030560,-0.32362527,-0.02853976,0.
 00154580,0.00170669,0.00029529,0.00009292,0.00024422,0.00002133,-0.000
 01201,-0.00000103,-0.00000004,-0.00007033,-0.00001273,0.00000420,0.000
 00102,-0.00001215,-0.00000089,0.00095434,-0.00085370,-0.00010465,0.000
 03815,-0.00007481,0.00003631,-0.00001634,-0.00015014,-0.00005549,0.000
 49389,0.00079223,0.00040695,-0.05730219,0.34293032,-0.00005840,0.00008
 493,-0.00067243,-0.00000721,-0.00000180,-0.00000682,-0.00000084,-0.000
 00271,0.00001877,0.00000656,0.00000151,0.00001221,-0.00000012,-0.00000
 056,0.00002522,-0.00000556,0.00000546,0.00000641,0.00047740,-0.0003509
 3,0.00532736,0.00018323,-0.00033045,0.00440421,-0.00000644,0.00010478,
 -0.00042406,0.00082493,-0.00046427,0.00674895,0.00024151,-0.00260901,0
 .00134033,0.00679392,-0.02874279,-0.03579890,-0.00020959,0.00038560,-0
 .00295112,0.00000088,0.00000333,-0.00006533,0.00000041,-0.00000059,0.0
 0000995,-0.00000688,-0.00000147,-0.00000412,-0.00000075,-0.00000078,-0
 .00000538,0.00002287,0.00004467,-0.00038709,-0.00003876,0.00003679,-0.
 00052262,0.00011246,-0.00013182,0.00049126,-0.00033038,0.00046853,-0.0
 0427174,-0.00799925,0.03150157,0.02672495\\-0.00001593,0.00000188,0.00
 000506,0.00002971,-0.00000960,-0.00000412,-0.00001637,0.00000343,0.000
 00059,0.00006289,0.00001011,-0.00000440,-0.00007268,-0.00003247,-0.000
 00280,0.00001697,0.00005700,0.00000977,0.00000313,-0.00006807,0.000016
 73,-0.00002110,0.00000086,-0.00004149,-0.00001305,0.00001149,0.0000026
 0,0.00005183,-0.00002624,0.00000325,-0.00003676,0.00001044,0.00000018,
 0.00003640,0.00001481,-0.00000071,-0.00002349,-0.00000108,-0.00001072,
 -0.00000394,-0.00000241,-0.00000036,0.00000317,-0.00001009,-0.00000113
 ,-0.00002840,-0.00000888,0.00000117,0.00001978,0.00000344,0.00000138,0
 .00004239,0.00004361,0.00002429,-0.00000643,0.00000148,-0.00000238,-0.
 00001797,0.00000370,0.00000106,-0.00000525,0.00000165,0.00000126,-0.00
 000489,-0.00000506,0.00000079\\\@


 THE SOLUTION TO A PROBLEM CHANGES THE PROBLEM.

                                 -- JOHN PEERS
           PAUL DICKSON'S "THE OFFICIAL RULES"
 Job cpu time:       0 days  2 hours  6 minutes 54.9 seconds.
 Elapsed time:       0 days  0 hours  7 minutes 56.2 seconds.
 File lengths (MBytes):  RWF=    538 Int=      0 D2E=      0 Chk=     67 Scr=      1
 Normal termination of Gaussian 16 at Tue Sep 29 16:41:58 2026.
