 Entering Gaussian System, Link 0=g16
 Initial command:
 /share/software/user/restricted/gaussian/g16.B01/l1.exe "/lscratch/jlapier/g16_45670050_129/Gau-78542.inp" -scrdir="/lscratch/jlapier/g16_45670050_129/"
 Entering Link 1 = /share/software/user/restricted/gaussian/g16.B01/l1.exe PID=     78543.
  
 Copyright (c) 1988-2017, Gaussian, Inc.  All Rights Reserved.
  
 This is part of the Gaussian(R) 16 program.  It is based on
 the Gaussian(R) 09 system (copyright 2009, Gaussian, Inc.),
 the Gaussian(R) 03 system (copyright 2003, Gaussian, Inc.),
 the Gaussian(R) 98 system (copyright 1998, Gaussian, Inc.),
 the Gaussian(R) 94 system (copyright 1995, Gaussian, Inc.),
 the Gaussian 92(TM) system (copyright 1992, Gaussian, Inc.),
 the Gaussian 90(TM) system (copyright 1990, Gaussian, Inc.),
 the Gaussian 88(TM) system (copyright 1988, Gaussian, Inc.),
 the Gaussian 86(TM) system (copyright 1986, Carnegie Mellon
 University), and the Gaussian 82(TM) system (copyright 1983,
 Carnegie Mellon University). Gaussian is a federally registered
 trademark of Gaussian, Inc.
  
 This software contains proprietary and confidential information,
 including trade secrets, belonging to Gaussian, Inc.
  
 This software is provided under written license and may be
 used, copied, transmitted, or stored only in accord with that
 written license.
  
 The following legend is applicable only to US Government
 contracts under FAR:
  
                    RESTRICTED RIGHTS LEGEND
  
 Use, reproduction and disclosure by the US Government is
 subject to restrictions as set forth in subparagraphs (a)
 and (c) of the Commercial Computer Software - Restricted
 Rights clause in FAR 52.227-19.
  
 Gaussian, Inc.
 340 Quinnipiac St., Bldg. 40, Wallingford CT 06492
  
  
 ---------------------------------------------------------------
 Warning -- This program may not be used in any manner that
 competes with the business of Gaussian, Inc. or will provide
 assistance to any competitor of Gaussian, Inc.  The licensee
 of this program is prohibited from giving any competitor of
 Gaussian, Inc. access to this program.  By using this program,
 the user acknowledges that Gaussian, Inc. is engaged in the
 business of creating and licensing software in the field of
 computational chemistry and represents and warrants to the
 licensee that it is not a competitor of Gaussian, Inc. and that
 it will not use this program in any manner prohibited above.
 ---------------------------------------------------------------
  

 Cite this work as:
 Gaussian 16, Revision B.01,
 M. J. Frisch, G. W. Trucks, H. B. Schlegel, G. E. Scuseria, 
 M. A. Robb, J. R. Cheeseman, G. Scalmani, V. Barone, 
 G. A. Petersson, H. Nakatsuji, X. Li, M. Caricato, A. V. Marenich, 
 J. Bloino, B. G. Janesko, R. Gomperts, B. Mennucci, H. P. Hratchian, 
 J. V. Ortiz, A. F. Izmaylov, J. L. Sonnenberg, D. Williams-Young, 
 F. Ding, F. Lipparini, F. Egidi, J. Goings, B. Peng, A. Petrone, 
 T. Henderson, D. Ranasinghe, V. G. Zakrzewski, J. Gao, N. Rega, 
 G. Zheng, W. Liang, M. Hada, M. Ehara, K. Toyota, R. Fukuda, 
 J. Hasegawa, M. Ishida, T. Nakajima, Y. Honda, O. Kitao, H. Nakai, 
 T. Vreven, K. Throssell, J. A. Montgomery, Jr., J. E. Peralta, 
 F. Ogliaro, M. J. Bearpark, J. J. Heyd, E. N. Brothers, K. N. Kudin, 
 V. N. Staroverov, T. A. Keith, R. Kobayashi, J. Normand, 
 K. Raghavachari, A. P. Rendell, J. C. Burant, S. S. Iyengar, 
 J. Tomasi, M. Cossi, J. M. Millam, M. Klene, C. Adamo, R. Cammi, 
 J. W. Ochterski, R. L. Martin, K. Morokuma, O. Farkas, 
 J. B. Foresman, and D. J. Fox, Gaussian, Inc., Wallingford CT, 2016.
 
 ******************************************
 Gaussian 16:  ES64L-G16RevB.01 20-Dec-2017
                28-Sep-2026 
 ******************************************
 %nprocshared=8
 Will use up to    8 processors via shared memory.
 %mem=12GB
 %oldchk=calcs/am1/chks/BrPh_23456_anion.chk
 %chk=calcs/b3lyp_gas/chks/BrPh_23456_anion.chk
 Copying data from "calcs/am1/chks/BrPh_23456_anion.chk" to current chk file "calcs/b3lyp_gas/chks/BrPh_23456_anion.chk"
 IOpt=  2 FromEx=T IUOpen= 4 IOptOp= 5 NList=   0 IFRang= 0 IUIn= 4 IUOut= 2.
 ------------------------------------------------------
 #p Opt Freq B3LYP/6-311++G(d) Int=UltraFine Geom=Check
 ------------------------------------------------------
 1/18=20,19=15,26=4,29=2,38=1/1,3;
 2/9=110,12=2,40=1/2;
 3/5=4,6=6,7=1011,11=2,14=-4,25=1,30=1,71=1,74=-5,75=-5/1,2,3;
 4//1;
 5/5=2,38=5/2;
 6/7=2,8=2,9=2,10=2,28=1/1;
 7//1,2,3,16;
 1/18=20,19=15,26=4/3(2);
 2/9=110/2;
 99//99;
 2/9=110/2;
 3/5=4,6=6,7=1011,11=2,14=-2,25=1,30=1,71=1,74=-5,75=-5/1,2,3;
 4/5=5,16=3,69=1/1;
 5/5=2,38=5/2;
 7//1,2,3,16;
 1/18=20,19=15,26=4/3(-5);
 2/9=110/2;
 6/7=2,8=2,9=2,10=2,19=2,28=1/1;
 99/9=1/99;
 Leave Link    1 at Mon Sep 28 02:25:13 2026, MaxMem=  1610612736 cpu:               0.7 elap:               0.1
 (Enter /share/software/user/restricted/gaussian/g16.B01/l101.exe)
 --------------------------
 BrPh_23456_anion b3lyp_gas
 --------------------------
 Structure from the checkpoint file:  "calcs/b3lyp_gas/chks/BrPh_23456_anion.chk"
 Charge = -1 Multiplicity = 1
 Redundant internal coordinates found in file.  (old form).
 C,0,0.,1.4018120276,0.
 C,0,1.1928932826,0.6960481704,0.
 C,0,1.2150562045,-0.7030309166,0.
 C,0,0.,-1.4058036727,0.
 C,0,-1.2150562045,-0.7030309166,0.
 C,0,-1.1928932826,0.6960481704,0.
 Br,0,2.8112808757,1.6576543441,0.
 Br,0,2.8392986347,-1.6528617374,0.
 Br,0,0.,-3.2816280756,0.
 Br,0,-2.8392986347,-1.6528617374,0.
 Br,0,-2.8112808757,1.6576543441,0.
 Recover connectivity data from disk.
 ITRead=  0  0  0  0  0  0  0  0  0  0  0
 MicOpt= -1 -1 -1 -1 -1 -1 -1 -1 -1 -1 -1
 NAtoms=     11 NQM=       11 NQMF=       0 NMMI=      0 NMMIF=      0
                NMic=       0 NMicF=      0.
                    Isotopes and Nuclear Properties:
 (Nuclear quadrupole moments (NQMom) in fm**2, nuclear magnetic moments (NMagM)
  in nuclear magnetons)

  Atom         1           2           3           4           5           6           7           8           9          10
 IAtWgt=          12          12          12          12          12          12          79          79          79          79
 AtmWgt=  12.0000000  12.0000000  12.0000000  12.0000000  12.0000000  12.0000000  78.9183361  78.9183361  78.9183361  78.9183361
 NucSpn=           0           0           0           0           0           0           3           3           3           3
 AtZEff=   3.9000000   3.9000000   3.9000000   3.9000000   3.9000000   3.90000001435.00000001435.00000001435.00000001435.0000000
 NQMom=    0.0000000   0.0000000   0.0000000   0.0000000   0.0000000   0.0000000  31.3000000  31.3000000  31.3000000  31.3000000
 NMagM=    0.0000000   0.0000000   0.0000000   0.0000000   0.0000000   0.0000000   2.1063990   2.1063990   2.1063990   2.1063990
 AtZNuc=   6.0000000   6.0000000   6.0000000   6.0000000   6.0000000   6.0000000  35.0000000  35.0000000  35.0000000  35.0000000

  Atom        11
 IAtWgt=          79
 AtmWgt=  78.9183361
 NucSpn=           3
 AtZEff=1435.0000000
 NQMom=   31.3000000
 NMagM=    2.1063990
 AtZNuc=  35.0000000
 Leave Link  101 at Mon Sep 28 02:25:14 2026, MaxMem=  1610612736 cpu:               4.3 elap:               0.5
 (Enter /share/software/user/restricted/gaussian/g16.B01/l103.exe)

 GradGradGradGradGradGradGradGradGradGradGradGradGradGradGradGradGradGrad
 Berny optimization.
 Initialization pass.
                           ----------------------------
                           !    Initial Parameters    !
                           ! (Angstroms and Degrees)  !
 --------------------------                            --------------------------
 ! Name  Definition              Value          Derivative Info.                !
 --------------------------------------------------------------------------------
 ! R1    R(1,2)                  1.386          estimate D2E/DX2                !
 ! R2    R(1,6)                  1.386          estimate D2E/DX2                !
 ! R3    R(2,3)                  1.3993         estimate D2E/DX2                !
 ! R4    R(2,7)                  1.8825         estimate D2E/DX2                !
 ! R5    R(3,4)                  1.4037         estimate D2E/DX2                !
 ! R6    R(3,8)                  1.8816         estimate D2E/DX2                !
 ! R7    R(4,5)                  1.4037         estimate D2E/DX2                !
 ! R8    R(4,9)                  1.8758         estimate D2E/DX2                !
 ! R9    R(5,6)                  1.3993         estimate D2E/DX2                !
 ! R10   R(5,10)                 1.8816         estimate D2E/DX2                !
 ! R11   R(6,11)                 1.8825         estimate D2E/DX2                !
 ! A1    A(2,1,6)              118.7795         estimate D2E/DX2                !
 ! A2    A(1,2,3)              121.5178         estimate D2E/DX2                !
 ! A3    A(1,2,7)              118.672          estimate D2E/DX2                !
 ! A4    A(3,2,7)              119.8102         estimate D2E/DX2                !
 ! A5    A(2,3,4)              119.137          estimate D2E/DX2                !
 ! A6    A(2,3,8)              121.226          estimate D2E/DX2                !
 ! A7    A(4,3,8)              119.6371         estimate D2E/DX2                !
 ! A8    A(3,4,5)              119.9109         estimate D2E/DX2                !
 ! A9    A(3,4,9)              120.0445         estimate D2E/DX2                !
 ! A10   A(5,4,9)              120.0445         estimate D2E/DX2                !
 ! A11   A(4,5,6)              119.137          estimate D2E/DX2                !
 ! A12   A(4,5,10)             119.6371         estimate D2E/DX2                !
 ! A13   A(6,5,10)             121.226          estimate D2E/DX2                !
 ! A14   A(1,6,5)              121.5178         estimate D2E/DX2                !
 ! A15   A(1,6,11)             118.672          estimate D2E/DX2                !
 ! A16   A(5,6,11)             119.8102         estimate D2E/DX2                !
 ! D1    D(6,1,2,3)              0.0            estimate D2E/DX2                !
 ! D2    D(6,1,2,7)            180.0            estimate D2E/DX2                !
 ! D3    D(2,1,6,5)              0.0            estimate D2E/DX2                !
 ! D4    D(2,1,6,11)           180.0            estimate D2E/DX2                !
 ! D5    D(1,2,3,4)              0.0            estimate D2E/DX2                !
 ! D6    D(1,2,3,8)            180.0            estimate D2E/DX2                !
 ! D7    D(7,2,3,4)            180.0            estimate D2E/DX2                !
 ! D8    D(7,2,3,8)              0.0            estimate D2E/DX2                !
 ! D9    D(2,3,4,5)              0.0            estimate D2E/DX2                !
 ! D10   D(2,3,4,9)            180.0            estimate D2E/DX2                !
 ! D11   D(8,3,4,5)            180.0            estimate D2E/DX2                !
 ! D12   D(8,3,4,9)              0.0            estimate D2E/DX2                !
 ! D13   D(3,4,5,6)              0.0            estimate D2E/DX2                !
 ! D14   D(3,4,5,10)           180.0            estimate D2E/DX2                !
 ! D15   D(9,4,5,6)            180.0            estimate D2E/DX2                !
 ! D16   D(9,4,5,10)             0.0            estimate D2E/DX2                !
 ! D17   D(4,5,6,1)              0.0            estimate D2E/DX2                !
 ! D18   D(4,5,6,11)           180.0            estimate D2E/DX2                !
 ! D19   D(10,5,6,1)           180.0            estimate D2E/DX2                !
 ! D20   D(10,5,6,11)            0.0            estimate D2E/DX2                !
 --------------------------------------------------------------------------------
 Trust Radius=3.00D-01 FncErr=1.00D-07 GrdErr=1.00D-06 EigMax=2.50D+02 EigMin=1.00D-04
 Number of steps in this run=     57 maximum allowed number of steps=    100.
 GradGradGradGradGradGradGradGradGradGradGradGradGradGradGradGradGradGrad

 Leave Link  103 at Mon Sep 28 02:25:14 2026, MaxMem=  1610612736 cpu:               0.1 elap:               0.0
 (Enter /share/software/user/restricted/gaussian/g16.B01/l202.exe)
                          Input orientation:                          
 ---------------------------------------------------------------------
 Center     Atomic      Atomic             Coordinates (Angstroms)
 Number     Number       Type             X           Y           Z
 ---------------------------------------------------------------------
      1          6           0        0.000000    1.401812    0.000000
      2          6           0        1.192893    0.696048    0.000000
      3          6           0        1.215056   -0.703031    0.000000
      4          6           0       -0.000000   -1.405804    0.000000
      5          6           0       -1.215056   -0.703031    0.000000
      6          6           0       -1.192893    0.696048    0.000000
      7         35           0        2.811281    1.657654   -0.000000
      8         35           0        2.839299   -1.652862   -0.000000
      9         35           0       -0.000000   -3.281628    0.000000
     10         35           0       -2.839299   -1.652862    0.000000
     11         35           0       -2.811281    1.657654    0.000000
 ---------------------------------------------------------------------
                    Distance matrix (angstroms):
                    1          2          3          4          5
     1  C    0.000000
     2  C    1.386036   0.000000
     3  C    2.430376   1.399255   0.000000
     4  C    2.807616   2.416770   1.403656   0.000000
     5  C    2.430376   2.784896   2.430112   1.403656   0.000000
     6  C    1.386036   2.385787   2.784896   2.416770   1.399255
     7  Br   2.822898   1.882516   2.849696   4.157893   4.667357
     8  Br   4.170449   2.868454   1.881580   2.850027   4.164129
     9  Br   4.683440   4.152698   2.850531   1.875824   2.850531
    10  Br   4.170449   4.666471   4.164129   2.850027   1.881580
    11  Br   2.822898   4.118021   4.667357   4.157893   2.849696
                    6          7          8          9         10
     6  C    0.000000
     7  Br   4.118021   0.000000
     8  Br   4.666471   3.310635   0.000000
     9  Br   4.152698   5.683292   3.273301   0.000000
    10  Br   2.868454   6.548936   5.678597   3.273301   0.000000
    11  Br   1.882516   5.622562   6.548936   5.683292   3.310635
                   11
    11  Br   0.000000
 Stoichiometry    C6Br5(1-)
 Framework group  C2V[C2(CCBr),SGV(C4Br4)]
 Deg. of freedom    10
 Full point group                 C2V     NOp   4
 RotChk:  IX=0 Diff= 1.57D-15
 Largest Abelian subgroup         C2V     NOp   4
 Largest concise Abelian subgroup C2      NOp   2
                         Standard orientation:                         
 ---------------------------------------------------------------------
 Center     Atomic      Atomic             Coordinates (Angstroms)
 Number     Number       Type             X           Y           Z
 ---------------------------------------------------------------------
      1          6           0       -0.000000    0.000000   -1.945079
      2          6           0       -0.000000    1.192893   -1.239315
      3          6           0       -0.000000    1.215056    0.159764
      4          6           0        0.000000   -0.000000    0.862537
      5          6           0       -0.000000   -1.215056    0.159764
      6          6           0       -0.000000   -1.192893   -1.239315
      7         35           0       -0.000000    2.811281   -2.200921
      8         35           0       -0.000000    2.839299    1.109595
      9         35           0        0.000000   -0.000000    2.738362
     10         35           0       -0.000000   -2.839299    1.109595
     11         35           0       -0.000000   -2.811281   -2.200921
 ---------------------------------------------------------------------
 Rotational constants (GHZ):           0.3077028           0.1951697           0.1194224
 Leave Link  202 at Mon Sep 28 02:25:14 2026, MaxMem=  1610612736 cpu:               0.0 elap:               0.0
 (Enter /share/software/user/restricted/gaussian/g16.B01/l301.exe)
 Standard basis: 6-311++G(d) (5D, 7F)
 Ernie: Thresh=  0.10000D-02 Tol=  0.10000D-05 Strict=F.
 There are   158 symmetry adapted cartesian basis functions of A1  symmetry.
 There are    45 symmetry adapted cartesian basis functions of A2  symmetry.
 There are    61 symmetry adapted cartesian basis functions of B1  symmetry.
 There are   129 symmetry adapted cartesian basis functions of B2  symmetry.
 There are   145 symmetry adapted basis functions of A1  symmetry.
 There are    45 symmetry adapted basis functions of A2  symmetry.
 There are    61 symmetry adapted basis functions of B1  symmetry.
 There are   121 symmetry adapted basis functions of B2  symmetry.
   372 basis functions,   686 primitive gaussians,   393 cartesian basis functions
   106 alpha electrons      106 beta electrons
       nuclear repulsion energy      2664.9962188694 Hartrees.
 IExCor=  402 DFT=T Ex+Corr=B3LYP ExCW=0 ScaHFX=  0.200000
 ScaDFX=  0.800000  0.720000  1.000000  0.810000 ScalE2=  1.000000  1.000000
 IRadAn=      5 IRanWt=     -1 IRanGd=            0 ICorTp=0 IEmpDi=  4
 NAtoms=   11 NActive=   11 NUniq=    7 SFac= 2.47D+00 NAtFMM=   60 NAOKFM=F Big=F
 Integral buffers will be    131072 words long.
 Raffenetti 2 integral format.
 Two-electron integral symmetry is turned on.
 Leave Link  301 at Mon Sep 28 02:25:14 2026, MaxMem=  1610612736 cpu:               0.5 elap:               0.1
 (Enter /share/software/user/restricted/gaussian/g16.B01/l302.exe)
 NPDir=0 NMtPBC=     1 NCelOv=     1 NCel=       1 NClECP=     1 NCelD=      1
         NCelK=      1 NCelE2=     1 NClLst=     1 CellRange=     0.0.
 One-electron integrals computed using PRISM.
 One-electron integral symmetry used in STVInt
 NBasis=   372 RedAO= T EigKep=  1.28D-06  NBF=   145    45    61   121
 NBsUse=   371 1.00D-06 EigRej=  6.33D-07 NBFU=   144    45    61   121
 Precomputing XC quadrature grid using
 IXCGrd= 4 IRadAn=           5 IRanWt=          -1 IRanGd=           0 AccXCQ= 0.00D+00.
 Generated NRdTot=       0 NPtTot=           0 NUsed=           0 NTot=          32
 NSgBfM=   366   366   366   366   366 MxSgAt=    11 MxSgA2=    11.
 Leave Link  302 at Mon Sep 28 02:25:14 2026, MaxMem=  1610612736 cpu:               2.0 elap:               0.3
 (Enter /share/software/user/restricted/gaussian/g16.B01/l303.exe)
 DipDrv:  MaxL=1.
 Leave Link  303 at Mon Sep 28 02:25:14 2026, MaxMem=  1610612736 cpu:               0.4 elap:               0.1
 (Enter /share/software/user/restricted/gaussian/g16.B01/l401.exe)
 ExpMin= 3.50D-02 ExpMax= 4.40D+05 ExpMxC= 1.51D+04 IAcc=3 IRadAn=         5 AccDes= 0.00D+00
 Harris functional with IExCor=  402 and IRadAn=       5 diagonalized for initial guess.
 HarFok:  IExCor=  402 AccDes= 0.00D+00 IRadAn=         5 IDoV= 1 UseB2=F ITyADJ=14
 ICtDFT=  3500011 ScaDFX=  1.000000  1.000000  1.000000  1.000000
 FoFCou: FMM=F IPFlag=           0 FMFlag=      100000 FMFlg1=           0
         NFxFlg=           0 DoJE=T BraDBF=F KetDBF=T FulRan=T
         wScrn=  0.000000 ICntrl=       500 IOpCl=  0 I1Cent=   200000004 NGrid=           0
         NMat0=    1 NMatS0=      1 NMatT0=    0 NMatD0=    1 NMtDS0=    0 NMtDT0=    0
 Petite list used in FoFCou.
 Harris En= -13099.8593228259    
 JPrj=0 DoOrth=F DoCkMO=F.
 Initial guess orbital symmetries:
       Occupied  (A1) (B2) (A1) (B2) (A1) (A1) (B2) (A1) (B2) (A1)
                 (A1) (B2) (A1) (B2) (A1) (B2) (B1) (B2) (A1) (B1)
                 (A2) (B2) (A1) (A2) (B1) (B2) (A1) (A1) (B2) (A1)
                 (A1) (A1) (B2) (A1) (B2) (A1) (A1) (B2) (A1) (B2)
                 (A1) (B2) (B1) (B2) (A1) (B1) (A2) (A1) (B2) (A2)
                 (B1) (A1) (B2) (A1) (B2) (A1) (B2) (B1) (A1) (B2)
                 (A1) (B2) (B1) (A2) (B1) (A2) (A1) (A2) (B2) (A1)
                 (B1) (A2) (B2) (A1) (B1) (A2) (A1) (B2) (A1) (B2)
                 (A1) (A1) (A1) (B2) (A1) (B2) (B2) (A1) (A1) (B2)
                 (B1) (A1) (B2) (A2) (B1) (B2) (A1) (A2) (B1) (B2)
                 (B1) (A1) (B2) (B1) (A2) (A1)
       Virtual   (A1) (A2) (B1) (B2) (A1) (A1) (B2) (A1) (B1) (B2)
                 (A1) (B1) (A1) (B2) (A1) (A2) (B2) (B1) (B2) (A1)
                 (A1) (A2) (B2) (A1) (B1) (B2) (B1) (A1) (A1) (B2)
                 (B1) (B2) (A1) (A2) (A1) (B1) (B2) (A1) (A1) (B2)
                 (A2) (A1) (B2) (A1) (B2) (B2) (A1) (B2) (B1) (A1)
                 (B2) (A1) (B2) (A1) (B2) (B2) (A1) (A1) (B1) (B2)
                 (A2) (B1) (B2) (A2) (A1) (B1) (B2) (A1) (B2) (A1)
                 (A1) (B2) (B1) (A2) (A1) (B1) (A1) (B2) (B2) (A1)
                 (A2) (A2) (B1) (A2) (B1) (A1) (B1) (A2) (B1) (B2)
                 (A1) (B1) (A1) (B2) (A2) (A1) (A1) (B2) (B1) (A1)
                 (A1) (B2) (A2) (A1) (B2) (B2) (A1) (A1) (B2) (B2)
                 (B2) (A1) (A1) (B1) (A2) (A1) (B2) (B2) (B2) (A1)
                 (A1) (A1) (B1) (B2) (B2) (A1) (B1) (A2) (B1) (A2)
                 (A1) (B2) (A1) (B2) (A1) (A1) (B2) (A1) (A2) (B2)
                 (B1) (B2) (A1) (B1) (A2) (B1) (B1) (A2) (B1) (A1)
                 (A2) (B2) (B1) (A1) (A1) (B2) (A1) (B2) (B2) (A1)
                 (A1) (B2) (A2) (B2) (A1) (B2) (A1) (B2) (A1) (B2)
                 (B1) (A2) (B1) (B1) (A2) (A1) (A1) (B2) (A1) (B2)
                 (B1) (A1) (B2) (A1) (B2) (A1) (A1) (B2) (A2) (A1)
                 (B1) (A2) (B1) (A2) (B1) (B2) (A2) (A1) (B2) (A1)
                 (B1) (A2) (B1) (B2) (A1) (B2) (A1) (B2) (A1) (B2)
                 (A1) (B2) (A1) (B2) (A1) (B2) (A1) (B2) (A1) (B1)
                 (A2) (B1) (A2) (B1) (A1) (B2) (A1) (B2) (A1) (B2)
                 (B2) (A1) (A1) (B2) (A1) (A1) (B2) (B2) (A1) (A1)
                 (A1) (B2) (A1) (B2) (A1) (B1) (A2) (B1) (A2) (B1)
                 (A1) (B2) (A1) (B2) (A1) (B2) (B2) (A1) (A1) (B2)
                 (A1) (B2) (A1) (B2) (A1)
 The electronic state of the initial guess is 1-A1.
 Leave Link  401 at Mon Sep 28 02:25:15 2026, MaxMem=  1610612736 cpu:               4.7 elap:               0.6
 (Enter /share/software/user/restricted/gaussian/g16.B01/l502.exe)
 Integral symmetry usage will be decided dynamically.
 Closed shell SCF:
 Using DIIS extrapolation, IDIIS=  1040.
 NGot=  1610612736 LenX=  1610294648 LenY=  1610139758
 Requested convergence on RMS density matrix=1.00D-08 within 128 cycles.
 Requested convergence on MAX density matrix=1.00D-06.
 Requested convergence on             energy=1.00D-06.
 No special actions if energy rises.
 Fock matrices will be formed incrementally for  20 cycles.

 Cycle   1  Pass 1  IDiag  1:
 FoFJK:  IHMeth= 1 ICntrl=       0 DoSepK=F KAlg= 0 I1Cent=           0 FoldK=F
 IRaf= 750000000 NMat=       1 IRICut=       1 DoRegI=T DoRafI=F ISym2E= 1 IDoP0=0 IntGTp=1.
 FoFCou: FMM=F IPFlag=           0 FMFlag=      100000 FMFlg1=           0
         NFxFlg=           0 DoJE=F BraDBF=F KetDBF=F FulRan=T
         wScrn=  0.000000 ICntrl=         0 IOpCl=  0 I1Cent=           0 NGrid=           0
         NMat0=    1 NMatS0=      1 NMatT0=    0 NMatD0=    1 NMtDS0=    0 NMtDT0=    0
 Petite list used in FoFCou.
 E= -13099.0401839545    
 DIIS: error= 1.35D-01 at cycle   1 NSaved=   1.
 NSaved= 1 IEnMin= 1 EnMin= -13099.0401839545     IErMin= 1 ErrMin= 1.35D-01
 ErrMax= 1.35D-01  0.00D+00 EMaxC= 1.00D-01 BMatC= 6.12D+00 BMatP= 6.12D+00
 IDIUse=3 WtCom= 0.00D+00 WtEn= 1.00D+00
 Coeff-Com:  0.100D+01
 Coeff-En:   0.100D+01
 Coeff:      0.100D+01
 Gap=    -0.040 Goal=   None    Shift=    0.000
 GapD=   -0.040 DampG=0.250 DampE=0.250 DampFc=0.2500 IDamp=-1.
 Damping current iteration by 2.50D-01
 RMSDP=9.57D-02 MaxDP=1.39D+01              OVMax= 9.29D-01

 Cycle   2  Pass 1  IDiag  1:
 RMSU=  2.39D-02    CP:  9.58D-01
 E= -13099.1223125269     Delta-E=       -0.082128572350 Rises=F Damp=T
 DIIS: error= 1.01D-01 at cycle   2 NSaved=   2.
 NSaved= 2 IEnMin= 2 EnMin= -13099.1223125269     IErMin= 2 ErrMin= 1.01D-01
 ErrMax= 1.01D-01  0.00D+00 EMaxC= 1.00D-01 BMatC= 2.83D+00 BMatP= 6.12D+00
 IDIUse=3 WtCom= 0.00D+00 WtEn= 1.00D+00
 Coeff-Com: -0.163D+01 0.263D+01
 Coeff-En:   0.252D+00 0.748D+00
 Coeff:      0.252D+00 0.748D+00
 Gap=     0.036 Goal=   None    Shift=    0.000
 RMSDP=3.16D-02 MaxDP=3.26D+00 DE=-8.21D-02 OVMax= 8.86D-01

 Cycle   3  Pass 1  IDiag  1:
 RMSU=  1.74D-02    CP:  5.48D-01  2.46D-01
 E= -13099.3063041043     Delta-E=       -0.183991577383 Rises=F Damp=F
 DIIS: error= 2.61D-02 at cycle   3 NSaved=   3.
 NSaved= 3 IEnMin= 3 EnMin= -13099.3063041043     IErMin= 3 ErrMin= 2.61D-02
 ErrMax= 2.61D-02  0.00D+00 EMaxC= 1.00D-01 BMatC= 4.12D-01 BMatP= 2.83D+00
 IDIUse=3 WtCom= 7.39D-01 WtEn= 2.61D-01
 Coeff-Com:  0.458D+00-0.404D+00 0.946D+00
 Coeff-En:   0.173D+00 0.000D+00 0.827D+00
 Coeff:      0.384D+00-0.299D+00 0.915D+00
 Gap=     0.048 Goal=   None    Shift=    0.000
 RMSDP=2.07D-02 MaxDP=1.25D+00 DE=-1.84D-01 OVMax= 4.01D-01

 Cycle   4  Pass 1  IDiag  1:
 RMSU=  1.78D-02    CP:  6.80D-01  5.72D-01  7.96D-01
 E= -13098.9904261536     Delta-E=        0.315877950623 Rises=F Damp=F
 DIIS: error= 4.61D-02 at cycle   4 NSaved=   4.
 NSaved= 4 IEnMin= 3 EnMin= -13099.3063041043     IErMin= 3 ErrMin= 2.61D-02
 ErrMax= 4.61D-02  0.00D+00 EMaxC= 1.00D-01 BMatC= 4.20D-01 BMatP= 4.12D-01
 IDIUse=3 WtCom= 5.39D-01 WtEn= 4.61D-01
 EnCoef did     5 forward-backward iterations
 Coeff-Com:  0.618D+00-0.763D+00 0.731D+00 0.414D+00
 Coeff-En:   0.124D+00 0.000D+00 0.737D+00 0.139D+00
 Coeff:      0.390D+00-0.411D+00 0.734D+00 0.287D+00
 Gap=     0.092 Goal=   None    Shift=    0.000
 RMSDP=1.82D-02 MaxDP=1.22D+00 DE= 3.16D-01 OVMax= 4.05D-01

 Cycle   5  Pass 1  IDiag  1:
 RMSU=  4.20D-03    CP:  5.39D-01  2.07D-01  9.09D-01  2.22D-01
 E= -13099.4010793076     Delta-E=       -0.410653153955 Rises=F Damp=F
 DIIS: error= 7.25D-03 at cycle   5 NSaved=   5.
 NSaved= 5 IEnMin= 5 EnMin= -13099.4010793076     IErMin= 5 ErrMin= 7.25D-03
 ErrMax= 7.25D-03  0.00D+00 EMaxC= 1.00D-01 BMatC= 2.56D-02 BMatP= 4.12D-01
 IDIUse=3 WtCom= 9.28D-01 WtEn= 7.25D-02
 Coeff-Com:  0.119D+00-0.141D+00 0.296D+00 0.115D+00 0.612D+00
 Coeff-En:   0.000D+00 0.000D+00 0.000D+00 0.000D+00 0.100D+01
 Coeff:      0.110D+00-0.131D+00 0.274D+00 0.106D+00 0.640D+00
 Gap=     0.120 Goal=   None    Shift=    0.000
 RMSDP=2.19D-03 MaxDP=1.46D-01 DE=-4.11D-01 OVMax= 1.90D-02

 Cycle   6  Pass 1  IDiag  1:
 RMSU=  1.46D-03    CP:  5.43D-01  2.07D-01  9.26D-01  1.65D-01  7.04D-01
 E= -13099.4062132413     Delta-E=       -0.005133933739 Rises=F Damp=F
 DIIS: error= 1.80D-03 at cycle   6 NSaved=   6.
 NSaved= 6 IEnMin= 6 EnMin= -13099.4062132413     IErMin= 6 ErrMin= 1.80D-03
 ErrMax= 1.80D-03  0.00D+00 EMaxC= 1.00D-01 BMatC= 1.51D-03 BMatP= 2.56D-02
 IDIUse=3 WtCom= 9.82D-01 WtEn= 1.80D-02
 Coeff-Com: -0.805D-02 0.148D-01 0.559D-01-0.557D-02 0.304D+00 0.638D+00
 Coeff-En:   0.000D+00 0.000D+00 0.000D+00 0.000D+00 0.116D+00 0.884D+00
 Coeff:     -0.790D-02 0.146D-01 0.549D-01-0.547D-02 0.301D+00 0.643D+00
 Gap=     0.122 Goal=   None    Shift=    0.000
 RMSDP=7.24D-04 MaxDP=3.37D-02 DE=-5.13D-03 OVMax= 1.53D-02

 Cycle   7  Pass 1  IDiag  1:
 RMSU=  2.42D-04    CP:  5.38D-01  2.05D-01  9.27D-01  1.48D-01  7.80D-01
                    CP:  6.96D-01
 E= -13099.4075158578     Delta-E=       -0.001302616494 Rises=F Damp=F
 DIIS: error= 3.16D-04 at cycle   7 NSaved=   7.
 NSaved= 7 IEnMin= 7 EnMin= -13099.4075158578     IErMin= 7 ErrMin= 3.16D-04
 ErrMax= 3.16D-04  0.00D+00 EMaxC= 1.00D-01 BMatC= 5.03D-05 BMatP= 1.51D-03
 IDIUse=3 WtCom= 9.97D-01 WtEn= 3.16D-03
 Coeff-Com: -0.125D-01 0.183D-01 0.180D-01-0.492D-02 0.140D+00 0.325D+00
 Coeff-Com:  0.516D+00
 Coeff-En:   0.000D+00 0.000D+00 0.000D+00 0.000D+00 0.000D+00 0.000D+00
 Coeff-En:   0.100D+01
 Coeff:     -0.124D-01 0.182D-01 0.179D-01-0.490D-02 0.139D+00 0.324D+00
 Coeff:      0.517D+00
 Gap=     0.122 Goal=   None    Shift=    0.000
 RMSDP=1.30D-04 MaxDP=6.40D-03 DE=-1.30D-03 OVMax= 9.07D-04

 Cycle   8  Pass 1  IDiag  1:
 RMSU=  6.59D-05    CP:  5.39D-01  2.06D-01  9.27D-01  1.50D-01  7.66D-01
                    CP:  7.22D-01  8.43D-01
 E= -13099.4075431875     Delta-E=       -0.000027329683 Rises=F Damp=F
 DIIS: error= 2.89D-04 at cycle   8 NSaved=   8.
 NSaved= 8 IEnMin= 8 EnMin= -13099.4075431875     IErMin= 8 ErrMin= 2.89D-04
 ErrMax= 2.89D-04  0.00D+00 EMaxC= 1.00D-01 BMatC= 8.73D-06 BMatP= 5.03D-05
 IDIUse=3 WtCom= 9.97D-01 WtEn= 2.89D-03
 Coeff-Com: -0.869D-02 0.119D-01 0.115D-02-0.599D-03 0.341D-01 0.834D-01
 Coeff-Com:  0.189D+00 0.690D+00
 Coeff-En:   0.000D+00 0.000D+00 0.000D+00 0.000D+00 0.000D+00 0.000D+00
 Coeff-En:   0.000D+00 0.100D+01
 Coeff:     -0.866D-02 0.119D-01 0.115D-02-0.597D-03 0.340D-01 0.831D-01
 Coeff:      0.188D+00 0.691D+00
 Gap=     0.121 Goal=   None    Shift=    0.000
 RMSDP=7.52D-05 MaxDP=3.41D-03 DE=-2.73D-05 OVMax= 9.48D-04

 Cycle   9  Pass 1  IDiag  1:
 RMSU=  3.12D-05    CP:  5.39D-01  2.07D-01  9.26D-01  1.53D-01  7.68D-01
                    CP:  7.11D-01  8.38D-01  1.21D+00
 E= -13099.4075508594     Delta-E=       -0.000007671861 Rises=F Damp=F
 DIIS: error= 1.32D-04 at cycle   9 NSaved=   9.
 NSaved= 9 IEnMin= 9 EnMin= -13099.4075508594     IErMin= 9 ErrMin= 1.32D-04
 ErrMax= 1.32D-04  0.00D+00 EMaxC= 1.00D-01 BMatC= 2.90D-06 BMatP= 8.73D-06
 IDIUse=3 WtCom= 9.99D-01 WtEn= 1.32D-03
 Coeff-Com: -0.614D-02 0.826D-02-0.153D-02 0.170D-03 0.103D-01 0.268D-01
 Coeff-Com:  0.640D-01 0.382D+00 0.516D+00
 Coeff-En:   0.000D+00 0.000D+00 0.000D+00 0.000D+00 0.000D+00 0.000D+00
 Coeff-En:   0.000D+00 0.000D+00 0.100D+01
 Coeff:     -0.613D-02 0.825D-02-0.153D-02 0.170D-03 0.103D-01 0.268D-01
 Coeff:      0.639D-01 0.382D+00 0.517D+00
 Gap=     0.121 Goal=   None    Shift=    0.000
 RMSDP=2.44D-05 MaxDP=1.38D-03 DE=-7.67D-06 OVMax= 3.36D-04

 Cycle  10  Pass 1  IDiag  1:
 RMSU=  5.41D-06    CP:  5.39D-01  2.08D-01  9.26D-01  1.54D-01  7.68D-01
                    CP:  7.09D-01  8.39D-01  1.36D+00  1.15D+00
 E= -13099.4075532547     Delta-E=       -0.000002395303 Rises=F Damp=F
 DIIS: error= 9.88D-05 at cycle  10 NSaved=  10.
 NSaved=10 IEnMin=10 EnMin= -13099.4075532547     IErMin=10 ErrMin= 9.88D-05
 ErrMax= 9.88D-05  0.00D+00 EMaxC= 1.00D-01 BMatC= 1.10D-06 BMatP= 2.90D-06
 IDIUse=1 WtCom= 1.00D+00 WtEn= 0.00D+00
 Coeff-Com: -0.251D-02 0.335D-02-0.102D-02 0.266D-03 0.104D-02 0.233D-02
 Coeff-Com: -0.148D-01-0.585D-01 0.988D-01 0.971D+00
 Coeff:     -0.251D-02 0.335D-02-0.102D-02 0.266D-03 0.104D-02 0.233D-02
 Coeff:     -0.148D-01-0.585D-01 0.988D-01 0.971D+00
 Gap=     0.121 Goal=   None    Shift=    0.000
 RMSDP=1.91D-05 MaxDP=1.05D-03 DE=-2.40D-06 OVMax= 3.53D-04

 Cycle  11  Pass 1  IDiag  1:
 RMSU=  4.91D-06    CP:  5.40D-01  2.08D-01  9.26D-01  1.55D-01  7.69D-01
                    CP:  7.06D-01  8.42D-01  1.45D+00  1.40D+00  1.39D+00
 E= -13099.4075545601     Delta-E=       -0.000001305380 Rises=F Damp=F
 DIIS: error= 3.53D-05 at cycle  11 NSaved=  11.
 NSaved=11 IEnMin=11 EnMin= -13099.4075545601     IErMin=11 ErrMin= 3.53D-05
 ErrMax= 3.53D-05  0.00D+00 EMaxC= 1.00D-01 BMatC= 1.61D-07 BMatP= 1.10D-06
 IDIUse=1 WtCom= 1.00D+00 WtEn= 0.00D+00
 Coeff-Com: -0.301D-03 0.406D-03-0.957D-04 0.680D-04-0.812D-04-0.907D-03
 Coeff-Com: -0.195D-01-0.127D+00-0.138D+00 0.427D+00 0.858D+00
 Coeff:     -0.301D-03 0.406D-03-0.957D-04 0.680D-04-0.812D-04-0.907D-03
 Coeff:     -0.195D-01-0.127D+00-0.138D+00 0.427D+00 0.858D+00
 Gap=     0.121 Goal=   None    Shift=    0.000
 RMSDP=1.60D-05 MaxDP=8.00D-04 DE=-1.31D-06 OVMax= 2.19D-04

 Cycle  12  Pass 1  IDiag  1:
 RMSU=  1.20D-06    CP:  5.40D-01  2.08D-01  9.26D-01  1.56D-01  7.69D-01
                    CP:  7.05D-01  8.36D-01  1.50D+00  1.52D+00  1.75D+00
                    CP:  1.12D+00
 E= -13099.4075547793     Delta-E=       -0.000000219205 Rises=F Damp=F
 DIIS: error= 4.88D-06 at cycle  12 NSaved=  12.
 NSaved=12 IEnMin=12 EnMin= -13099.4075547793     IErMin=12 ErrMin= 4.88D-06
 ErrMax= 4.88D-06  0.00D+00 EMaxC= 1.00D-01 BMatC= 4.32D-09 BMatP= 1.61D-07
 IDIUse=1 WtCom= 1.00D+00 WtEn= 0.00D+00
 Coeff-Com: -0.936D-04 0.132D-03 0.622D-04 0.219D-04 0.444D-03 0.601D-03
 Coeff-Com: -0.728D-02-0.535D-01-0.730D-01 0.134D+00 0.457D+00 0.542D+00
 Coeff:     -0.936D-04 0.132D-03 0.622D-04 0.219D-04 0.444D-03 0.601D-03
 Coeff:     -0.728D-02-0.535D-01-0.730D-01 0.134D+00 0.457D+00 0.542D+00
 Gap=     0.121 Goal=   None    Shift=    0.000
 RMSDP=1.10D-06 MaxDP=6.63D-05 DE=-2.19D-07 OVMax= 2.89D-05

 Cycle  13  Pass 1  IDiag  1:
 RMSU=  3.98D-07    CP:  5.40D-01  2.08D-01  9.26D-01  1.56D-01  7.69D-01
                    CP:  7.05D-01  8.34D-01  1.50D+00  1.53D+00  1.74D+00
                    CP:  1.23D+00  1.11D+00
 E= -13099.4075547835     Delta-E=       -0.000000004202 Rises=F Damp=F
 DIIS: error= 1.54D-06 at cycle  13 NSaved=  13.
 NSaved=13 IEnMin=13 EnMin= -13099.4075547835     IErMin=13 ErrMin= 1.54D-06
 ErrMax= 1.54D-06  0.00D+00 EMaxC= 1.00D-01 BMatC= 3.36D-10 BMatP= 4.32D-09
 IDIUse=1 WtCom= 1.00D+00 WtEn= 0.00D+00
 Coeff-Com:  0.216D-04-0.271D-04 0.353D-04 0.199D-05 0.134D-03 0.228D-03
 Coeff-Com: -0.153D-04-0.117D-02-0.606D-02-0.247D-01 0.468D-01 0.237D+00
 Coeff-Com:  0.747D+00
 Coeff:      0.216D-04-0.271D-04 0.353D-04 0.199D-05 0.134D-03 0.228D-03
 Coeff:     -0.153D-04-0.117D-02-0.606D-02-0.247D-01 0.468D-01 0.237D+00
 Coeff:      0.747D+00
 Gap=     0.121 Goal=   None    Shift=    0.000
 RMSDP=3.69D-07 MaxDP=1.72D-05 DE=-4.20D-09 OVMax= 2.13D-05

 Cycle  14  Pass 1  IDiag  1:
 RMSU=  1.54D-07    CP:  5.40D-01  2.08D-01  9.26D-01  1.56D-01  7.69D-01
                    CP:  7.05D-01  8.34D-01  1.50D+00  1.53D+00  1.75D+00
                    CP:  1.28D+00  1.17D+00  9.30D-01
 E= -13099.4075547839     Delta-E=       -0.000000000467 Rises=F Damp=F
 DIIS: error= 5.70D-07 at cycle  14 NSaved=  14.
 NSaved=14 IEnMin=14 EnMin= -13099.4075547839     IErMin=14 ErrMin= 5.70D-07
 ErrMax= 5.70D-07  0.00D+00 EMaxC= 1.00D-01 BMatC= 5.74D-11 BMatP= 3.36D-10
 IDIUse=1 WtCom= 1.00D+00 WtEn= 0.00D+00
 Coeff-Com:  0.428D-05-0.547D-05 0.616D-05-0.143D-05 0.314D-04 0.869D-04
 Coeff-Com:  0.785D-03 0.348D-02 0.442D-02-0.134D-01-0.181D-01 0.310D-01
 Coeff-Com:  0.281D+00 0.711D+00
 Coeff:      0.428D-05-0.547D-05 0.616D-05-0.143D-05 0.314D-04 0.869D-04
 Coeff:      0.785D-03 0.348D-02 0.442D-02-0.134D-01-0.181D-01 0.310D-01
 Coeff:      0.281D+00 0.711D+00
 Gap=     0.121 Goal=   None    Shift=    0.000
 RMSDP=3.13D-07 MaxDP=1.91D-05 DE=-4.67D-10 OVMax= 3.23D-06

 Cycle  15  Pass 1  IDiag  1:
 RMSU=  3.78D-08    CP:  5.40D-01  2.08D-01  9.26D-01  1.56D-01  7.69D-01
                    CP:  7.05D-01  8.34D-01  1.50D+00  1.52D+00  1.75D+00
                    CP:  1.27D+00  1.17D+00  9.70D-01  9.39D-01
 E= -13099.4075547840     Delta-E=       -0.000000000033 Rises=F Damp=F
 DIIS: error= 1.24D-07 at cycle  15 NSaved=  15.
 NSaved=15 IEnMin=15 EnMin= -13099.4075547840     IErMin=15 ErrMin= 1.24D-07
 ErrMax= 1.24D-07  0.00D+00 EMaxC= 1.00D-01 BMatC= 2.30D-12 BMatP= 5.74D-11
 IDIUse=1 WtCom= 1.00D+00 WtEn= 0.00D+00
 Coeff-Com: -0.573D-06 0.777D-06 0.121D-06-0.457D-06 0.556D-05 0.214D-04
 Coeff-Com:  0.220D-03 0.106D-02 0.159D-02-0.203D-02-0.571D-02-0.404D-02
 Coeff-Com:  0.352D-01 0.182D+00 0.791D+00
 Coeff:     -0.573D-06 0.777D-06 0.121D-06-0.457D-06 0.556D-05 0.214D-04
 Coeff:      0.220D-03 0.106D-02 0.159D-02-0.203D-02-0.571D-02-0.404D-02
 Coeff:      0.352D-01 0.182D+00 0.791D+00
 Gap=     0.121 Goal=   None    Shift=    0.000
 RMSDP=6.31D-08 MaxDP=3.75D-06 DE=-3.27D-11 OVMax= 7.73D-07

 Cycle  16  Pass 1  IDiag  1:
 RMSU=  9.29D-09    CP:  5.40D-01  2.08D-01  9.26D-01  1.56D-01  7.69D-01
                    CP:  7.05D-01  8.34D-01  1.50D+00  1.52D+00  1.75D+00
                    CP:  1.27D+00  1.17D+00  9.85D-01  9.44D-01  1.02D+00
 E= -13099.4075547840     Delta-E=       -0.000000000035 Rises=F Damp=F
 DIIS: error= 1.28D-08 at cycle  16 NSaved=  16.
 NSaved=16 IEnMin=16 EnMin= -13099.4075547840     IErMin=16 ErrMin= 1.28D-08
 ErrMax= 1.28D-08  0.00D+00 EMaxC= 1.00D-01 BMatC= 7.76D-14 BMatP= 2.30D-12
 IDIUse=1 WtCom= 1.00D+00 WtEn= 0.00D+00
 Coeff-Com: -0.482D-06 0.634D-06-0.302D-06-0.166D-06 0.965D-06 0.557D-05
 Coeff-Com:  0.619D-04 0.332D-03 0.578D-03-0.306D-03-0.212D-02-0.304D-02
 Coeff-Com:  0.432D-02 0.522D-01 0.378D+00 0.570D+00
 Coeff:     -0.482D-06 0.634D-06-0.302D-06-0.166D-06 0.965D-06 0.557D-05
 Coeff:      0.619D-04 0.332D-03 0.578D-03-0.306D-03-0.212D-02-0.304D-02
 Coeff:      0.432D-02 0.522D-01 0.378D+00 0.570D+00
 Gap=     0.121 Goal=   None    Shift=    0.000
 RMSDP=7.32D-09 MaxDP=3.95D-07 DE=-3.46D-11 OVMax= 6.20D-08

 SCF Done:  E(RB3LYP) =  -13099.4075548     A.U. after   16 cycles
            NFock= 16  Conv=0.73D-08     -V/T= 2.0012
 KE= 1.308350855930D+04 PE=-3.665408242752D+04 EE= 7.806170094565D+03
 Leave Link  502 at Mon Sep 28 02:25:52 2026, MaxMem=  1610612736 cpu:             296.0 elap:              37.1
 (Enter /share/software/user/restricted/gaussian/g16.B01/l601.exe)
 Copying SCF densities to generalized density rwf, IOpCl= 0 IROHF=0.

 **********************************************************************

            Population analysis using the SCF Density.

 **********************************************************************

 Orbital symmetries:
       Occupied  (A1) (B2) (A1) (B2) (A1) (A1) (B2) (A1) (B2) (A1)
                 (A1) (B1) (B2) (B2) (A1) (B1) (A2) (B2) (A1) (B2)
                 (A1) (A2) (B1) (B2) (A1) (A1) (B2) (A1) (B2) (A1)
                 (A1) (A1) (B2) (A1) (B2) (A1) (A1) (B2) (A1) (B1)
                 (B2) (B1) (A2) (B2) (A1) (B2) (A1) (B1) (A2) (B2)
                 (A1) (A1) (B1) (B2) (B2) (A1) (B1) (A2) (A1) (B2)
                 (A1) (A2) (B2) (B1) (A2) (A1) (B2) (A1) (B1) (A2)
                 (A1) (B2) (B1) (A2) (B2) (A1) (A1) (B2) (A1) (B2)
                 (A1) (A1) (A1) (B2) (A1) (B2) (B2) (A1) (A1) (B1)
                 (B2) (A1) (B2) (A2) (B1) (B2) (A1) (B1) (A2) (B2)
                 (B1) (A1) (B2) (A2) (B1) (A1)
       Virtual   (A1) (B2) (A2) (B1) (A1) (A1) (A1) (B2) (B2) (B1)
                 (A1) (A1) (A2) (B1) (B2) (A1) (B2) (B1) (A2) (B2)
                 (A1) (A1) (B2) (A1) (B2) (A1) (B2) (B1) (A1) (B1)
                 (A1) (A2) (B1) (B1) (A1) (B2) (B2) (A2) (A1) (A1)
                 (B2) (A1) (B2) (B1) (B2) (B2) (A1) (A1) (B2) (A1)
                 (B2) (A1) (B2) (A1) (B2) (A1) (A1) (B1) (B2) (A2)
                 (B1) (B2) (A1) (A2) (B1) (B2) (B2) (A1) (B2) (B2)
                 (B1) (A1) (A2) (A1) (A1) (B1) (B2) (A1) (A2) (B1)
                 (A1) (B1) (A2) (B2) (A2) (B1) (B1) (A2) (A1) (A1)
                 (B2) (B1) (A1) (A2) (A1) (B2) (B1) (A1) (B2) (A1)
                 (B2) (A1) (A2) (A1) (B2) (B2) (A1) (A1) (B2) (B2)
                 (A1) (B2) (A1) (B1) (A1) (A2) (B2) (B2) (B2) (A1)
                 (A1) (A1) (B2) (B2) (B1) (A1) (B1) (A1) (A2) (B1)
                 (A2) (B2) (A1) (B2) (A1) (A1) (B2) (A2) (A1) (B1)
                 (B2) (B2) (A1) (B1) (A2) (B1) (B1) (A2) (B1) (A2)
                 (A1) (B2) (B1) (A1) (A1) (B2) (B2) (A1) (A1) (B2)
                 (B2) (A1) (A1) (A2) (B2) (B2) (A1) (B2) (A1) (B2)
                 (B1) (A2) (B1) (A1) (A2) (B1) (A1) (B2) (A1) (B1)
                 (B2) (A1) (B2) (A1) (B2) (A1) (A1) (B2) (A2) (A1)
                 (A2) (B1) (A2) (B1) (B1) (A2) (A1) (B2) (B1) (A1)
                 (B2) (A2) (B1) (B2) (A1) (B2) (A1) (B2) (A1) (B2)
                 (A1) (B2) (A1) (B2) (A1) (B2) (A1) (B2) (A1) (B1)
                 (A2) (B1) (A2) (B1) (A1) (B2) (A1) (B2) (A1) (B2)
                 (B2) (A1) (A1) (B2) (A1) (B2) (A1) (B2) (A1) (A1)
                 (A1) (B2) (A1) (B2) (A1) (B1) (A2) (B1) (A2) (B1)
                 (A1) (B2) (A1) (B2) (A1) (B2) (B2) (A1) (A1) (B2)
                 (A1) (B2) (A1) (B2) (A1)
 The electronic state is 1-A1.
 Alpha  occ. eigenvalues -- -482.72530-482.71577-482.71577-482.69522-482.69522
 Alpha  occ. eigenvalues --  -62.37844 -62.36901 -62.36901 -62.34858 -62.34857
 Alpha  occ. eigenvalues --  -56.19873 -56.19501 -56.19465 -56.18915 -56.18915
 Alpha  occ. eigenvalues --  -56.18566 -56.18566 -56.18525 -56.18525 -56.16855
 Alpha  occ. eigenvalues --  -56.16855 -56.16528 -56.16528 -56.16491 -56.16491
 Alpha  occ. eigenvalues --  -10.12577 -10.12181 -10.12176 -10.10173 -10.10172
 Alpha  occ. eigenvalues --  -10.01130  -8.58857  -8.57918  -8.57917  -8.55875
 Alpha  occ. eigenvalues --   -8.55874  -6.42004  -6.41024  -6.41024  -6.40739
 Alpha  occ. eigenvalues --   -6.40646  -6.39829  -6.39829  -6.39720  -6.39720
 Alpha  occ. eigenvalues --   -6.38938  -6.38938  -6.37808  -6.37808  -6.37703
 Alpha  occ. eigenvalues --   -6.37703  -2.53109  -2.52754  -2.52685  -2.52139
 Alpha  occ. eigenvalues --   -2.52139  -2.51806  -2.51806  -2.51725  -2.51725
 Alpha  occ. eigenvalues --   -2.51676  -2.51675  -2.50771  -2.50771  -2.50771
 Alpha  occ. eigenvalues --   -2.50771  -2.50063  -2.50062  -2.49747  -2.49747
 Alpha  occ. eigenvalues --   -2.49667  -2.49667  -2.48767  -2.48767  -2.48766
 Alpha  occ. eigenvalues --   -2.48766  -0.78751  -0.72978  -0.71403  -0.67502
 Alpha  occ. eigenvalues --   -0.67452  -0.65067  -0.57895  -0.57682  -0.46426
 Alpha  occ. eigenvalues --   -0.46136  -0.37302  -0.36024  -0.31035  -0.30257
 Alpha  occ. eigenvalues --   -0.29755  -0.28138  -0.24432  -0.23855  -0.22248
 Alpha  occ. eigenvalues --   -0.21065  -0.19822  -0.18877  -0.18641  -0.17144
 Alpha  occ. eigenvalues --   -0.16404  -0.15489  -0.13813  -0.11235  -0.10880
 Alpha  occ. eigenvalues --   -0.05883
 Alpha virt. eigenvalues --    0.06237   0.09014   0.09276   0.10257   0.10427
 Alpha virt. eigenvalues --    0.10903   0.11075   0.11265   0.13481   0.13549
 Alpha virt. eigenvalues --    0.13649   0.14168   0.14597   0.15168   0.15378
 Alpha virt. eigenvalues --    0.15706   0.16618   0.16752   0.16803   0.17275
 Alpha virt. eigenvalues --    0.17782   0.18475   0.19225   0.19538   0.20295
 Alpha virt. eigenvalues --    0.20626   0.21428   0.21571   0.23659   0.24282
 Alpha virt. eigenvalues --    0.25780   0.26138   0.26439   0.27537   0.28183
 Alpha virt. eigenvalues --    0.28200   0.28942   0.30036   0.30557   0.31707
 Alpha virt. eigenvalues --    0.32478   0.32881   0.33168   0.33418   0.34419
 Alpha virt. eigenvalues --    0.34992   0.35044   0.35758   0.36878   0.37105
 Alpha virt. eigenvalues --    0.37290   0.38510   0.39392   0.40854   0.42030
 Alpha virt. eigenvalues --    0.48886   0.49161   0.49486   0.50003   0.52384
 Alpha virt. eigenvalues --    0.53301   0.54040   0.54641   0.55177   0.55935
 Alpha virt. eigenvalues --    0.56307   0.59161   0.60671   0.61373   0.63323
 Alpha virt. eigenvalues --    0.64025   0.64696   0.65764   0.66334   0.67141
 Alpha virt. eigenvalues --    0.67250   0.67780   0.68661   0.70552   0.70946
 Alpha virt. eigenvalues --    0.71985   0.72439   0.72522   0.72804   0.74365
 Alpha virt. eigenvalues --    0.74874   0.75691   0.76189   0.76736   0.77882
 Alpha virt. eigenvalues --    0.78916   0.79441   0.81631   0.82872   0.83294
 Alpha virt. eigenvalues --    0.84320   0.86432   0.86819   0.87948   0.90109
 Alpha virt. eigenvalues --    0.90644   0.90866   0.91519   0.91869   0.92757
 Alpha virt. eigenvalues --    0.94151   0.94818   0.98486   0.99335   1.01028
 Alpha virt. eigenvalues --    1.02819   1.03737   1.05020   1.05223   1.09103
 Alpha virt. eigenvalues --    1.11467   1.11609   1.14098   1.18635   1.18988
 Alpha virt. eigenvalues --    1.22263   1.25339   1.27574   1.29861   1.30362
 Alpha virt. eigenvalues --    1.31466   1.38941   1.39672   1.39912   1.41340
 Alpha virt. eigenvalues --    1.43165   1.47864   1.59112   1.61953   1.65121
 Alpha virt. eigenvalues --    1.71290   1.75206   1.89229   1.89835   1.90710
 Alpha virt. eigenvalues --    1.93222   1.96801   1.99001   2.02045   2.02779
 Alpha virt. eigenvalues --    2.06897   2.09190   2.11990   2.13868   2.16104
 Alpha virt. eigenvalues --    2.18864   2.19462   2.21559   2.22568   2.23672
 Alpha virt. eigenvalues --    2.24226   2.27419   2.28100   2.31567   2.32130
 Alpha virt. eigenvalues --    2.36123   2.38718   2.43671   2.44320   2.45525
 Alpha virt. eigenvalues --    2.47176   2.48668   2.55883   2.57512   2.63073
 Alpha virt. eigenvalues --    2.75010   2.88299   2.89689   2.98680   2.99684
 Alpha virt. eigenvalues --    3.01187   3.11764   3.13572   3.17030   3.20427
 Alpha virt. eigenvalues --    3.23735   3.30783   3.34326   3.56958   3.59391
 Alpha virt. eigenvalues --    3.81842   3.99523   4.00203   4.24067   4.25026
 Alpha virt. eigenvalues --    4.25599   4.25904   4.27483   4.27854   4.30350
 Alpha virt. eigenvalues --    4.32480   4.32928   4.33620   4.34310   4.34531
 Alpha virt. eigenvalues --    4.34632   4.36807   4.40457   4.42911   4.50946
 Alpha virt. eigenvalues --    4.52429   4.55463   4.58623   4.63099   4.67482
 Alpha virt. eigenvalues --    4.69300   4.74841   4.75973   4.95768   6.76496
 Alpha virt. eigenvalues --    6.90011   6.91615   6.95297   6.97913   7.64833
 Alpha virt. eigenvalues --    7.67031   7.67969   7.69951   7.71726   7.76220
 Alpha virt. eigenvalues --    7.79274   7.80065   7.80854   7.83479   7.86141
 Alpha virt. eigenvalues --    7.86604   7.87030   7.93177   7.95358  23.35227
 Alpha virt. eigenvalues --   23.94553  23.95377  24.11404  24.11415  24.24723
 Alpha virt. eigenvalues --   48.04362  48.15536  48.16910  48.20333  48.22003
 Alpha virt. eigenvalues --  289.84752 289.87042 289.88053 289.90176 289.91942
 Alpha virt. eigenvalues --  289.98458 289.99966 290.00341 290.00621 290.03639
 Alpha virt. eigenvalues --  290.06621 290.08910 290.09270 290.15068 290.17273
 Alpha virt. eigenvalues -- 1020.830171020.970531020.988211021.028851021.05192
          Condensed to atoms (all electrons):
               1          2          3          4          5          6
     1  C    7.145758   0.837680  -1.444504  -0.526866  -1.444504   0.837680
     2  C    0.837680   7.282199  -0.306400  -1.146706  -0.888215  -0.033993
     3  C   -1.444504  -0.306400   9.391889   0.623940  -0.808792  -0.888215
     4  C   -0.526866  -1.146706   0.623940   7.725787   0.623940  -1.146706
     5  C   -1.444504  -0.888215  -0.808792   0.623940   9.391889  -0.306400
     6  C    0.837680  -0.033993  -0.888215  -1.146706  -0.306400   7.282199
     7  Br  -0.132769   0.123666  -0.191704   0.140838   0.030358  -0.060805
     8  Br   0.040418  -0.132801  -0.018906  -0.084536   0.118422   0.064109
     9  Br   0.123199   0.122364  -0.232526   0.125556  -0.232526   0.122364
    10  Br   0.040418   0.064109   0.118422  -0.084536  -0.018906  -0.132801
    11  Br  -0.132769  -0.060805   0.030358   0.140838  -0.191704   0.123666
               7          8          9         10         11
     1  C   -0.132769   0.040418   0.123199   0.040418  -0.132769
     2  C    0.123666  -0.132801   0.122364   0.064109  -0.060805
     3  C   -0.191704  -0.018906  -0.232526   0.118422   0.030358
     4  C    0.140838  -0.084536   0.125556  -0.084536   0.140838
     5  C    0.030358   0.118422  -0.232526  -0.018906  -0.191704
     6  C   -0.060805   0.064109   0.122364  -0.132801   0.123666
     7  Br  35.349435  -0.029826  -0.007907  -0.000761  -0.001207
     8  Br  -0.029826  35.283308  -0.040952  -0.006314  -0.000761
     9  Br  -0.007907  -0.040952  35.241721  -0.040952  -0.007907
    10  Br  -0.000761  -0.006314  -0.040952  35.283308  -0.029826
    11  Br  -0.001207  -0.000761  -0.007907  -0.029826  35.349435
 Mulliken charges:
               1
     1  C    0.656261
     2  C    0.138903
     3  C   -0.273563
     4  C   -0.391549
     5  C   -0.273563
     6  C    0.138903
     7  Br  -0.219317
     8  Br  -0.192163
     9  Br  -0.172433
    10  Br  -0.192163
    11  Br  -0.219317
 Sum of Mulliken charges =  -1.00000
 Mulliken charges with hydrogens summed into heavy atoms:
               1
     1  C    0.656261
     2  C    0.138903
     3  C   -0.273563
     4  C   -0.391549
     5  C   -0.273563
     6  C    0.138903
     7  Br  -0.219317
     8  Br  -0.192163
     9  Br  -0.172433
    10  Br  -0.192163
    11  Br  -0.219317
 Electronic spatial extent (au):  <R**2>=           7062.4991
 Charge=             -1.0000 electrons
 Dipole moment (field-independent basis, Debye):
    X=              0.0000    Y=              0.0000    Z=              4.7513  Tot=              4.7513
 Quadrupole moment (field-independent basis, Debye-Ang):
   XX=           -131.4027   YY=           -154.4261   ZZ=           -154.8373
   XY=             -0.0000   XZ=             -0.0000   YZ=              0.0000
 Traceless Quadrupole moment (field-independent basis, Debye-Ang):
   XX=             15.4860   YY=             -7.5374   ZZ=             -7.9486
   XY=             -0.0000   XZ=             -0.0000   YZ=              0.0000
 Octapole moment (field-independent basis, Debye-Ang**2):
  XXX=              0.0000  YYY=              0.0000  ZZZ=             82.2321  XYY=              0.0000
  XXY=             -0.0000  XXZ=             11.1379  XZZ=              0.0000  YZZ=             -0.0000
  YYZ=             30.9729  XYZ=              0.0000
 Hexadecapole moment (field-independent basis, Debye-Ang**3):
 XXXX=           -171.0304 YYYY=          -4126.5134 ZZZZ=          -2818.2512 XXXY=             -0.0000
 XXXZ=             -0.0000 YYYX=             -0.0000 YYYZ=              0.0000 ZZZX=             -0.0000
 ZZZY=              0.0000 XXYY=           -717.0483 XXZZ=           -492.7247 YYZZ=          -1161.1586
 XXYZ=              0.0000 YYXZ=             -0.0000 ZZXY=             -0.0000
 N-N= 2.664996218869D+03 E-N=-3.665408242227D+04  KE= 1.308350855930D+04
 Symmetry A1   KE= 6.395880692729D+03
 Symmetry A2   KE= 7.974852966769D+02
 Symmetry B1   KE= 1.089836756372D+03
 Symmetry B2   KE= 4.800305813523D+03
 No NMR shielding tensors so no spin-rotation constants.
 Leave Link  601 at Mon Sep 28 02:25:52 2026, MaxMem=  1610612736 cpu:               2.2 elap:               0.3
 (Enter /share/software/user/restricted/gaussian/g16.B01/l701.exe)
 ... and contract with generalized density number  0.
 Compute integral first derivatives.
 Leave Link  701 at Mon Sep 28 02:25:53 2026, MaxMem=  1610612736 cpu:               1.3 elap:               0.2
 (Enter /share/software/user/restricted/gaussian/g16.B01/l702.exe)
 L702 exits ... SP integral derivatives will be done elsewhere.
 Leave Link  702 at Mon Sep 28 02:25:53 2026, MaxMem=  1610612736 cpu:               0.2 elap:               0.0
 (Enter /share/software/user/restricted/gaussian/g16.B01/l703.exe)
 Integral derivatives from FoFJK, PRISM(SPDF).
 Compute integral first derivatives, UseDBF=F ICtDFT=           0.
 Calling FoFJK, ICntrl=      2127 FMM=F ISym2X=1 I1Cent= 0 IOpClX= 0 NMat=1 NMatS=1 NMatT=0.
 FoFJK:  IHMeth= 1 ICntrl=    2127 DoSepK=F KAlg= 0 I1Cent=           0 FoldK=F
 IRaf=         0 NMat=       1 IRICut=       1 DoRegI=T DoRafI=F ISym2E= 1 IDoP0=0 IntGTp=1.
 FoFCou: FMM=F IPFlag=           0 FMFlag=      100000 FMFlg1=         800
         NFxFlg=           0 DoJE=F BraDBF=F KetDBF=F FulRan=T
         wScrn=  0.000000 ICntrl=      2127 IOpCl=  0 I1Cent=           0 NGrid=           0
         NMat0=    1 NMatS0=      1 NMatT0=    0 NMatD0=    1 NMtDS0=    0 NMtDT0=    0
 Petite list used in FoFCou.
 Leave Link  703 at Mon Sep 28 02:26:02 2026, MaxMem=  1610612736 cpu:              74.8 elap:               9.4
 (Enter /share/software/user/restricted/gaussian/g16.B01/l716.exe)
 Dipole        = 2.03227195D-16-2.84217094D-14 1.86932096D+00
 ***** Axes restored to original set *****
 -------------------------------------------------------------------
 Center     Atomic                   Forces (Hartrees/Bohr)
 Number     Number              X              Y              Z
 -------------------------------------------------------------------
      1        6           0.000000000   -0.003979129    0.000000000
      2        6          -0.040048329   -0.010771529   -0.000000000
      3        6          -0.011146374    0.010282841   -0.000000000
      4        6           0.000000000    0.013599084    0.000000000
      5        6           0.011146374    0.010282841    0.000000000
      6        6           0.040048329   -0.010771529    0.000000000
      7       35           0.025582192    0.017093693   -0.000000000
      8       35           0.020765553   -0.012422820   -0.000000000
      9       35           0.000000000   -0.017984323    0.000000000
     10       35          -0.020765553   -0.012422820   -0.000000000
     11       35          -0.025582192    0.017093693   -0.000000000
 -------------------------------------------------------------------
 Cartesian Forces:  Max     0.040048329 RMS     0.015063809
 Leave Link  716 at Mon Sep 28 02:26:02 2026, MaxMem=  1610612736 cpu:               0.4 elap:               0.1
 (Enter /share/software/user/restricted/gaussian/g16.B01/l103.exe)

 GradGradGradGradGradGradGradGradGradGradGradGradGradGradGradGradGradGrad
 Berny optimization.
 FormGI is forming the generalized inverse of G from B-inverse, IUseBI=4.
 Internal  Forces:  Max     0.030724475 RMS     0.009044069
 Search for a local minimum.
 Step number   1 out of a maximum of   57
 All quantities printed in internal units (Hartrees-Bohrs-Radians)
 RMS Force = .90441D-02 SwitMx=.10000D-02 MixMth= 1
 Mixed Optimization -- RFO/linear search
 Second derivative matrix not updated -- first step.
 ITU=  0
     Eigenvalues ---    0.02040   0.02055   0.02069   0.02074   0.02106
     Eigenvalues ---    0.02149   0.02161   0.02233   0.19132   0.19132
     Eigenvalues ---    0.19181   0.19181   0.19485   0.25000   0.25000
     Eigenvalues ---    0.25000   0.25000   0.25000   0.25000   0.25000
     Eigenvalues ---    0.25000   0.42097   0.42676   0.45184   0.45744
     Eigenvalues ---    0.47019   0.47727
 RFO step:  Lambda=-1.73343243D-02 EMin= 2.04038942D-02
 Linear search not attempted -- first point.
 Iteration  1 RMS(Cart)=  0.04328318 RMS(Int)=  0.00019380
 Iteration  2 RMS(Cart)=  0.00044621 RMS(Int)=  0.00000937
 Iteration  3 RMS(Cart)=  0.00000015 RMS(Int)=  0.00000937
 ITry= 1 IFail=0 DXMaxC= 1.24D-01 DCOld= 1.00D+10 DXMaxT= 3.00D-01 DXLimC= 3.00D+00 Rises=F
 ClnCor:  largest displacement from symmetrization is 8.01D-11 for atom     9.
 Variable       Old X    -DE/DX   Delta X   Delta X   Delta X     New X
                                 (Linear)    (Quad)   (Total)
    R1        2.61923  -0.01010   0.00000  -0.02150  -0.02151   2.59772
    R2        2.61923  -0.01010   0.00000  -0.02150  -0.02151   2.59772
    R3        2.64421   0.00439   0.00000   0.00923   0.00923   2.65344
    R4        3.55744   0.03072   0.00000   0.14725   0.14725   3.70469
    R5        2.65253   0.00604   0.00000   0.01420   0.01422   2.66674
    R6        3.55567   0.02420   0.00000   0.11569   0.11569   3.67136
    R7        2.65253   0.00604   0.00000   0.01420   0.01422   2.66674
    R8        3.54479   0.01798   0.00000   0.08476   0.08476   3.62955
    R9        2.64421   0.00439   0.00000   0.00923   0.00923   2.65344
   R10        3.55567   0.02420   0.00000   0.11569   0.11569   3.67136
   R11        3.55744   0.03072   0.00000   0.14725   0.14725   3.70469
    A1        2.07309   0.00022   0.00000  -0.00556  -0.00560   2.06750
    A2        2.12089   0.00461   0.00000   0.01531   0.01530   2.13618
    A3        2.07122  -0.00520   0.00000  -0.01848  -0.01848   2.05274
    A4        2.09108   0.00059   0.00000   0.00318   0.00318   2.09426
    A5        2.07933  -0.00381   0.00000  -0.01159  -0.01158   2.06776
    A6        2.11579   0.00233   0.00000   0.00740   0.00739   2.12318
    A7        2.08806   0.00148   0.00000   0.00419   0.00418   2.09224
    A8        2.09284  -0.00183   0.00000  -0.00187  -0.00184   2.09100
    A9        2.09517   0.00091   0.00000   0.00093   0.00092   2.09609
   A10        2.09517   0.00091   0.00000   0.00093   0.00092   2.09609
   A11        2.07933  -0.00381   0.00000  -0.01159  -0.01158   2.06776
   A12        2.08806   0.00148   0.00000   0.00419   0.00418   2.09224
   A13        2.11579   0.00233   0.00000   0.00740   0.00739   2.12318
   A14        2.12089   0.00461   0.00000   0.01531   0.01530   2.13618
   A15        2.07122  -0.00520   0.00000  -0.01848  -0.01848   2.05274
   A16        2.09108   0.00059   0.00000   0.00318   0.00318   2.09426
    D1        0.00000  -0.00000   0.00000  -0.00000   0.00000   0.00000
    D2        3.14159  -0.00000   0.00000  -0.00000   0.00000   3.14159
    D3       -0.00000   0.00000   0.00000   0.00000   0.00000   0.00000
    D4        3.14159   0.00000   0.00000   0.00000   0.00000   3.14159
    D5       -0.00000  -0.00000   0.00000  -0.00000   0.00000   0.00000
    D6        3.14159  -0.00000   0.00000  -0.00000   0.00000   3.14159
    D7        3.14159   0.00000   0.00000   0.00000   0.00000   3.14159
    D8       -0.00000  -0.00000   0.00000  -0.00000   0.00000   0.00000
    D9       -0.00000   0.00000   0.00000   0.00000   0.00000   0.00000
   D10        3.14159   0.00000   0.00000   0.00000   0.00000   3.14159
   D11        3.14159   0.00000   0.00000   0.00000   0.00000   3.14159
   D12        0.00000   0.00000   0.00000   0.00000   0.00000   0.00000
   D13        0.00000  -0.00000   0.00000  -0.00000   0.00000   0.00000
   D14        3.14159  -0.00000   0.00000  -0.00000   0.00000   3.14159
   D15        3.14159   0.00000   0.00000   0.00000   0.00000   3.14159
   D16       -0.00000  -0.00000   0.00000  -0.00000   0.00000   0.00000
   D17       -0.00000   0.00000   0.00000   0.00000   0.00000   0.00000
   D18        3.14159  -0.00000   0.00000  -0.00000   0.00000   3.14159
   D19        3.14159   0.00000   0.00000   0.00000   0.00000   3.14159
   D20       -0.00000  -0.00000   0.00000  -0.00000   0.00000   0.00000
         Item               Value     Threshold  Converged?
 Maximum Force            0.030724     0.000450     NO 
 RMS     Force            0.009044     0.000300     NO 
 Maximum Displacement     0.124329     0.001800     NO 
 RMS     Displacement     0.043414     0.001200     NO 
 Predicted change in Energy=-9.364134D-03
 Lowest energy point so far.  Saving SCF results.
 GradGradGradGradGradGradGradGradGradGradGradGradGradGradGradGradGradGrad

 Leave Link  103 at Mon Sep 28 02:26:02 2026, MaxMem=  1610612736 cpu:               0.2 elap:               0.0
 (Enter /share/software/user/restricted/gaussian/g16.B01/l202.exe)
                          Input orientation:                          
 ---------------------------------------------------------------------
 Center     Atomic      Atomic             Coordinates (Angstroms)
 Number     Number       Type             X           Y           Z
 ---------------------------------------------------------------------
      1          6           0        0.000000    1.399010    0.000000
      2          6           0        1.181133    0.695735    0.000000
      3          6           0        1.220917   -0.707841    0.000000
      4          6           0       -0.000000   -1.415505    0.000000
      5          6           0       -1.220917   -0.707841    0.000000
      6          6           0       -1.181133    0.695735    0.000000
      7         35           0        2.850599    1.723446    0.000000
      8         35           0        2.902994   -1.680002   -0.000000
      9         35           0       -0.000000   -3.336182    0.000000
     10         35           0       -2.902994   -1.680002    0.000000
     11         35           0       -2.850599    1.723446    0.000000
 ---------------------------------------------------------------------
                    Distance matrix (angstroms):
                    1          2          3          4          5
     1  C    0.000000
     2  C    1.374653   0.000000
     3  C    2.435048   1.404140   0.000000
     4  C    2.814515   2.419175   1.411180   0.000000
     5  C    2.435048   2.782062   2.441835   1.411180   0.000000
     6  C    1.374653   2.362265   2.782062   2.419175   1.404140
     7  Br   2.869002   1.960436   2.926947   4.240157   4.742194
     8  Br   4.231747   2.934098   1.942802   2.915018   4.236949
     9  Br   4.735192   4.201360   2.898071   1.920677   2.898071
    10  Br   4.231747   4.724851   4.236949   2.915018   1.942802
    11  Br   2.869002   4.160655   4.742194   4.240157   2.926947
                    6          7          8          9         10
     6  C    0.000000
     7  Br   4.160655   0.000000
     8  Br   4.724851   3.403852   0.000000
     9  Br   4.201360   5.807388   3.342200   0.000000
    10  Br   2.934098   6.684855   5.805987   3.342200   0.000000
    11  Br   1.960436   5.701198   6.684855   5.807388   3.403852
                   11
    11  Br   0.000000
 Stoichiometry    C6Br5(1-)
 Framework group  C2V[C2(CCBr),SGV(C4Br4)]
 Deg. of freedom    10
 Full point group                 C2V     NOp   4
 RotChk:  IX=0 Diff= 2.75D-16
 Largest Abelian subgroup         C2V     NOp   4
 Largest concise Abelian subgroup C2      NOp   2
                         Standard orientation:                         
 ---------------------------------------------------------------------
 Center     Atomic      Atomic             Coordinates (Angstroms)
 Number     Number       Type             X           Y           Z
 ---------------------------------------------------------------------
      1          6           0        0.000000   -0.000000   -1.939150
      2          6           0       -0.000000    1.181133   -1.235875
      3          6           0       -0.000000    1.220917    0.167701
      4          6           0       -0.000000    0.000000    0.875365
      5          6           0       -0.000000   -1.220917    0.167701
      6          6           0       -0.000000   -1.181133   -1.235875
      7         35           0       -0.000000    2.850599   -2.263586
      8         35           0       -0.000000    2.902994    1.139862
      9         35           0       -0.000000    0.000000    2.796042
     10         35           0       -0.000000   -2.902994    1.139862
     11         35           0       -0.000000   -2.850599   -2.263586
 ---------------------------------------------------------------------
 Rotational constants (GHZ):           0.2934201           0.1884356           0.1147455
 Leave Link  202 at Mon Sep 28 02:26:02 2026, MaxMem=  1610612736 cpu:               0.0 elap:               0.0
 (Enter /share/software/user/restricted/gaussian/g16.B01/l301.exe)
 Standard basis: 6-311++G(d) (5D, 7F)
 Ernie: Thresh=  0.10000D-02 Tol=  0.10000D-05 Strict=F.
 There are   158 symmetry adapted cartesian basis functions of A1  symmetry.
 There are    45 symmetry adapted cartesian basis functions of A2  symmetry.
 There are    61 symmetry adapted cartesian basis functions of B1  symmetry.
 There are   129 symmetry adapted cartesian basis functions of B2  symmetry.
 There are   145 symmetry adapted basis functions of A1  symmetry.
 There are    45 symmetry adapted basis functions of A2  symmetry.
 There are    61 symmetry adapted basis functions of B1  symmetry.
 There are   121 symmetry adapted basis functions of B2  symmetry.
   372 basis functions,   686 primitive gaussians,   393 cartesian basis functions
   106 alpha electrons      106 beta electrons
       nuclear repulsion energy      2609.7216735952 Hartrees.
 IExCor=  402 DFT=T Ex+Corr=B3LYP ExCW=0 ScaHFX=  0.200000
 ScaDFX=  0.800000  0.720000  1.000000  0.810000 ScalE2=  1.000000  1.000000
 IRadAn=      5 IRanWt=     -1 IRanGd=            0 ICorTp=0 IEmpDi=  4
 NAtoms=   11 NActive=   11 NUniq=    7 SFac= 2.47D+00 NAtFMM=   60 NAOKFM=F Big=F
 Integral buffers will be    131072 words long.
 Raffenetti 2 integral format.
 Two-electron integral symmetry is turned on.
 Leave Link  301 at Mon Sep 28 02:26:02 2026, MaxMem=  1610612736 cpu:               0.5 elap:               0.1
 (Enter /share/software/user/restricted/gaussian/g16.B01/l302.exe)
 NPDir=0 NMtPBC=     1 NCelOv=     1 NCel=       1 NClECP=     1 NCelD=      1
         NCelK=      1 NCelE2=     1 NClLst=     1 CellRange=     0.0.
 One-electron integrals computed using PRISM.
 One-electron integral symmetry used in STVInt
 NBasis=   372 RedAO= T EigKep=  1.34D-06  NBF=   145    45    61   121
 NBsUse=   371 1.00D-06 EigRej=  6.57D-07 NBFU=   144    45    61   121
 Precomputing XC quadrature grid using
 IXCGrd= 4 IRadAn=           5 IRanWt=          -1 IRanGd=           0 AccXCQ= 0.00D+00.
 Generated NRdTot=       0 NPtTot=           0 NUsed=           0 NTot=          32
 NSgBfM=   365   365   365   365   365 MxSgAt=    11 MxSgA2=    11.
 Leave Link  302 at Mon Sep 28 02:26:03 2026, MaxMem=  1610612736 cpu:               2.0 elap:               0.3
 (Enter /share/software/user/restricted/gaussian/g16.B01/l303.exe)
 DipDrv:  MaxL=1.
 Leave Link  303 at Mon Sep 28 02:26:03 2026, MaxMem=  1610612736 cpu:               0.6 elap:               0.1
 (Enter /share/software/user/restricted/gaussian/g16.B01/l401.exe)
 Initial guess from the checkpoint file:  "calcs/b3lyp_gas/chks/BrPh_23456_anion.chk"
 B after Tr=    -0.000000   -0.000000    0.000000
         Rot=    1.000000   -0.000000   -0.000000    0.000000 Ang=   0.00 deg.
 Guess basis will be translated and rotated to current coordinates.
 JPrj=2 DoOrth=T DoCkMO=T.
 Initial guess orbital symmetries:
       Occupied  (A1) (B2) (A1) (B2) (A1) (A1) (B2) (A1) (B2) (A1)
                 (A1) (B1) (B2) (B2) (A1) (B1) (A2) (B2) (A1) (B2)
                 (A1) (A2) (B1) (B2) (A1) (A1) (B2) (A1) (B2) (A1)
                 (A1) (A1) (B2) (A1) (B2) (A1) (A1) (B2) (A1) (B1)
                 (B2) (B1) (A2) (B2) (A1) (B2) (A1) (B1) (A2) (B2)
                 (A1) (A1) (B1) (B2) (B2) (A1) (B1) (A2) (A1) (B2)
                 (A1) (A2) (B2) (B1) (A2) (A1) (B2) (A1) (B1) (A2)
                 (A1) (B2) (B1) (A2) (B2) (A1) (A1) (B2) (A1) (B2)
                 (A1) (A1) (A1) (B2) (A1) (B2) (B2) (A1) (A1) (B1)
                 (B2) (A1) (B2) (A2) (B1) (B2) (A1) (B1) (A2) (B2)
                 (B1) (A1) (B2) (A2) (B1) (A1)
       Virtual   (A1) (B2) (A2) (B1) (A1) (A1) (A1) (B2) (B2) (B1)
                 (A1) (A1) (A2) (B1) (B2) (A1) (B2) (B1) (A2) (B2)
                 (A1) (A1) (B2) (A1) (B2) (A1) (B2) (B1) (A1) (B1)
                 (A1) (A2) (B1) (B1) (A1) (B2) (B2) (A2) (A1) (A1)
                 (B2) (A1) (B2) (B1) (B2) (B2) (A1) (A1) (B2) (A1)
                 (B2) (A1) (B2) (A1) (B2) (A1) (A1) (B1) (B2) (A2)
                 (B1) (B2) (A1) (A2) (B1) (B2) (B2) (A1) (B2) (B2)
                 (B1) (A1) (A2) (A1) (A1) (B1) (B2) (A1) (A2) (B1)
                 (A1) (B1) (A2) (B2) (A2) (B1) (B1) (A2) (A1) (A1)
                 (B2) (B1) (A1) (A2) (A1) (B2) (B1) (A1) (B2) (A1)
                 (B2) (A1) (A2) (A1) (B2) (B2) (A1) (A1) (B2) (B2)
                 (A1) (B2) (A1) (B1) (A1) (A2) (B2) (B2) (B2) (A1)
                 (A1) (A1) (B2) (B2) (B1) (A1) (B1) (A1) (A2) (B1)
                 (A2) (B2) (A1) (B2) (A1) (A1) (B2) (A2) (A1) (B1)
                 (B2) (B2) (A1) (B1) (A2) (B1) (B1) (A2) (B1) (A2)
                 (A1) (B2) (B1) (A1) (A1) (B2) (B2) (A1) (A1) (B2)
                 (B2) (A1) (A1) (A2) (B2) (B2) (A1) (B2) (A1) (B2)
                 (B1) (A2) (B1) (A1) (A2) (B1) (A1) (B2) (A1) (B1)
                 (B2) (A1) (B2) (A1) (B2) (A1) (A1) (B2) (A2) (A1)
                 (A2) (B1) (A2) (B1) (B1) (A2) (A1) (B2) (B1) (A1)
                 (B2) (A2) (B1) (B2) (A1) (B2) (A1) (B2) (A1) (B2)
                 (A1) (B2) (A1) (B2) (A1) (B2) (A1) (B2) (A1) (B1)
                 (A2) (B1) (A2) (B1) (A1) (B2) (A1) (B2) (A1) (B2)
                 (B2) (A1) (A1) (B2) (A1) (B2) (A1) (B2) (A1) (A1)
                 (A1) (B2) (A1) (B2) (A1) (B1) (A2) (B1) (A2) (B1)
                 (A1) (B2) (A1) (B2) (A1) (B2) (B2) (A1) (A1) (B2)
                 (A1) (B2) (A1) (B2) (A1)
 The electronic state of the initial guess is 1-A1.
 Generating alternative initial guess.
 ExpMin= 3.50D-02 ExpMax= 4.40D+05 ExpMxC= 1.51D+04 IAcc=3 IRadAn=         5 AccDes= 0.00D+00
 Harris functional with IExCor=  402 and IRadAn=       5 diagonalized for initial guess.
 HarFok:  IExCor=  402 AccDes= 0.00D+00 IRadAn=         5 IDoV= 1 UseB2=F ITyADJ=14
 ICtDFT=  3500011 ScaDFX=  1.000000  1.000000  1.000000  1.000000
 FoFCou: FMM=F IPFlag=           0 FMFlag=      100000 FMFlg1=           0
         NFxFlg=           0 DoJE=T BraDBF=F KetDBF=T FulRan=T
         wScrn=  0.000000 ICntrl=       500 IOpCl=  0 I1Cent=   200000004 NGrid=           0
         NMat0=    1 NMatS0=      1 NMatT0=    0 NMatD0=    1 NMtDS0=    0 NMtDT0=    0
 Petite list used in FoFCou.
 Harris En= -13099.8676760821    
 Leave Link  401 at Mon Sep 28 02:26:04 2026, MaxMem=  1610612736 cpu:               7.7 elap:               1.0
 (Enter /share/software/user/restricted/gaussian/g16.B01/l502.exe)
 Integral symmetry usage will be decided dynamically.
 Closed shell SCF:
 Using DIIS extrapolation, IDIIS=  1040.
 NGot=  1610612736 LenX=  1610294648 LenY=  1610139758
 Requested convergence on RMS density matrix=1.00D-08 within 128 cycles.
 Requested convergence on MAX density matrix=1.00D-06.
 Requested convergence on             energy=1.00D-06.
 No special actions if energy rises.
 Fock matrices will be formed incrementally for  20 cycles.

 Cycle   1  Pass 1  IDiag  1:
 FoFJK:  IHMeth= 1 ICntrl=       0 DoSepK=F KAlg= 0 I1Cent=           0 FoldK=F
 IRaf= 740000000 NMat=       1 IRICut=       1 DoRegI=T DoRafI=F ISym2E= 1 IDoP0=0 IntGTp=1.
 FoFCou: FMM=F IPFlag=           0 FMFlag=      100000 FMFlg1=           0
         NFxFlg=           0 DoJE=F BraDBF=F KetDBF=F FulRan=T
         wScrn=  0.000000 ICntrl=         0 IOpCl=  0 I1Cent=           0 NGrid=           0
         NMat0=    1 NMatS0=      1 NMatT0=    0 NMatD0=    1 NMtDS0=    0 NMtDT0=    0
 Petite list used in FoFCou.
 E= -13099.4116389396    
 DIIS: error= 2.84D-03 at cycle   1 NSaved=   1.
 NSaved= 1 IEnMin= 1 EnMin= -13099.4116389396     IErMin= 1 ErrMin= 2.84D-03
 ErrMax= 2.84D-03  0.00D+00 EMaxC= 1.00D-01 BMatC= 5.96D-03 BMatP= 5.96D-03
 IDIUse=3 WtCom= 9.72D-01 WtEn= 2.84D-02
 Coeff-Com:  0.100D+01
 Coeff-En:   0.100D+01
 Coeff:      0.100D+01
 Gap=     0.134 Goal=   None    Shift=    0.000
 GapD=    0.134 DampG=1.000 DampE=1.000 DampFc=1.0000 IDamp=-1.
 RMSDP=2.09D-03 MaxDP=1.49D-01              OVMax= 4.07D-02

 Cycle   2  Pass 1  IDiag  1:
 RMSU=  2.09D-03    CP:  9.98D-01
 E= -13099.4157660223     Delta-E=       -0.004127082620 Rises=F Damp=F
 DIIS: error= 1.58D-03 at cycle   2 NSaved=   2.
 NSaved= 2 IEnMin= 2 EnMin= -13099.4157660223     IErMin= 2 ErrMin= 1.58D-03
 ErrMax= 1.58D-03  0.00D+00 EMaxC= 1.00D-01 BMatC= 1.25D-03 BMatP= 5.96D-03
 IDIUse=3 WtCom= 9.84D-01 WtEn= 1.58D-02
 Coeff-Com:  0.214D+00 0.786D+00
 Coeff-En:   0.000D+00 0.100D+01
 Coeff:      0.210D+00 0.790D+00
 Gap=     0.116 Goal=   None    Shift=    0.000
 RMSDP=1.30D-03 MaxDP=1.04D-01 DE=-4.13D-03 OVMax= 1.91D-02

 Cycle   3  Pass 1  IDiag  1:
 RMSU=  1.17D-03    CP:  9.95D-01  7.37D-01
 E= -13099.4142336527     Delta-E=        0.001532369573 Rises=F Damp=F
 DIIS: error= 2.39D-03 at cycle   3 NSaved=   3.
 NSaved= 3 IEnMin= 2 EnMin= -13099.4157660223     IErMin= 2 ErrMin= 1.58D-03
 ErrMax= 2.39D-03  0.00D+00 EMaxC= 1.00D-01 BMatC= 2.69D-03 BMatP= 1.25D-03
 IDIUse=3 WtCom= 1.70D-01 WtEn= 8.30D-01
 Coeff-Com:  0.414D-02 0.595D+00 0.401D+00
 Coeff-En:   0.000D+00 0.641D+00 0.359D+00
 Coeff:      0.703D-03 0.633D+00 0.366D+00
 Gap=     0.119 Goal=   None    Shift=    0.000
 RMSDP=6.83D-04 MaxDP=5.76D-02 DE= 1.53D-03 OVMax= 1.05D-02

 Cycle   4  Pass 1  IDiag  1:
 RMSU=  2.66D-04    CP:  9.95D-01  9.33D-01  5.93D-01
 E= -13099.4170734795     Delta-E=       -0.002839826830 Rises=F Damp=F
 DIIS: error= 3.21D-04 at cycle   4 NSaved=   4.
 NSaved= 4 IEnMin= 4 EnMin= -13099.4170734795     IErMin= 4 ErrMin= 3.21D-04
 ErrMax= 3.21D-04  0.00D+00 EMaxC= 1.00D-01 BMatC= 5.09D-05 BMatP= 1.25D-03
 IDIUse=3 WtCom= 9.97D-01 WtEn= 3.21D-03
 Coeff-Com: -0.550D-02 0.286D+00 0.142D+00 0.578D+00
 Coeff-En:   0.000D+00 0.000D+00 0.000D+00 0.100D+01
 Coeff:     -0.548D-02 0.285D+00 0.141D+00 0.579D+00
 Gap=     0.118 Goal=   None    Shift=    0.000
 RMSDP=2.76D-04 MaxDP=3.33D-02 DE=-2.84D-03 OVMax= 3.65D-03

 Cycle   5  Pass 1  IDiag  1:
 RMSU=  1.39D-04    CP:  9.97D-01  9.96D-01  4.35D-01  8.79D-01
 E= -13099.4171107931     Delta-E=       -0.000037313590 Rises=F Damp=F
 DIIS: error= 3.02D-04 at cycle   5 NSaved=   5.
 NSaved= 5 IEnMin= 5 EnMin= -13099.4171107931     IErMin= 5 ErrMin= 3.02D-04
 ErrMax= 3.02D-04  0.00D+00 EMaxC= 1.00D-01 BMatC= 1.63D-05 BMatP= 5.09D-05
 IDIUse=3 WtCom= 9.97D-01 WtEn= 3.02D-03
 Coeff-Com: -0.496D-02 0.142D+00 0.588D-01 0.421D+00 0.384D+00
 Coeff-En:   0.000D+00 0.000D+00 0.000D+00 0.241D+00 0.759D+00
 Coeff:     -0.494D-02 0.141D+00 0.587D-01 0.420D+00 0.385D+00
 Gap=     0.119 Goal=   None    Shift=    0.000
 RMSDP=9.98D-05 MaxDP=8.43D-03 DE=-3.73D-05 OVMax= 1.85D-03

 Cycle   6  Pass 1  IDiag  1:
 RMSU=  4.43D-05    CP:  9.96D-01  9.91D-01  4.71D-01  9.99D-01  5.73D-01
 E= -13099.4171281408     Delta-E=       -0.000017347696 Rises=F Damp=F
 DIIS: error= 6.47D-05 at cycle   6 NSaved=   6.
 NSaved= 6 IEnMin= 6 EnMin= -13099.4171281408     IErMin= 6 ErrMin= 6.47D-05
 ErrMax= 6.47D-05  0.00D+00 EMaxC= 1.00D-01 BMatC= 9.34D-07 BMatP= 1.63D-05
 IDIUse=1 WtCom= 1.00D+00 WtEn= 0.00D+00
 Coeff-Com: -0.133D-02 0.314D-01 0.815D-02 0.154D+00 0.224D+00 0.584D+00
 Coeff:     -0.133D-02 0.314D-01 0.815D-02 0.154D+00 0.224D+00 0.584D+00
 Gap=     0.118 Goal=   None    Shift=    0.000
 RMSDP=3.96D-05 MaxDP=2.28D-03 DE=-1.73D-05 OVMax= 1.13D-03

 Cycle   7  Pass 1  IDiag  1:
 RMSU=  1.37D-05    CP:  9.96D-01  9.92D-01  4.69D-01  1.00D+00  7.78D-01
                    CP:  5.74D-01
 E= -13099.4171290019     Delta-E=       -0.000000861100 Rises=F Damp=F
 DIIS: error= 3.23D-05 at cycle   7 NSaved=   7.
 NSaved= 7 IEnMin= 7 EnMin= -13099.4171290019     IErMin= 7 ErrMin= 3.23D-05
 ErrMax= 3.23D-05  0.00D+00 EMaxC= 1.00D-01 BMatC= 3.20D-07 BMatP= 9.34D-07
 IDIUse=1 WtCom= 1.00D+00 WtEn= 0.00D+00
 Coeff-Com: -0.140D-03-0.698D-02-0.669D-02 0.268D-01 0.761D-01 0.427D+00
 Coeff-Com:  0.484D+00
 Coeff:     -0.140D-03-0.698D-02-0.669D-02 0.268D-01 0.761D-01 0.427D+00
 Coeff:      0.484D+00
 Gap=     0.118 Goal=   None    Shift=    0.000
 RMSDP=1.28D-05 MaxDP=7.36D-04 DE=-8.61D-07 OVMax= 2.33D-04

 Cycle   8  Pass 1  IDiag  1:
 RMSU=  5.08D-06    CP:  9.96D-01  9.93D-01  4.75D-01  1.03D+00  7.65D-01
                    CP:  6.98D-01  9.06D-01
 E= -13099.4171293416     Delta-E=       -0.000000339738 Rises=F Damp=F
 DIIS: error= 5.98D-06 at cycle   8 NSaved=   8.
 NSaved= 8 IEnMin= 8 EnMin= -13099.4171293416     IErMin= 8 ErrMin= 5.98D-06
 ErrMax= 5.98D-06  0.00D+00 EMaxC= 1.00D-01 BMatC= 8.26D-09 BMatP= 3.20D-07
 IDIUse=1 WtCom= 1.00D+00 WtEn= 0.00D+00
 Coeff-Com:  0.771D-04-0.638D-02-0.397D-02-0.263D-02 0.814D-02 0.145D+00
 Coeff-Com:  0.170D+00 0.689D+00
 Coeff:      0.771D-04-0.638D-02-0.397D-02-0.263D-02 0.814D-02 0.145D+00
 Coeff:      0.170D+00 0.689D+00
 Gap=     0.118 Goal=   None    Shift=    0.000
 RMSDP=4.33D-06 MaxDP=4.21D-04 DE=-3.40D-07 OVMax= 5.16D-05

 Cycle   9  Pass 1  IDiag  1:
 RMSU=  1.61D-06    CP:  9.96D-01  9.94D-01  4.73D-01  1.03D+00  7.78D-01
                    CP:  7.22D-01  1.01D+00  1.02D+00
 E= -13099.4171293507     Delta-E=       -0.000000009062 Rises=F Damp=F
 DIIS: error= 1.85D-06 at cycle   9 NSaved=   9.
 NSaved= 9 IEnMin= 9 EnMin= -13099.4171293507     IErMin= 9 ErrMin= 1.85D-06
 ErrMax= 1.85D-06  0.00D+00 EMaxC= 1.00D-01 BMatC= 1.18D-09 BMatP= 8.26D-09
 IDIUse=1 WtCom= 1.00D+00 WtEn= 0.00D+00
 Coeff-Com:  0.477D-04-0.230D-02-0.117D-02-0.398D-02-0.442D-02 0.295D-01
 Coeff-Com:  0.207D-01 0.290D+00 0.672D+00
 Coeff:      0.477D-04-0.230D-02-0.117D-02-0.398D-02-0.442D-02 0.295D-01
 Coeff:      0.207D-01 0.290D+00 0.672D+00
 Gap=     0.118 Goal=   None    Shift=    0.000
 RMSDP=9.52D-07 MaxDP=4.83D-05 DE=-9.06D-09 OVMax= 1.13D-05

 Cycle  10  Pass 1  IDiag  1:
 RMSU=  2.11D-07    CP:  9.96D-01  9.94D-01  4.73D-01  1.03D+00  7.81D-01
                    CP:  7.25D-01  1.02D+00  1.09D+00  9.48D-01
 E= -13099.4171293518     Delta-E=       -0.000000001115 Rises=F Damp=F
 DIIS: error= 7.58D-07 at cycle  10 NSaved=  10.
 NSaved=10 IEnMin=10 EnMin= -13099.4171293518     IErMin=10 ErrMin= 7.58D-07
 ErrMax= 7.58D-07  0.00D+00 EMaxC= 1.00D-01 BMatC= 1.32D-10 BMatP= 1.18D-09
 IDIUse=1 WtCom= 1.00D+00 WtEn= 0.00D+00
 Coeff-Com:  0.933D-05-0.414D-04 0.298D-04-0.905D-03-0.263D-02-0.552D-02
 Coeff-Com: -0.150D-01 0.316D-01 0.306D+00 0.686D+00
 Coeff:      0.933D-05-0.414D-04 0.298D-04-0.905D-03-0.263D-02-0.552D-02
 Coeff:     -0.150D-01 0.316D-01 0.306D+00 0.686D+00
 Gap=     0.118 Goal=   None    Shift=    0.000
 RMSDP=2.67D-07 MaxDP=1.10D-05 DE=-1.12D-09 OVMax= 6.41D-06

 Cycle  11  Pass 1  IDiag  1:
 RMSU=  7.54D-08    CP:  9.96D-01  9.94D-01  4.73D-01  1.03D+00  7.82D-01
                    CP:  7.27D-01  1.03D+00  1.12D+00  1.01D+00  8.47D-01
 E= -13099.4171293519     Delta-E=       -0.000000000096 Rises=F Damp=F
 DIIS: error= 4.30D-07 at cycle  11 NSaved=  11.
 NSaved=11 IEnMin=11 EnMin= -13099.4171293519     IErMin=11 ErrMin= 4.30D-07
 ErrMax= 4.30D-07  0.00D+00 EMaxC= 1.00D-01 BMatC= 1.80D-11 BMatP= 1.32D-10
 IDIUse=1 WtCom= 1.00D+00 WtEn= 0.00D+00
 Coeff-Com:  0.374D-05 0.743D-04 0.681D-04-0.385D-03-0.142D-02-0.500D-02
 Coeff-Com: -0.105D-01 0.608D-02 0.157D+00 0.409D+00 0.446D+00
 Coeff:      0.374D-05 0.743D-04 0.681D-04-0.385D-03-0.142D-02-0.500D-02
 Coeff:     -0.105D-01 0.608D-02 0.157D+00 0.409D+00 0.446D+00
 Gap=     0.118 Goal=   None    Shift=    0.000
 RMSDP=5.33D-08 MaxDP=3.54D-06 DE=-9.64D-11 OVMax= 1.25D-06

 Cycle  12  Pass 1  IDiag  1:
 RMSU=  2.44D-08    CP:  9.96D-01  9.94D-01  4.73D-01  1.03D+00  7.82D-01
                    CP:  7.27D-01  1.03D+00  1.12D+00  1.02D+00  8.49D-01
                    CP:  8.85D-01
 E= -13099.4171293519     Delta-E=        0.000000000051 Rises=F Damp=F
 DIIS: error= 3.00D-08 at cycle  12 NSaved=  12.
 NSaved=12 IEnMin=11 EnMin= -13099.4171293519     IErMin=12 ErrMin= 3.00D-08
 ErrMax= 3.00D-08  0.00D+00 EMaxC= 1.00D-01 BMatC= 2.38D-13 BMatP= 1.80D-11
 IDIUse=1 WtCom= 1.00D+00 WtEn= 0.00D+00
 Coeff-Com: -0.642D-07 0.328D-04 0.218D-04-0.727D-05-0.124D-03-0.107D-02
 Coeff-Com: -0.188D-02-0.287D-02 0.136D-01 0.502D-01 0.952D-01 0.847D+00
 Coeff:     -0.642D-07 0.328D-04 0.218D-04-0.727D-05-0.124D-03-0.107D-02
 Coeff:     -0.188D-02-0.287D-02 0.136D-01 0.502D-01 0.952D-01 0.847D+00
 Gap=     0.118 Goal=   None    Shift=    0.000
 RMSDP=1.29D-08 MaxDP=9.24D-07 DE= 5.09D-11 OVMax= 4.26D-07

 Cycle  13  Pass 1  IDiag  1:
 RMSU=  7.88D-09    CP:  9.96D-01  9.94D-01  4.73D-01  1.03D+00  7.82D-01
                    CP:  7.27D-01  1.03D+00  1.12D+00  1.02D+00  8.51D-01
                    CP:  9.57D-01  1.04D+00
 E= -13099.4171293520     Delta-E=       -0.000000000116 Rises=F Damp=F
 DIIS: error= 1.83D-08 at cycle  13 NSaved=  13.
 NSaved=13 IEnMin=13 EnMin= -13099.4171293520     IErMin=13 ErrMin= 1.83D-08
 ErrMax= 1.83D-08  0.00D+00 EMaxC= 1.00D-01 BMatC= 7.78D-14 BMatP= 2.38D-13
 IDIUse=1 WtCom= 1.00D+00 WtEn= 0.00D+00
 Coeff-Com: -0.207D-06 0.152D-04 0.845D-05 0.213D-04 0.459D-05-0.314D-03
 Coeff-Com: -0.446D-03-0.178D-02-0.129D-02 0.855D-02 0.212D-01 0.393D+00
 Coeff-Com:  0.581D+00
 Coeff:     -0.207D-06 0.152D-04 0.845D-05 0.213D-04 0.459D-05-0.314D-03
 Coeff:     -0.446D-03-0.178D-02-0.129D-02 0.855D-02 0.212D-01 0.393D+00
 Coeff:      0.581D+00
 Gap=     0.118 Goal=   None    Shift=    0.000
 RMSDP=5.79D-09 MaxDP=3.50D-07 DE=-1.16D-10 OVMax= 5.23D-08

 SCF Done:  E(RB3LYP) =  -13099.4171294     A.U. after   13 cycles
            NFock= 13  Conv=0.58D-08     -V/T= 2.0013
 KE= 1.308301937353D+04 PE=-3.654287639014D+04 EE= 7.750718213660D+03
 Leave Link  502 at Mon Sep 28 02:26:33 2026, MaxMem=  1610612736 cpu:             234.2 elap:              29.4
 (Enter /share/software/user/restricted/gaussian/g16.B01/l701.exe)
 ... and contract with generalized density number  0.
 Compute integral first derivatives.
 Leave Link  701 at Mon Sep 28 02:26:33 2026, MaxMem=  1610612736 cpu:               1.7 elap:               0.2
 (Enter /share/software/user/restricted/gaussian/g16.B01/l702.exe)
 L702 exits ... SP integral derivatives will be done elsewhere.
 Leave Link  702 at Mon Sep 28 02:26:34 2026, MaxMem=  1610612736 cpu:               0.2 elap:               0.0
 (Enter /share/software/user/restricted/gaussian/g16.B01/l703.exe)
 Integral derivatives from FoFJK, PRISM(SPDF).
 Compute integral first derivatives, UseDBF=F ICtDFT=           0.
 Calling FoFJK, ICntrl=      2127 FMM=F ISym2X=1 I1Cent= 0 IOpClX= 0 NMat=1 NMatS=1 NMatT=0.
 FoFJK:  IHMeth= 1 ICntrl=    2127 DoSepK=F KAlg= 0 I1Cent=           0 FoldK=F
 IRaf=         0 NMat=       1 IRICut=       1 DoRegI=T DoRafI=F ISym2E= 1 IDoP0=0 IntGTp=1.
 FoFCou: FMM=F IPFlag=           0 FMFlag=      100000 FMFlg1=         800
         NFxFlg=           0 DoJE=F BraDBF=F KetDBF=F FulRan=T
         wScrn=  0.000000 ICntrl=      2127 IOpCl=  0 I1Cent=           0 NGrid=           0
         NMat0=    1 NMatS0=      1 NMatT0=    0 NMatD0=    1 NMtDS0=    0 NMtDT0=    0
 Petite list used in FoFCou.
 Leave Link  703 at Mon Sep 28 02:26:43 2026, MaxMem=  1610612736 cpu:              73.4 elap:               9.2
 (Enter /share/software/user/restricted/gaussian/g16.B01/l716.exe)
 Dipole        = 2.32529665D-16-5.68434189D-14 1.84864004D+00
 ***** Axes restored to original set *****
 -------------------------------------------------------------------
 Center     Atomic                   Forces (Hartrees/Bohr)
 Number     Number              X              Y              Z
 -------------------------------------------------------------------
      1        6           0.000000000   -0.010105666    0.000000000
      2        6          -0.016540341   -0.005286711   -0.000000000
      3        6          -0.002489568    0.005546887   -0.000000000
      4        6           0.000000000    0.004544945    0.000000000
      5        6           0.002489568    0.005546887    0.000000000
      6        6           0.016540341   -0.005286711    0.000000000
      7       35           0.007288361    0.002845658   -0.000000000
      8       35           0.001026831   -0.000590715   -0.000000000
      9       35          -0.000000000    0.000530485    0.000000000
     10       35          -0.001026831   -0.000590715   -0.000000000
     11       35          -0.007288361    0.002845658   -0.000000000
 -------------------------------------------------------------------
 Cartesian Forces:  Max     0.016540341 RMS     0.005295227
 Leave Link  716 at Mon Sep 28 02:26:43 2026, MaxMem=  1610612736 cpu:               0.4 elap:               0.1
 (Enter /share/software/user/restricted/gaussian/g16.B01/l103.exe)

 GradGradGradGradGradGradGradGradGradGradGradGradGradGradGradGradGradGrad
 Berny optimization.
 Using GEDIIS/GDIIS optimizer.
 FormGI is forming the generalized inverse of G from B-inverse, IUseBI=4.
 Internal  Forces:  Max     0.008821851 RMS     0.003123664
 Search for a local minimum.
 Step number   2 out of a maximum of   57
 All quantities printed in internal units (Hartrees-Bohrs-Radians)
 RMS Force = .31237D-02 SwitMx=.10000D-02 MixMth= 1
 Mixed Optimization -- RFO/linear search
 Update second derivatives using D2CorX and points    1    2
 DE= -9.57D-03 DEPred=-9.36D-03 R= 1.02D+00
 TightC=F SS=  1.41D+00  RLast= 2.84D-01 DXNew= 5.0454D-01 8.5085D-01
 Trust test= 1.02D+00 RLast= 2.84D-01 DXMaxT set to 5.05D-01
 ITU=  1  0
 Use linear search instead of GDIIS.
     Eigenvalues ---    0.02040   0.02055   0.02069   0.02074   0.02107
     Eigenvalues ---    0.02148   0.02160   0.02233   0.15370   0.19132
     Eigenvalues ---    0.19181   0.19355   0.20359   0.24925   0.25000
     Eigenvalues ---    0.25000   0.25000   0.25000   0.25000   0.25000
     Eigenvalues ---    0.25909   0.42079   0.42404   0.45184   0.46201
     Eigenvalues ---    0.47724   0.49541
 RFO step:  Lambda=-1.46318075D-03 EMin= 2.04038942D-02
 Quartic linear search produced a step of  0.21539.
 Iteration  1 RMS(Cart)=  0.01275237 RMS(Int)=  0.00004931
 Iteration  2 RMS(Cart)=  0.00011619 RMS(Int)=  0.00000446
 Iteration  3 RMS(Cart)=  0.00000001 RMS(Int)=  0.00000446
 ITry= 1 IFail=0 DXMaxC= 4.99D-02 DCOld= 1.00D+10 DXMaxT= 5.05D-01 DXLimC= 3.00D+00 Rises=F
 ClnCor:  largest displacement from symmetrization is 1.21D-10 for atom     9.
 Variable       Old X    -DE/DX   Delta X   Delta X   Delta X     New X
                                 (Linear)    (Quad)   (Total)
    R1        2.59772  -0.00882  -0.00463  -0.02005  -0.02468   2.57303
    R2        2.59772  -0.00882  -0.00463  -0.02005  -0.02468   2.57303
    R3        2.65344  -0.00743   0.00199  -0.02085  -0.01886   2.63457
    R4        3.70469   0.00770   0.03172   0.03166   0.06338   3.76806
    R5        2.66674  -0.00426   0.00306  -0.01270  -0.00964   2.65710
    R6        3.67136   0.00118   0.02492  -0.00580   0.01912   3.69049
    R7        2.66674  -0.00426   0.00306  -0.01270  -0.00964   2.65710
    R8        3.62955  -0.00053   0.01826  -0.01301   0.00525   3.63480
    R9        2.65344  -0.00743   0.00199  -0.02085  -0.01886   2.63457
   R10        3.67136   0.00118   0.02492  -0.00580   0.01912   3.69049
   R11        3.70469   0.00770   0.03172   0.03166   0.06338   3.76806
    A1        2.06750   0.00058  -0.00121   0.00067  -0.00052   2.06697
    A2        2.13618   0.00103   0.00329   0.00228   0.00558   2.14176
    A3        2.05274   0.00208  -0.00398   0.01265   0.00867   2.06141
    A4        2.09426  -0.00310   0.00069  -0.01493  -0.01425   2.08001
    A5        2.06776  -0.00115  -0.00249  -0.00302  -0.00552   2.06224
    A6        2.12318   0.00057   0.00159   0.00130   0.00289   2.12608
    A7        2.09224   0.00058   0.00090   0.00172   0.00262   2.09487
    A8        2.09100  -0.00033  -0.00040   0.00080   0.00039   2.09139
    A9        2.09609   0.00017   0.00020  -0.00040  -0.00020   2.09590
   A10        2.09609   0.00017   0.00020  -0.00040  -0.00020   2.09590
   A11        2.06776  -0.00115  -0.00249  -0.00302  -0.00552   2.06224
   A12        2.09224   0.00058   0.00090   0.00172   0.00262   2.09487
   A13        2.12318   0.00057   0.00159   0.00130   0.00289   2.12608
   A14        2.13618   0.00103   0.00329   0.00228   0.00558   2.14176
   A15        2.05274   0.00208  -0.00398   0.01265   0.00867   2.06141
   A16        2.09426  -0.00310   0.00069  -0.01493  -0.01425   2.08001
    D1        0.00000  -0.00000   0.00000  -0.00000   0.00000   0.00000
    D2        3.14159  -0.00000   0.00000  -0.00000   0.00000   3.14159
    D3       -0.00000   0.00000   0.00000   0.00000   0.00000   0.00000
    D4        3.14159   0.00000   0.00000   0.00000   0.00000   3.14159
    D5        0.00000  -0.00000   0.00000  -0.00000  -0.00000   0.00000
    D6        3.14159  -0.00000   0.00000  -0.00000   0.00000   3.14159
    D7        3.14159   0.00000   0.00000   0.00000   0.00000   3.14159
    D8       -0.00000  -0.00000   0.00000  -0.00000   0.00000   0.00000
    D9       -0.00000   0.00000   0.00000   0.00000   0.00000   0.00000
   D10        3.14159  -0.00000   0.00000  -0.00000   0.00000   3.14159
   D11        3.14159   0.00000   0.00000   0.00000   0.00000   3.14159
   D12        0.00000   0.00000   0.00000   0.00000   0.00000   0.00000
   D13        0.00000  -0.00000   0.00000  -0.00000   0.00000   0.00000
   D14        3.14159  -0.00000   0.00000  -0.00000   0.00000   3.14159
   D15        3.14159   0.00000   0.00000   0.00000   0.00000   3.14159
   D16        0.00000  -0.00000   0.00000  -0.00000  -0.00000   0.00000
   D17        0.00000   0.00000   0.00000   0.00000   0.00000   0.00000
   D18        3.14159  -0.00000   0.00000  -0.00000   0.00000   3.14159
   D19        3.14159   0.00000   0.00000   0.00000   0.00000   3.14159
   D20       -0.00000  -0.00000   0.00000   0.00000   0.00000   0.00000
         Item               Value     Threshold  Converged?
 Maximum Force            0.008822     0.000450     NO 
 RMS     Force            0.003124     0.000300     NO 
 Maximum Displacement     0.049931     0.001800     NO 
 RMS     Displacement     0.012809     0.001200     NO 
 Predicted change in Energy=-9.030537D-04
 Lowest energy point so far.  Saving SCF results.
 GradGradGradGradGradGradGradGradGradGradGradGradGradGradGradGradGradGrad

 Leave Link  103 at Mon Sep 28 02:26:43 2026, MaxMem=  1610612736 cpu:               0.2 elap:               0.0
 (Enter /share/software/user/restricted/gaussian/g16.B01/l202.exe)
                          Input orientation:                          
 ---------------------------------------------------------------------
 Center     Atomic      Atomic             Coordinates (Angstroms)
 Number     Number       Type             X           Y           Z
 ---------------------------------------------------------------------
      1          6           0        0.000000    1.387131    0.000000
      2          6           0        1.169728    0.690232    0.000000
      3          6           0        1.216643   -0.703135    0.000000
      4          6           0       -0.000000   -1.408002    0.000000
      5          6           0       -1.216643   -0.703135    0.000000
      6          6           0       -1.169728    0.690232    0.000000
      7         35           0        2.877021    1.720318    0.000000
      8         35           0        2.909848   -1.676252   -0.000000
      9         35           0       -0.000000   -3.331456    0.000000
     10         35           0       -2.909848   -1.676252    0.000000
     11         35           0       -2.877021    1.720318    0.000000
 ---------------------------------------------------------------------
                    Distance matrix (angstroms):
                    1          2          3          4          5
     1  C    0.000000
     2  C    1.361591   0.000000
     3  C    2.418560   1.394157   0.000000
     4  C    2.795133   2.402259   1.406079   0.000000
     5  C    2.418560   2.763374   2.433285   1.406079   0.000000
     6  C    1.361591   2.339456   2.763374   2.402259   1.394157
     7  Br   2.896250   1.993973   2.937683   4.250134   4.757227
     8  Br   4.225107   2.937391   1.952921   2.922186   4.239679
     9  Br   4.718587   4.188345   2.896254   1.923454   2.896254
    10  Br   4.225107   4.716268   4.239679   2.922186   1.952921
    11  Br   2.896250   4.175794   4.757227   4.250134   2.937683
                    6          7          8          9         10
     6  C    0.000000
     7  Br   4.175794   0.000000
     8  Br   4.716268   3.396729   0.000000
     9  Br   4.188345   5.813576   3.347673   0.000000
    10  Br   2.937391   6.710033   5.819695   3.347673   0.000000
    11  Br   1.993973   5.754043   6.710033   5.813576   3.396729
                   11
    11  Br   0.000000
 Stoichiometry    C6Br5(1-)
 Framework group  C2V[C2(CCBr),SGV(C4Br4)]
 Deg. of freedom    10
 Full point group                 C2V     NOp   4
 RotChk:  IX=0 Diff= 1.18D-16
 Largest Abelian subgroup         C2V     NOp   4
 Largest concise Abelian subgroup C2      NOp   2
                         Standard orientation:                         
 ---------------------------------------------------------------------
 Center     Atomic      Atomic             Coordinates (Angstroms)
 Number     Number       Type             X           Y           Z
 ---------------------------------------------------------------------
      1          6           0       -0.000000    0.000000   -1.926450
      2          6           0       -0.000000    1.169728   -1.229552
      3          6           0       -0.000000    1.216643    0.163816
      4          6           0        0.000000   -0.000000    0.868683
      5          6           0       -0.000000   -1.216643    0.163816
      6          6           0       -0.000000   -1.169728   -1.229552
      7         35           0       -0.000000    2.877021   -2.259637
      8         35           0       -0.000000    2.909848    1.136933
      9         35           0        0.000000   -0.000000    2.792136
     10         35           0       -0.000000   -2.909848    1.136933
     11         35           0       -0.000000   -2.877021   -2.259637
 ---------------------------------------------------------------------
 Rotational constants (GHZ):           0.2945708           0.1864004           0.1141609
 Leave Link  202 at Mon Sep 28 02:26:43 2026, MaxMem=  1610612736 cpu:               0.0 elap:               0.0
 (Enter /share/software/user/restricted/gaussian/g16.B01/l301.exe)
 Standard basis: 6-311++G(d) (5D, 7F)
 Ernie: Thresh=  0.10000D-02 Tol=  0.10000D-05 Strict=F.
 There are   158 symmetry adapted cartesian basis functions of A1  symmetry.
 There are    45 symmetry adapted cartesian basis functions of A2  symmetry.
 There are    61 symmetry adapted cartesian basis functions of B1  symmetry.
 There are   129 symmetry adapted cartesian basis functions of B2  symmetry.
 There are   145 symmetry adapted basis functions of A1  symmetry.
 There are    45 symmetry adapted basis functions of A2  symmetry.
 There are    61 symmetry adapted basis functions of B1  symmetry.
 There are   121 symmetry adapted basis functions of B2  symmetry.
   372 basis functions,   686 primitive gaussians,   393 cartesian basis functions
   106 alpha electrons      106 beta electrons
       nuclear repulsion energy      2604.7381937703 Hartrees.
 IExCor=  402 DFT=T Ex+Corr=B3LYP ExCW=0 ScaHFX=  0.200000
 ScaDFX=  0.800000  0.720000  1.000000  0.810000 ScalE2=  1.000000  1.000000
 IRadAn=      5 IRanWt=     -1 IRanGd=            0 ICorTp=0 IEmpDi=  4
 NAtoms=   11 NActive=   11 NUniq=    7 SFac= 2.47D+00 NAtFMM=   60 NAOKFM=F Big=F
 Integral buffers will be    131072 words long.
 Raffenetti 2 integral format.
 Two-electron integral symmetry is turned on.
 Leave Link  301 at Mon Sep 28 02:26:43 2026, MaxMem=  1610612736 cpu:               0.4 elap:               0.1
 (Enter /share/software/user/restricted/gaussian/g16.B01/l302.exe)
 NPDir=0 NMtPBC=     1 NCelOv=     1 NCel=       1 NClECP=     1 NCelD=      1
         NCelK=      1 NCelE2=     1 NClLst=     1 CellRange=     0.0.
 One-electron integrals computed using PRISM.
 One-electron integral symmetry used in STVInt
 NBasis=   372 RedAO= T EigKep=  1.28D-06  NBF=   145    45    61   121
 NBsUse=   371 1.00D-06 EigRej=  6.34D-07 NBFU=   144    45    61   121
 Precomputing XC quadrature grid using
 IXCGrd= 4 IRadAn=           5 IRanWt=          -1 IRanGd=           0 AccXCQ= 0.00D+00.
 Generated NRdTot=       0 NPtTot=           0 NUsed=           0 NTot=          32
 NSgBfM=   364   364   364   364   364 MxSgAt=    11 MxSgA2=    11.
 Leave Link  302 at Mon Sep 28 02:26:43 2026, MaxMem=  1610612736 cpu:               2.1 elap:               0.3
 (Enter /share/software/user/restricted/gaussian/g16.B01/l303.exe)
 DipDrv:  MaxL=1.
 Leave Link  303 at Mon Sep 28 02:26:44 2026, MaxMem=  1610612736 cpu:               0.4 elap:               0.1
 (Enter /share/software/user/restricted/gaussian/g16.B01/l401.exe)
 Initial guess from the checkpoint file:  "calcs/b3lyp_gas/chks/BrPh_23456_anion.chk"
 B after Tr=    -0.000000    0.000000   -0.000000
         Rot=    1.000000   -0.000000    0.000000   -0.000000 Ang=   0.00 deg.
 Guess basis will be translated and rotated to current coordinates.
 JPrj=2 DoOrth=T DoCkMO=T.
 Initial guess orbital symmetries:
       Occupied  (A1) (B2) (A1) (B2) (A1) (A1) (B2) (A1) (B2) (A1)
                 (A1) (B1) (B2) (B2) (A1) (B1) (A2) (B2) (A1) (B2)
                 (A1) (A2) (B1) (B2) (A1) (A1) (B2) (A1) (B2) (A1)
                 (A1) (A1) (B2) (A1) (B2) (A1) (A1) (B2) (A1) (B1)
                 (B2) (B1) (A2) (B2) (A1) (B2) (A1) (B1) (A2) (B2)
                 (A1) (A1) (B1) (B2) (B2) (A1) (A1) (A2) (B1) (A2)
                 (B2) (A1) (B2) (B1) (A2) (A1) (B2) (A1) (B1) (A2)
                 (A1) (B2) (B1) (A2) (B2) (A1) (A1) (B2) (A1) (A1)
                 (B2) (A1) (A1) (B2) (A1) (B2) (B2) (A1) (A1) (B1)
                 (B2) (A1) (B2) (A2) (B1) (B2) (A1) (B1) (A2) (B2)
                 (B1) (A1) (B2) (A2) (B1) (A1)
       Virtual   (A1) (B2) (A2) (B1) (A1) (A1) (A1) (B2) (B2) (A1)
                 (B1) (A1) (A2) (B1) (B2) (A1) (B2) (B1) (A2) (B2)
                 (A1) (A1) (B2) (A1) (B2) (A1) (B2) (B1) (A1) (B1)
                 (A1) (A2) (B1) (B1) (B2) (A1) (B2) (A2) (A1) (A1)
                 (B2) (A1) (B2) (B1) (B2) (B2) (A1) (A1) (B2) (A1)
                 (B2) (A1) (B2) (A1) (B2) (A1) (A1) (B1) (B2) (A2)
                 (B2) (B1) (A1) (B2) (A2) (B1) (B2) (A1) (B2) (B2)
                 (B1) (A1) (A2) (A1) (B1) (A1) (B2) (A1) (A2) (B1)
                 (B1) (A1) (B2) (A2) (A2) (B1) (B1) (A2) (A1) (A1)
                 (B2) (B1) (A1) (A1) (A2) (B2) (A1) (B1) (B2) (B2)
                 (A1) (A1) (A1) (A2) (B2) (B2) (A1) (A1) (B2) (B2)
                 (A1) (B2) (A1) (B1) (A1) (B2) (A2) (B2) (B2) (A1)
                 (A1) (A1) (B2) (B1) (B2) (A1) (A2) (B1) (A1) (B1)
                 (A2) (B2) (A1) (B2) (A1) (A1) (B2) (A2) (A1) (B1)
                 (B2) (B2) (A1) (B1) (A2) (B1) (B1) (A2) (B1) (A2)
                 (B2) (A1) (A1) (B1) (A1) (B2) (B2) (A1) (A1) (B2)
                 (B2) (A1) (A1) (B2) (A2) (B2) (A1) (B2) (A1) (B2)
                 (B1) (A2) (B1) (A1) (A2) (B1) (A1) (B2) (A1) (B1)
                 (B2) (A1) (B2) (A1) (B2) (A1) (B2) (A1) (A2) (A2)
                 (A1) (B1) (A2) (B1) (B1) (A2) (A1) (B2) (B1) (A1)
                 (B2) (A2) (B1) (B2) (A1) (B2) (A1) (B2) (A1) (B2)
                 (A1) (B2) (A1) (B2) (A1) (B2) (A1) (B2) (A1) (B1)
                 (A2) (B1) (A2) (B1) (A1) (A1) (B2) (B2) (A1) (B2)
                 (B2) (A1) (A1) (B2) (A1) (A1) (B2) (A1) (B2) (A1)
                 (A1) (B2) (A1) (B2) (A1) (B1) (A2) (B1) (A2) (B1)
                 (A1) (B2) (B2) (A1) (A1) (B2) (B2) (A1) (A1) (B2)
                 (A1) (B2) (A1) (B2) (A1)
 The electronic state of the initial guess is 1-A1.
 Generating alternative initial guess.
 ExpMin= 3.50D-02 ExpMax= 4.40D+05 ExpMxC= 1.51D+04 IAcc=3 IRadAn=         5 AccDes= 0.00D+00
 Harris functional with IExCor=  402 and IRadAn=       5 diagonalized for initial guess.
 HarFok:  IExCor=  402 AccDes= 0.00D+00 IRadAn=         5 IDoV= 1 UseB2=F ITyADJ=14
 ICtDFT=  3500011 ScaDFX=  1.000000  1.000000  1.000000  1.000000
 FoFCou: FMM=F IPFlag=           0 FMFlag=      100000 FMFlg1=           0
         NFxFlg=           0 DoJE=T BraDBF=F KetDBF=T FulRan=T
         wScrn=  0.000000 ICntrl=       500 IOpCl=  0 I1Cent=   200000004 NGrid=           0
         NMat0=    1 NMatS0=      1 NMatT0=    0 NMatD0=    1 NMtDS0=    0 NMtDT0=    0
 Petite list used in FoFCou.
 Harris En= -13099.8716109861    
 Leave Link  401 at Mon Sep 28 02:26:44 2026, MaxMem=  1610612736 cpu:               7.5 elap:               0.9
 (Enter /share/software/user/restricted/gaussian/g16.B01/l502.exe)
 Integral symmetry usage will be decided dynamically.
 Closed shell SCF:
 Using DIIS extrapolation, IDIIS=  1040.
 NGot=  1610612736 LenX=  1610294648 LenY=  1610139758
 Requested convergence on RMS density matrix=1.00D-08 within 128 cycles.
 Requested convergence on MAX density matrix=1.00D-06.
 Requested convergence on             energy=1.00D-06.
 No special actions if energy rises.
 Fock matrices will be formed incrementally for  20 cycles.

 Cycle   1  Pass 1  IDiag  1:
 FoFJK:  IHMeth= 1 ICntrl=       0 DoSepK=F KAlg= 0 I1Cent=           0 FoldK=F
 IRaf= 740000000 NMat=       1 IRICut=       1 DoRegI=T DoRafI=F ISym2E= 1 IDoP0=0 IntGTp=1.
 FoFCou: FMM=F IPFlag=           0 FMFlag=      100000 FMFlg1=           0
         NFxFlg=           0 DoJE=F BraDBF=F KetDBF=F FulRan=T
         wScrn=  0.000000 ICntrl=         0 IOpCl=  0 I1Cent=           0 NGrid=           0
         NMat0=    1 NMatS0=      1 NMatT0=    0 NMatD0=    1 NMtDS0=    0 NMtDT0=    0
 Petite list used in FoFCou.
 E= -13099.4171729101    
 DIIS: error= 2.18D-03 at cycle   1 NSaved=   1.
 NSaved= 1 IEnMin= 1 EnMin= -13099.4171729101     IErMin= 1 ErrMin= 2.18D-03
 ErrMax= 2.18D-03  0.00D+00 EMaxC= 1.00D-01 BMatC= 1.53D-03 BMatP= 1.53D-03
 IDIUse=3 WtCom= 9.78D-01 WtEn= 2.18D-02
 Coeff-Com:  0.100D+01
 Coeff-En:   0.100D+01
 Coeff:      0.100D+01
 Gap=     0.126 Goal=   None    Shift=    0.000
 GapD=    0.126 DampG=1.000 DampE=1.000 DampFc=1.0000 IDamp=-1.
 RMSDP=2.43D-03 MaxDP=3.25D-01              OVMax= 2.20D-02

 Cycle   2  Pass 1  IDiag  1:
 RMSU=  2.20D-03    CP:  1.03D+00
 E= -13099.4181697461     Delta-E=       -0.000996835983 Rises=F Damp=F
 DIIS: error= 4.66D-04 at cycle   2 NSaved=   2.
 NSaved= 2 IEnMin= 2 EnMin= -13099.4181697461     IErMin= 2 ErrMin= 4.66D-04
 ErrMax= 4.66D-04  0.00D+00 EMaxC= 1.00D-01 BMatC= 9.34D-05 BMatP= 1.53D-03
 IDIUse=3 WtCom= 9.95D-01 WtEn= 4.66D-03
 Coeff-Com:  0.861D-01 0.914D+00
 Coeff-En:   0.000D+00 0.100D+01
 Coeff:      0.857D-01 0.914D+00
 Gap=     0.118 Goal=   None    Shift=    0.000
 RMSDP=5.10D-04 MaxDP=3.12D-02 DE=-9.97D-04 OVMax= 1.22D-02

 Cycle   3  Pass 1  IDiag  1:
 RMSU=  4.89D-04    CP:  1.04D+00  1.02D+00
 E= -13099.4180645856     Delta-E=        0.000105160485 Rises=F Damp=F
 DIIS: error= 1.03D-03 at cycle   3 NSaved=   3.
 NSaved= 3 IEnMin= 2 EnMin= -13099.4181697461     IErMin= 2 ErrMin= 4.66D-04
 ErrMax= 1.03D-03  0.00D+00 EMaxC= 1.00D-01 BMatC= 1.80D-04 BMatP= 9.34D-05
 IDIUse=3 WtCom= 2.38D-01 WtEn= 7.62D-01
 Coeff-Com:  0.224D-02 0.588D+00 0.410D+00
 Coeff-En:   0.000D+00 0.662D+00 0.338D+00
 Coeff:      0.532D-03 0.644D+00 0.355D+00
 Gap=     0.120 Goal=   None    Shift=    0.000
 RMSDP=3.58D-04 MaxDP=2.13D-02 DE= 1.05D-04 OVMax= 9.33D-03

 Cycle   4  Pass 1  IDiag  1:
 RMSU=  2.50D-04    CP:  1.03D+00  9.60D-01  6.61D-01
 E= -13099.4182501637     Delta-E=       -0.000185578108 Rises=F Damp=F
 DIIS: error= 2.04D-04 at cycle   4 NSaved=   4.
 NSaved= 4 IEnMin= 4 EnMin= -13099.4182501637     IErMin= 4 ErrMin= 2.04D-04
 ErrMax= 2.04D-04  0.00D+00 EMaxC= 1.00D-01 BMatC= 1.30D-05 BMatP= 9.34D-05
 IDIUse=3 WtCom= 9.98D-01 WtEn= 2.04D-03
 Coeff-Com: -0.436D-02 0.294D+00 0.229D+00 0.481D+00
 Coeff-En:   0.000D+00 0.000D+00 0.155D-01 0.984D+00
 Coeff:     -0.435D-02 0.294D+00 0.229D+00 0.482D+00
 Gap=     0.120 Goal=   None    Shift=    0.000
 RMSDP=1.84D-04 MaxDP=2.20D-02 DE=-1.86D-04 OVMax= 2.26D-03

 Cycle   5  Pass 1  IDiag  1:
 RMSU=  6.80D-05    CP:  1.04D+00  1.01D+00  6.10D-01  5.86D-01
 E= -13099.4182638472     Delta-E=       -0.000013683417 Rises=F Damp=F
 DIIS: error= 9.88D-05 at cycle   5 NSaved=   5.
 NSaved= 5 IEnMin= 5 EnMin= -13099.4182638472     IErMin= 5 ErrMin= 9.88D-05
 ErrMax= 9.88D-05  0.00D+00 EMaxC= 1.00D-01 BMatC= 1.95D-06 BMatP= 1.30D-05
 IDIUse=1 WtCom= 1.00D+00 WtEn= 0.00D+00
 Coeff-Com: -0.267D-02 0.121D+00 0.102D+00 0.303D+00 0.476D+00
 Coeff:     -0.267D-02 0.121D+00 0.102D+00 0.303D+00 0.476D+00
 Gap=     0.120 Goal=   None    Shift=    0.000
 RMSDP=1.45D-05 MaxDP=7.05D-04 DE=-1.37D-05 OVMax= 5.37D-04

 Cycle   6  Pass 1  IDiag  1:
 RMSU=  1.23D-05    CP:  1.03D+00  1.01D+00  6.25D-01  5.91D-01  1.01D+00
 E= -13099.4182656011     Delta-E=       -0.000001753902 Rises=F Damp=F
 DIIS: error= 2.16D-05 at cycle   6 NSaved=   6.
 NSaved= 6 IEnMin= 6 EnMin= -13099.4182656011     IErMin= 6 ErrMin= 2.16D-05
 ErrMax= 2.16D-05  0.00D+00 EMaxC= 1.00D-01 BMatC= 1.83D-07 BMatP= 1.95D-06
 IDIUse=1 WtCom= 1.00D+00 WtEn= 0.00D+00
 Coeff-Com: -0.795D-03 0.119D-01 0.128D-01 0.942D-01 0.267D+00 0.615D+00
 Coeff:     -0.795D-03 0.119D-01 0.128D-01 0.942D-01 0.267D+00 0.615D+00
 Gap=     0.120 Goal=   None    Shift=    0.000
 RMSDP=1.46D-05 MaxDP=5.67D-04 DE=-1.75D-06 OVMax= 1.54D-04

 Cycle   7  Pass 1  IDiag  1:
 RMSU=  3.85D-06    CP:  1.03D+00  1.01D+00  6.46D-01  6.21D-01  1.03D+00
                    CP:  7.20D-01
 E= -13099.4182657568     Delta-E=       -0.000000155782 Rises=F Damp=F
 DIIS: error= 1.19D-05 at cycle   7 NSaved=   7.
 NSaved= 7 IEnMin= 7 EnMin= -13099.4182657568     IErMin= 7 ErrMin= 1.19D-05
 ErrMax= 1.19D-05  0.00D+00 EMaxC= 1.00D-01 BMatC= 3.66D-08 BMatP= 1.83D-07
 IDIUse=1 WtCom= 1.00D+00 WtEn= 0.00D+00
 Coeff-Com: -0.957D-04-0.877D-02-0.690D-02 0.297D-01 0.114D+00 0.369D+00
 Coeff-Com:  0.503D+00
 Coeff:     -0.957D-04-0.877D-02-0.690D-02 0.297D-01 0.114D+00 0.369D+00
 Coeff:      0.503D+00
 Gap=     0.120 Goal=   None    Shift=    0.000
 RMSDP=4.86D-06 MaxDP=4.21D-04 DE=-1.56D-07 OVMax= 6.48D-05

 Cycle   8  Pass 1  IDiag  1:
 RMSU=  2.89D-06    CP:  1.03D+00  1.01D+00  6.46D-01  6.26D-01  1.07D+00
                    CP:  7.79D-01  5.30D-01
 E= -13099.4182657872     Delta-E=       -0.000000030341 Rises=F Damp=F
 DIIS: error= 4.18D-06 at cycle   8 NSaved=   8.
 NSaved= 8 IEnMin= 8 EnMin= -13099.4182657872     IErMin= 8 ErrMin= 4.18D-06
 ErrMax= 4.18D-06  0.00D+00 EMaxC= 1.00D-01 BMatC= 5.68D-09 BMatP= 3.66D-08
 IDIUse=1 WtCom= 1.00D+00 WtEn= 0.00D+00
 Coeff-Com:  0.224D-04-0.696D-02-0.703D-02 0.785D-02 0.303D-01 0.125D+00
 Coeff-Com:  0.313D+00 0.538D+00
 Coeff:      0.224D-04-0.696D-02-0.703D-02 0.785D-02 0.303D-01 0.125D+00
 Coeff:      0.313D+00 0.538D+00
 Gap=     0.120 Goal=   None    Shift=    0.000
 RMSDP=1.83D-06 MaxDP=1.04D-04 DE=-3.03D-08 OVMax= 2.02D-05

 Cycle   9  Pass 1  IDiag  1:
 RMSU=  9.91D-07    CP:  1.03D+00  1.01D+00  6.46D-01  6.30D-01  1.08D+00
                    CP:  7.97D-01  6.29D-01  1.09D+00
 E= -13099.4182657941     Delta-E=       -0.000000006892 Rises=F Damp=F
 DIIS: error= 1.26D-06 at cycle   9 NSaved=   9.
 NSaved= 9 IEnMin= 9 EnMin= -13099.4182657941     IErMin= 9 ErrMin= 1.26D-06
 ErrMax= 1.26D-06  0.00D+00 EMaxC= 1.00D-01 BMatC= 4.39D-10 BMatP= 5.68D-09
 IDIUse=1 WtCom= 1.00D+00 WtEn= 0.00D+00
 Coeff-Com:  0.349D-04-0.299D-02-0.351D-02-0.162D-03-0.888D-03 0.138D-01
 Coeff-Com:  0.103D+00 0.276D+00 0.615D+00
 Coeff:      0.349D-04-0.299D-02-0.351D-02-0.162D-03-0.888D-03 0.138D-01
 Coeff:      0.103D+00 0.276D+00 0.615D+00
 Gap=     0.120 Goal=   None    Shift=    0.000
 RMSDP=5.80D-07 MaxDP=3.86D-05 DE=-6.89D-09 OVMax= 6.82D-06

 Cycle  10  Pass 1  IDiag  1:
 RMSU=  1.16D-07    CP:  1.03D+00  1.01D+00  6.47D-01  6.31D-01  1.08D+00
                    CP:  7.93D-01  6.34D-01  1.11D+00  8.56D-01
 E= -13099.4182657944     Delta-E=       -0.000000000347 Rises=F Damp=F
 DIIS: error= 3.05D-07 at cycle  10 NSaved=  10.
 NSaved=10 IEnMin=10 EnMin= -13099.4182657944     IErMin=10 ErrMin= 3.05D-07
 ErrMax= 3.05D-07  0.00D+00 EMaxC= 1.00D-01 BMatC= 3.28D-11 BMatP= 4.39D-10
 IDIUse=1 WtCom= 1.00D+00 WtEn= 0.00D+00
 Coeff-Com:  0.108D-04-0.358D-03-0.584D-03-0.452D-03-0.285D-02-0.526D-02
 Coeff-Com:  0.817D-02 0.515D-01 0.267D+00 0.683D+00
 Coeff:      0.108D-04-0.358D-03-0.584D-03-0.452D-03-0.285D-02-0.526D-02
 Coeff:      0.817D-02 0.515D-01 0.267D+00 0.683D+00
 Gap=     0.120 Goal=   None    Shift=    0.000
 RMSDP=9.54D-08 MaxDP=4.20D-06 DE=-3.47D-10 OVMax= 2.68D-06

 Cycle  11  Pass 1  IDiag  1:
 RMSU=  5.92D-08    CP:  1.03D+00  1.01D+00  6.47D-01  6.31D-01  1.08D+00
                    CP:  7.94D-01  6.43D-01  1.12D+00  9.03D-01  1.00D+00
 E= -13099.4182657944     Delta-E=        0.000000000011 Rises=F Damp=F
 DIIS: error= 2.29D-07 at cycle  11 NSaved=  11.
 NSaved=11 IEnMin=10 EnMin= -13099.4182657944     IErMin=11 ErrMin= 2.29D-07
 ErrMax= 2.29D-07  0.00D+00 EMaxC= 1.00D-01 BMatC= 5.94D-12 BMatP= 3.28D-11
 IDIUse=1 WtCom= 1.00D+00 WtEn= 0.00D+00
 Coeff-Com:  0.429D-05 0.758D-05-0.771D-04-0.249D-03-0.161D-02-0.396D-02
 Coeff-Com: -0.293D-02 0.932D-02 0.108D+00 0.390D+00 0.502D+00
 Coeff:      0.429D-05 0.758D-05-0.771D-04-0.249D-03-0.161D-02-0.396D-02
 Coeff:     -0.293D-02 0.932D-02 0.108D+00 0.390D+00 0.502D+00
 Gap=     0.120 Goal=   None    Shift=    0.000
 RMSDP=4.73D-08 MaxDP=3.29D-06 DE= 1.09D-11 OVMax= 6.97D-07

 Cycle  12  Pass 1  IDiag  1:
 RMSU=  1.32D-08    CP:  1.03D+00  1.01D+00  6.47D-01  6.31D-01  1.08D+00
                    CP:  7.94D-01  6.38D-01  1.13D+00  9.14D-01  1.02D+00
                    CP:  8.35D-01
 E= -13099.4182657945     Delta-E=       -0.000000000069 Rises=F Damp=F
 DIIS: error= 2.16D-08 at cycle  12 NSaved=  12.
 NSaved=12 IEnMin=12 EnMin= -13099.4182657945     IErMin=12 ErrMin= 2.16D-08
 ErrMax= 2.16D-08  0.00D+00 EMaxC= 1.00D-01 BMatC= 2.36D-13 BMatP= 5.94D-12
 IDIUse=1 WtCom= 1.00D+00 WtEn= 0.00D+00
 Coeff-Com:  0.337D-07 0.547D-04 0.539D-04-0.387D-04-0.284D-03-0.844D-03
 Coeff-Com: -0.235D-02-0.438D-02 0.503D-02 0.682D-01 0.187D+00 0.747D+00
 Coeff:      0.337D-07 0.547D-04 0.539D-04-0.387D-04-0.284D-03-0.844D-03
 Coeff:     -0.235D-02-0.438D-02 0.503D-02 0.682D-01 0.187D+00 0.747D+00
 Gap=     0.120 Goal=   None    Shift=    0.000
 RMSDP=1.26D-08 MaxDP=9.38D-07 DE=-6.91D-11 OVMax= 2.35D-07

 Cycle  13  Pass 1  IDiag  1:
 RMSU=  4.54D-09    CP:  1.03D+00  1.01D+00  6.47D-01  6.31D-01  1.08D+00
                    CP:  7.95D-01  6.38D-01  1.13D+00  9.17D-01  1.03D+00
                    CP:  8.92D-01  1.05D+00
 E= -13099.4182657945     Delta-E=       -0.000000000036 Rises=F Damp=F
 DIIS: error= 1.01D-08 at cycle  13 NSaved=  13.
 NSaved=13 IEnMin=13 EnMin= -13099.4182657945     IErMin=13 ErrMin= 1.01D-08
 ErrMax= 1.01D-08  0.00D+00 EMaxC= 1.00D-01 BMatC= 1.67D-14 BMatP= 2.36D-13
 IDIUse=1 WtCom= 1.00D+00 WtEn= 0.00D+00
 Coeff-Com: -0.170D-06 0.227D-04 0.258D-04-0.131D-05-0.508D-04-0.153D-03
 Coeff-Com: -0.804D-03-0.238D-02-0.331D-02 0.124D-01 0.365D-01 0.242D+00
 Coeff-Com:  0.715D+00
 Coeff:     -0.170D-06 0.227D-04 0.258D-04-0.131D-05-0.508D-04-0.153D-03
 Coeff:     -0.804D-03-0.238D-02-0.331D-02 0.124D-01 0.365D-01 0.242D+00
 Coeff:      0.715D+00
 Gap=     0.120 Goal=   None    Shift=    0.000
 RMSDP=4.07D-09 MaxDP=3.28D-07 DE=-3.64D-11 OVMax= 3.57D-08

 SCF Done:  E(RB3LYP) =  -13099.4182658     A.U. after   13 cycles
            NFock= 13  Conv=0.41D-08     -V/T= 2.0013
 KE= 1.308305004840D+04 PE=-3.653293471300D+04 EE= 7.745728205032D+03
 Leave Link  502 at Mon Sep 28 02:27:14 2026, MaxMem=  1610612736 cpu:             231.8 elap:              29.1
 (Enter /share/software/user/restricted/gaussian/g16.B01/l701.exe)
 ... and contract with generalized density number  0.
 Compute integral first derivatives.
 Leave Link  701 at Mon Sep 28 02:27:14 2026, MaxMem=  1610612736 cpu:               1.5 elap:               0.2
 (Enter /share/software/user/restricted/gaussian/g16.B01/l702.exe)
 L702 exits ... SP integral derivatives will be done elsewhere.
 Leave Link  702 at Mon Sep 28 02:27:14 2026, MaxMem=  1610612736 cpu:               0.2 elap:               0.0
 (Enter /share/software/user/restricted/gaussian/g16.B01/l703.exe)
 Integral derivatives from FoFJK, PRISM(SPDF).
 Compute integral first derivatives, UseDBF=F ICtDFT=           0.
 Calling FoFJK, ICntrl=      2127 FMM=F ISym2X=1 I1Cent= 0 IOpClX= 0 NMat=1 NMatS=1 NMatT=0.
 FoFJK:  IHMeth= 1 ICntrl=    2127 DoSepK=F KAlg= 0 I1Cent=           0 FoldK=F
 IRaf=         0 NMat=       1 IRICut=       1 DoRegI=T DoRafI=F ISym2E= 1 IDoP0=0 IntGTp=1.
 FoFCou: FMM=F IPFlag=           0 FMFlag=      100000 FMFlg1=         800
         NFxFlg=           0 DoJE=F BraDBF=F KetDBF=F FulRan=T
         wScrn=  0.000000 ICntrl=      2127 IOpCl=  0 I1Cent=           0 NGrid=           0
         NMat0=    1 NMatS0=      1 NMatT0=    0 NMatD0=    1 NMtDS0=    0 NMtDT0=    0
 Petite list used in FoFCou.
 Leave Link  703 at Mon Sep 28 02:27:23 2026, MaxMem=  1610612736 cpu:              72.8 elap:               9.1
 (Enter /share/software/user/restricted/gaussian/g16.B01/l716.exe)
 Dipole        = 2.51491490D-16 8.52651283D-14 1.89694939D+00
 ***** Axes restored to original set *****
 -------------------------------------------------------------------
 Center     Atomic                   Forces (Hartrees/Bohr)
 Number     Number              X              Y              Z
 -------------------------------------------------------------------
      1        6          -0.000000000   -0.004484837    0.000000000
      2        6          -0.003697708    0.001292902   -0.000000000
      3        6           0.002822813   -0.000427353   -0.000000000
      4        6           0.000000000   -0.001872683    0.000000000
      5        6          -0.002822813   -0.000427353    0.000000000
      6        6           0.003697708    0.001292902    0.000000000
      7       35           0.002069206    0.001086291   -0.000000000
      8       35          -0.001914631    0.000627868   -0.000000000
      9       35          -0.000000000    0.001198105    0.000000000
     10       35           0.001914631    0.000627868   -0.000000000
     11       35          -0.002069206    0.001086291   -0.000000000
 -------------------------------------------------------------------
 Cartesian Forces:  Max     0.004484837 RMS     0.001661421
 Leave Link  716 at Mon Sep 28 02:27:23 2026, MaxMem=  1610612736 cpu:               0.3 elap:               0.1
 (Enter /share/software/user/restricted/gaussian/g16.B01/l103.exe)

 GradGradGradGradGradGradGradGradGradGradGradGradGradGradGradGradGradGrad
 Berny optimization.
 Using GEDIIS/GDIIS optimizer.
 FormGI is forming the generalized inverse of G from B-inverse, IUseBI=4.
 Internal  Forces:  Max     0.002332888 RMS     0.000922550
 Search for a local minimum.
 Step number   3 out of a maximum of   57
 All quantities printed in internal units (Hartrees-Bohrs-Radians)
 RMS Force = .92255D-03 SwitMx=.10000D-02 MixMth= 2
 Mixed Optimization -- En-DIIS/RFO-DIIS
 Update second derivatives using D2CorX and points    1    2    3
 DE= -1.14D-03 DEPred=-9.03D-04 R= 1.26D+00
 TightC=F SS=  1.41D+00  RLast= 1.08D-01 DXNew= 8.4853D-01 3.2337D-01
 Trust test= 1.26D+00 RLast= 1.08D-01 DXMaxT set to 5.05D-01
 ITU=  1  1  0
 Use linear search instead of GDIIS.
     Eigenvalues ---    0.02040   0.02055   0.02069   0.02074   0.02108
     Eigenvalues ---    0.02149   0.02162   0.02233   0.10628   0.19132
     Eigenvalues ---    0.19181   0.19460   0.21740   0.24926   0.25000
     Eigenvalues ---    0.25000   0.25000   0.25000   0.25000   0.25869
     Eigenvalues ---    0.26279   0.41547   0.42041   0.45183   0.45846
     Eigenvalues ---    0.47723   0.51482
 RFO step:  Lambda=-1.66935811D-04 EMin= 2.04038942D-02
 Quartic linear search produced a step of  0.19763.
 Iteration  1 RMS(Cart)=  0.00574191 RMS(Int)=  0.00000935
 Iteration  2 RMS(Cart)=  0.00001582 RMS(Int)=  0.00000387
 Iteration  3 RMS(Cart)=  0.00000000 RMS(Int)=  0.00000387
 ITry= 1 IFail=0 DXMaxC= 1.74D-02 DCOld= 1.00D+10 DXMaxT= 5.05D-01 DXLimC= 3.00D+00 Rises=F
 ClnCor:  largest displacement from symmetrization is 1.43D-10 for atom     9.
 Variable       Old X    -DE/DX   Delta X   Delta X   Delta X     New X
                                 (Linear)    (Quad)   (Total)
    R1        2.57303  -0.00227  -0.00488  -0.00394  -0.00882   2.56422
    R2        2.57303  -0.00227  -0.00488  -0.00394  -0.00882   2.56422
    R3        2.63457   0.00015  -0.00373   0.00253  -0.00120   2.63338
    R4        3.76806   0.00233   0.01252   0.01234   0.02487   3.79293
    R5        2.65710   0.00068  -0.00191   0.00345   0.00154   2.65864
    R6        3.69049  -0.00197   0.00378  -0.01081  -0.00703   3.68346
    R7        2.65710   0.00068  -0.00191   0.00345   0.00154   2.65864
    R8        3.63480  -0.00120   0.00104  -0.00540  -0.00437   3.63043
    R9        2.63457   0.00015  -0.00373   0.00253  -0.00120   2.63338
   R10        3.69049  -0.00197   0.00378  -0.01081  -0.00703   3.68346
   R11        3.76806   0.00233   0.01252   0.01234   0.02487   3.79293
    A1        2.06697   0.00208  -0.00010   0.00821   0.00812   2.07509
    A2        2.14176  -0.00059   0.00110  -0.00344  -0.00233   2.13944
    A3        2.06141   0.00056   0.00171   0.00151   0.00322   2.06463
    A4        2.08001   0.00003  -0.00282   0.00193  -0.00089   2.07912
    A5        2.06224  -0.00047  -0.00109  -0.00133  -0.00243   2.05981
    A6        2.12608   0.00099   0.00057   0.00428   0.00486   2.13094
    A7        2.09487  -0.00052   0.00052  -0.00295  -0.00243   2.09244
    A8        2.09139   0.00004   0.00008   0.00133   0.00139   2.09279
    A9        2.09590  -0.00002  -0.00004  -0.00066  -0.00070   2.09520
   A10        2.09590  -0.00002  -0.00004  -0.00066  -0.00070   2.09520
   A11        2.06224  -0.00047  -0.00109  -0.00133  -0.00243   2.05981
   A12        2.09487  -0.00052   0.00052  -0.00295  -0.00243   2.09244
   A13        2.12608   0.00099   0.00057   0.00428   0.00486   2.13094
   A14        2.14176  -0.00059   0.00110  -0.00344  -0.00233   2.13944
   A15        2.06141   0.00056   0.00171   0.00151   0.00322   2.06463
   A16        2.08001   0.00003  -0.00282   0.00193  -0.00089   2.07912
    D1        0.00000  -0.00000   0.00000  -0.00000   0.00000   0.00000
    D2        3.14159  -0.00000   0.00000  -0.00000   0.00000   3.14159
    D3       -0.00000   0.00000   0.00000   0.00000   0.00000   0.00000
    D4        3.14159   0.00000   0.00000   0.00000   0.00000   3.14159
    D5       -0.00000  -0.00000   0.00000  -0.00000   0.00000   0.00000
    D6        3.14159  -0.00000   0.00000  -0.00000   0.00000   3.14159
    D7        3.14159   0.00000   0.00000   0.00000   0.00000   3.14159
    D8       -0.00000  -0.00000   0.00000  -0.00000   0.00000   0.00000
    D9       -0.00000   0.00000   0.00000   0.00000   0.00000   0.00000
   D10        3.14159  -0.00000   0.00000  -0.00000   0.00000   3.14159
   D11        3.14159   0.00000   0.00000   0.00000   0.00000   3.14159
   D12        0.00000   0.00000   0.00000   0.00000   0.00000   0.00000
   D13        0.00000  -0.00000   0.00000  -0.00000   0.00000   0.00000
   D14        3.14159  -0.00000   0.00000  -0.00000   0.00000   3.14159
   D15        3.14159   0.00000   0.00000   0.00000   0.00000   3.14159
   D16        0.00000  -0.00000   0.00000  -0.00000  -0.00000   0.00000
   D17        0.00000   0.00000   0.00000   0.00000  -0.00000   0.00000
   D18        3.14159  -0.00000   0.00000  -0.00000   0.00000   3.14159
   D19        3.14159   0.00000   0.00000   0.00000   0.00000   3.14159
   D20       -0.00000  -0.00000   0.00000   0.00000   0.00000   0.00000
         Item               Value     Threshold  Converged?
 Maximum Force            0.002333     0.000450     NO 
 RMS     Force            0.000923     0.000300     NO 
 Maximum Displacement     0.017379     0.001800     NO 
 RMS     Displacement     0.005736     0.001200     NO 
 Predicted change in Energy=-1.128351D-04
 Lowest energy point so far.  Saving SCF results.
 GradGradGradGradGradGradGradGradGradGradGradGradGradGradGradGradGradGrad

 Leave Link  103 at Mon Sep 28 02:27:23 2026, MaxMem=  1610612736 cpu:               0.2 elap:               0.0
 (Enter /share/software/user/restricted/gaussian/g16.B01/l202.exe)
                          Input orientation:                          
 ---------------------------------------------------------------------
 Center     Atomic      Atomic             Coordinates (Angstroms)
 Number     Number       Type             X           Y           Z
 ---------------------------------------------------------------------
      1          6           0        0.000000    1.379095    0.000000
      2          6           0        1.168531    0.689323    0.000000
      3          6           0        1.217837   -0.703328    0.000000
      4          6           0       -0.000000   -1.407753    0.000000
      5          6           0       -1.217837   -0.703328    0.000000
      6          6           0       -1.168531    0.689323    0.000000
      7         35           0        2.886218    1.727653    0.000000
      8         35           0        2.904773   -1.679871    0.000000
      9         35           0       -0.000000   -3.328896    0.000000
     10         35           0       -2.904773   -1.679871    0.000000
     11         35           0       -2.886218    1.727653    0.000000
 ---------------------------------------------------------------------
                    Distance matrix (angstroms):
                    1          2          3          4          5
     1  C    0.000000
     2  C    1.356926   0.000000
     3  C    2.412387   1.393524   0.000000
     4  C    2.786848   2.400665   1.406891   0.000000
     5  C    2.412387   2.763011   2.435675   1.406891   0.000000
     6  C    1.356926   2.337062   2.763011   2.400665   1.393524
     7  Br   2.907189   2.007132   2.948417   4.261576   4.770004
     8  Br   4.218409   2.937281   1.949202   2.917491   4.236692
     9  Br   4.707991   4.184680   2.894259   1.921142   2.894259
    10  Br   4.218409   4.712206   4.236692   2.917491   1.949202
    11  Br   2.907189   4.185585   4.770004   4.261576   2.948417
                    6          7          8          9         10
     6  C    0.000000
     7  Br   4.185585   0.000000
     8  Br   4.712206   3.407574   0.000000
     9  Br   4.184680   5.822279   3.340208   0.000000
    10  Br   2.937281   6.719137   5.809547   3.340208   0.000000
    11  Br   2.007132   5.772437   6.719137   5.822279   3.407574
                   11
    11  Br   0.000000
 Stoichiometry    C6Br5(1-)
 Framework group  C2V[C2(CCBr),SGV(C4Br4)]
 Deg. of freedom    10
 Full point group                 C2V     NOp   4
 RotChk:  IX=0 Diff= 8.64D-16
 Largest Abelian subgroup         C2V     NOp   4
 Largest concise Abelian subgroup C2      NOp   2
                         Standard orientation:                         
 ---------------------------------------------------------------------
 Center     Atomic      Atomic             Coordinates (Angstroms)
 Number     Number       Type             X           Y           Z
 ---------------------------------------------------------------------
      1          6           0       -0.000000    0.000000   -1.917041
      2          6           0       -0.000000    1.168531   -1.227269
      3          6           0        0.000000    1.217837    0.165382
      4          6           0        0.000000    0.000000    0.869807
      5          6           0       -0.000000   -1.217837    0.165382
      6          6           0       -0.000000   -1.168531   -1.227269
      7         35           0       -0.000000    2.886218   -2.265599
      8         35           0        0.000000    2.904773    1.141925
      9         35           0        0.000000   -0.000000    2.790950
     10         35           0       -0.000000   -2.904773    1.141925
     11         35           0       -0.000000   -2.886218   -2.265599
 ---------------------------------------------------------------------
 Rotational constants (GHZ):           0.2937150           0.1861456           0.1139368
 Leave Link  202 at Mon Sep 28 02:27:23 2026, MaxMem=  1610612736 cpu:               0.0 elap:               0.0
 (Enter /share/software/user/restricted/gaussian/g16.B01/l301.exe)
 Standard basis: 6-311++G(d) (5D, 7F)
 Ernie: Thresh=  0.10000D-02 Tol=  0.10000D-05 Strict=F.
 There are   158 symmetry adapted cartesian basis functions of A1  symmetry.
 There are    45 symmetry adapted cartesian basis functions of A2  symmetry.
 There are    61 symmetry adapted cartesian basis functions of B1  symmetry.
 There are   129 symmetry adapted cartesian basis functions of B2  symmetry.
 There are   145 symmetry adapted basis functions of A1  symmetry.
 There are    45 symmetry adapted basis functions of A2  symmetry.
 There are    61 symmetry adapted basis functions of B1  symmetry.
 There are   121 symmetry adapted basis functions of B2  symmetry.
   372 basis functions,   686 primitive gaussians,   393 cartesian basis functions
   106 alpha electrons      106 beta electrons
       nuclear repulsion energy      2602.8363006342 Hartrees.
 IExCor=  402 DFT=T Ex+Corr=B3LYP ExCW=0 ScaHFX=  0.200000
 ScaDFX=  0.800000  0.720000  1.000000  0.810000 ScalE2=  1.000000  1.000000
 IRadAn=      5 IRanWt=     -1 IRanGd=            0 ICorTp=0 IEmpDi=  4
 NAtoms=   11 NActive=   11 NUniq=    7 SFac= 2.47D+00 NAtFMM=   60 NAOKFM=F Big=F
 Integral buffers will be    131072 words long.
 Raffenetti 2 integral format.
 Two-electron integral symmetry is turned on.
 Leave Link  301 at Mon Sep 28 02:27:23 2026, MaxMem=  1610612736 cpu:               0.5 elap:               0.1
 (Enter /share/software/user/restricted/gaussian/g16.B01/l302.exe)
 NPDir=0 NMtPBC=     1 NCelOv=     1 NCel=       1 NClECP=     1 NCelD=      1
         NCelK=      1 NCelE2=     1 NClLst=     1 CellRange=     0.0.
 One-electron integrals computed using PRISM.
 One-electron integral symmetry used in STVInt
 NBasis=   372 RedAO= T EigKep=  1.28D-06  NBF=   145    45    61   121
 NBsUse=   371 1.00D-06 EigRej=  6.25D-07 NBFU=   144    45    61   121
 Precomputing XC quadrature grid using
 IXCGrd= 4 IRadAn=           5 IRanWt=          -1 IRanGd=           0 AccXCQ= 0.00D+00.
 Generated NRdTot=       0 NPtTot=           0 NUsed=           0 NTot=          32
 NSgBfM=   364   364   364   364   364 MxSgAt=    11 MxSgA2=    11.
 Leave Link  302 at Mon Sep 28 02:27:24 2026, MaxMem=  1610612736 cpu:               1.9 elap:               0.2
 (Enter /share/software/user/restricted/gaussian/g16.B01/l303.exe)
 DipDrv:  MaxL=1.
 Leave Link  303 at Mon Sep 28 02:27:24 2026, MaxMem=  1610612736 cpu:               0.4 elap:               0.1
 (Enter /share/software/user/restricted/gaussian/g16.B01/l401.exe)
 Initial guess from the checkpoint file:  "calcs/b3lyp_gas/chks/BrPh_23456_anion.chk"
 B after Tr=    -0.000000   -0.000000    0.000000
         Rot=    1.000000   -0.000000    0.000000    0.000000 Ang=   0.00 deg.
 Guess basis will be translated and rotated to current coordinates.
 JPrj=2 DoOrth=T DoCkMO=T.
 Initial guess orbital symmetries:
       Occupied  (A1) (B2) (A1) (B2) (A1) (A1) (B2) (A1) (B2) (A1)
                 (A1) (B1) (B2) (B2) (A1) (B1) (A2) (B2) (A1) (B2)
                 (A1) (A2) (B1) (B2) (A1) (A1) (B2) (A1) (B2) (A1)
                 (A1) (A1) (B2) (A1) (B2) (A1) (A1) (B2) (A1) (B1)
                 (B2) (B1) (A2) (B2) (A1) (B2) (A1) (B1) (A2) (B2)
                 (A1) (A1) (B1) (B2) (B2) (A1) (A1) (A2) (B1) (A2)
                 (B2) (A1) (B2) (B1) (A2) (A1) (B2) (A1) (B1) (A2)
                 (A1) (B2) (B1) (A2) (B2) (A1) (A1) (B2) (A1) (A1)
                 (B2) (A1) (A1) (B2) (A1) (B2) (B2) (A1) (B1) (A1)
                 (B2) (A1) (B2) (A2) (B1) (B2) (A1) (B1) (A2) (B2)
                 (B1) (A1) (B2) (A2) (B1) (A1)
       Virtual   (A1) (B2) (A2) (B1) (A1) (A1) (B2) (A1) (B2) (A1)
                 (B1) (A1) (A2) (B1) (B2) (A1) (B2) (B2) (A1) (B1)
                 (A2) (A1) (B2) (A1) (B2) (A1) (B2) (B1) (A1) (B1)
                 (A1) (A2) (B1) (B1) (A1) (B2) (B2) (A2) (A1) (A1)
                 (B2) (A1) (B2) (B1) (B2) (B2) (A1) (A1) (B2) (A1)
                 (B2) (A1) (B2) (A1) (B2) (A1) (A1) (B1) (B2) (A2)
                 (B2) (A1) (B1) (B2) (A2) (B1) (B2) (A1) (B2) (B2)
                 (B1) (A1) (A2) (A1) (B1) (A1) (B2) (A1) (A2) (B1)
                 (B1) (A1) (B2) (A2) (A2) (B1) (B1) (A2) (A1) (A1)
                 (B1) (B2) (A1) (A1) (A2) (B2) (A1) (B1) (B2) (B2)
                 (A1) (A1) (A1) (A2) (B2) (A1) (B2) (A1) (B2) (B2)
                 (A1) (B2) (A1) (B1) (A1) (B2) (A2) (B2) (B2) (A1)
                 (A1) (A1) (B1) (B2) (B2) (A1) (A2) (B1) (A1) (B1)
                 (A2) (B2) (A1) (B2) (A1) (A1) (B2) (A2) (A1) (B1)
                 (B2) (B2) (A1) (B1) (A2) (B1) (B1) (A2) (B1) (A2)
                 (B2) (A1) (A1) (B1) (A1) (B2) (B2) (A1) (A1) (B2)
                 (B2) (A1) (A1) (B2) (B2) (A2) (A1) (B2) (A1) (B2)
                 (B1) (A2) (B1) (A1) (A2) (B1) (A1) (B2) (A1) (B1)
                 (B2) (A1) (B2) (A1) (B2) (A1) (B2) (A1) (A2) (A2)
                 (A1) (B1) (A2) (B1) (B1) (A2) (A1) (B2) (B1) (A1)
                 (B2) (A2) (B1) (B2) (A1) (B2) (A1) (B2) (A1) (B2)
                 (A1) (B2) (A1) (B2) (A1) (B2) (A1) (B2) (A1) (B1)
                 (A2) (B1) (A2) (B1) (A1) (A1) (B2) (B2) (A1) (B2)
                 (B2) (A1) (A1) (B2) (A1) (A1) (B2) (A1) (B2) (A1)
                 (A1) (B2) (A1) (B2) (A1) (B1) (A2) (B1) (A2) (B1)
                 (A1) (B2) (B2) (A1) (A1) (B2) (B2) (A1) (A1) (B2)
                 (A1) (B2) (A1) (B2) (A1)
 The electronic state of the initial guess is 1-A1.
 Leave Link  401 at Mon Sep 28 02:27:24 2026, MaxMem=  1610612736 cpu:               3.0 elap:               0.4
 (Enter /share/software/user/restricted/gaussian/g16.B01/l502.exe)
 Integral symmetry usage will be decided dynamically.
 Closed shell SCF:
 Using DIIS extrapolation, IDIIS=  1040.
 NGot=  1610612736 LenX=  1610294648 LenY=  1610139758
 Requested convergence on RMS density matrix=1.00D-08 within 128 cycles.
 Requested convergence on MAX density matrix=1.00D-06.
 Requested convergence on             energy=1.00D-06.
 No special actions if energy rises.
 Fock matrices will be formed incrementally for  20 cycles.

 Cycle   1  Pass 1  IDiag  1:
 FoFJK:  IHMeth= 1 ICntrl=       0 DoSepK=F KAlg= 0 I1Cent=           0 FoldK=F
 IRaf= 740000000 NMat=       1 IRICut=       1 DoRegI=T DoRafI=F ISym2E= 1 IDoP0=0 IntGTp=1.
 FoFCou: FMM=F IPFlag=           0 FMFlag=      100000 FMFlg1=           0
         NFxFlg=           0 DoJE=F BraDBF=F KetDBF=F FulRan=T
         wScrn=  0.000000 ICntrl=         0 IOpCl=  0 I1Cent=           0 NGrid=           0
         NMat0=    1 NMatS0=      1 NMatT0=    0 NMatD0=    1 NMtDS0=    0 NMtDT0=    0
 Petite list used in FoFCou.
 E= -13099.4182225858    
 DIIS: error= 8.13D-04 at cycle   1 NSaved=   1.
 NSaved= 1 IEnMin= 1 EnMin= -13099.4182225858     IErMin= 1 ErrMin= 8.13D-04
 ErrMax= 8.13D-04  0.00D+00 EMaxC= 1.00D-01 BMatC= 3.14D-04 BMatP= 3.14D-04
 IDIUse=3 WtCom= 9.92D-01 WtEn= 8.13D-03
 Coeff-Com:  0.100D+01
 Coeff-En:   0.100D+01
 Coeff:      0.100D+01
 Gap=     0.124 Goal=   None    Shift=    0.000
 RMSDP=4.29D-04 MaxDP=5.20D-02              OVMax= 1.04D-02

 Cycle   2  Pass 1  IDiag  1:
 RMSU=  4.04D-04    CP:  1.00D+00
 E= -13099.4183930743     Delta-E=       -0.000170488525 Rises=F Damp=F
 DIIS: error= 2.26D-04 at cycle   2 NSaved=   2.
 NSaved= 2 IEnMin= 2 EnMin= -13099.4183930743     IErMin= 2 ErrMin= 2.26D-04
 ErrMax= 2.26D-04  0.00D+00 EMaxC= 1.00D-01 BMatC= 1.31D-05 BMatP= 3.14D-04
 IDIUse=3 WtCom= 9.98D-01 WtEn= 2.26D-03
 Coeff-Com:  0.564D-01 0.944D+00
 Coeff-En:   0.000D+00 0.100D+01
 Coeff:      0.563D-01 0.944D+00
 Gap=     0.121 Goal=   None    Shift=    0.000
 RMSDP=2.15D-04 MaxDP=1.08D-02 DE=-1.70D-04 OVMax= 3.37D-03

 Cycle   3  Pass 1  IDiag  1:
 RMSU=  2.10D-04    CP:  1.01D+00  9.11D-01
 E= -13099.4183859153     Delta-E=        0.000007158977 Rises=F Damp=F
 DIIS: error= 3.56D-04 at cycle   3 NSaved=   3.
 NSaved= 3 IEnMin= 2 EnMin= -13099.4183930743     IErMin= 2 ErrMin= 2.26D-04
 ErrMax= 3.56D-04  0.00D+00 EMaxC= 1.00D-01 BMatC= 2.10D-05 BMatP= 1.31D-05
 IDIUse=3 WtCom= 3.46D-01 WtEn= 6.54D-01
 Coeff-Com: -0.347D-02 0.565D+00 0.439D+00
 Coeff-En:   0.000D+00 0.601D+00 0.399D+00
 Coeff:     -0.120D-02 0.588D+00 0.413D+00
 Gap=     0.121 Goal=   None    Shift=    0.000
 RMSDP=1.00D-04 MaxDP=5.84D-03 DE= 7.16D-06 OVMax= 2.66D-03

 Cycle   4  Pass 1  IDiag  1:
 RMSU=  7.51D-05    CP:  1.00D+00  9.34D-01  7.32D-01
 E= -13099.4184051246     Delta-E=       -0.000019209296 Rises=F Damp=F
 DIIS: error= 7.45D-05 at cycle   4 NSaved=   4.
 NSaved= 4 IEnMin= 4 EnMin= -13099.4184051246     IErMin= 4 ErrMin= 7.45D-05
 ErrMax= 7.45D-05  0.00D+00 EMaxC= 1.00D-01 BMatC= 1.38D-06 BMatP= 1.31D-05
 IDIUse=1 WtCom= 1.00D+00 WtEn= 0.00D+00
 Coeff-Com: -0.333D-02 0.261D+00 0.245D+00 0.497D+00
 Coeff:     -0.333D-02 0.261D+00 0.245D+00 0.497D+00
 Gap=     0.121 Goal=   None    Shift=    0.000
 RMSDP=7.10D-05 MaxDP=8.57D-03 DE=-1.92D-05 OVMax= 1.24D-03

 Cycle   5  Pass 1  IDiag  1:
 RMSU=  3.59D-05    CP:  1.01D+00  1.01D+00  6.90D-01  4.18D-01
 E= -13099.4184062593     Delta-E=       -0.000001134689 Rises=F Damp=F
 DIIS: error= 5.56D-05 at cycle   5 NSaved=   5.
 NSaved= 5 IEnMin= 5 EnMin= -13099.4184062593     IErMin= 5 ErrMin= 5.56D-05
 ErrMax= 5.56D-05  0.00D+00 EMaxC= 1.00D-01 BMatC= 5.77D-07 BMatP= 1.38D-06
 IDIUse=1 WtCom= 1.00D+00 WtEn= 0.00D+00
 Coeff-Com: -0.226D-02 0.104D+00 0.112D+00 0.380D+00 0.406D+00
 Coeff:     -0.226D-02 0.104D+00 0.112D+00 0.380D+00 0.406D+00
 Gap=     0.121 Goal=   None    Shift=    0.000
 RMSDP=1.59D-05 MaxDP=1.63D-03 DE=-1.13D-06 OVMax= 2.86D-04

 Cycle   6  Pass 1  IDiag  1:
 RMSU=  3.48D-06    CP:  1.00D+00  9.97D-01  7.03D-01  5.70D-01  8.38D-01
 E= -13099.4184068688     Delta-E=       -0.000000609458 Rises=F Damp=F
 DIIS: error= 9.74D-06 at cycle   6 NSaved=   6.
 NSaved= 6 IEnMin= 6 EnMin= -13099.4184068688     IErMin= 6 ErrMin= 9.74D-06
 ErrMax= 9.74D-06  0.00D+00 EMaxC= 1.00D-01 BMatC= 2.27D-08 BMatP= 5.77D-07
 IDIUse=1 WtCom= 1.00D+00 WtEn= 0.00D+00
 Coeff-Com: -0.558D-03 0.427D-02 0.117D-01 0.133D+00 0.201D+00 0.650D+00
 Coeff:     -0.558D-03 0.427D-02 0.117D-01 0.133D+00 0.201D+00 0.650D+00
 Gap=     0.121 Goal=   None    Shift=    0.000
 RMSDP=5.60D-06 MaxDP=2.61D-04 DE=-6.09D-07 OVMax= 7.07D-05

 Cycle   7  Pass 1  IDiag  1:
 RMSU=  1.31D-06    CP:  1.00D+00  9.96D-01  7.26D-01  5.92D-01  8.79D-01
                    CP:  7.63D-01
 E= -13099.4184068885     Delta-E=       -0.000000019672 Rises=F Damp=F
 DIIS: error= 5.11D-06 at cycle   7 NSaved=   7.
 NSaved= 7 IEnMin= 7 EnMin= -13099.4184068885     IErMin= 7 ErrMin= 5.11D-06
 ErrMax= 5.11D-06  0.00D+00 EMaxC= 1.00D-01 BMatC= 5.04D-09 BMatP= 2.27D-08
 IDIUse=1 WtCom= 1.00D+00 WtEn= 0.00D+00
 Coeff-Com: -0.133D-04-0.121D-01-0.853D-02 0.426D-01 0.648D-01 0.378D+00
 Coeff-Com:  0.536D+00
 Coeff:     -0.133D-04-0.121D-01-0.853D-02 0.426D-01 0.648D-01 0.378D+00
 Coeff:      0.536D+00
 Gap=     0.121 Goal=   None    Shift=    0.000
 RMSDP=1.64D-06 MaxDP=7.05D-05 DE=-1.97D-08 OVMax= 2.87D-05

 Cycle   8  Pass 1  IDiag  1:
 RMSU=  1.10D-06    CP:  1.00D+00  9.97D-01  7.27D-01  6.01D-01  8.93D-01
                    CP:  9.65D-01  8.15D-01
 E= -13099.4184068929     Delta-E=       -0.000000004413 Rises=F Damp=F
 DIIS: error= 1.16D-06 at cycle   8 NSaved=   8.
 NSaved= 8 IEnMin= 8 EnMin= -13099.4184068929     IErMin= 8 ErrMin= 1.16D-06
 ErrMax= 1.16D-06  0.00D+00 EMaxC= 1.00D-01 BMatC= 5.87D-10 BMatP= 5.04D-09
 IDIUse=1 WtCom= 1.00D+00 WtEn= 0.00D+00
 Coeff-Com:  0.440D-04-0.813D-02-0.704D-02 0.128D-01 0.131D-01 0.153D+00
 Coeff-Com:  0.321D+00 0.515D+00
 Coeff:      0.440D-04-0.813D-02-0.704D-02 0.128D-01 0.131D-01 0.153D+00
 Coeff:      0.321D+00 0.515D+00
 Gap=     0.121 Goal=   None    Shift=    0.000
 RMSDP=5.48D-07 MaxDP=2.72D-05 DE=-4.41D-09 OVMax= 8.76D-06

 Cycle   9  Pass 1  IDiag  1:
 RMSU=  2.76D-07    CP:  1.00D+00  9.97D-01  7.28D-01  6.06D-01  8.96D-01
                    CP:  1.01D+00  8.60D-01  9.79D-01
 E= -13099.4184068935     Delta-E=       -0.000000000669 Rises=F Damp=F
 DIIS: error= 3.41D-07 at cycle   9 NSaved=   9.
 NSaved= 9 IEnMin= 9 EnMin= -13099.4184068935     IErMin= 9 ErrMin= 3.41D-07
 ErrMax= 3.41D-07  0.00D+00 EMaxC= 1.00D-01 BMatC= 6.80D-11 BMatP= 5.87D-10
 IDIUse=1 WtCom= 1.00D+00 WtEn= 0.00D+00
 Coeff-Com:  0.339D-04-0.359D-02-0.345D-02 0.166D-02-0.216D-02 0.415D-01
 Coeff-Com:  0.121D+00 0.303D+00 0.542D+00
 Coeff:      0.339D-04-0.359D-02-0.345D-02 0.166D-02-0.216D-02 0.415D-01
 Coeff:      0.121D+00 0.303D+00 0.542D+00
 Gap=     0.121 Goal=   None    Shift=    0.000
 RMSDP=2.76D-07 MaxDP=3.73D-05 DE=-6.69D-10 OVMax= 2.28D-06

 Cycle  10  Pass 1  IDiag  1:
 RMSU=  6.05D-08    CP:  1.00D+00  9.97D-01  7.28D-01  6.06D-01  9.01D-01
                    CP:  9.97D-01  8.68D-01  1.01D+00  6.98D-01
 E= -13099.4184068935     Delta-E=        0.000000000051 Rises=F Damp=F
 DIIS: error= 1.30D-07 at cycle  10 NSaved=  10.
 NSaved=10 IEnMin= 9 EnMin= -13099.4184068935     IErMin=10 ErrMin= 1.30D-07
 ErrMax= 1.30D-07  0.00D+00 EMaxC= 1.00D-01 BMatC= 8.53D-12 BMatP= 6.80D-11
 IDIUse=1 WtCom= 1.00D+00 WtEn= 0.00D+00
 Coeff-Com:  0.104D-04-0.679D-03-0.725D-03-0.668D-03-0.300D-02 0.138D-02
 Coeff-Com:  0.186D-01 0.799D-01 0.296D+00 0.609D+00
 Coeff:      0.104D-04-0.679D-03-0.725D-03-0.668D-03-0.300D-02 0.138D-02
 Coeff:      0.186D-01 0.799D-01 0.296D+00 0.609D+00
 Gap=     0.121 Goal=   None    Shift=    0.000
 RMSDP=6.09D-08 MaxDP=5.16D-06 DE= 5.09D-11 OVMax= 9.50D-07

 Cycle  11  Pass 1  IDiag  1:
 RMSU=  2.82D-08    CP:  1.00D+00  9.97D-01  7.28D-01  6.06D-01  9.01D-01
                    CP:  1.00D+00  8.76D-01  1.01D+00  7.86D-01  8.57D-01
 E= -13099.4184068936     Delta-E=       -0.000000000069 Rises=F Damp=F
 DIIS: error= 9.44D-08 at cycle  11 NSaved=  11.
 NSaved=11 IEnMin=11 EnMin= -13099.4184068936     IErMin=11 ErrMin= 9.44D-08
 ErrMax= 9.44D-08  0.00D+00 EMaxC= 1.00D-01 BMatC= 1.25D-12 BMatP= 8.53D-12
 IDIUse=1 WtCom= 1.00D+00 WtEn= 0.00D+00
 Coeff-Com:  0.179D-05 0.100D-03 0.849D-04-0.416D-03-0.125D-02-0.381D-02
 Coeff-Com: -0.465D-02 0.245D-02 0.972D-01 0.345D+00 0.566D+00
 Coeff:      0.179D-05 0.100D-03 0.849D-04-0.416D-03-0.125D-02-0.381D-02
 Coeff:     -0.465D-02 0.245D-02 0.972D-01 0.345D+00 0.566D+00
 Gap=     0.121 Goal=   None    Shift=    0.000
 RMSDP=2.17D-08 MaxDP=1.17D-06 DE=-6.91D-11 OVMax= 3.11D-07

 Cycle  12  Pass 1  IDiag  1:
 RMSU=  7.40D-09    CP:  1.00D+00  9.97D-01  7.28D-01  6.06D-01  9.01D-01
                    CP:  1.00D+00  8.76D-01  1.02D+00  7.91D-01  9.20D-01
                    CP:  8.42D-01
 E= -13099.4184068936     Delta-E=       -0.000000000073 Rises=F Damp=F
 DIIS: error= 9.74D-09 at cycle  12 NSaved=  12.
 NSaved=12 IEnMin=12 EnMin= -13099.4184068936     IErMin=12 ErrMin= 9.74D-09
 ErrMax= 9.74D-09  0.00D+00 EMaxC= 1.00D-01 BMatC= 5.63D-14 BMatP= 1.25D-12
 IDIUse=1 WtCom= 1.00D+00 WtEn= 0.00D+00
 Coeff-Com: -0.280D-06 0.998D-04 0.103D-03-0.123D-03-0.317D-03-0.168D-02
 Coeff-Com: -0.327D-02-0.763D-02 0.143D-01 0.909D-01 0.227D+00 0.681D+00
 Coeff:     -0.280D-06 0.998D-04 0.103D-03-0.123D-03-0.317D-03-0.168D-02
 Coeff:     -0.327D-02-0.763D-02 0.143D-01 0.909D-01 0.227D+00 0.681D+00
 Gap=     0.121 Goal=   None    Shift=    0.000
 RMSDP=5.12D-09 MaxDP=6.25D-07 DE=-7.28D-11 OVMax= 7.43D-08

 SCF Done:  E(RB3LYP) =  -13099.4184069     A.U. after   12 cycles
            NFock= 12  Conv=0.51D-08     -V/T= 2.0013
 KE= 1.308305247752D+04 PE=-3.652912246951D+04 EE= 7.743815284455D+03
 Leave Link  502 at Mon Sep 28 02:27:51 2026, MaxMem=  1610612736 cpu:             211.6 elap:              26.5
 (Enter /share/software/user/restricted/gaussian/g16.B01/l701.exe)
 ... and contract with generalized density number  0.
 Compute integral first derivatives.
 Leave Link  701 at Mon Sep 28 02:27:51 2026, MaxMem=  1610612736 cpu:               1.7 elap:               0.5
 (Enter /share/software/user/restricted/gaussian/g16.B01/l702.exe)
 L702 exits ... SP integral derivatives will be done elsewhere.
 Leave Link  702 at Mon Sep 28 02:27:51 2026, MaxMem=  1610612736 cpu:               0.2 elap:               0.0
 (Enter /share/software/user/restricted/gaussian/g16.B01/l703.exe)
 Integral derivatives from FoFJK, PRISM(SPDF).
 Compute integral first derivatives, UseDBF=F ICtDFT=           0.
 Calling FoFJK, ICntrl=      2127 FMM=F ISym2X=1 I1Cent= 0 IOpClX= 0 NMat=1 NMatS=1 NMatT=0.
 FoFJK:  IHMeth= 1 ICntrl=    2127 DoSepK=F KAlg= 0 I1Cent=           0 FoldK=F
 IRaf=         0 NMat=       1 IRICut=       1 DoRegI=T DoRafI=F ISym2E= 1 IDoP0=0 IntGTp=1.
 FoFCou: FMM=F IPFlag=           0 FMFlag=      100000 FMFlg1=         800
         NFxFlg=           0 DoJE=F BraDBF=F KetDBF=F FulRan=T
         wScrn=  0.000000 ICntrl=      2127 IOpCl=  0 I1Cent=           0 NGrid=           0
         NMat0=    1 NMatS0=      1 NMatT0=    0 NMatD0=    1 NMtDS0=    0 NMtDT0=    0
 Petite list used in FoFCou.
 Leave Link  703 at Mon Sep 28 02:28:01 2026, MaxMem=  1610612736 cpu:              73.0 elap:               9.1
 (Enter /share/software/user/restricted/gaussian/g16.B01/l716.exe)
 Dipole        = 2.57189696D-16 0.00000000D+00 1.92979906D+00
 ***** Axes restored to original set *****
 -------------------------------------------------------------------
 Center     Atomic                   Forces (Hartrees/Bohr)
 Number     Number              X              Y              Z
 -------------------------------------------------------------------
      1        6          -0.000000000   -0.001824652    0.000000000
      2        6          -0.000853145    0.001295594   -0.000000000
      3        6           0.002054890   -0.000818553   -0.000000000
      4        6          -0.000000000   -0.000910407    0.000000000
      5        6          -0.002054890   -0.000818553    0.000000000
      6        6           0.000853145    0.001295594    0.000000000
      7       35           0.000369473   -0.000102761   -0.000000000
      8       35          -0.000942666    0.000826602   -0.000000000
      9       35          -0.000000000    0.000333294    0.000000000
     10       35           0.000942666    0.000826602   -0.000000000
     11       35          -0.000369473   -0.000102761   -0.000000000
 -------------------------------------------------------------------
 Cartesian Forces:  Max     0.002054890 RMS     0.000822141
 Leave Link  716 at Mon Sep 28 02:28:01 2026, MaxMem=  1610612736 cpu:               0.4 elap:               0.1
 (Enter /share/software/user/restricted/gaussian/g16.B01/l103.exe)

 GradGradGradGradGradGradGradGradGradGradGradGradGradGradGradGradGradGrad
 Berny optimization.
 Using GEDIIS/GDIIS optimizer.
 FormGI is forming the generalized inverse of G from B-inverse, IUseBI=4.
 Internal  Forces:  Max     0.001229954 RMS     0.000450399
 Search for a local minimum.
 Step number   4 out of a maximum of   57
 All quantities printed in internal units (Hartrees-Bohrs-Radians)
 RMS Force = .45040D-03 SwitMx=.10000D-02 MixMth= 2
 Mixed Optimization -- En-DIIS/RFO-DIIS
 Swapping is turned off.
 Update second derivatives using D2CorX and points    1    2    3    4
 DE= -1.41D-04 DEPred=-1.13D-04 R= 1.25D+00
 TightC=F SS=  1.41D+00  RLast= 4.11D-02 DXNew= 8.4853D-01 1.2334D-01
 Trust test= 1.25D+00 RLast= 4.11D-02 DXMaxT set to 5.05D-01
 ITU=  1  1  1  0
     Eigenvalues ---    0.02040   0.02055   0.02069   0.02074   0.02108
     Eigenvalues ---    0.02149   0.02162   0.02234   0.08529   0.19132
     Eigenvalues ---    0.19181   0.19388   0.19906   0.24588   0.24992
     Eigenvalues ---    0.25000   0.25000   0.25000   0.25000   0.25326
     Eigenvalues ---    0.28668   0.39417   0.42048   0.45183   0.46013
     Eigenvalues ---    0.47726   0.54107
 En-DIIS/RFO-DIIS/Sim-DIIS IScMMF=       -3 using points:     4    3
 RFO step:  Lambda=-5.20540604D-05.
 NNeg= 0 NGDIIS= 2 SimSw=  2.50D-01 Rises=F DC= -1.41D-04 SmlDif=  1.00D-05
 NRisDI= 0 DoIntr=F SqrtH=F CThrHd= 10.0 CDAdj=  3.0
 RMS Error=  0.2922586292D-02 NUsed= 2 OKEnD=T EnDIS=F
 InvSVX:  RCond= 4.22D-04 Info=           0 Equed=N FErr=  2.02D-15 BErr=  0.00D+00
 DidBck=F Rises=F RFO-DIIS coefs:    1.39973   -0.39973
 Iteration  1 RMS(Cart)=  0.00315991 RMS(Int)=  0.00000372
 Iteration  2 RMS(Cart)=  0.00000447 RMS(Int)=  0.00000176
 Iteration  3 RMS(Cart)=  0.00000000 RMS(Int)=  0.00000176
 ITry= 1 IFail=0 DXMaxC= 9.84D-03 DCOld= 1.00D+10 DXMaxT= 5.05D-01 DXLimC= 3.00D+00 Rises=F
 ClnCor:  largest displacement from symmetrization is 1.38D-10 for atom     9.
 Variable       Old X    -DE/DX   Delta X   Delta X   Delta X     New X
                                 (Linear)    (Quad)   (Total)
    R1        2.56422  -0.00077  -0.00352  -0.00076  -0.00428   2.55994
    R2        2.56422  -0.00077  -0.00352  -0.00076  -0.00428   2.55994
    R3        2.63338   0.00028  -0.00048   0.00075   0.00027   2.63365
    R4        3.79293   0.00026   0.00994  -0.00152   0.00842   3.80135
    R5        2.65864   0.00099   0.00061   0.00254   0.00315   2.66179
    R6        3.68346  -0.00123  -0.00281  -0.00484  -0.00765   3.67581
    R7        2.65864   0.00099   0.00061   0.00254   0.00315   2.66179
    R8        3.63043  -0.00033  -0.00175  -0.00013  -0.00187   3.62856
    R9        2.63338   0.00028  -0.00048   0.00075   0.00027   2.63365
   R10        3.68346  -0.00123  -0.00281  -0.00484  -0.00765   3.67581
   R11        3.79293   0.00026   0.00994  -0.00152   0.00842   3.80135
    A1        2.07509   0.00087   0.00325   0.00135   0.00460   2.07969
    A2        2.13944  -0.00011  -0.00093   0.00000  -0.00092   2.13851
    A3        2.06463   0.00058   0.00129   0.00234   0.00363   2.06825
    A4        2.07912  -0.00048  -0.00036  -0.00235  -0.00270   2.07642
    A5        2.05981  -0.00026  -0.00097  -0.00055  -0.00153   2.05828
    A6        2.13094  -0.00032   0.00194  -0.00290  -0.00095   2.12998
    A7        2.09244   0.00058  -0.00097   0.00345   0.00248   2.09492
    A8        2.09279  -0.00013   0.00056  -0.00025   0.00030   2.09309
    A9        2.09520   0.00007  -0.00028   0.00013  -0.00015   2.09505
   A10        2.09520   0.00007  -0.00028   0.00013  -0.00015   2.09505
   A11        2.05981  -0.00026  -0.00097  -0.00055  -0.00153   2.05828
   A12        2.09244   0.00058  -0.00097   0.00345   0.00248   2.09492
   A13        2.13094  -0.00032   0.00194  -0.00290  -0.00095   2.12998
   A14        2.13944  -0.00011  -0.00093   0.00000  -0.00092   2.13851
   A15        2.06463   0.00058   0.00129   0.00234   0.00363   2.06825
   A16        2.07912  -0.00048  -0.00036  -0.00235  -0.00270   2.07642
    D1        0.00000  -0.00000   0.00000  -0.00000   0.00000   0.00000
    D2        3.14159  -0.00000   0.00000  -0.00000   0.00000   3.14159
    D3       -0.00000   0.00000   0.00000   0.00000   0.00000   0.00000
    D4        3.14159   0.00000   0.00000   0.00000   0.00000   3.14159
    D5       -0.00000  -0.00000   0.00000  -0.00000   0.00000   0.00000
    D6        3.14159  -0.00000   0.00000  -0.00000   0.00000   3.14159
    D7        3.14159   0.00000   0.00000   0.00000   0.00000   3.14159
    D8        0.00000  -0.00000   0.00000  -0.00000  -0.00000   0.00000
    D9       -0.00000   0.00000   0.00000   0.00000   0.00000   0.00000
   D10        3.14159  -0.00000   0.00000  -0.00000   0.00000   3.14159
   D11        3.14159   0.00000   0.00000   0.00000   0.00000   3.14159
   D12       -0.00000   0.00000   0.00000   0.00000   0.00000   0.00000
   D13        0.00000  -0.00000   0.00000  -0.00000   0.00000   0.00000
   D14        3.14159  -0.00000   0.00000  -0.00000   0.00000   3.14159
   D15        3.14159   0.00000   0.00000   0.00000   0.00000   3.14159
   D16        0.00000  -0.00000   0.00000  -0.00000  -0.00000   0.00000
   D17        0.00000   0.00000   0.00000   0.00000  -0.00000   0.00000
   D18        3.14159  -0.00000   0.00000  -0.00000   0.00000   3.14159
   D19        3.14159   0.00000   0.00000   0.00000   0.00000   3.14159
   D20        0.00000  -0.00000   0.00000   0.00000   0.00000   0.00000
         Item               Value     Threshold  Converged?
 Maximum Force            0.001230     0.000450     NO 
 RMS     Force            0.000450     0.000300     NO 
 Maximum Displacement     0.009840     0.001800     NO 
 RMS     Displacement     0.003158     0.001200     NO 
 Predicted change in Energy=-2.603722D-05
 Lowest energy point so far.  Saving SCF results.
 GradGradGradGradGradGradGradGradGradGradGradGradGradGradGradGradGradGrad

 Leave Link  103 at Mon Sep 28 02:28:01 2026, MaxMem=  1610612736 cpu:               0.2 elap:               0.0
 (Enter /share/software/user/restricted/gaussian/g16.B01/l202.exe)
                          Input orientation:                          
 ---------------------------------------------------------------------
 Center     Atomic      Atomic             Coordinates (Angstroms)
 Number     Number       Type             X           Y           Z
 ---------------------------------------------------------------------
      1          6           0        0.000000    1.374591    0.000000
      2          6           0        1.168161    0.688655    0.000000
      3          6           0        1.219389   -0.704070    0.000000
      4          6           0       -0.000000   -1.409147    0.000000
      5          6           0       -1.219389   -0.704070    0.000000
      6          6           0       -1.168161    0.688655    0.000000
      7         35           0        2.891042    1.727005    0.000000
      8         35           0        2.905086   -1.674664    0.000000
      9         35           0       -0.000000   -3.329297    0.000000
     10         35           0       -2.905086   -1.674664    0.000000
     11         35           0       -2.891042    1.727005    0.000000
 ---------------------------------------------------------------------
                    Distance matrix (angstroms):
                    1          2          3          4          5
     1  C    0.000000
     2  C    1.354661   0.000000
     3  C    2.409925   1.393666   0.000000
     4  C    2.783738   2.401119   1.408561   0.000000
     5  C    2.409925   2.764068   2.438777   1.408561   0.000000
     6  C    1.354661   2.336321   2.764068   2.401119   1.393666
     7  Br   2.912443   2.011590   2.950348   4.265393   4.775539
     8  Br   4.211589   2.932948   1.945155   2.917195   4.237139
     9  Br   4.703888   4.184321   2.894603   1.920150   2.894603
    10  Br   4.211589   4.709205   4.237139   2.917195   1.945155
    11  Br   2.912443   4.189905   4.775539   4.265393   2.950348
                    6          7          8          9         10
     6  C    0.000000
     7  Br   4.189905   0.000000
     8  Br   4.709205   3.401698   0.000000
     9  Br   4.184321   5.824459   3.343253   0.000000
    10  Br   2.932948   6.720600   5.810173   3.343253   0.000000
    11  Br   2.011590   5.782085   6.720600   5.824459   3.401698
                   11
    11  Br   0.000000
 Stoichiometry    C6Br5(1-)
 Framework group  C2V[C2(CCBr),SGV(C4Br4)]
 Deg. of freedom    10
 Full point group                 C2V     NOp   4
 RotChk:  IX=0 Diff= 5.50D-16
 Largest Abelian subgroup         C2V     NOp   4
 Largest concise Abelian subgroup C2      NOp   2
                         Standard orientation:                         
 ---------------------------------------------------------------------
 Center     Atomic      Atomic             Coordinates (Angstroms)
 Number     Number       Type             X           Y           Z
 ---------------------------------------------------------------------
      1          6           0       -0.000000   -0.000000   -1.911338
      2          6           0       -0.000000    1.168161   -1.225403
      3          6           0       -0.000000    1.219389    0.167322
      4          6           0        0.000000    0.000000    0.872399
      5          6           0       -0.000000   -1.219389    0.167322
      6          6           0       -0.000000   -1.168161   -1.225403
      7         35           0       -0.000000    2.891042   -2.263753
      8         35           0       -0.000000    2.905086    1.137916
      9         35           0        0.000000    0.000000    2.792549
     10         35           0       -0.000000   -2.905086    1.137916
     11         35           0       -0.000000   -2.891042   -2.263753
 ---------------------------------------------------------------------
 Rotational constants (GHZ):           0.2941182           0.1858201           0.1138752
 Leave Link  202 at Mon Sep 28 02:28:01 2026, MaxMem=  1610612736 cpu:               0.0 elap:               0.0
 (Enter /share/software/user/restricted/gaussian/g16.B01/l301.exe)
 Standard basis: 6-311++G(d) (5D, 7F)
 Ernie: Thresh=  0.10000D-02 Tol=  0.10000D-05 Strict=F.
 There are   158 symmetry adapted cartesian basis functions of A1  symmetry.
 There are    45 symmetry adapted cartesian basis functions of A2  symmetry.
 There are    61 symmetry adapted cartesian basis functions of B1  symmetry.
 There are   129 symmetry adapted cartesian basis functions of B2  symmetry.
 There are   145 symmetry adapted basis functions of A1  symmetry.
 There are    45 symmetry adapted basis functions of A2  symmetry.
 There are    61 symmetry adapted basis functions of B1  symmetry.
 There are   121 symmetry adapted basis functions of B2  symmetry.
   372 basis functions,   686 primitive gaussians,   393 cartesian basis functions
   106 alpha electrons      106 beta electrons
       nuclear repulsion energy      2602.7598955547 Hartrees.
 IExCor=  402 DFT=T Ex+Corr=B3LYP ExCW=0 ScaHFX=  0.200000
 ScaDFX=  0.800000  0.720000  1.000000  0.810000 ScalE2=  1.000000  1.000000
 IRadAn=      5 IRanWt=     -1 IRanGd=            0 ICorTp=0 IEmpDi=  4
 NAtoms=   11 NActive=   11 NUniq=    7 SFac= 2.47D+00 NAtFMM=   60 NAOKFM=F Big=F
 Integral buffers will be    131072 words long.
 Raffenetti 2 integral format.
 Two-electron integral symmetry is turned on.
 Leave Link  301 at Mon Sep 28 02:28:01 2026, MaxMem=  1610612736 cpu:               0.5 elap:               0.1
 (Enter /share/software/user/restricted/gaussian/g16.B01/l302.exe)
 NPDir=0 NMtPBC=     1 NCelOv=     1 NCel=       1 NClECP=     1 NCelD=      1
         NCelK=      1 NCelE2=     1 NClLst=     1 CellRange=     0.0.
 One-electron integrals computed using PRISM.
 One-electron integral symmetry used in STVInt
 NBasis=   372 RedAO= T EigKep=  1.28D-06  NBF=   145    45    61   121
 NBsUse=   371 1.00D-06 EigRej=  6.23D-07 NBFU=   144    45    61   121
 Precomputing XC quadrature grid using
 IXCGrd= 4 IRadAn=           5 IRanWt=          -1 IRanGd=           0 AccXCQ= 0.00D+00.
 Generated NRdTot=       0 NPtTot=           0 NUsed=           0 NTot=          32
 NSgBfM=   364   364   364   364   364 MxSgAt=    11 MxSgA2=    11.
 Leave Link  302 at Mon Sep 28 02:28:01 2026, MaxMem=  1610612736 cpu:               2.1 elap:               0.3
 (Enter /share/software/user/restricted/gaussian/g16.B01/l303.exe)
 DipDrv:  MaxL=1.
 Leave Link  303 at Mon Sep 28 02:28:01 2026, MaxMem=  1610612736 cpu:               0.4 elap:               0.1
 (Enter /share/software/user/restricted/gaussian/g16.B01/l401.exe)
 Initial guess from the checkpoint file:  "calcs/b3lyp_gas/chks/BrPh_23456_anion.chk"
 B after Tr=    -0.000000   -0.000000   -0.000000
         Rot=    1.000000    0.000000   -0.000000   -0.000000 Ang=   0.00 deg.
 Guess basis will be translated and rotated to current coordinates.
 JPrj=2 DoOrth=T DoCkMO=T.
 Initial guess orbital symmetries:
       Occupied  (A1) (B2) (A1) (B2) (A1) (A1) (B2) (A1) (B2) (A1)
                 (A1) (B1) (B2) (B2) (A1) (B1) (A2) (B2) (A1) (B2)
                 (A1) (A2) (B1) (B2) (A1) (A1) (B2) (A1) (B2) (A1)
                 (A1) (A1) (B2) (A1) (B2) (A1) (A1) (B2) (A1) (B1)
                 (B2) (B1) (A2) (B2) (A1) (B2) (A1) (B1) (A2) (B2)
                 (A1) (A1) (B1) (B2) (B2) (A1) (A1) (A2) (B1) (A2)
                 (B2) (A1) (B2) (B1) (A2) (A1) (B2) (A1) (B1) (A2)
                 (A1) (B2) (B1) (A2) (B2) (A1) (A1) (B2) (A1) (A1)
                 (B2) (A1) (A1) (B2) (A1) (B2) (B2) (A1) (B1) (A1)
                 (B2) (A1) (B2) (A2) (B1) (B2) (A1) (B1) (A2) (B2)
                 (B1) (A1) (B2) (A2) (B1) (A1)
       Virtual   (A1) (B2) (A2) (A1) (B1) (A1) (B2) (A1) (B2) (A1)
                 (B1) (A1) (A2) (B1) (B2) (A1) (B2) (B2) (A1) (B1)
                 (A2) (A1) (B2) (A1) (B2) (A1) (B1) (B2) (A1) (B1)
                 (A1) (A2) (B1) (B1) (A1) (B2) (B2) (A2) (A1) (A1)
                 (B2) (A1) (B2) (B1) (B2) (B2) (A1) (A1) (B2) (A1)
                 (B2) (A1) (B2) (A1) (B2) (A1) (A1) (B1) (B2) (A2)
                 (B2) (A1) (B1) (B2) (A2) (B1) (B2) (A1) (B2) (B2)
                 (B1) (A1) (A2) (A1) (B1) (A1) (B2) (A1) (A2) (B1)
                 (B1) (A1) (B2) (A2) (A2) (B1) (B1) (A1) (A2) (A1)
                 (B1) (B2) (A1) (A1) (B2) (A2) (A1) (B1) (B2) (B2)
                 (A1) (A1) (A1) (A2) (B2) (A1) (B2) (A1) (B2) (B2)
                 (A1) (B2) (A1) (B1) (A1) (B2) (A2) (B2) (B2) (A1)
                 (A1) (A1) (B1) (B2) (B2) (A1) (A2) (B1) (B1) (A1)
                 (A2) (B2) (A1) (B2) (A1) (A1) (B2) (A2) (A1) (B1)
                 (B2) (B2) (A1) (B1) (A2) (B1) (B1) (A2) (B1) (A2)
                 (A1) (B2) (A1) (B1) (A1) (B2) (B2) (A1) (A1) (B2)
                 (B2) (A1) (A1) (B2) (B2) (A2) (A1) (B2) (A1) (B2)
                 (B1) (A2) (B1) (A1) (A2) (B1) (A1) (B2) (A1) (B1)
                 (B2) (A1) (B2) (A1) (B2) (A1) (B2) (A1) (A2) (A2)
                 (A1) (B1) (A2) (B1) (B1) (A2) (A1) (B2) (B1) (A1)
                 (B2) (A2) (B1) (B2) (A1) (B2) (A1) (B2) (A1) (B2)
                 (A1) (B2) (A1) (B2) (A1) (B2) (A1) (B2) (A1) (B1)
                 (A2) (B1) (A2) (B1) (A1) (A1) (B2) (B2) (A1) (B2)
                 (B2) (A1) (A1) (B2) (A1) (A1) (B2) (A1) (B2) (A1)
                 (A1) (B2) (A1) (B2) (A1) (B1) (A2) (B1) (A2) (B1)
                 (A1) (B2) (B2) (A1) (A1) (B2) (B2) (A1) (A1) (B2)
                 (A1) (B2) (A1) (B2) (A1)
 The electronic state of the initial guess is 1-A1.
 Leave Link  401 at Mon Sep 28 02:28:02 2026, MaxMem=  1610612736 cpu:               3.8 elap:               0.5
 (Enter /share/software/user/restricted/gaussian/g16.B01/l502.exe)
 Integral symmetry usage will be decided dynamically.
 Closed shell SCF:
 Using DIIS extrapolation, IDIIS=  1040.
 NGot=  1610612736 LenX=  1610294648 LenY=  1610139758
 Requested convergence on RMS density matrix=1.00D-08 within 128 cycles.
 Requested convergence on MAX density matrix=1.00D-06.
 Requested convergence on             energy=1.00D-06.
 No special actions if energy rises.
 Fock matrices will be formed incrementally for  20 cycles.

 Cycle   1  Pass 1  IDiag  1:
 FoFJK:  IHMeth= 1 ICntrl=       0 DoSepK=F KAlg= 0 I1Cent=           0 FoldK=F
 IRaf= 740000000 NMat=       1 IRICut=       1 DoRegI=T DoRafI=F ISym2E= 1 IDoP0=0 IntGTp=1.
 FoFCou: FMM=F IPFlag=           0 FMFlag=      100000 FMFlg1=           0
         NFxFlg=           0 DoJE=F BraDBF=F KetDBF=F FulRan=T
         wScrn=  0.000000 ICntrl=         0 IOpCl=  0 I1Cent=           0 NGrid=           0
         NMat0=    1 NMatS0=      1 NMatT0=    0 NMatD0=    1 NMtDS0=    0 NMtDT0=    0
 Petite list used in FoFCou.
 E= -13099.4183835352    
 DIIS: error= 5.52D-04 at cycle   1 NSaved=   1.
 NSaved= 1 IEnMin= 1 EnMin= -13099.4183835352     IErMin= 1 ErrMin= 5.52D-04
 ErrMax= 5.52D-04  0.00D+00 EMaxC= 1.00D-01 BMatC= 1.06D-04 BMatP= 1.06D-04
 IDIUse=3 WtCom= 9.94D-01 WtEn= 5.52D-03
 Coeff-Com:  0.100D+01
 Coeff-En:   0.100D+01
 Coeff:      0.100D+01
 Gap=     0.123 Goal=   None    Shift=    0.000
 RMSDP=3.64D-04 MaxDP=3.47D-02              OVMax= 4.67D-03

 Cycle   2  Pass 1  IDiag  1:
 RMSU=  3.64D-04    CP:  1.00D+00
 E= -13099.4184291598     Delta-E=       -0.000045624689 Rises=F Damp=F
 DIIS: error= 1.34D-04 at cycle   2 NSaved=   2.
 NSaved= 2 IEnMin= 2 EnMin= -13099.4184291598     IErMin= 2 ErrMin= 1.34D-04
 ErrMax= 1.34D-04  0.00D+00 EMaxC= 1.00D-01 BMatC= 3.62D-06 BMatP= 1.06D-04
 IDIUse=3 WtCom= 9.99D-01 WtEn= 1.34D-03
 Coeff-Com:  0.452D-01 0.955D+00
 Coeff-En:   0.000D+00 0.100D+01
 Coeff:      0.451D-01 0.955D+00
 Gap=     0.121 Goal=   None    Shift=    0.000
 RMSDP=1.14D-04 MaxDP=6.98D-03 DE=-4.56D-05 OVMax= 2.20D-03

 Cycle   3  Pass 1  IDiag  1:
 RMSU=  1.08D-04    CP:  1.00D+00  9.53D-01
 E= -13099.4184227359     Delta-E=        0.000006423976 Rises=F Damp=F
 DIIS: error= 2.71D-04 at cycle   3 NSaved=   3.
 NSaved= 3 IEnMin= 2 EnMin= -13099.4184291598     IErMin= 2 ErrMin= 1.34D-04
 ErrMax= 2.71D-04  0.00D+00 EMaxC= 1.00D-01 BMatC= 9.39D-06 BMatP= 3.62D-06
 IDIUse=3 WtCom= 3.78D-01 WtEn= 6.22D-01
 Coeff-Com: -0.867D-03 0.626D+00 0.375D+00
 Coeff-En:   0.000D+00 0.704D+00 0.296D+00
 Coeff:     -0.328D-03 0.674D+00 0.326D+00
 Gap=     0.122 Goal=   None    Shift=    0.000
 RMSDP=7.23D-05 MaxDP=5.87D-03 DE= 6.42D-06 OVMax= 1.76D-03

 Cycle   4  Pass 1  IDiag  1:
 RMSU=  4.99D-05    CP:  1.00D+00  9.73D-01  6.26D-01
 E= -13099.4184325251     Delta-E=       -0.000009789277 Rises=F Damp=F
 DIIS: error= 4.05D-05 at cycle   4 NSaved=   4.
 NSaved= 4 IEnMin= 4 EnMin= -13099.4184325251     IErMin= 4 ErrMin= 4.05D-05
 ErrMax= 4.05D-05  0.00D+00 EMaxC= 1.00D-01 BMatC= 4.45D-07 BMatP= 3.62D-06
 IDIUse=1 WtCom= 1.00D+00 WtEn= 0.00D+00
 Coeff-Com: -0.316D-02 0.320D+00 0.196D+00 0.487D+00
 Coeff:     -0.316D-02 0.320D+00 0.196D+00 0.487D+00
 Gap=     0.122 Goal=   None    Shift=    0.000
 RMSDP=3.27D-05 MaxDP=3.51D-03 DE=-9.79D-06 OVMax= 3.89D-04

 Cycle   5  Pass 1  IDiag  1:
 RMSU=  1.30D-05    CP:  1.00D+00  1.00D+00  6.17D-01  4.80D-01
 E= -13099.4184329545     Delta-E=       -0.000000429362 Rises=F Damp=F
 DIIS: error= 2.30D-05 at cycle   5 NSaved=   5.
 NSaved= 5 IEnMin= 5 EnMin= -13099.4184329545     IErMin= 5 ErrMin= 2.30D-05
 ErrMax= 2.30D-05  0.00D+00 EMaxC= 1.00D-01 BMatC= 8.80D-08 BMatP= 4.45D-07
 IDIUse=1 WtCom= 1.00D+00 WtEn= 0.00D+00
 Coeff-Com: -0.163D-02 0.100D+00 0.655D-01 0.311D+00 0.525D+00
 Coeff:     -0.163D-02 0.100D+00 0.655D-01 0.311D+00 0.525D+00
 Gap=     0.122 Goal=   None    Shift=    0.000
 RMSDP=2.43D-06 MaxDP=1.32D-04 DE=-4.29D-07 OVMax= 1.11D-04

 Cycle   6  Pass 1  IDiag  1:
 RMSU=  1.74D-06    CP:  1.00D+00  1.00D+00  6.18D-01  5.07D-01  1.06D+00
 E= -13099.4184330373     Delta-E=       -0.000000082833 Rises=F Damp=F
 DIIS: error= 3.68D-06 at cycle   6 NSaved=   6.
 NSaved= 6 IEnMin= 6 EnMin= -13099.4184330373     IErMin= 6 ErrMin= 3.68D-06
 ErrMax= 3.68D-06  0.00D+00 EMaxC= 1.00D-01 BMatC= 2.91D-09 BMatP= 8.80D-08
 IDIUse=1 WtCom= 1.00D+00 WtEn= 0.00D+00
 Coeff-Com: -0.311D-03-0.227D-02-0.924D-03 0.767D-01 0.199D+00 0.728D+00
 Coeff:     -0.311D-03-0.227D-02-0.924D-03 0.767D-01 0.199D+00 0.728D+00
 Gap=     0.122 Goal=   None    Shift=    0.000
 RMSDP=3.25D-06 MaxDP=1.55D-04 DE=-8.28D-08 OVMax= 2.72D-05

 Cycle   7  Pass 1  IDiag  1:
 RMSU=  7.56D-07    CP:  1.00D+00  1.00D+00  6.40D-01  5.46D-01  1.03D+00
                    CP:  6.75D-01
 E= -13099.4184330403     Delta-E=       -0.000000002972 Rises=F Damp=F
 DIIS: error= 1.19D-06 at cycle   7 NSaved=   7.
 NSaved= 7 IEnMin= 7 EnMin= -13099.4184330403     IErMin= 7 ErrMin= 1.19D-06
 ErrMax= 1.19D-06  0.00D+00 EMaxC= 1.00D-01 BMatC= 4.88D-10 BMatP= 2.91D-09
 IDIUse=1 WtCom= 1.00D+00 WtEn= 0.00D+00
 Coeff-Com: -0.388D-05-0.999D-02-0.709D-02 0.208D-01 0.603D-01 0.354D+00
 Coeff-Com:  0.582D+00
 Coeff:     -0.388D-05-0.999D-02-0.709D-02 0.208D-01 0.603D-01 0.354D+00
 Coeff:      0.582D+00
 Gap=     0.122 Goal=   None    Shift=    0.000
 RMSDP=6.08D-07 MaxDP=2.30D-05 DE=-2.97D-09 OVMax= 9.42D-06

 Cycle   8  Pass 1  IDiag  1:
 RMSU=  3.40D-07    CP:  1.00D+00  1.00D+00  6.39D-01  5.50D-01  1.05D+00
                    CP:  8.18D-01  1.04D+00
 E= -13099.4184330407     Delta-E=       -0.000000000378 Rises=F Damp=F
 DIIS: error= 3.36D-07 at cycle   8 NSaved=   8.
 NSaved= 8 IEnMin= 8 EnMin= -13099.4184330407     IErMin= 8 ErrMin= 3.36D-07
 ErrMax= 3.36D-07  0.00D+00 EMaxC= 1.00D-01 BMatC= 5.25D-11 BMatP= 4.88D-10
 IDIUse=1 WtCom= 1.00D+00 WtEn= 0.00D+00
 Coeff-Com:  0.299D-04-0.606D-02-0.450D-02 0.366D-02 0.123D-01 0.128D+00
 Coeff-Com:  0.305D+00 0.562D+00
 Coeff:      0.299D-04-0.606D-02-0.450D-02 0.366D-02 0.123D-01 0.128D+00
 Coeff:      0.305D+00 0.562D+00
 Gap=     0.122 Goal=   None    Shift=    0.000
 RMSDP=2.63D-07 MaxDP=3.75D-05 DE=-3.78D-10 OVMax= 2.05D-06

 Cycle   9  Pass 1  IDiag  1:
 RMSU=  9.13D-08    CP:  1.00D+00  1.00D+00  6.40D-01  5.49D-01  1.06D+00
                    CP:  8.01D-01  1.10D+00  9.52D-01
 E= -13099.4184330408     Delta-E=       -0.000000000087 Rises=F Damp=F
 DIIS: error= 1.92D-07 at cycle   9 NSaved=   9.
 NSaved= 9 IEnMin= 9 EnMin= -13099.4184330408     IErMin= 9 ErrMin= 1.92D-07
 ErrMax= 1.92D-07  0.00D+00 EMaxC= 1.00D-01 BMatC= 1.21D-11 BMatP= 5.25D-11
 IDIUse=1 WtCom= 1.00D+00 WtEn= 0.00D+00
 Coeff-Com:  0.198D-04-0.252D-02-0.194D-02-0.648D-03-0.172D-02 0.316D-01
 Coeff-Com:  0.113D+00 0.356D+00 0.507D+00
 Coeff:      0.198D-04-0.252D-02-0.194D-02-0.648D-03-0.172D-02 0.316D-01
 Coeff:      0.113D+00 0.356D+00 0.507D+00
 Gap=     0.122 Goal=   None    Shift=    0.000
 RMSDP=7.21D-08 MaxDP=5.66D-06 DE=-8.73D-11 OVMax= 1.01D-06

 Cycle  10  Pass 1  IDiag  1:
 RMSU=  2.72D-08    CP:  1.00D+00  1.00D+00  6.40D-01  5.49D-01  1.06D+00
                    CP:  8.09D-01  1.08D+00  9.79D-01  6.37D-01
 E= -13099.4184330407     Delta-E=        0.000000000029 Rises=F Damp=F
 DIIS: error= 5.01D-08 at cycle  10 NSaved=  10.
 NSaved=10 IEnMin= 9 EnMin= -13099.4184330408     IErMin=10 ErrMin= 5.01D-08
 ErrMax= 5.01D-08  0.00D+00 EMaxC= 1.00D-01 BMatC= 1.03D-12 BMatP= 1.21D-11
 IDIUse=1 WtCom= 1.00D+00 WtEn= 0.00D+00
 Coeff-Com:  0.518D-05-0.351D-03-0.269D-03-0.243D-03-0.172D-02 0.123D-02
 Coeff-Com:  0.122D-01 0.916D-01 0.261D+00 0.637D+00
 Coeff:      0.518D-05-0.351D-03-0.269D-03-0.243D-03-0.172D-02 0.123D-02
 Coeff:      0.122D-01 0.916D-01 0.261D+00 0.637D+00
 Gap=     0.122 Goal=   None    Shift=    0.000
 RMSDP=3.02D-08 MaxDP=2.97D-06 DE= 2.91D-11 OVMax= 6.52D-07

 Cycle  11  Pass 1  IDiag  1:
 RMSU=  9.35D-09    CP:  1.00D+00  1.00D+00  6.40D-01  5.49D-01  1.06D+00
                    CP:  8.07D-01  1.10D+00  1.00D+00  7.43D-01  8.56D-01
 E= -13099.4184330408     Delta-E=       -0.000000000047 Rises=F Damp=F
 DIIS: error= 3.22D-08 at cycle  11 NSaved=  11.
 NSaved=11 IEnMin=11 EnMin= -13099.4184330408     IErMin=11 ErrMin= 3.22D-08
 ErrMax= 3.22D-08  0.00D+00 EMaxC= 1.00D-01 BMatC= 2.40D-13 BMatP= 1.03D-12
 IDIUse=1 WtCom= 1.00D+00 WtEn= 0.00D+00
 Coeff-Com:  0.628D-06 0.123D-03 0.956D-04-0.137D-03-0.125D-02-0.428D-02
 Coeff-Com: -0.839D-02 0.116D-01 0.927D-01 0.398D+00 0.511D+00
 Coeff:      0.628D-06 0.123D-03 0.956D-04-0.137D-03-0.125D-02-0.428D-02
 Coeff:     -0.839D-02 0.116D-01 0.927D-01 0.398D+00 0.511D+00
 Gap=     0.122 Goal=   None    Shift=    0.000
 RMSDP=1.11D-08 MaxDP=7.96D-07 DE=-4.73D-11 OVMax= 1.42D-07

 Cycle  12  Pass 1  IDiag  1:
 RMSU=  3.12D-09    CP:  1.00D+00  1.00D+00  6.40D-01  5.49D-01  1.06D+00
                    CP:  8.07D-01  1.10D+00  1.01D+00  7.37D-01  9.29D-01
                    CP:  7.93D-01
 E= -13099.4184330408     Delta-E=        0.000000000040 Rises=F Damp=F
 DIIS: error= 8.12D-09 at cycle  12 NSaved=  12.
 NSaved=12 IEnMin=11 EnMin= -13099.4184330408     IErMin=12 ErrMin= 8.12D-09
 ErrMax= 8.12D-09  0.00D+00 EMaxC= 1.00D-01 BMatC= 2.16D-14 BMatP= 2.40D-13
 IDIUse=1 WtCom= 1.00D+00 WtEn= 0.00D+00
 Coeff-Com: -0.225D-06 0.104D-03 0.834D-04-0.141D-04-0.485D-03-0.214D-02
 Coeff-Com: -0.615D-02-0.418D-02 0.224D-01 0.161D+00 0.288D+00 0.541D+00
 Coeff:     -0.225D-06 0.104D-03 0.834D-04-0.141D-04-0.485D-03-0.214D-02
 Coeff:     -0.615D-02-0.418D-02 0.224D-01 0.161D+00 0.288D+00 0.541D+00
 Gap=     0.122 Goal=   None    Shift=    0.000
 RMSDP=2.00D-09 MaxDP=9.97D-08 DE= 4.00D-11 OVMax= 5.17D-08

 SCF Done:  E(RB3LYP) =  -13099.4184330     A.U. after   12 cycles
            NFock= 12  Conv=0.20D-08     -V/T= 2.0013
 KE= 1.308305542682D+04 PE=-3.652897109594D+04 EE= 7.743737340533D+03
 Leave Link  502 at Mon Sep 28 02:28:28 2026, MaxMem=  1610612736 cpu:             210.1 elap:              26.3
 (Enter /share/software/user/restricted/gaussian/g16.B01/l701.exe)
 ... and contract with generalized density number  0.
 Compute integral first derivatives.
 Leave Link  701 at Mon Sep 28 02:28:28 2026, MaxMem=  1610612736 cpu:               1.5 elap:               0.2
 (Enter /share/software/user/restricted/gaussian/g16.B01/l702.exe)
 L702 exits ... SP integral derivatives will be done elsewhere.
 Leave Link  702 at Mon Sep 28 02:28:29 2026, MaxMem=  1610612736 cpu:               0.2 elap:               0.0
 (Enter /share/software/user/restricted/gaussian/g16.B01/l703.exe)
 Integral derivatives from FoFJK, PRISM(SPDF).
 Compute integral first derivatives, UseDBF=F ICtDFT=           0.
 Calling FoFJK, ICntrl=      2127 FMM=F ISym2X=1 I1Cent= 0 IOpClX= 0 NMat=1 NMatS=1 NMatT=0.
 FoFJK:  IHMeth= 1 ICntrl=    2127 DoSepK=F KAlg= 0 I1Cent=           0 FoldK=F
 IRaf=         0 NMat=       1 IRICut=       1 DoRegI=T DoRafI=F ISym2E= 1 IDoP0=0 IntGTp=1.
 FoFCou: FMM=F IPFlag=           0 FMFlag=      100000 FMFlg1=         800
         NFxFlg=           0 DoJE=F BraDBF=F KetDBF=F FulRan=T
         wScrn=  0.000000 ICntrl=      2127 IOpCl=  0 I1Cent=           0 NGrid=           0
         NMat0=    1 NMatS0=      1 NMatT0=    0 NMatD0=    1 NMtDS0=    0 NMtDT0=    0
 Petite list used in FoFCou.
 Leave Link  703 at Mon Sep 28 02:28:38 2026, MaxMem=  1610612736 cpu:              72.9 elap:               9.1
 (Enter /share/software/user/restricted/gaussian/g16.B01/l716.exe)
 Dipole        = 2.60572860D-16-2.84217094D-14 1.94532564D+00
 ***** Axes restored to original set *****
 -------------------------------------------------------------------
 Center     Atomic                   Forces (Hartrees/Bohr)
 Number     Number              X              Y              Z
 -------------------------------------------------------------------
      1        6          -0.000000000   -0.000134579    0.000000000
      2        6           0.000073348    0.000655151   -0.000000000
      3        6           0.000475285   -0.000780347   -0.000000000
      4        6           0.000000000    0.000344839    0.000000000
      5        6          -0.000475285   -0.000780347    0.000000000
      6        6          -0.000073348    0.000655151    0.000000000
      7       35          -0.000185292   -0.000063057   -0.000000000
      8       35          -0.000371448    0.000026200   -0.000000000
      9       35          -0.000000000    0.000113848    0.000000000
     10       35           0.000371448    0.000026200   -0.000000000
     11       35           0.000185292   -0.000063057   -0.000000000
 -------------------------------------------------------------------
 Cartesian Forces:  Max     0.000780347 RMS     0.000303655
 Leave Link  716 at Mon Sep 28 02:28:38 2026, MaxMem=  1610612736 cpu:               0.4 elap:               0.1
 (Enter /share/software/user/restricted/gaussian/g16.B01/l103.exe)

 GradGradGradGradGradGradGradGradGradGradGradGradGradGradGradGradGradGrad
 Berny optimization.
 Using GEDIIS/GDIIS optimizer.
 FormGI is forming the generalized inverse of G from B-inverse, IUseBI=4.
 Internal  Forces:  Max     0.000529947 RMS     0.000184928
 Search for a local minimum.
 Step number   5 out of a maximum of   57
 All quantities printed in internal units (Hartrees-Bohrs-Radians)
 RMS Force = .18493D-03 SwitMx=.10000D-02 MixMth= 2
 Mixed Optimization -- En-DIIS/RFO-DIIS
 Swapping is turned off.
 Update second derivatives using D2CorX and points    1    2    3    4    5
 DE= -2.61D-05 DEPred=-2.60D-05 R= 1.00D+00
 TightC=F SS=  1.41D+00  RLast= 2.00D-02 DXNew= 8.4853D-01 6.0133D-02
 Trust test= 1.00D+00 RLast= 2.00D-02 DXMaxT set to 5.05D-01
 ITU=  1  1  1  1  0
     Eigenvalues ---    0.02040   0.02055   0.02069   0.02074   0.02108
     Eigenvalues ---    0.02149   0.02162   0.02234   0.08293   0.15607
     Eigenvalues ---    0.19132   0.19181   0.19832   0.23912   0.25000
     Eigenvalues ---    0.25000   0.25000   0.25000   0.25366   0.25508
     Eigenvalues ---    0.30467   0.40666   0.42054   0.45183   0.47729
     Eigenvalues ---    0.47876   0.55216
 En-DIIS/RFO-DIIS/Sim-DIIS IScMMF=       -3 using points:     5    4    3
 RFO step:  Lambda=-5.77623413D-06.
 NNeg= 0 NGDIIS= 3 SimSw=  2.50D-01 Rises=F DC= -2.61D-05 SmlDif=  1.00D-05
 NRisDI= 0 DoIntr=F SqrtH=F CThrHd= 10.0 CDAdj=  3.0
 RMS Error=  0.7471466489D-03 NUsed= 3 OKEnD=T EnDIS=F
 InvSVX:  RCond= 1.20D-05 Info=           0 Equed=N FErr=  2.66D-15 BErr=  4.73D-17
 DidBck=F Rises=F RFO-DIIS coefs:    1.08640   -0.09850    0.01210
 Iteration  1 RMS(Cart)=  0.00110014 RMS(Int)=  0.00000060
 Iteration  2 RMS(Cart)=  0.00000078 RMS(Int)=  0.00000003
 ITry= 1 IFail=0 DXMaxC= 3.53D-03 DCOld= 1.00D+10 DXMaxT= 5.05D-01 DXLimC= 3.00D+00 Rises=F
 ClnCor:  largest displacement from symmetrization is 1.42D-10 for atom     9.
 Variable       Old X    -DE/DX   Delta X   Delta X   Delta X     New X
                                 (Linear)    (Quad)   (Total)
    R1        2.55994  -0.00000  -0.00026   0.00011  -0.00015   2.55979
    R2        2.55994  -0.00000  -0.00026   0.00011  -0.00015   2.55979
    R3        2.63365   0.00053   0.00004   0.00118   0.00122   2.63486
    R4        3.80135  -0.00019   0.00043  -0.00142  -0.00099   3.80036
    R5        2.66179  -0.00015   0.00025  -0.00035  -0.00009   2.66170
    R6        3.67581  -0.00033  -0.00058  -0.00189  -0.00247   3.67334
    R7        2.66179  -0.00015   0.00025  -0.00035  -0.00009   2.66170
    R8        3.62856  -0.00011  -0.00011  -0.00064  -0.00075   3.62781
    R9        2.63365   0.00053   0.00004   0.00118   0.00122   2.63486
   R10        3.67581  -0.00033  -0.00058  -0.00189  -0.00247   3.67334
   R11        3.80135  -0.00019   0.00043  -0.00142  -0.00099   3.80036
    A1        2.07969   0.00015   0.00030   0.00064   0.00093   2.08063
    A2        2.13851  -0.00008  -0.00005  -0.00031  -0.00036   2.13815
    A3        2.06825  -0.00004   0.00027  -0.00013   0.00014   2.06840
    A4        2.07642   0.00012  -0.00022   0.00044   0.00022   2.07664
    A5        2.05828  -0.00017  -0.00010  -0.00067  -0.00077   2.05751
    A6        2.12998   0.00038  -0.00014   0.00144   0.00130   2.13129
    A7        2.09492  -0.00022   0.00024  -0.00078  -0.00054   2.09438
    A8        2.09309   0.00035   0.00001   0.00131   0.00132   2.09441
    A9        2.09505  -0.00017  -0.00000  -0.00066  -0.00066   2.09439
   A10        2.09505  -0.00017  -0.00000  -0.00066  -0.00066   2.09439
   A11        2.05828  -0.00017  -0.00010  -0.00067  -0.00077   2.05751
   A12        2.09492  -0.00022   0.00024  -0.00078  -0.00054   2.09438
   A13        2.12998   0.00038  -0.00014   0.00144   0.00130   2.13129
   A14        2.13851  -0.00008  -0.00005  -0.00031  -0.00036   2.13815
   A15        2.06825  -0.00004   0.00027  -0.00013   0.00014   2.06840
   A16        2.07642   0.00012  -0.00022   0.00044   0.00022   2.07664
    D1        0.00000  -0.00000   0.00000  -0.00000   0.00000   0.00000
    D2        3.14159  -0.00000  -0.00000  -0.00000   0.00000   3.14159
    D3       -0.00000   0.00000   0.00000   0.00000   0.00000   0.00000
    D4        3.14159   0.00000  -0.00000   0.00000   0.00000   3.14159
    D5       -0.00000  -0.00000   0.00000  -0.00000   0.00000   0.00000
    D6        3.14159  -0.00000  -0.00000  -0.00000   0.00000   3.14159
    D7        3.14159   0.00000  -0.00000   0.00000   0.00000   3.14159
    D8        0.00000  -0.00000   0.00000  -0.00000  -0.00000   0.00000
    D9       -0.00000   0.00000   0.00000   0.00000   0.00000   0.00000
   D10        3.14159  -0.00000  -0.00000  -0.00000   0.00000   3.14159
   D11        3.14159   0.00000  -0.00000   0.00000   0.00000   3.14159
   D12       -0.00000   0.00000   0.00000   0.00000   0.00000   0.00000
   D13        0.00000  -0.00000   0.00000  -0.00000   0.00000   0.00000
   D14        3.14159  -0.00000  -0.00000  -0.00000   0.00000   3.14159
   D15        3.14159   0.00000  -0.00000   0.00000   0.00000   3.14159
   D16       -0.00000  -0.00000   0.00000  -0.00000   0.00000   0.00000
   D17       -0.00000   0.00000   0.00000   0.00000   0.00000   0.00000
   D18        3.14159  -0.00000  -0.00000  -0.00000   0.00000   3.14159
   D19        3.14159   0.00000  -0.00000   0.00000   0.00000   3.14159
   D20        0.00000  -0.00000   0.00000   0.00000  -0.00000   0.00000
         Item               Value     Threshold  Converged?
 Maximum Force            0.000530     0.000450     NO 
 RMS     Force            0.000185     0.000300     YES
 Maximum Displacement     0.003533     0.001800     NO 
 RMS     Displacement     0.001100     0.001200     YES
 Predicted change in Energy=-2.887544D-06
 Lowest energy point so far.  Saving SCF results.
 GradGradGradGradGradGradGradGradGradGradGradGradGradGradGradGradGradGrad

 Leave Link  103 at Mon Sep 28 02:28:38 2026, MaxMem=  1610612736 cpu:               0.2 elap:               0.0
 (Enter /share/software/user/restricted/gaussian/g16.B01/l202.exe)
                          Input orientation:                          
 ---------------------------------------------------------------------
 Center     Atomic      Atomic             Coordinates (Angstroms)
 Number     Number       Type             X           Y           Z
 ---------------------------------------------------------------------
      1          6           0        0.000000    1.374412    0.000000
      2          6           0        1.168411    0.689064    0.000000
      3          6           0        1.219813   -0.704298    0.000000
      4          6           0       -0.000000   -1.408545    0.000000
      5          6           0       -1.219813   -0.704298    0.000000
      6          6           0       -1.168411    0.689064    0.000000
      7         35           0        2.890507    1.727705    0.000000
      8         35           0        2.903216   -1.676254    0.000000
      9         35           0       -0.000000   -3.328298    0.000000
     10         35           0       -2.903216   -1.676254    0.000000
     11         35           0       -2.890507    1.727705    0.000000
 ---------------------------------------------------------------------
                    Distance matrix (angstroms):
                    1          2          3          4          5
     1  C    0.000000
     2  C    1.354580   0.000000
     3  C    2.410182   1.394310   0.000000
     4  C    2.782957   2.401072   1.408512   0.000000
     5  C    2.410182   2.764972   2.439625   1.408512   0.000000
     6  C    1.354580   2.336822   2.764972   2.401072   1.394310
     7  Br   2.912017   2.011067   2.950569   4.265102   4.775915
     8  Br   4.211322   2.933305   1.943849   2.915533   4.236044
     9  Br   4.702710   4.183823   2.893668   1.919752   2.893668
    10  Br   4.211322   4.708809   4.236044   2.915533   1.943849
    11  Br   2.912017   4.189700   4.775915   4.265102   2.950569
                    6          7          8          9         10
     6  C    0.000000
     7  Br   4.189700   0.000000
     8  Br   4.708809   3.403983   0.000000
     9  Br   4.183823   5.823932   3.340346   0.000000
    10  Br   2.933305   6.719685   5.806433   3.340346   0.000000
    11  Br   2.011067   5.781014   6.719685   5.823932   3.403983
                   11
    11  Br   0.000000
 Stoichiometry    C6Br5(1-)
 Framework group  C2V[C2(CCBr),SGV(C4Br4)]
 Deg. of freedom    10
 Full point group                 C2V     NOp   4
 RotChk:  IX=0 Diff= 4.71D-16
 Largest Abelian subgroup         C2V     NOp   4
 Largest concise Abelian subgroup C2      NOp   2
                         Standard orientation:                         
 ---------------------------------------------------------------------
 Center     Atomic      Atomic             Coordinates (Angstroms)
 Number     Number       Type             X           Y           Z
 ---------------------------------------------------------------------
      1          6           0       -0.000000    0.000000   -1.911268
      2          6           0        0.000000    1.168411   -1.225919
      3          6           0        0.000000    1.219813    0.167443
      4          6           0        0.000000   -0.000000    0.871690
      5          6           0       -0.000000   -1.219813    0.167443
      6          6           0       -0.000000   -1.168411   -1.225919
      7         35           0        0.000000    2.890507   -2.264560
      8         35           0        0.000000    2.903216    1.139399
      9         35           0        0.000000    0.000000    2.791442
     10         35           0       -0.000000   -2.903216    1.139399
     11         35           0       -0.000000   -2.890507   -2.264560
 ---------------------------------------------------------------------
 Rotational constants (GHZ):           0.2940096           0.1859681           0.1139145
 Leave Link  202 at Mon Sep 28 02:28:38 2026, MaxMem=  1610612736 cpu:               0.0 elap:               0.0
 (Enter /share/software/user/restricted/gaussian/g16.B01/l301.exe)
 Standard basis: 6-311++G(d) (5D, 7F)
 Ernie: Thresh=  0.10000D-02 Tol=  0.10000D-05 Strict=F.
 There are   158 symmetry adapted cartesian basis functions of A1  symmetry.
 There are    45 symmetry adapted cartesian basis functions of A2  symmetry.
 There are    61 symmetry adapted cartesian basis functions of B1  symmetry.
 There are   129 symmetry adapted cartesian basis functions of B2  symmetry.
 There are   145 symmetry adapted basis functions of A1  symmetry.
 There are    45 symmetry adapted basis functions of A2  symmetry.
 There are    61 symmetry adapted basis functions of B1  symmetry.
 There are   121 symmetry adapted basis functions of B2  symmetry.
   372 basis functions,   686 primitive gaussians,   393 cartesian basis functions
   106 alpha electrons      106 beta electrons
       nuclear repulsion energy      2603.1797686916 Hartrees.
 IExCor=  402 DFT=T Ex+Corr=B3LYP ExCW=0 ScaHFX=  0.200000
 ScaDFX=  0.800000  0.720000  1.000000  0.810000 ScalE2=  1.000000  1.000000
 IRadAn=      5 IRanWt=     -1 IRanGd=            0 ICorTp=0 IEmpDi=  4
 NAtoms=   11 NActive=   11 NUniq=    7 SFac= 2.47D+00 NAtFMM=   60 NAOKFM=F Big=F
 Integral buffers will be    131072 words long.
 Raffenetti 2 integral format.
 Two-electron integral symmetry is turned on.
 Leave Link  301 at Mon Sep 28 02:28:38 2026, MaxMem=  1610612736 cpu:               0.5 elap:               0.1
 (Enter /share/software/user/restricted/gaussian/g16.B01/l302.exe)
 NPDir=0 NMtPBC=     1 NCelOv=     1 NCel=       1 NClECP=     1 NCelD=      1
         NCelK=      1 NCelE2=     1 NClLst=     1 CellRange=     0.0.
 One-electron integrals computed using PRISM.
 One-electron integral symmetry used in STVInt
 NBasis=   372 RedAO= T EigKep=  1.28D-06  NBF=   145    45    61   121
 NBsUse=   371 1.00D-06 EigRej=  6.24D-07 NBFU=   144    45    61   121
 Precomputing XC quadrature grid using
 IXCGrd= 4 IRadAn=           5 IRanWt=          -1 IRanGd=           0 AccXCQ= 0.00D+00.
 Generated NRdTot=       0 NPtTot=           0 NUsed=           0 NTot=          32
 NSgBfM=   364   364   364   364   364 MxSgAt=    11 MxSgA2=    11.
 Leave Link  302 at Mon Sep 28 02:28:38 2026, MaxMem=  1610612736 cpu:               2.0 elap:               0.3
 (Enter /share/software/user/restricted/gaussian/g16.B01/l303.exe)
 DipDrv:  MaxL=1.
 Leave Link  303 at Mon Sep 28 02:28:38 2026, MaxMem=  1610612736 cpu:               0.4 elap:               0.1
 (Enter /share/software/user/restricted/gaussian/g16.B01/l401.exe)
 Initial guess from the checkpoint file:  "calcs/b3lyp_gas/chks/BrPh_23456_anion.chk"
 B after Tr=     0.000000    0.000000    0.000000
         Rot=    1.000000    0.000000    0.000000    0.000000 Ang=   0.00 deg.
 Guess basis will be translated and rotated to current coordinates.
 JPrj=2 DoOrth=T DoCkMO=T.
 Initial guess orbital symmetries:
       Occupied  (A1) (B2) (A1) (B2) (A1) (A1) (B2) (A1) (B2) (A1)
                 (A1) (B1) (B2) (B2) (A1) (B1) (A2) (B2) (A1) (B2)
                 (A1) (A2) (B1) (B2) (A1) (A1) (B2) (A1) (B2) (A1)
                 (A1) (A1) (B2) (A1) (B2) (A1) (A1) (B2) (A1) (B1)
                 (B2) (B1) (A2) (B2) (A1) (B2) (A1) (B1) (A2) (B2)
                 (A1) (A1) (B1) (B2) (B2) (A1) (B1) (A2) (A1) (A2)
                 (B2) (A1) (B2) (B1) (A2) (A1) (B2) (A1) (B1) (A2)
                 (A1) (B2) (B1) (A2) (B2) (A1) (A1) (B2) (A1) (A1)
                 (B2) (A1) (A1) (B2) (A1) (B2) (B2) (A1) (B1) (A1)
                 (B2) (A1) (B2) (A2) (B1) (B2) (A1) (B1) (A2) (B2)
                 (B1) (A1) (B2) (A2) (B1) (A1)
       Virtual   (A1) (B2) (A2) (A1) (B1) (A1) (B2) (A1) (B2) (A1)
                 (B1) (A1) (A2) (B1) (B2) (A1) (B2) (B2) (A1) (B1)
                 (A2) (A1) (B2) (A1) (B2) (A1) (B1) (B2) (A1) (B1)
                 (A1) (A2) (B1) (B1) (A1) (B2) (B2) (A2) (A1) (A1)
                 (B2) (A1) (B2) (B1) (B2) (B2) (A1) (A1) (B2) (A1)
                 (B2) (A1) (B2) (A1) (B2) (A1) (A1) (B1) (B2) (A2)
                 (B2) (A1) (B1) (B2) (A2) (B1) (B2) (A1) (B2) (B2)
                 (B1) (A1) (A2) (A1) (B1) (A1) (B2) (A1) (A2) (B1)
                 (B1) (A1) (B2) (A2) (A2) (B1) (B1) (A1) (A2) (A1)
                 (B1) (B2) (A1) (A1) (A2) (B2) (A1) (B1) (B2) (B2)
                 (A1) (A1) (A1) (A2) (B2) (A1) (B2) (A1) (B2) (B2)
                 (A1) (B2) (A1) (B1) (A1) (B2) (A2) (B2) (B2) (A1)
                 (A1) (A1) (B1) (B2) (B2) (A1) (A2) (B1) (B1) (A1)
                 (A2) (B2) (A1) (B2) (A1) (A1) (B2) (A2) (A1) (B1)
                 (B2) (B2) (A1) (B1) (A2) (B1) (B1) (A2) (B1) (A2)
                 (A1) (B2) (A1) (B1) (A1) (B2) (B2) (A1) (A1) (B2)
                 (B2) (A1) (A1) (B2) (B2) (A2) (A1) (B2) (A1) (B2)
                 (B1) (A2) (B1) (A1) (A2) (B1) (A1) (B2) (A1) (B1)
                 (B2) (A1) (B2) (A1) (B2) (A1) (B2) (A1) (A2) (A2)
                 (A1) (B1) (A2) (B1) (B1) (A2) (A1) (B2) (B1) (A1)
                 (B2) (A2) (B1) (B2) (A1) (B2) (A1) (B2) (A1) (B2)
                 (A1) (B2) (A1) (B2) (A1) (B2) (A1) (B2) (A1) (B1)
                 (A2) (B1) (A2) (B1) (A1) (A1) (B2) (B2) (A1) (B2)
                 (B2) (A1) (A1) (B2) (A1) (A1) (B2) (A1) (B2) (A1)
                 (A1) (B2) (A1) (B2) (A1) (B1) (A2) (B1) (A2) (B1)
                 (A1) (B2) (B2) (A1) (A1) (B2) (B2) (A1) (A1) (B2)
                 (A1) (B2) (A1) (B2) (A1)
 The electronic state of the initial guess is 1-A1.
 Leave Link  401 at Mon Sep 28 02:28:39 2026, MaxMem=  1610612736 cpu:               3.6 elap:               0.5
 (Enter /share/software/user/restricted/gaussian/g16.B01/l502.exe)
 Integral symmetry usage will be decided dynamically.
 Closed shell SCF:
 Using DIIS extrapolation, IDIIS=  1040.
 NGot=  1610612736 LenX=  1610294648 LenY=  1610139758
 Requested convergence on RMS density matrix=1.00D-08 within 128 cycles.
 Requested convergence on MAX density matrix=1.00D-06.
 Requested convergence on             energy=1.00D-06.
 No special actions if energy rises.
 Fock matrices will be formed incrementally for  20 cycles.

 Cycle   1  Pass 1  IDiag  1:
 FoFJK:  IHMeth= 1 ICntrl=       0 DoSepK=F KAlg= 0 I1Cent=           0 FoldK=F
 IRaf= 740000000 NMat=       1 IRICut=       1 DoRegI=T DoRafI=F ISym2E= 1 IDoP0=0 IntGTp=1.
 FoFCou: FMM=F IPFlag=           0 FMFlag=      100000 FMFlg1=           0
         NFxFlg=           0 DoJE=F BraDBF=F KetDBF=F FulRan=T
         wScrn=  0.000000 ICntrl=         0 IOpCl=  0 I1Cent=           0 NGrid=           0
         NMat0=    1 NMatS0=      1 NMatT0=    0 NMatD0=    1 NMtDS0=    0 NMtDT0=    0
 Petite list used in FoFCou.
 E= -13099.4184332038    
 DIIS: error= 1.40D-04 at cycle   1 NSaved=   1.
 NSaved= 1 IEnMin= 1 EnMin= -13099.4184332038     IErMin= 1 ErrMin= 1.40D-04
 ErrMax= 1.40D-04  0.00D+00 EMaxC= 1.00D-01 BMatC= 4.85D-06 BMatP= 4.85D-06
 IDIUse=3 WtCom= 9.99D-01 WtEn= 1.40D-03
 Coeff-Com:  0.100D+01
 Coeff-En:   0.100D+01
 Coeff:      0.100D+01
 Gap=     0.122 Goal=   None    Shift=    0.000
 RMSDP=1.06D-04 MaxDP=8.45D-03              OVMax= 5.64D-04

 Cycle   2  Pass 1  IDiag  1:
 RMSU=  1.05D-04    CP:  9.99D-01
 E= -13099.4184359008     Delta-E=       -0.000002696994 Rises=F Damp=F
 DIIS: error= 1.73D-05 at cycle   2 NSaved=   2.
 NSaved= 2 IEnMin= 2 EnMin= -13099.4184359008     IErMin= 2 ErrMin= 1.73D-05
 ErrMax= 1.73D-05  0.00D+00 EMaxC= 1.00D-01 BMatC= 1.22D-07 BMatP= 4.85D-06
 IDIUse=1 WtCom= 1.00D+00 WtEn= 0.00D+00
 Coeff-Com:  0.266D-01 0.973D+00
 Coeff:      0.266D-01 0.973D+00
 Gap=     0.122 Goal=   None    Shift=    0.000
 RMSDP=1.93D-05 MaxDP=9.45D-04 DE=-2.70D-06 OVMax= 2.15D-04

 Cycle   3  Pass 1  IDiag  1:
 RMSU=  1.91D-05    CP:  1.00D+00  1.02D+00
 E= -13099.4184357615     Delta-E=        0.000000139233 Rises=F Damp=F
 DIIS: error= 3.27D-05 at cycle   3 NSaved=   3.
 NSaved= 3 IEnMin= 2 EnMin= -13099.4184359008     IErMin= 2 ErrMin= 1.73D-05
 ErrMax= 3.27D-05  0.00D+00 EMaxC= 1.00D-01 BMatC= 2.60D-07 BMatP= 1.22D-07
 IDIUse=1 WtCom= 1.00D+00 WtEn= 0.00D+00
 Coeff-Com: -0.372D-02 0.602D+00 0.401D+00
 Coeff:     -0.372D-02 0.602D+00 0.401D+00
 Gap=     0.122 Goal=   None    Shift=    0.000
 RMSDP=8.41D-06 MaxDP=4.63D-04 DE= 1.39D-07 OVMax= 1.99D-04

 Cycle   4  Pass 1  IDiag  1:
 RMSU=  4.68D-06    CP:  1.00D+00  1.04D+00  6.53D-01
 E= -13099.4184360050     Delta-E=       -0.000000243417 Rises=F Damp=F
 DIIS: error= 9.50D-06 at cycle   4 NSaved=   4.
 NSaved= 4 IEnMin= 4 EnMin= -13099.4184360050     IErMin= 4 ErrMin= 9.50D-06
 ErrMax= 9.50D-06  0.00D+00 EMaxC= 1.00D-01 BMatC= 2.17D-08 BMatP= 1.22D-07
 IDIUse=1 WtCom= 1.00D+00 WtEn= 0.00D+00
 Coeff-Com: -0.423D-02 0.276D+00 0.256D+00 0.472D+00
 Coeff:     -0.423D-02 0.276D+00 0.256D+00 0.472D+00
 Gap=     0.122 Goal=   None    Shift=    0.000
 RMSDP=3.76D-06 MaxDP=1.87D-04 DE=-2.43D-07 OVMax= 6.41D-05

 Cycle   5  Pass 1  IDiag  1:
 RMSU=  2.01D-06    CP:  9.99D-01  1.05D+00  5.21D-01  7.11D-01
 E= -13099.4184360250     Delta-E=       -0.000000020009 Rises=F Damp=F
 DIIS: error= 4.29D-06 at cycle   5 NSaved=   5.
 NSaved= 5 IEnMin= 5 EnMin= -13099.4184360250     IErMin= 5 ErrMin= 4.29D-06
 ErrMax= 4.29D-06  0.00D+00 EMaxC= 1.00D-01 BMatC= 2.85D-09 BMatP= 2.17D-08
 IDIUse=1 WtCom= 1.00D+00 WtEn= 0.00D+00
 Coeff-Com: -0.244D-02 0.111D+00 0.122D+00 0.312D+00 0.458D+00
 Coeff:     -0.244D-02 0.111D+00 0.122D+00 0.312D+00 0.458D+00
 Gap=     0.122 Goal=   None    Shift=    0.000
 RMSDP=1.92D-06 MaxDP=1.71D-04 DE=-2.00D-08 OVMax= 4.21D-05

 Cycle   6  Pass 1  IDiag  1:
 RMSU=  1.00D-06    CP:  1.00D+00  1.05D+00  5.57D-01  8.37D-01  5.05D-01
 E= -13099.4184360276     Delta-E=       -0.000000002670 Rises=F Damp=F
 DIIS: error= 1.53D-06 at cycle   6 NSaved=   6.
 NSaved= 6 IEnMin= 6 EnMin= -13099.4184360276     IErMin= 6 ErrMin= 1.53D-06
 ErrMax= 1.53D-06  0.00D+00 EMaxC= 1.00D-01 BMatC= 4.91D-10 BMatP= 2.85D-09
 IDIUse=1 WtCom= 1.00D+00 WtEn= 0.00D+00
 Coeff-Com: -0.616D-03 0.137D-01 0.289D-01 0.117D+00 0.313D+00 0.528D+00
 Coeff:     -0.616D-03 0.137D-01 0.289D-01 0.117D+00 0.313D+00 0.528D+00
 Gap=     0.122 Goal=   None    Shift=    0.000
 RMSDP=7.86D-07 MaxDP=9.24D-05 DE=-2.67D-09 OVMax= 1.76D-05

 Cycle   7  Pass 1  IDiag  1:
 RMSU=  1.63D-07    CP:  1.00D+00  1.05D+00  5.55D-01  8.25D-01  7.10D-01
                    CP:  5.24D-01
 E= -13099.4184360281     Delta-E=       -0.000000000426 Rises=F Damp=F
 DIIS: error= 4.45D-07 at cycle   7 NSaved=   7.
 NSaved= 7 IEnMin= 7 EnMin= -13099.4184360281     IErMin= 7 ErrMin= 4.45D-07
 ErrMax= 4.45D-07  0.00D+00 EMaxC= 1.00D-01 BMatC= 8.71D-11 BMatP= 4.91D-10
 IDIUse=1 WtCom= 1.00D+00 WtEn= 0.00D+00
 Coeff-Com: -0.151D-03-0.503D-02 0.442D-02 0.413D-01 0.150D+00 0.359D+00
 Coeff-Com:  0.450D+00
 Coeff:     -0.151D-03-0.503D-02 0.442D-02 0.413D-01 0.150D+00 0.359D+00
 Coeff:      0.450D+00
 Gap=     0.122 Goal=   None    Shift=    0.000
 RMSDP=2.63D-07 MaxDP=2.86D-05 DE=-4.26D-10 OVMax= 2.91D-06

 Cycle   8  Pass 1  IDiag  1:
 RMSU=  7.46D-08    CP:  1.00D+00  1.05D+00  5.62D-01  8.24D-01  6.55D-01
                    CP:  6.17D-01  7.94D-01
 E= -13099.4184360282     Delta-E=       -0.000000000106 Rises=F Damp=F
 DIIS: error= 1.30D-07 at cycle   8 NSaved=   8.
 NSaved= 8 IEnMin= 8 EnMin= -13099.4184360282     IErMin= 8 ErrMin= 1.30D-07
 ErrMax= 1.30D-07  0.00D+00 EMaxC= 1.00D-01 BMatC= 3.53D-12 BMatP= 8.71D-11
 IDIUse=1 WtCom= 1.00D+00 WtEn= 0.00D+00
 Coeff-Com:  0.200D-04-0.469D-02-0.161D-02 0.472D-02 0.284D-01 0.110D+00
 Coeff-Com:  0.212D+00 0.651D+00
 Coeff:      0.200D-04-0.469D-02-0.161D-02 0.472D-02 0.284D-01 0.110D+00
 Coeff:      0.212D+00 0.651D+00
 Gap=     0.122 Goal=   None    Shift=    0.000
 RMSDP=7.30D-08 MaxDP=9.35D-06 DE=-1.06D-10 OVMax= 6.89D-07

 Cycle   9  Pass 1  IDiag  1:
 RMSU=  1.58D-08    CP:  1.00D+00  1.05D+00  5.62D-01  8.28D-01  6.73D-01
                    CP:  5.91D-01  8.71D-01  8.21D-01
 E= -13099.4184360282     Delta-E=       -0.000000000015 Rises=F Damp=F
 DIIS: error= 3.35D-08 at cycle   9 NSaved=   9.
 NSaved= 9 IEnMin= 9 EnMin= -13099.4184360282     IErMin= 9 ErrMin= 3.35D-08
 ErrMax= 3.35D-08  0.00D+00 EMaxC= 1.00D-01 BMatC= 5.03D-13 BMatP= 3.53D-12
 IDIUse=1 WtCom= 1.00D+00 WtEn= 0.00D+00
 Coeff-Com:  0.179D-04-0.210D-02-0.107D-02-0.362D-03 0.394D-02 0.382D-01
 Coeff-Com:  0.772D-01 0.349D+00 0.535D+00
 Coeff:      0.179D-04-0.210D-02-0.107D-02-0.362D-03 0.394D-02 0.382D-01
 Coeff:      0.772D-01 0.349D+00 0.535D+00
 Gap=     0.122 Goal=   None    Shift=    0.000
 RMSDP=1.91D-08 MaxDP=2.22D-06 DE=-1.46D-11 OVMax= 1.75D-07

 Cycle  10  Pass 1  IDiag  1:
 RMSU=  6.12D-09    CP:  1.00D+00  1.05D+00  5.61D-01  8.28D-01  6.71D-01
                    CP:  6.03D-01  8.71D-01  9.00D-01  6.55D-01
 E= -13099.4184360281     Delta-E=        0.000000000106 Rises=F Damp=F
 DIIS: error= 1.69D-08 at cycle  10 NSaved=  10.
 NSaved=10 IEnMin= 9 EnMin= -13099.4184360282     IErMin=10 ErrMin= 1.69D-08
 ErrMax= 1.69D-08  0.00D+00 EMaxC= 1.00D-01 BMatC= 4.16D-14 BMatP= 5.03D-13
 IDIUse=1 WtCom= 1.00D+00 WtEn= 0.00D+00
 Coeff-Com:  0.750D-05-0.543D-03-0.351D-03-0.753D-03-0.173D-02 0.821D-02
 Coeff-Com:  0.157D-01 0.106D+00 0.270D+00 0.604D+00
 Coeff:      0.750D-05-0.543D-03-0.351D-03-0.753D-03-0.173D-02 0.821D-02
 Coeff:      0.157D-01 0.106D+00 0.270D+00 0.604D+00
 Gap=     0.122 Goal=   None    Shift=    0.000
 RMSDP=3.78D-09 MaxDP=1.62D-07 DE= 1.06D-10 OVMax= 6.28D-08

 SCF Done:  E(RB3LYP) =  -13099.4184360     A.U. after   10 cycles
            NFock= 10  Conv=0.38D-08     -V/T= 2.0013
 KE= 1.308305783827D+04 PE=-3.652981439877D+04 EE= 7.744158355784D+03
 Leave Link  502 at Mon Sep 28 02:29:01 2026, MaxMem=  1610612736 cpu:             174.8 elap:              21.9
 (Enter /share/software/user/restricted/gaussian/g16.B01/l701.exe)
 ... and contract with generalized density number  0.
 Compute integral first derivatives.
 Leave Link  701 at Mon Sep 28 02:29:01 2026, MaxMem=  1610612736 cpu:               1.5 elap:               0.2
 (Enter /share/software/user/restricted/gaussian/g16.B01/l702.exe)
 L702 exits ... SP integral derivatives will be done elsewhere.
 Leave Link  702 at Mon Sep 28 02:29:01 2026, MaxMem=  1610612736 cpu:               0.2 elap:               0.0
 (Enter /share/software/user/restricted/gaussian/g16.B01/l703.exe)
 Integral derivatives from FoFJK, PRISM(SPDF).
 Compute integral first derivatives, UseDBF=F ICtDFT=           0.
 Calling FoFJK, ICntrl=      2127 FMM=F ISym2X=1 I1Cent= 0 IOpClX= 0 NMat=1 NMatS=1 NMatT=0.
 FoFJK:  IHMeth= 1 ICntrl=    2127 DoSepK=F KAlg= 0 I1Cent=           0 FoldK=F
 IRaf=         0 NMat=       1 IRICut=       1 DoRegI=T DoRafI=F ISym2E= 1 IDoP0=0 IntGTp=1.
 FoFCou: FMM=F IPFlag=           0 FMFlag=      100000 FMFlg1=         800
         NFxFlg=           0 DoJE=F BraDBF=F KetDBF=F FulRan=T
         wScrn=  0.000000 ICntrl=      2127 IOpCl=  0 I1Cent=           0 NGrid=           0
         NMat0=    1 NMatS0=      1 NMatT0=    0 NMatD0=    1 NMtDS0=    0 NMtDT0=    0
 Petite list used in FoFCou.
 Leave Link  703 at Mon Sep 28 02:29:10 2026, MaxMem=  1610612736 cpu:              72.9 elap:               9.1
 (Enter /share/software/user/restricted/gaussian/g16.B01/l716.exe)
 Dipole        = 2.60092053D-16-2.84217094D-14 1.94742028D+00
 ***** Axes restored to original set *****
 -------------------------------------------------------------------
 Center     Atomic                   Forces (Hartrees/Bohr)
 Number     Number              X              Y              Z
 -------------------------------------------------------------------
      1        6          -0.000000000    0.000013308    0.000000000
      2        6           0.000000669    0.000119136   -0.000000000
      3        6           0.000115888   -0.000171491   -0.000000000
      4        6           0.000000000    0.000307339    0.000000000
      5        6          -0.000115888   -0.000171491    0.000000000
      6        6          -0.000000669    0.000119136    0.000000000
      7       35          -0.000073203   -0.000083344   -0.000000000
      8       35           0.000011835    0.000049437   -0.000000000
      9       35          -0.000000000   -0.000148124    0.000000000
     10       35          -0.000011835    0.000049437   -0.000000000
     11       35           0.000073203   -0.000083344   -0.000000000
 -------------------------------------------------------------------
 Cartesian Forces:  Max     0.000307339 RMS     0.000088834
 Leave Link  716 at Mon Sep 28 02:29:10 2026, MaxMem=  1610612736 cpu:               0.3 elap:               0.0
 (Enter /share/software/user/restricted/gaussian/g16.B01/l103.exe)

 GradGradGradGradGradGradGradGradGradGradGradGradGradGradGradGradGradGrad
 Berny optimization.
 Using GEDIIS/GDIIS optimizer.
 FormGI is forming the generalized inverse of G from B-inverse, IUseBI=4.
 Internal  Forces:  Max     0.000148124 RMS     0.000051397
 Search for a local minimum.
 Step number   6 out of a maximum of   57
 All quantities printed in internal units (Hartrees-Bohrs-Radians)
 RMS Force = .51397D-04 SwitMx=.10000D-02 MixMth= 2
 Mixed Optimization -- En-DIIS/RFO-DIIS
 Swapping is turned off.
 Update second derivatives using D2CorX and points    1    2    3    4    5
                                                      6
 DE= -2.99D-06 DEPred=-2.89D-06 R= 1.03D+00
 TightC=F SS=  1.41D+00  RLast= 5.17D-03 DXNew= 8.4853D-01 1.5523D-02
 Trust test= 1.03D+00 RLast= 5.17D-03 DXMaxT set to 5.05D-01
 ITU=  1  1  1  1  1  0
     Eigenvalues ---    0.02040   0.02055   0.02069   0.02074   0.02108
     Eigenvalues ---    0.02149   0.02162   0.02234   0.08892   0.13369
     Eigenvalues ---    0.19132   0.19181   0.20585   0.23268   0.25000
     Eigenvalues ---    0.25000   0.25000   0.25000   0.25387   0.25666
     Eigenvalues ---    0.34416   0.40875   0.42057   0.45183   0.47729
     Eigenvalues ---    0.50215   0.54949
 En-DIIS/RFO-DIIS/Sim-DIIS IScMMF=       -3 using points:     6    5    4    3
 RFO step:  Lambda=-5.44808381D-07.
 NNeg= 0 NGDIIS= 4 SimSw=  2.50D-01 Rises=F DC= -2.99D-06 SmlDif=  1.00D-05
 NRisDI= 0 DoIntr=F SqrtH=F CThrHd= 10.0 CDAdj=  3.0
 RMS Error=  0.2574329887D-03 NUsed= 4 OKEnD=F EnDIS=F
 InvSVX:  RCond= 1.87D-06 Info=           0 Equed=N FErr=  3.86D-15 BErr=  1.22D-16
 DidBck=F Rises=F RFO-DIIS coefs:    1.11246   -0.04997   -0.11434    0.05184
 Iteration  1 RMS(Cart)=  0.00026852 RMS(Int)=  0.00000025
 Iteration  2 RMS(Cart)=  0.00000004 RMS(Int)=  0.00000025
 ITry= 1 IFail=0 DXMaxC= 8.40D-04 DCOld= 1.00D+10 DXMaxT= 5.05D-01 DXLimC= 3.00D+00 Rises=F
 ClnCor:  largest displacement from symmetrization is 1.41D-10 for atom     9.
 Variable       Old X    -DE/DX   Delta X   Delta X   Delta X     New X
                                 (Linear)    (Quad)   (Total)
    R1        2.55979  -0.00001   0.00017  -0.00011   0.00006   2.55984
    R2        2.55979  -0.00001   0.00017  -0.00011   0.00006   2.55984
    R3        2.63486   0.00004   0.00022   0.00002   0.00024   2.63510
    R4        3.80036  -0.00011  -0.00087  -0.00003  -0.00091   3.79946
    R5        2.66170   0.00002   0.00011  -0.00011   0.00000   2.66170
    R6        3.67334  -0.00001  -0.00039   0.00010  -0.00029   3.67305
    R7        2.66170   0.00002   0.00011  -0.00011   0.00000   2.66170
    R8        3.62781   0.00015   0.00002   0.00067   0.00070   3.62850
    R9        2.63486   0.00004   0.00022   0.00002   0.00024   2.63510
   R10        3.67334  -0.00001  -0.00039   0.00010  -0.00029   3.67305
   R11        3.80036  -0.00011  -0.00087  -0.00003  -0.00091   3.79946
    A1        2.08063  -0.00003  -0.00003  -0.00006  -0.00009   2.08054
    A2        2.13815   0.00005   0.00002   0.00012   0.00015   2.13830
    A3        2.06840   0.00004   0.00008   0.00004   0.00011   2.06851
    A4        2.07664  -0.00009  -0.00010  -0.00016  -0.00026   2.07638
    A5        2.05751  -0.00006  -0.00006  -0.00025  -0.00030   2.05721
    A6        2.13129  -0.00006  -0.00016   0.00009  -0.00008   2.13121
    A7        2.09438   0.00012   0.00022   0.00016   0.00038   2.09476
    A8        2.09441   0.00006   0.00010   0.00030   0.00040   2.09481
    A9        2.09439  -0.00003  -0.00005  -0.00015  -0.00020   2.09419
   A10        2.09439  -0.00003  -0.00005  -0.00015  -0.00020   2.09419
   A11        2.05751  -0.00006  -0.00006  -0.00025  -0.00030   2.05721
   A12        2.09438   0.00012   0.00022   0.00016   0.00038   2.09476
   A13        2.13129  -0.00006  -0.00016   0.00009  -0.00008   2.13121
   A14        2.13815   0.00005   0.00002   0.00012   0.00015   2.13830
   A15        2.06840   0.00004   0.00008   0.00004   0.00011   2.06851
   A16        2.07664  -0.00009  -0.00010  -0.00016  -0.00026   2.07638
    D1        0.00000  -0.00000   0.00000  -0.00000   0.00000   0.00000
    D2        3.14159  -0.00000   0.00000  -0.00000   0.00000   3.14159
    D3       -0.00000   0.00000   0.00000   0.00000   0.00000   0.00000
    D4        3.14159   0.00000   0.00000   0.00000   0.00000   3.14159
    D5        0.00000  -0.00000   0.00000  -0.00000  -0.00000   0.00000
    D6        3.14159  -0.00000   0.00000  -0.00000   0.00000   3.14159
    D7        3.14159   0.00000   0.00000   0.00000   0.00000   3.14159
    D8       -0.00000  -0.00000   0.00000  -0.00000   0.00000   0.00000
    D9       -0.00000   0.00000   0.00000   0.00000   0.00000   0.00000
   D10        3.14159  -0.00000   0.00000  -0.00000   0.00000   3.14159
   D11        3.14159   0.00000   0.00000   0.00000   0.00000   3.14159
   D12        0.00000   0.00000   0.00000   0.00000  -0.00000   0.00000
   D13        0.00000  -0.00000   0.00000  -0.00000   0.00000   0.00000
   D14        3.14159  -0.00000   0.00000  -0.00000   0.00000   3.14159
   D15        3.14159   0.00000   0.00000   0.00000   0.00000   3.14159
   D16       -0.00000  -0.00000   0.00000  -0.00000   0.00000   0.00000
   D17       -0.00000   0.00000   0.00000   0.00000   0.00000   0.00000
   D18        3.14159  -0.00000   0.00000  -0.00000   0.00000   3.14159
   D19        3.14159   0.00000   0.00000   0.00000   0.00000   3.14159
   D20        0.00000  -0.00000   0.00000   0.00000  -0.00000   0.00000
         Item               Value     Threshold  Converged?
 Maximum Force            0.000148     0.000450     YES
 RMS     Force            0.000051     0.000300     YES
 Maximum Displacement     0.000840     0.001800     YES
 RMS     Displacement     0.000269     0.001200     YES
 Predicted change in Energy=-2.710237D-07
 Optimization completed.
    -- Stationary point found.
                           ----------------------------
                           !   Optimized Parameters   !
                           ! (Angstroms and Degrees)  !
 --------------------------                            --------------------------
 ! Name  Definition              Value          Derivative Info.                !
 --------------------------------------------------------------------------------
 ! R1    R(1,2)                  1.3546         -DE/DX =    0.0                 !
 ! R2    R(1,6)                  1.3546         -DE/DX =    0.0                 !
 ! R3    R(2,3)                  1.3943         -DE/DX =    0.0                 !
 ! R4    R(2,7)                  2.0111         -DE/DX =   -0.0001              !
 ! R5    R(3,4)                  1.4085         -DE/DX =    0.0                 !
 ! R6    R(3,8)                  1.9438         -DE/DX =    0.0                 !
 ! R7    R(4,5)                  1.4085         -DE/DX =    0.0                 !
 ! R8    R(4,9)                  1.9198         -DE/DX =    0.0001              !
 ! R9    R(5,6)                  1.3943         -DE/DX =    0.0                 !
 ! R10   R(5,10)                 1.9438         -DE/DX =    0.0                 !
 ! R11   R(6,11)                 2.0111         -DE/DX =   -0.0001              !
 ! A1    A(2,1,6)              119.2113         -DE/DX =    0.0                 !
 ! A2    A(1,2,3)              122.5071         -DE/DX =    0.0                 !
 ! A3    A(1,2,7)              118.5104         -DE/DX =    0.0                 !
 ! A4    A(3,2,7)              118.9826         -DE/DX =   -0.0001              !
 ! A5    A(2,3,4)              117.8869         -DE/DX =   -0.0001              !
 ! A6    A(2,3,8)              122.1138         -DE/DX =   -0.0001              !
 ! A7    A(4,3,8)              119.9993         -DE/DX =    0.0001              !
 ! A8    A(3,4,5)              120.0008         -DE/DX =    0.0001              !
 ! A9    A(3,4,9)              119.9996         -DE/DX =    0.0                 !
 ! A10   A(5,4,9)              119.9996         -DE/DX =    0.0                 !
 ! A11   A(4,5,6)              117.8869         -DE/DX =   -0.0001              !
 ! A12   A(4,5,10)             119.9993         -DE/DX =    0.0001              !
 ! A13   A(6,5,10)             122.1138         -DE/DX =   -0.0001              !
 ! A14   A(1,6,5)              122.5071         -DE/DX =    0.0                 !
 ! A15   A(1,6,11)             118.5104         -DE/DX =    0.0                 !
 ! A16   A(5,6,11)             118.9826         -DE/DX =   -0.0001              !
 ! D1    D(6,1,2,3)              0.0            -DE/DX =    0.0                 !
 ! D2    D(6,1,2,7)            180.0            -DE/DX =    0.0                 !
 ! D3    D(2,1,6,5)              0.0            -DE/DX =    0.0                 !
 ! D4    D(2,1,6,11)           180.0            -DE/DX =    0.0                 !
 ! D5    D(1,2,3,4)              0.0            -DE/DX =    0.0                 !
 ! D6    D(1,2,3,8)            180.0            -DE/DX =    0.0                 !
 ! D7    D(7,2,3,4)            180.0            -DE/DX =    0.0                 !
 ! D8    D(7,2,3,8)              0.0            -DE/DX =    0.0                 !
 ! D9    D(2,3,4,5)              0.0            -DE/DX =    0.0                 !
 ! D10   D(2,3,4,9)            180.0            -DE/DX =    0.0                 !
 ! D11   D(8,3,4,5)            180.0            -DE/DX =    0.0                 !
 ! D12   D(8,3,4,9)              0.0            -DE/DX =    0.0                 !
 ! D13   D(3,4,5,6)              0.0            -DE/DX =    0.0                 !
 ! D14   D(3,4,5,10)           180.0            -DE/DX =    0.0                 !
 ! D15   D(9,4,5,6)            180.0            -DE/DX =    0.0                 !
 ! D16   D(9,4,5,10)             0.0            -DE/DX =    0.0                 !
 ! D17   D(4,5,6,1)              0.0            -DE/DX =    0.0                 !
 ! D18   D(4,5,6,11)           180.0            -DE/DX =    0.0                 !
 ! D19   D(10,5,6,1)           180.0            -DE/DX =    0.0                 !
 ! D20   D(10,5,6,11)            0.0            -DE/DX =    0.0                 !
 --------------------------------------------------------------------------------
 Lowest energy point so far.  Saving SCF results.
 Largest change from initial coordinates is atom    7       0.102 Angstoms.
 GradGradGradGradGradGradGradGradGradGradGradGradGradGradGradGradGradGrad

 Leave Link  103 at Mon Sep 28 02:29:10 2026, MaxMem=  1610612736 cpu:               0.2 elap:               0.0
 (Enter /share/software/user/restricted/gaussian/g16.B01/l202.exe)
                          Input orientation:                          
 ---------------------------------------------------------------------
 Center     Atomic      Atomic             Coordinates (Angstroms)
 Number     Number       Type             X           Y           Z
 ---------------------------------------------------------------------
      1          6           0        0.000000    1.374412    0.000000
      2          6           0        1.168411    0.689064    0.000000
      3          6           0        1.219813   -0.704298    0.000000
      4          6           0       -0.000000   -1.408545    0.000000
      5          6           0       -1.219813   -0.704298    0.000000
      6          6           0       -1.168411    0.689064    0.000000
      7         35           0        2.890507    1.727705    0.000000
      8         35           0        2.903216   -1.676254    0.000000
      9         35           0       -0.000000   -3.328298    0.000000
     10         35           0       -2.903216   -1.676254    0.000000
     11         35           0       -2.890507    1.727705    0.000000
 ---------------------------------------------------------------------
                    Distance matrix (angstroms):
                    1          2          3          4          5
     1  C    0.000000
     2  C    1.354580   0.000000
     3  C    2.410182   1.394310   0.000000
     4  C    2.782957   2.401072   1.408512   0.000000
     5  C    2.410182   2.764972   2.439625   1.408512   0.000000
     6  C    1.354580   2.336822   2.764972   2.401072   1.394310
     7  Br   2.912017   2.011067   2.950569   4.265102   4.775915
     8  Br   4.211322   2.933305   1.943849   2.915533   4.236044
     9  Br   4.702710   4.183823   2.893668   1.919752   2.893668
    10  Br   4.211322   4.708809   4.236044   2.915533   1.943849
    11  Br   2.912017   4.189700   4.775915   4.265102   2.950569
                    6          7          8          9         10
     6  C    0.000000
     7  Br   4.189700   0.000000
     8  Br   4.708809   3.403983   0.000000
     9  Br   4.183823   5.823932   3.340346   0.000000
    10  Br   2.933305   6.719685   5.806433   3.340346   0.000000
    11  Br   2.011067   5.781014   6.719685   5.823932   3.403983
                   11
    11  Br   0.000000
 Stoichiometry    C6Br5(1-)
 Framework group  C2V[C2(CCBr),SGV(C4Br4)]
 Deg. of freedom    10
 Full point group                 C2V     NOp   4
 RotChk:  IX=0 Diff= 1.57D-16
 Largest Abelian subgroup         C2V     NOp   4
 Largest concise Abelian subgroup C2      NOp   2
                         Standard orientation:                         
 ---------------------------------------------------------------------
 Center     Atomic      Atomic             Coordinates (Angstroms)
 Number     Number       Type             X           Y           Z
 ---------------------------------------------------------------------
      1          6           0        0.000000    0.000000   -1.911268
      2          6           0        0.000000    1.168411   -1.225919
      3          6           0        0.000000    1.219813    0.167443
      4          6           0        0.000000    0.000000    0.871690
      5          6           0       -0.000000   -1.219813    0.167443
      6          6           0       -0.000000   -1.168411   -1.225919
      7         35           0        0.000000    2.890507   -2.264560
      8         35           0        0.000000    2.903216    1.139399
      9         35           0        0.000000   -0.000000    2.791442
     10         35           0       -0.000000   -2.903216    1.139399
     11         35           0       -0.000000   -2.890507   -2.264560
 ---------------------------------------------------------------------
 Rotational constants (GHZ):           0.2940096           0.1859681           0.1139145
 Leave Link  202 at Mon Sep 28 02:29:11 2026, MaxMem=  1610612736 cpu:               0.0 elap:               0.0
 (Enter /share/software/user/restricted/gaussian/g16.B01/l601.exe)
 Copying SCF densities to generalized density rwf, IOpCl= 0 IROHF=0.

 **********************************************************************

            Population analysis using the SCF Density.

 **********************************************************************

 Orbital symmetries:
       Occupied  (A1) (B2) (A1) (B2) (A1) (A1) (B2) (A1) (B2) (A1)
                 (A1) (B1) (B2) (B2) (A1) (B1) (A2) (B2) (A1) (B2)
                 (A1) (A2) (B1) (B2) (A1) (A1) (B2) (A1) (B2) (A1)
                 (A1) (A1) (B2) (A1) (B2) (A1) (A1) (B2) (A1) (B1)
                 (B2) (B1) (A2) (B2) (A1) (B2) (A1) (B1) (A2) (B2)
                 (A1) (A1) (B1) (B2) (B2) (A1) (B1) (A2) (A1) (A2)
                 (B2) (A1) (B2) (B1) (A2) (A1) (B2) (A1) (B1) (A2)
                 (A1) (B2) (B1) (A2) (B2) (A1) (A1) (B2) (A1) (A1)
                 (B2) (A1) (A1) (B2) (A1) (B2) (B2) (A1) (B1) (A1)
                 (B2) (A1) (B2) (A2) (B1) (B2) (A1) (B1) (A2) (B2)
                 (B1) (A1) (B2) (A2) (B1) (A1)
       Virtual   (A1) (B2) (A2) (A1) (B1) (A1) (B2) (A1) (B2) (A1)
                 (B1) (A1) (A2) (B1) (B2) (A1) (B2) (B2) (A1) (B1)
                 (A2) (A1) (B2) (A1) (B2) (A1) (B1) (B2) (A1) (B1)
                 (A1) (A2) (B1) (B1) (A1) (B2) (B2) (A2) (A1) (A1)
                 (B2) (A1) (B2) (B1) (B2) (B2) (A1) (A1) (B2) (A1)
                 (B2) (A1) (B2) (A1) (B2) (A1) (A1) (B1) (B2) (A2)
                 (B2) (A1) (B1) (B2) (A2) (B1) (B2) (A1) (B2) (B2)
                 (B1) (A1) (A2) (A1) (B1) (A1) (B2) (A1) (A2) (B1)
                 (B1) (A1) (B2) (A2) (A2) (B1) (B1) (A1) (A2) (A1)
                 (B1) (B2) (A1) (A1) (A2) (B2) (A1) (B1) (B2) (B2)
                 (A1) (A1) (A1) (A2) (B2) (A1) (B2) (A1) (B2) (B2)
                 (A1) (B2) (A1) (B1) (A1) (B2) (A2) (B2) (B2) (A1)
                 (A1) (A1) (B1) (B2) (B2) (A1) (A2) (B1) (B1) (A1)
                 (A2) (B2) (A1) (B2) (A1) (A1) (B2) (A2) (A1) (B1)
                 (B2) (B2) (A1) (B1) (A2) (B1) (B1) (A2) (B1) (A2)
                 (A1) (B2) (A1) (B1) (A1) (B2) (B2) (A1) (A1) (B2)
                 (B2) (A1) (A1) (B2) (B2) (A2) (A1) (B2) (A1) (B2)
                 (B1) (A2) (B1) (A1) (A2) (B1) (A1) (B2) (A1) (B1)
                 (B2) (A1) (B2) (A1) (B2) (A1) (B2) (A1) (A2) (A2)
                 (A1) (B1) (A2) (B1) (B1) (A2) (A1) (B2) (B1) (A1)
                 (B2) (A2) (B1) (B2) (A1) (B2) (A1) (B2) (A1) (B2)
                 (A1) (B2) (A1) (B2) (A1) (B2) (A1) (B2) (A1) (B1)
                 (A2) (B1) (A2) (B1) (A1) (A1) (B2) (B2) (A1) (B2)
                 (B2) (A1) (A1) (B2) (A1) (A1) (B2) (A1) (B2) (A1)
                 (A1) (B2) (A1) (B2) (A1) (B1) (A2) (B1) (A2) (B1)
                 (A1) (B2) (B2) (A1) (A1) (B2) (B2) (A1) (A1) (B2)
                 (A1) (B2) (A1) (B2) (A1)
 The electronic state is 1-A1.
 Alpha  occ. eigenvalues -- -482.73031-482.71965-482.71965-482.69091-482.69091
 Alpha  occ. eigenvalues --  -62.38318 -62.37251 -62.37251 -62.34386 -62.34386
 Alpha  occ. eigenvalues --  -56.20362 -56.19971 -56.19937 -56.19285 -56.19284
 Alpha  occ. eigenvalues --  -56.18912 -56.18912 -56.18875 -56.18875 -56.16391
 Alpha  occ. eigenvalues --  -56.16391 -56.16057 -56.16057 -56.16027 -56.16027
 Alpha  occ. eigenvalues --  -10.13977 -10.13553 -10.13548 -10.11484 -10.11483
 Alpha  occ. eigenvalues --  -10.02650  -8.59294  -8.58218  -8.58218  -8.55335
 Alpha  occ. eigenvalues --   -8.55334  -6.42463  -6.41351  -6.41351  -6.41160
 Alpha  occ. eigenvalues --   -6.41071  -6.40107  -6.40107  -6.40008  -6.40008
 Alpha  occ. eigenvalues --   -6.38376  -6.38376  -6.37264  -6.37264  -6.37181
 Alpha  occ. eigenvalues --   -6.37181  -2.53551  -2.53194  -2.53128  -2.52445
 Alpha  occ. eigenvalues --   -2.52444  -2.52109  -2.52108  -2.52090  -2.52090
 Alpha  occ. eigenvalues --   -2.52034  -2.52034  -2.51044  -2.51044  -2.51044
 Alpha  occ. eigenvalues --   -2.51044  -2.49481  -2.49481  -2.49185  -2.49185
 Alpha  occ. eigenvalues --   -2.49122  -2.49122  -2.48238  -2.48238  -2.48238
 Alpha  occ. eigenvalues --   -2.48237  -0.78930  -0.71806  -0.71003  -0.67237
 Alpha  occ. eigenvalues --   -0.65886  -0.64439  -0.59418  -0.58907  -0.47254
 Alpha  occ. eigenvalues --   -0.47007  -0.38006  -0.36016  -0.30542  -0.30380
 Alpha  occ. eigenvalues --   -0.29531  -0.27652  -0.23734  -0.23322  -0.22222
 Alpha  occ. eigenvalues --   -0.21335  -0.19821  -0.19018  -0.18021  -0.17329
 Alpha  occ. eigenvalues --   -0.16654  -0.15449  -0.14225  -0.12422  -0.12384
 Alpha  occ. eigenvalues --   -0.07760
 Alpha virt. eigenvalues --    0.04452   0.07361   0.08631   0.09472   0.09508
 Alpha virt. eigenvalues --    0.09943   0.10680   0.10767   0.12526   0.12969
 Alpha virt. eigenvalues --    0.13466   0.13675   0.14579   0.15108   0.15180
 Alpha virt. eigenvalues --    0.15291   0.16059   0.16466   0.16596   0.16659
 Alpha virt. eigenvalues --    0.16680   0.17468   0.18535   0.18878   0.19183
 Alpha virt. eigenvalues --    0.20437   0.21085   0.21086   0.23086   0.23948
 Alpha virt. eigenvalues --    0.25416   0.25649   0.26045   0.27589   0.27901
 Alpha virt. eigenvalues --    0.28132   0.28659   0.29648   0.30423   0.31422
 Alpha virt. eigenvalues --    0.32055   0.32677   0.32855   0.33359   0.34247
 Alpha virt. eigenvalues --    0.35026   0.35539   0.35789   0.36570   0.36825
 Alpha virt. eigenvalues --    0.37054   0.38368   0.39664   0.41279   0.42402
 Alpha virt. eigenvalues --    0.48207   0.48900   0.49274   0.50385   0.52418
 Alpha virt. eigenvalues --    0.52861   0.53309   0.53454   0.54094   0.55507
 Alpha virt. eigenvalues --    0.55629   0.58900   0.60051   0.60734   0.62639
 Alpha virt. eigenvalues --    0.63342   0.63856   0.65233   0.65686   0.66189
 Alpha virt. eigenvalues --    0.67361   0.67727   0.68202   0.69127   0.70634
 Alpha virt. eigenvalues --    0.71373   0.72170   0.72751   0.72791   0.73899
 Alpha virt. eigenvalues --    0.74725   0.75894   0.76369   0.76596   0.77770
 Alpha virt. eigenvalues --    0.78497   0.79048   0.79806   0.81838   0.82632
 Alpha virt. eigenvalues --    0.82679   0.85428   0.86344   0.86700   0.88109
 Alpha virt. eigenvalues --    0.88190   0.90017   0.90353   0.91235   0.91876
 Alpha virt. eigenvalues --    0.93552   0.93643   0.97434   0.98161   0.99164
 Alpha virt. eigenvalues --    0.99549   1.01683   1.02285   1.04694   1.07899
 Alpha virt. eigenvalues --    1.07966   1.10708   1.12022   1.17572   1.17821
 Alpha virt. eigenvalues --    1.20846   1.23867   1.26545   1.27146   1.29968
 Alpha virt. eigenvalues --    1.30928   1.36992   1.37781   1.38738   1.38908
 Alpha virt. eigenvalues --    1.41212   1.47665   1.54383   1.62871   1.63384
 Alpha virt. eigenvalues --    1.68476   1.70012   1.88582   1.89605   1.89837
 Alpha virt. eigenvalues --    1.91671   1.96016   1.97877   2.02292   2.02758
 Alpha virt. eigenvalues --    2.07439   2.08567   2.11373   2.13425   2.15551
 Alpha virt. eigenvalues --    2.15565   2.15881   2.18930   2.20661   2.22454
 Alpha virt. eigenvalues --    2.22963   2.26029   2.27709   2.29388   2.30735
 Alpha virt. eigenvalues --    2.34725   2.38004   2.42240   2.43502   2.44759
 Alpha virt. eigenvalues --    2.45730   2.47913   2.56529   2.57023   2.65607
 Alpha virt. eigenvalues --    2.74227   2.87562   2.88563   2.97901   2.99085
 Alpha virt. eigenvalues --    3.00375   3.09146   3.09200   3.14012   3.20186
 Alpha virt. eigenvalues --    3.23398   3.29437   3.32094   3.55307   3.59313
 Alpha virt. eigenvalues --    3.81600   3.99025   3.99948   4.23933   4.25066
 Alpha virt. eigenvalues --    4.25292   4.25476   4.27641   4.28087   4.29155
 Alpha virt. eigenvalues --    4.31043   4.31606   4.32296   4.32747   4.33346
 Alpha virt. eigenvalues --    4.33790   4.34875   4.38632   4.41290   4.48139
 Alpha virt. eigenvalues --    4.49872   4.52440   4.55900   4.61192   4.65353
 Alpha virt. eigenvalues --    4.67353   4.73116   4.75309   4.96006   6.73461
 Alpha virt. eigenvalues --    6.87964   6.89482   6.93401   6.94897   7.64379
 Alpha virt. eigenvalues --    7.66617   7.67789   7.69960   7.71311   7.76488
 Alpha virt. eigenvalues --    7.78481   7.78622   7.79118   7.82168   7.84422
 Alpha virt. eigenvalues --    7.85482   7.85528   7.91135   7.92220  23.32674
 Alpha virt. eigenvalues --   23.93625  23.95291  24.09401  24.14117  24.34384
 Alpha virt. eigenvalues --   48.02178  48.14171  48.15396  48.19019  48.19559
 Alpha virt. eigenvalues --  289.84107 289.86429 289.87715 289.90012 289.91383
 Alpha virt. eigenvalues --  289.97250 289.98554 289.99190 289.99938 290.02193
 Alpha virt. eigenvalues --  290.05183 290.07274 290.07488 290.12716 290.13785
 Alpha virt. eigenvalues -- 1020.803891020.953711020.969071021.011951021.02172
          Condensed to atoms (all electrons):
               1          2          3          4          5          6
     1  C    7.765610   0.960361  -2.162686  -0.417366  -2.162686   0.960361
     2  C    0.960361   6.995227  -0.092265  -1.006189  -0.883462  -0.147741
     3  C   -2.162686  -0.092265   9.891563   0.446299  -0.513422  -0.883462
     4  C   -0.417366  -1.006189   0.446299   7.519605   0.446299  -1.006189
     5  C   -2.162686  -0.883462  -0.513422   0.446299   9.891563  -0.092265
     6  C    0.960361  -0.147741  -0.883462  -1.006189  -0.092265   6.995227
     7  Br  -0.040936   0.018330  -0.146028   0.185566  -0.000228  -0.106687
     8  Br   0.077786  -0.087344  -0.117814  -0.019048   0.114181   0.063770
     9  Br   0.156069   0.122273  -0.230789   0.105024  -0.230789   0.122273
    10  Br   0.077786   0.063770   0.114181  -0.019048  -0.117814  -0.087344
    11  Br  -0.040936  -0.106687  -0.000228   0.185566  -0.146028   0.018330
               7          8          9         10         11
     1  C   -0.040936   0.077786   0.156069   0.077786  -0.040936
     2  C    0.018330  -0.087344   0.122273   0.063770  -0.106687
     3  C   -0.146028  -0.117814  -0.230789   0.114181  -0.000228
     4  C    0.185566  -0.019048   0.105024  -0.019048   0.185566
     5  C   -0.000228   0.114181  -0.230789  -0.117814  -0.146028
     6  C   -0.106687   0.063770   0.122273  -0.087344   0.018330
     7  Br  35.407419  -0.039509  -0.004618  -0.000345   0.002760
     8  Br  -0.039509  35.260654  -0.046353  -0.005990  -0.000345
     9  Br  -0.004618  -0.046353  35.229336  -0.046353  -0.004618
    10  Br  -0.000345  -0.005990  -0.046353  35.260654  -0.039509
    11  Br   0.002760  -0.000345  -0.004618  -0.039509  35.407419
 Mulliken charges:
               1
     1  C    0.826637
     2  C    0.163726
     3  C   -0.305348
     4  C   -0.420519
     5  C   -0.305348
     6  C    0.163726
     7  Br  -0.275721
     8  Br  -0.199988
     9  Br  -0.171456
    10  Br  -0.199988
    11  Br  -0.275721
 Sum of Mulliken charges =  -1.00000
 Mulliken charges with hydrogens summed into heavy atoms:
               1
     1  C    0.826637
     2  C    0.163726
     3  C   -0.305348
     4  C   -0.420519
     5  C   -0.305348
     6  C    0.163726
     7  Br  -0.275721
     8  Br  -0.199988
     9  Br  -0.171456
    10  Br  -0.199988
    11  Br  -0.275721
 Electronic spatial extent (au):  <R**2>=           7389.9223
 Charge=             -1.0000 electrons
 Dipole moment (field-independent basis, Debye):
    X=              0.0000    Y=              0.0000    Z=              4.9498  Tot=              4.9498
 Quadrupole moment (field-independent basis, Debye-Ang):
   XX=           -131.8106   YY=           -159.2414   ZZ=           -155.0097
   XY=             -0.0000   XZ=             -0.0000   YZ=             -0.0000
 Traceless Quadrupole moment (field-independent basis, Debye-Ang):
   XX=             16.8766   YY=            -10.5542   ZZ=             -6.3224
   XY=             -0.0000   XZ=             -0.0000   YZ=             -0.0000
 Octapole moment (field-independent basis, Debye-Ang**2):
  XXX=              0.0000  YYY=              0.0000  ZZZ=             82.3485  XYY=              0.0000
  XXY=              0.0000  XXZ=             11.3674  XZZ=              0.0000  YZZ=             -0.0000
  YYZ=             43.4545  XYZ=              0.0000
 Hexadecapole moment (field-independent basis, Debye-Ang**3):
 XXXX=           -171.5619 YYYY=          -4371.7046 ZZZZ=          -2915.7484 XXXY=             -0.0000
 XXXZ=             -0.0000 YYYX=             -0.0000 YYYZ=             -0.0000 ZZZX=             -0.0000
 ZZZY=             -0.0000 XXYY=           -753.0022 XXZZ=           -511.5000 YYZZ=          -1241.3299
 XXYZ=              0.0000 YYXZ=             -0.0000 ZZXY=             -0.0000
 N-N= 2.603179768692D+03 E-N=-3.652981439724D+04  KE= 1.308305783827D+04
 Symmetry A1   KE= 6.395717702361D+03
 Symmetry A2   KE= 7.975044187541D+02
 Symmetry B1   KE= 1.089836648985D+03
 Symmetry B2   KE= 4.799999068169D+03
 No NMR shielding tensors so no spin-rotation constants.
 Leave Link  601 at Mon Sep 28 02:29:11 2026, MaxMem=  1610612736 cpu:               2.4 elap:               0.3
 (Enter /share/software/user/restricted/gaussian/g16.B01/l9999.exe)
 1\1\GINC-SH02-10N42\FOpt\RB3LYP\6-311++G(d)\C6Br5(1-)\JLAPIER\28-Sep-2
 026\0\\#p Opt Freq B3LYP/6-311++G(d) Int=UltraFine Geom=Check\\BrPh_23
 456_anion b3lyp_gas\\-1,1\C,0.,1.3744119637,0.\C,1.1684111421,0.689063
 5812,0.\C,1.2198125631,-0.704298184,0.\C,0.,-1.408545401,0.\C,-1.21981
 25631,-0.704298184,0.\C,-1.1684111421,0.6890635812,0.\Br,2.8905067629,
 1.7277046083,0.\Br,2.9032164826,-1.6762544821,0.\Br,0.,-3.3282976098,0
 .\Br,-2.9032164826,-1.6762544821,0.\Br,-2.8905067629,1.7277046083,0.\\
 Version=ES64L-G16RevB.01\State=1-A1\HF=-13099.418436\RMSD=3.777e-09\RM
 SF=8.883e-05\Dipole=0.,-1.9474203,0.\Quadrupole=-7.8467695,-4.7005796,
 12.5473491,0.,0.,0.\PG=C02V [C2(C1C1Br1),SGV(C4Br4)]\\@


 SUCCESS IS NEVER CERTAIN,
 FAILURE IS NEVER FINAL.
 Leave Link 9999 at Mon Sep 28 02:29:11 2026, MaxMem=  1610612736 cpu:               0.4 elap:               0.1
 Job cpu time:       0 days  0 hours 31 minutes 12.0 seconds.
 Elapsed time:       0 days  0 hours  3 minutes 55.4 seconds.
 File lengths (MBytes):  RWF=     88 Int=      0 D2E=      0 Chk=     67 Scr=      1
 Normal termination of Gaussian 16 at Mon Sep 28 02:29:11 2026.
 (Enter /share/software/user/restricted/gaussian/g16.B01/l1.exe)
 Link1:  Proceeding to internal job step number  2.
 ----------------------------------------------------------------------
 #P Geom=AllCheck Guess=TCheck SCRF=Check GenChk RB3LYP/6-311++G(d) Fre
 q
 ----------------------------------------------------------------------
 1/10=4,29=7,30=1,38=1,40=1/1,3;
 2/12=2,40=1/2;
 3/5=4,6=6,7=1011,11=2,14=-4,25=1,30=1,70=2,71=2,74=-5,75=-5,116=1,140=1/1,2,3;
 4/5=101/1;
 5/5=2,38=6,98=1/2;
 8/6=4,10=90,11=11/1;
 11/6=1,8=1,9=11,15=111,16=1/1,2,10;
 10/6=1/2;
 6/7=2,8=2,9=2,10=2,28=1/1;
 7/8=1,10=1,25=1/1,2,3,16;
 1/10=4,30=1/3;
 99//99;
 Leave Link    1 at Mon Sep 28 02:29:11 2026, MaxMem=  1610612736 cpu:               0.4 elap:               0.1
 (Enter /share/software/user/restricted/gaussian/g16.B01/l101.exe)
 Structure from the checkpoint file:  "calcs/b3lyp_gas/chks/BrPh_23456_anion.chk"
 --------------------------
 BrPh_23456_anion b3lyp_gas
 --------------------------
 Charge = -1 Multiplicity = 1
 Redundant internal coordinates found in file.  (old form).
 C,0,0.,1.3744119637,0.
 C,0,1.1684111421,0.6890635812,0.
 C,0,1.2198125631,-0.704298184,0.
 C,0,0.,-1.408545401,0.
 C,0,-1.2198125631,-0.704298184,0.
 C,0,-1.1684111421,0.6890635812,0.
 Br,0,2.8905067629,1.7277046083,0.
 Br,0,2.9032164826,-1.6762544821,0.
 Br,0,0.,-3.3282976098,0.
 Br,0,-2.9032164826,-1.6762544821,0.
 Br,0,-2.8905067629,1.7277046083,0.
 Recover connectivity data from disk.
 ITRead=  0  0  0  0  0  0  0  0  0  0  0
 MicOpt= -1 -1 -1 -1 -1 -1 -1 -1 -1 -1 -1
 NAtoms=     11 NQM=       11 NQMF=       0 NMMI=      0 NMMIF=      0
                NMic=       0 NMicF=      0.
                    Isotopes and Nuclear Properties:
 (Nuclear quadrupole moments (NQMom) in fm**2, nuclear magnetic moments (NMagM)
  in nuclear magnetons)

  Atom         1           2           3           4           5           6           7           8           9          10
 IAtWgt=          12          12          12          12          12          12          79          79          79          79
 AtmWgt=  12.0000000  12.0000000  12.0000000  12.0000000  12.0000000  12.0000000  78.9183361  78.9183361  78.9183361  78.9183361
 NucSpn=           0           0           0           0           0           0           3           3           3           3
 AtZEff=   3.6000000   3.6000000   3.6000000   3.6000000   3.6000000   3.6000000  24.5000000  24.5000000  24.5000000  24.5000000
 NQMom=    0.0000000   0.0000000   0.0000000   0.0000000   0.0000000   0.0000000  31.3000000  31.3000000  31.3000000  31.3000000
 NMagM=    0.0000000   0.0000000   0.0000000   0.0000000   0.0000000   0.0000000   2.1063990   2.1063990   2.1063990   2.1063990
 AtZNuc=   6.0000000   6.0000000   6.0000000   6.0000000   6.0000000   6.0000000  35.0000000  35.0000000  35.0000000  35.0000000

  Atom        11
 IAtWgt=          79
 AtmWgt=  78.9183361
 NucSpn=           3
 AtZEff=  24.5000000
 NQMom=   31.3000000
 NMagM=    2.1063990
 AtZNuc=  35.0000000
 Leave Link  101 at Mon Sep 28 02:29:12 2026, MaxMem=  1610612736 cpu:               4.0 elap:               0.5
 (Enter /share/software/user/restricted/gaussian/g16.B01/l103.exe)

 GradGradGradGradGradGradGradGradGradGradGradGradGradGradGradGradGradGrad
 Berny optimization.
 Initialization pass.
                           ----------------------------
                           !    Initial Parameters    !
                           ! (Angstroms and Degrees)  !
 --------------------------                            --------------------------
 ! Name  Definition              Value          Derivative Info.                !
 --------------------------------------------------------------------------------
 ! R1    R(1,2)                  1.3546         calculate D2E/DX2 analytically  !
 ! R2    R(1,6)                  1.3546         calculate D2E/DX2 analytically  !
 ! R3    R(2,3)                  1.3943         calculate D2E/DX2 analytically  !
 ! R4    R(2,7)                  2.0111         calculate D2E/DX2 analytically  !
 ! R5    R(3,4)                  1.4085         calculate D2E/DX2 analytically  !
 ! R6    R(3,8)                  1.9438         calculate D2E/DX2 analytically  !
 ! R7    R(4,5)                  1.4085         calculate D2E/DX2 analytically  !
 ! R8    R(4,9)                  1.9198         calculate D2E/DX2 analytically  !
 ! R9    R(5,6)                  1.3943         calculate D2E/DX2 analytically  !
 ! R10   R(5,10)                 1.9438         calculate D2E/DX2 analytically  !
 ! R11   R(6,11)                 2.0111         calculate D2E/DX2 analytically  !
 ! A1    A(2,1,6)              119.2113         calculate D2E/DX2 analytically  !
 ! A2    A(1,2,3)              122.5071         calculate D2E/DX2 analytically  !
 ! A3    A(1,2,7)              118.5104         calculate D2E/DX2 analytically  !
 ! A4    A(3,2,7)              118.9826         calculate D2E/DX2 analytically  !
 ! A5    A(2,3,4)              117.8869         calculate D2E/DX2 analytically  !
 ! A6    A(2,3,8)              122.1138         calculate D2E/DX2 analytically  !
 ! A7    A(4,3,8)              119.9993         calculate D2E/DX2 analytically  !
 ! A8    A(3,4,5)              120.0008         calculate D2E/DX2 analytically  !
 ! A9    A(3,4,9)              119.9996         calculate D2E/DX2 analytically  !
 ! A10   A(5,4,9)              119.9996         calculate D2E/DX2 analytically  !
 ! A11   A(4,5,6)              117.8869         calculate D2E/DX2 analytically  !
 ! A12   A(4,5,10)             119.9993         calculate D2E/DX2 analytically  !
 ! A13   A(6,5,10)             122.1138         calculate D2E/DX2 analytically  !
 ! A14   A(1,6,5)              122.5071         calculate D2E/DX2 analytically  !
 ! A15   A(1,6,11)             118.5104         calculate D2E/DX2 analytically  !
 ! A16   A(5,6,11)             118.9826         calculate D2E/DX2 analytically  !
 ! D1    D(6,1,2,3)              0.0            calculate D2E/DX2 analytically  !
 ! D2    D(6,1,2,7)            180.0            calculate D2E/DX2 analytically  !
 ! D3    D(2,1,6,5)              0.0            calculate D2E/DX2 analytically  !
 ! D4    D(2,1,6,11)           180.0            calculate D2E/DX2 analytically  !
 ! D5    D(1,2,3,4)              0.0            calculate D2E/DX2 analytically  !
 ! D6    D(1,2,3,8)            180.0            calculate D2E/DX2 analytically  !
 ! D7    D(7,2,3,4)            180.0            calculate D2E/DX2 analytically  !
 ! D8    D(7,2,3,8)              0.0            calculate D2E/DX2 analytically  !
 ! D9    D(2,3,4,5)              0.0            calculate D2E/DX2 analytically  !
 ! D10   D(2,3,4,9)            180.0            calculate D2E/DX2 analytically  !
 ! D11   D(8,3,4,5)            180.0            calculate D2E/DX2 analytically  !
 ! D12   D(8,3,4,9)              0.0            calculate D2E/DX2 analytically  !
 ! D13   D(3,4,5,6)              0.0            calculate D2E/DX2 analytically  !
 ! D14   D(3,4,5,10)           180.0            calculate D2E/DX2 analytically  !
 ! D15   D(9,4,5,6)            180.0            calculate D2E/DX2 analytically  !
 ! D16   D(9,4,5,10)             0.0            calculate D2E/DX2 analytically  !
 ! D17   D(4,5,6,1)              0.0            calculate D2E/DX2 analytically  !
 ! D18   D(4,5,6,11)           180.0            calculate D2E/DX2 analytically  !
 ! D19   D(10,5,6,1)           180.0            calculate D2E/DX2 analytically  !
 ! D20   D(10,5,6,11)            0.0            calculate D2E/DX2 analytically  !
 --------------------------------------------------------------------------------
 Trust Radius=3.00D-01 FncErr=1.00D-07 GrdErr=1.00D-07 EigMax=2.50D+02 EigMin=1.00D-04
 Number of steps in this run=      2 maximum allowed number of steps=      2.
 GradGradGradGradGradGradGradGradGradGradGradGradGradGradGradGradGradGrad

 Leave Link  103 at Mon Sep 28 02:29:12 2026, MaxMem=  1610612736 cpu:               0.1 elap:               0.0
 (Enter /share/software/user/restricted/gaussian/g16.B01/l202.exe)
                          Input orientation:                          
 ---------------------------------------------------------------------
 Center     Atomic      Atomic             Coordinates (Angstroms)
 Number     Number       Type             X           Y           Z
 ---------------------------------------------------------------------
      1          6           0        0.000000    1.374412    0.000000
      2          6           0        1.168411    0.689064    0.000000
      3          6           0        1.219813   -0.704298    0.000000
      4          6           0       -0.000000   -1.408545    0.000000
      5          6           0       -1.219813   -0.704298    0.000000
      6          6           0       -1.168411    0.689064    0.000000
      7         35           0        2.890507    1.727705    0.000000
      8         35           0        2.903216   -1.676254    0.000000
      9         35           0       -0.000000   -3.328298    0.000000
     10         35           0       -2.903216   -1.676254    0.000000
     11         35           0       -2.890507    1.727705    0.000000
 ---------------------------------------------------------------------
                    Distance matrix (angstroms):
                    1          2          3          4          5
     1  C    0.000000
     2  C    1.354580   0.000000
     3  C    2.410182   1.394310   0.000000
     4  C    2.782957   2.401072   1.408512   0.000000
     5  C    2.410182   2.764972   2.439625   1.408512   0.000000
     6  C    1.354580   2.336822   2.764972   2.401072   1.394310
     7  Br   2.912017   2.011067   2.950569   4.265102   4.775915
     8  Br   4.211322   2.933305   1.943849   2.915533   4.236044
     9  Br   4.702710   4.183823   2.893668   1.919752   2.893668
    10  Br   4.211322   4.708809   4.236044   2.915533   1.943849
    11  Br   2.912017   4.189700   4.775915   4.265102   2.950569
                    6          7          8          9         10
     6  C    0.000000
     7  Br   4.189700   0.000000
     8  Br   4.708809   3.403983   0.000000
     9  Br   4.183823   5.823932   3.340346   0.000000
    10  Br   2.933305   6.719685   5.806433   3.340346   0.000000
    11  Br   2.011067   5.781014   6.719685   5.823932   3.403983
                   11
    11  Br   0.000000
 Stoichiometry    C6Br5(1-)
 Framework group  C2V[C2(CCBr),SGV(C4Br4)]
 Deg. of freedom    10
 Full point group                 C2V     NOp   4
 RotChk:  IX=0 Diff= 1.26D-15
 Largest Abelian subgroup         C2V     NOp   4
 Largest concise Abelian subgroup C2      NOp   2
                         Standard orientation:                         
 ---------------------------------------------------------------------
 Center     Atomic      Atomic             Coordinates (Angstroms)
 Number     Number       Type             X           Y           Z
 ---------------------------------------------------------------------
      1          6           0        0.000000    0.000000   -1.911268
      2          6           0       -0.000000    1.168411   -1.225919
      3          6           0       -0.000000    1.219813    0.167443
      4          6           0       -0.000000    0.000000    0.871690
      5          6           0       -0.000000   -1.219813    0.167443
      6          6           0       -0.000000   -1.168411   -1.225919
      7         35           0       -0.000000    2.890507   -2.264560
      8         35           0       -0.000000    2.903216    1.139399
      9         35           0       -0.000000    0.000000    2.791442
     10         35           0       -0.000000   -2.903216    1.139399
     11         35           0       -0.000000   -2.890507   -2.264560
 ---------------------------------------------------------------------
 Rotational constants (GHZ):           0.2940096           0.1859681           0.1139145
 Leave Link  202 at Mon Sep 28 02:29:12 2026, MaxMem=  1610612736 cpu:               0.0 elap:               0.0
 (Enter /share/software/user/restricted/gaussian/g16.B01/l301.exe)
 Standard basis: 6-311++G(d) (5D, 7F)
 Ernie: Thresh=  0.10000D-02 Tol=  0.10000D-05 Strict=F.
 There are   158 symmetry adapted cartesian basis functions of A1  symmetry.
 There are    45 symmetry adapted cartesian basis functions of A2  symmetry.
 There are    61 symmetry adapted cartesian basis functions of B1  symmetry.
 There are   129 symmetry adapted cartesian basis functions of B2  symmetry.
 There are   145 symmetry adapted basis functions of A1  symmetry.
 There are    45 symmetry adapted basis functions of A2  symmetry.
 There are    61 symmetry adapted basis functions of B1  symmetry.
 There are   121 symmetry adapted basis functions of B2  symmetry.
   372 basis functions,   686 primitive gaussians,   393 cartesian basis functions
   106 alpha electrons      106 beta electrons
       nuclear repulsion energy      2603.1797686916 Hartrees.
 IExCor=  402 DFT=T Ex+Corr=B3LYP ExCW=0 ScaHFX=  0.200000
 ScaDFX=  0.800000  0.720000  1.000000  0.810000 ScalE2=  1.000000  1.000000
 IRadAn=      5 IRanWt=     -1 IRanGd=            0 ICorTp=0 IEmpDi=  4
 NAtoms=   11 NActive=   11 NUniq=    7 SFac= 2.47D+00 NAtFMM=   60 NAOKFM=F Big=F
 Integral buffers will be    131072 words long.
 Raffenetti 2 integral format.
 Two-electron integral symmetry is turned on.
 Leave Link  301 at Mon Sep 28 02:29:12 2026, MaxMem=  1610612736 cpu:               0.5 elap:               0.1
 (Enter /share/software/user/restricted/gaussian/g16.B01/l302.exe)
 NPDir=0 NMtPBC=     1 NCelOv=     1 NCel=       1 NClECP=     1 NCelD=      1
         NCelK=      1 NCelE2=     1 NClLst=     1 CellRange=     0.0.
 One-electron integrals computed using PRISM.
 One-electron integral symmetry used in STVInt
 NBasis=   372 RedAO= T EigKep=  1.28D-06  NBF=   145    45    61   121
 NBsUse=   371 1.00D-06 EigRej=  6.24D-07 NBFU=   144    45    61   121
 Precomputing XC quadrature grid using
 IXCGrd= 4 IRadAn=           5 IRanWt=          -1 IRanGd=           0 AccXCQ= 0.00D+00.
 Generated NRdTot=       0 NPtTot=           0 NUsed=           0 NTot=          32
 NSgBfM=   364   364   364   364   364 MxSgAt=    11 MxSgA2=    11.
 Leave Link  302 at Mon Sep 28 02:29:12 2026, MaxMem=  1610612736 cpu:               2.0 elap:               0.3
 (Enter /share/software/user/restricted/gaussian/g16.B01/l303.exe)
 DipDrv:  MaxL=1.
 Leave Link  303 at Mon Sep 28 02:29:12 2026, MaxMem=  1610612736 cpu:               0.4 elap:               0.1
 (Enter /share/software/user/restricted/gaussian/g16.B01/l401.exe)
 Initial guess from the checkpoint file:  "calcs/b3lyp_gas/chks/BrPh_23456_anion.chk"
 B after Tr=    -0.000000   -0.000000   -0.000000
         Rot=    1.000000   -0.000000   -0.000000   -0.000000 Ang=   0.00 deg.
 Guess basis will be translated and rotated to current coordinates.
 JPrj=2 DoOrth=T DoCkMO=T.
 Initial guess orbital symmetries:
       Occupied  (A1) (B2) (A1) (B2) (A1) (A1) (B2) (A1) (B2) (A1)
                 (A1) (B1) (B2) (B2) (A1) (B1) (A2) (B2) (A1) (B2)
                 (A1) (A2) (B1) (B2) (A1) (A1) (B2) (A1) (B2) (A1)
                 (A1) (A1) (B2) (A1) (B2) (A1) (A1) (B2) (A1) (B1)
                 (B2) (B1) (A2) (B2) (A1) (B2) (A1) (B1) (A2) (B2)
                 (A1) (A1) (B1) (B2) (B2) (A1) (B1) (A2) (A1) (A2)
                 (B2) (A1) (B2) (B1) (A2) (A1) (B2) (A1) (B1) (A2)
                 (A1) (B2) (B1) (A2) (B2) (A1) (A1) (B2) (A1) (A1)
                 (B2) (A1) (A1) (B2) (A1) (B2) (B2) (A1) (B1) (A1)
                 (B2) (A1) (B2) (A2) (B1) (B2) (A1) (B1) (A2) (B2)
                 (B1) (A1) (B2) (A2) (B1) (A1)
       Virtual   (A1) (B2) (A2) (A1) (B1) (A1) (B2) (A1) (B2) (A1)
                 (B1) (A1) (A2) (B1) (B2) (A1) (B2) (B2) (A1) (B1)
                 (A2) (A1) (B2) (A1) (B2) (A1) (B1) (B2) (A1) (B1)
                 (A1) (A2) (B1) (B1) (A1) (B2) (B2) (A2) (A1) (A1)
                 (B2) (A1) (B2) (B1) (B2) (B2) (A1) (A1) (B2) (A1)
                 (B2) (A1) (B2) (A1) (B2) (A1) (A1) (B1) (B2) (A2)
                 (B2) (A1) (B1) (B2) (A2) (B1) (B2) (A1) (B2) (B2)
                 (B1) (A1) (A2) (A1) (B1) (A1) (B2) (A1) (A2) (B1)
                 (B1) (A1) (B2) (A2) (A2) (B1) (B1) (A1) (A2) (A1)
                 (B1) (B2) (A1) (A1) (A2) (B2) (A1) (B1) (B2) (B2)
                 (A1) (A1) (A1) (A2) (B2) (A1) (B2) (A1) (B2) (B2)
                 (A1) (B2) (A1) (B1) (A1) (B2) (A2) (B2) (B2) (A1)
                 (A1) (A1) (B1) (B2) (B2) (A1) (A2) (B1) (B1) (A1)
                 (A2) (B2) (A1) (B2) (A1) (A1) (B2) (A2) (A1) (B1)
                 (B2) (B2) (A1) (B1) (A2) (B1) (B1) (A2) (B1) (A2)
                 (A1) (B2) (A1) (B1) (A1) (B2) (B2) (A1) (A1) (B2)
                 (B2) (A1) (A1) (B2) (B2) (A2) (A1) (B2) (A1) (B2)
                 (B1) (A2) (B1) (A1) (A2) (B1) (A1) (B2) (A1) (B1)
                 (B2) (A1) (B2) (A1) (B2) (A1) (B2) (A1) (A2) (A2)
                 (A1) (B1) (A2) (B1) (B1) (A2) (A1) (B2) (B1) (A1)
                 (B2) (A2) (B1) (B2) (A1) (B2) (A1) (B2) (A1) (B2)
                 (A1) (B2) (A1) (B2) (A1) (B2) (A1) (B2) (A1) (B1)
                 (A2) (B1) (A2) (B1) (A1) (A1) (B2) (B2) (A1) (B2)
                 (B2) (A1) (A1) (B2) (A1) (A1) (B2) (A1) (B2) (A1)
                 (A1) (B2) (A1) (B2) (A1) (B1) (A2) (B1) (A2) (B1)
                 (A1) (B2) (B2) (A1) (A1) (B2) (B2) (A1) (A1) (B2)
                 (A1) (B2) (A1) (B2) (A1)
 The electronic state of the initial guess is 1-A1.
 Leave Link  401 at Mon Sep 28 02:29:13 2026, MaxMem=  1610612736 cpu:               2.9 elap:               0.4
 (Enter /share/software/user/restricted/gaussian/g16.B01/l502.exe)
 Integral symmetry usage will be decided dynamically.
 Closed shell SCF:
 Using DIIS extrapolation, IDIIS=  1040.
 NGot=  1610612736 LenX=  1610294648 LenY=  1610139758
 Requested convergence on RMS density matrix=1.00D-08 within 128 cycles.
 Requested convergence on MAX density matrix=1.00D-06.
 Requested convergence on             energy=1.00D-06.
 No special actions if energy rises.
 Fock matrices will be formed incrementally for  20 cycles.

 Cycle   1  Pass 1  IDiag  1:
 FoFJK:  IHMeth= 1 ICntrl=       0 DoSepK=F KAlg= 0 I1Cent=           0 FoldK=F
 IRaf= 740000000 NMat=       1 IRICut=       1 DoRegI=T DoRafI=F ISym2E= 1 IDoP0=0 IntGTp=1.
 FoFCou: FMM=F IPFlag=           0 FMFlag=      100000 FMFlg1=           0
         NFxFlg=           0 DoJE=F BraDBF=F KetDBF=F FulRan=T
         wScrn=  0.000000 ICntrl=         0 IOpCl=  0 I1Cent=           0 NGrid=           0
         NMat0=    1 NMatS0=      1 NMatT0=    0 NMatD0=    1 NMtDS0=    0 NMtDT0=    0
 Petite list used in FoFCou.
 E= -13099.4184360281    
 DIIS: error= 5.55D-09 at cycle   1 NSaved=   1.
 NSaved= 1 IEnMin= 1 EnMin= -13099.4184360281     IErMin= 1 ErrMin= 5.55D-09
 ErrMax= 5.55D-09  0.00D+00 EMaxC= 1.00D-01 BMatC= 5.96D-15 BMatP= 5.96D-15
 IDIUse=1 WtCom= 1.00D+00 WtEn= 0.00D+00
 Coeff-Com:  0.100D+01
 Coeff:      0.100D+01
 Gap=     0.122 Goal=   None    Shift=    0.000
 RMSDP=1.25D-09 MaxDP=5.36D-08              OVMax= 5.08D-08

 SCF Done:  E(RB3LYP) =  -13099.4184360     A.U. after    1 cycles
            NFock=  1  Conv=0.13D-08     -V/T= 2.0013
 KE= 1.308305784133D+04 PE=-3.652981440030D+04 EE= 7.744158354250D+03
 Leave Link  502 at Mon Sep 28 02:29:15 2026, MaxMem=  1610612736 cpu:              19.5 elap:               2.5
 (Enter /share/software/user/restricted/gaussian/g16.B01/l801.exe)
 DoSCS=F DFT=T ScalE2(SS,OS)=  1.000000  1.000000
 Range of M.O.s used for correlation:     1   371
 NBasis=   372 NAE=   106 NBE=   106 NFC=     0 NFV=     0
 NROrb=    371 NOA=   106 NOB=   106 NVA=   265 NVB=   265

 **** Warning!!: The largest alpha MO coefficient is  0.22571957D+03

 Leave Link  801 at Mon Sep 28 02:29:15 2026, MaxMem=  1610612736 cpu:               0.3 elap:               0.1
 (Enter /share/software/user/restricted/gaussian/g16.B01/l1101.exe)
 Using compressed storage, NAtomX=    11.
 Will process     12 centers per pass.
 Leave Link 1101 at Mon Sep 28 02:29:16 2026, MaxMem=  1610612736 cpu:               2.2 elap:               0.3
 (Enter /share/software/user/restricted/gaussian/g16.B01/l1102.exe)
 Symmetrizing basis deriv contribution to polar:
 IMax=3 JMax=2 DiffMx= 0.00D+00
 Leave Link 1102 at Mon Sep 28 02:29:16 2026, MaxMem=  1610612736 cpu:               0.6 elap:               0.1
 (Enter /share/software/user/restricted/gaussian/g16.B01/l1110.exe)
 Forming Gx(P) for the SCF density, NAtomX=    11.
 Integral derivatives from FoFJK, PRISM(SPDF).
 Do as many integral derivatives as possible in FoFJK.
 G2DrvN: MDV=    1610611742.
 G2DrvN: will do    12 centers at a time, making    1 passes.
 Calling FoFCou, ICntrl=  3107 FMM=F I1Cent=   0 AccDes= 0.00D+00.
 FoFJK:  IHMeth= 1 ICntrl=    3107 DoSepK=F KAlg= 0 I1Cent=           0 FoldK=F
 IRaf=         0 NMat=       1 IRICut=       1 DoRegI=T DoRafI=F ISym2E= 1 IDoP0=0 IntGTp=1.
 FoFCou: FMM=F IPFlag=           0 FMFlag=      100000 FMFlg1=           0
         NFxFlg=           0 DoJE=F BraDBF=F KetDBF=F FulRan=T
         wScrn=  0.000000 ICntrl=      3107 IOpCl=  0 I1Cent=           0 NGrid=           0
         NMat0=    1 NMatS0=      1 NMatT0=    0 NMatD0=    1 NMtDS0=    0 NMtDT0=    0
 Petite list used in FoFCou.
 End of G2Drv F.D. properties file   721 does not exist.
 End of G2Drv F.D. properties file   722 does not exist.
 End of G2Drv F.D. properties file   788 does not exist.
 Leave Link 1110 at Mon Sep 28 02:29:44 2026, MaxMem=  1610612736 cpu:             222.1 elap:              27.8
 (Enter /share/software/user/restricted/gaussian/g16.B01/l1002.exe)
 Minotr:  Closed shell wavefunction.
          IDoAtm=11111111111
          Direct CPHF calculation.
          Differentiating once with respect to electric field.
                with respect to dipole field.
          Differentiating once with respect to nuclear coordinates.
          Using symmetry in CPHF.
          Requested convergence is 1.0D-08 RMS, and 1.0D-07 maximum.
          Secondary convergence is 1.0D-12 RMS, and 1.0D-12 maximum.
          NewPWx=T KeepS1=F KeepF1=F KeepIn=T MapXYZ=F SortEE=F KeepMc=T.
         3321 words used for storage of precomputed grid.
 Two-electron integrals replicated using symmetry.
          MDV=    1610612736 using IRadAn=       1.
          Solving linear equations simultaneously, MaxMat=     384.
 FoF2E skips out because all densities are zero.
 CalDSu exits because no D1Ps are significant.
 FoFJK:  IHMeth= 1 ICntrl=       0 DoSepK=F KAlg= 0 I1Cent=           0 FoldK=F
 IRaf= 740000000 NMat=      21 IRICut=       1 DoRegI=T DoRafI=F ISym2E= 2 IDoP0=3 IntGTp=3.
 FoFCou: FMM=F IPFlag=           0 FMFlag=      100000 FMFlg1=           0
         NFxFlg=           0 DoJE=F BraDBF=F KetDBF=F FulRan=T
         wScrn=  0.000000 ICntrl=         0 IOpCl=  0 I1Cent=           0 NGrid=           0
         NMat0=   21 NMatS0=     21 NMatT0=    0 NMatD0=   21 NMtDS0=    0 NMtDT0=    0
 Integrals replicated using symmetry in FoFCou.
          There are    24 degrees of freedom in the 1st order CPHF.  IDoFFX=4 NUNeed=    24.
     24 vectors produced by pass  0 Test12= 1.17D-13 4.17D-09 XBig12= 4.77D+02 1.45D+01.
 AX will form    24 AO Fock derivatives at one time.
     24 vectors produced by pass  1 Test12= 1.17D-13 4.17D-09 XBig12= 2.02D+02 3.92D+00.
     24 vectors produced by pass  2 Test12= 1.17D-13 4.17D-09 XBig12= 9.75D+00 7.95D-01.
     24 vectors produced by pass  3 Test12= 1.17D-13 4.17D-09 XBig12= 6.55D-01 1.09D-01.
     24 vectors produced by pass  4 Test12= 1.17D-13 4.17D-09 XBig12= 1.10D-02 1.64D-02.
     24 vectors produced by pass  5 Test12= 1.17D-13 4.17D-09 XBig12= 2.58D-04 3.04D-03.
     24 vectors produced by pass  6 Test12= 1.17D-13 4.17D-09 XBig12= 1.18D-06 2.55D-04.
     15 vectors produced by pass  7 Test12= 1.17D-13 4.17D-09 XBig12= 3.43D-09 1.11D-05.
      6 vectors produced by pass  8 Test12= 1.17D-13 4.17D-09 XBig12= 9.80D-12 4.20D-07.
      2 vectors produced by pass  9 Test12= 1.17D-13 4.17D-09 XBig12= 2.40D-14 1.71D-08.
 InvSVY:  IOpt=1 It=  1 EMax= 3.55D-15
 Solved reduced A of dimension   191 with    24 vectors.
 FullF1:  Do perturbations      1 to      24.
 Isotropic polarizability for W=    0.000000      206.59 Bohr**3.
 End of Minotr F.D. properties file   721 does not exist.
 End of Minotr F.D. properties file   722 does not exist.
 End of Minotr F.D. properties file   788 does not exist.
 Leave Link 1002 at Mon Sep 28 02:32:38 2026, MaxMem=  1610612736 cpu:            1391.1 elap:             174.3
 (Enter /share/software/user/restricted/gaussian/g16.B01/l601.exe)
 Copying SCF densities to generalized density rwf, IOpCl= 0 IROHF=0.

 **********************************************************************

            Population analysis using the SCF Density.

 **********************************************************************

 Orbital symmetries:
       Occupied  (A1) (B2) (A1) (B2) (A1) (A1) (B2) (A1) (B2) (A1)
                 (A1) (B1) (B2) (B2) (A1) (B1) (A2) (B2) (A1) (B2)
                 (A1) (A2) (B1) (B2) (A1) (A1) (B2) (A1) (B2) (A1)
                 (A1) (A1) (B2) (A1) (B2) (A1) (A1) (B2) (A1) (B1)
                 (B2) (B1) (A2) (B2) (A1) (B2) (A1) (B1) (A2) (B2)
                 (A1) (A1) (B1) (B2) (B2) (A1) (B1) (A2) (A1) (A2)
                 (B2) (A1) (B2) (B1) (A2) (A1) (B2) (A1) (B1) (A2)
                 (A1) (B2) (B1) (A2) (B2) (A1) (A1) (B2) (A1) (A1)
                 (B2) (A1) (A1) (B2) (A1) (B2) (B2) (A1) (B1) (A1)
                 (B2) (A1) (B2) (A2) (B1) (B2) (A1) (B1) (A2) (B2)
                 (B1) (A1) (B2) (A2) (B1) (A1)
       Virtual   (A1) (B2) (A2) (A1) (B1) (A1) (B2) (A1) (B2) (A1)
                 (B1) (A1) (A2) (B1) (B2) (A1) (B2) (B2) (A1) (B1)
                 (A2) (A1) (B2) (A1) (B2) (A1) (B1) (B2) (A1) (B1)
                 (A1) (A2) (B1) (B1) (A1) (B2) (B2) (A2) (A1) (A1)
                 (B2) (A1) (B2) (B1) (B2) (B2) (A1) (A1) (B2) (A1)
                 (B2) (A1) (B2) (A1) (B2) (A1) (A1) (B1) (B2) (A2)
                 (B2) (A1) (B1) (B2) (A2) (B1) (B2) (A1) (B2) (B2)
                 (B1) (A1) (A2) (A1) (B1) (A1) (B2) (A1) (A2) (B1)
                 (B1) (A1) (B2) (A2) (A2) (B1) (B1) (A1) (A2) (A1)
                 (B1) (B2) (A1) (A1) (A2) (B2) (A1) (B1) (B2) (B2)
                 (A1) (A1) (A1) (A2) (B2) (A1) (B2) (A1) (B2) (B2)
                 (A1) (B2) (A1) (B1) (A1) (B2) (A2) (B2) (B2) (A1)
                 (A1) (A1) (B1) (B2) (B2) (A1) (A2) (B1) (B1) (A1)
                 (A2) (B2) (A1) (B2) (A1) (A1) (B2) (A2) (A1) (B1)
                 (B2) (B2) (A1) (B1) (A2) (B1) (B1) (A2) (B1) (A2)
                 (A1) (B2) (A1) (B1) (A1) (B2) (B2) (A1) (A1) (B2)
                 (B2) (A1) (A1) (B2) (B2) (A2) (A1) (B2) (A1) (B2)
                 (B1) (A2) (B1) (A1) (A2) (B1) (A1) (B2) (A1) (B1)
                 (B2) (A1) (B2) (A1) (B2) (A1) (B2) (A1) (A2) (A2)
                 (A1) (B1) (A2) (B1) (B1) (A2) (A1) (B2) (B1) (A1)
                 (B2) (A2) (B1) (B2) (A1) (B2) (A1) (B2) (A1) (B2)
                 (A1) (B2) (A1) (B2) (A1) (B2) (A1) (B2) (A1) (B1)
                 (A2) (B1) (A2) (B1) (A1) (A1) (B2) (B2) (A1) (B2)
                 (B2) (A1) (A1) (B2) (A1) (A1) (B2) (A1) (B2) (A1)
                 (A1) (B2) (A1) (B2) (A1) (B1) (A2) (B1) (A2) (B1)
                 (A1) (B2) (B2) (A1) (A1) (B2) (B2) (A1) (A1) (B2)
                 (A1) (B2) (A1) (B2) (A1)
 The electronic state is 1-A1.
 Alpha  occ. eigenvalues -- -482.73031-482.71965-482.71965-482.69091-482.69091
 Alpha  occ. eigenvalues --  -62.38318 -62.37251 -62.37251 -62.34386 -62.34386
 Alpha  occ. eigenvalues --  -56.20362 -56.19971 -56.19937 -56.19285 -56.19284
 Alpha  occ. eigenvalues --  -56.18912 -56.18912 -56.18875 -56.18875 -56.16391
 Alpha  occ. eigenvalues --  -56.16391 -56.16057 -56.16057 -56.16027 -56.16027
 Alpha  occ. eigenvalues --  -10.13977 -10.13553 -10.13548 -10.11484 -10.11483
 Alpha  occ. eigenvalues --  -10.02650  -8.59294  -8.58218  -8.58218  -8.55335
 Alpha  occ. eigenvalues --   -8.55334  -6.42463  -6.41351  -6.41351  -6.41160
 Alpha  occ. eigenvalues --   -6.41071  -6.40107  -6.40107  -6.40008  -6.40008
 Alpha  occ. eigenvalues --   -6.38376  -6.38376  -6.37264  -6.37264  -6.37181
 Alpha  occ. eigenvalues --   -6.37181  -2.53551  -2.53194  -2.53128  -2.52445
 Alpha  occ. eigenvalues --   -2.52444  -2.52109  -2.52108  -2.52090  -2.52090
 Alpha  occ. eigenvalues --   -2.52034  -2.52034  -2.51044  -2.51044  -2.51044
 Alpha  occ. eigenvalues --   -2.51044  -2.49481  -2.49481  -2.49185  -2.49185
 Alpha  occ. eigenvalues --   -2.49122  -2.49122  -2.48238  -2.48238  -2.48238
 Alpha  occ. eigenvalues --   -2.48237  -0.78930  -0.71806  -0.71003  -0.67237
 Alpha  occ. eigenvalues --   -0.65886  -0.64439  -0.59418  -0.58907  -0.47254
 Alpha  occ. eigenvalues --   -0.47007  -0.38006  -0.36016  -0.30542  -0.30380
 Alpha  occ. eigenvalues --   -0.29531  -0.27652  -0.23734  -0.23322  -0.22222
 Alpha  occ. eigenvalues --   -0.21335  -0.19821  -0.19018  -0.18021  -0.17329
 Alpha  occ. eigenvalues --   -0.16654  -0.15449  -0.14225  -0.12422  -0.12384
 Alpha  occ. eigenvalues --   -0.07760
 Alpha virt. eigenvalues --    0.04452   0.07361   0.08631   0.09472   0.09508
 Alpha virt. eigenvalues --    0.09943   0.10680   0.10767   0.12526   0.12969
 Alpha virt. eigenvalues --    0.13466   0.13675   0.14579   0.15108   0.15180
 Alpha virt. eigenvalues --    0.15291   0.16059   0.16466   0.16596   0.16659
 Alpha virt. eigenvalues --    0.16680   0.17468   0.18535   0.18878   0.19183
 Alpha virt. eigenvalues --    0.20437   0.21085   0.21086   0.23086   0.23948
 Alpha virt. eigenvalues --    0.25416   0.25649   0.26045   0.27589   0.27901
 Alpha virt. eigenvalues --    0.28132   0.28659   0.29648   0.30423   0.31422
 Alpha virt. eigenvalues --    0.32055   0.32677   0.32855   0.33359   0.34247
 Alpha virt. eigenvalues --    0.35026   0.35539   0.35789   0.36570   0.36825
 Alpha virt. eigenvalues --    0.37054   0.38368   0.39664   0.41279   0.42402
 Alpha virt. eigenvalues --    0.48207   0.48900   0.49274   0.50385   0.52418
 Alpha virt. eigenvalues --    0.52861   0.53309   0.53454   0.54094   0.55507
 Alpha virt. eigenvalues --    0.55629   0.58900   0.60051   0.60734   0.62639
 Alpha virt. eigenvalues --    0.63342   0.63856   0.65233   0.65686   0.66189
 Alpha virt. eigenvalues --    0.67361   0.67727   0.68202   0.69127   0.70634
 Alpha virt. eigenvalues --    0.71373   0.72170   0.72751   0.72791   0.73899
 Alpha virt. eigenvalues --    0.74725   0.75894   0.76369   0.76596   0.77770
 Alpha virt. eigenvalues --    0.78497   0.79048   0.79806   0.81838   0.82632
 Alpha virt. eigenvalues --    0.82679   0.85428   0.86344   0.86700   0.88109
 Alpha virt. eigenvalues --    0.88190   0.90017   0.90353   0.91235   0.91876
 Alpha virt. eigenvalues --    0.93552   0.93643   0.97434   0.98161   0.99164
 Alpha virt. eigenvalues --    0.99549   1.01683   1.02285   1.04694   1.07899
 Alpha virt. eigenvalues --    1.07966   1.10708   1.12022   1.17572   1.17821
 Alpha virt. eigenvalues --    1.20846   1.23867   1.26545   1.27146   1.29968
 Alpha virt. eigenvalues --    1.30928   1.36992   1.37781   1.38738   1.38908
 Alpha virt. eigenvalues --    1.41212   1.47665   1.54383   1.62871   1.63384
 Alpha virt. eigenvalues --    1.68476   1.70012   1.88582   1.89605   1.89837
 Alpha virt. eigenvalues --    1.91671   1.96016   1.97877   2.02292   2.02758
 Alpha virt. eigenvalues --    2.07439   2.08567   2.11373   2.13425   2.15551
 Alpha virt. eigenvalues --    2.15565   2.15881   2.18930   2.20661   2.22454
 Alpha virt. eigenvalues --    2.22963   2.26029   2.27709   2.29388   2.30735
 Alpha virt. eigenvalues --    2.34725   2.38004   2.42240   2.43502   2.44759
 Alpha virt. eigenvalues --    2.45730   2.47913   2.56529   2.57023   2.65607
 Alpha virt. eigenvalues --    2.74227   2.87562   2.88563   2.97901   2.99085
 Alpha virt. eigenvalues --    3.00375   3.09146   3.09200   3.14012   3.20186
 Alpha virt. eigenvalues --    3.23398   3.29437   3.32094   3.55307   3.59313
 Alpha virt. eigenvalues --    3.81600   3.99025   3.99948   4.23933   4.25066
 Alpha virt. eigenvalues --    4.25292   4.25476   4.27641   4.28087   4.29155
 Alpha virt. eigenvalues --    4.31043   4.31606   4.32296   4.32747   4.33346
 Alpha virt. eigenvalues --    4.33790   4.34875   4.38632   4.41290   4.48139
 Alpha virt. eigenvalues --    4.49872   4.52440   4.55900   4.61192   4.65353
 Alpha virt. eigenvalues --    4.67353   4.73116   4.75309   4.96006   6.73461
 Alpha virt. eigenvalues --    6.87964   6.89482   6.93401   6.94897   7.64379
 Alpha virt. eigenvalues --    7.66617   7.67789   7.69960   7.71311   7.76488
 Alpha virt. eigenvalues --    7.78481   7.78622   7.79118   7.82168   7.84422
 Alpha virt. eigenvalues --    7.85482   7.85528   7.91135   7.92220  23.32674
 Alpha virt. eigenvalues --   23.93625  23.95291  24.09401  24.14117  24.34384
 Alpha virt. eigenvalues --   48.02178  48.14171  48.15396  48.19019  48.19559
 Alpha virt. eigenvalues --  289.84107 289.86429 289.87715 289.90011 289.91383
 Alpha virt. eigenvalues --  289.97250 289.98554 289.99190 289.99938 290.02193
 Alpha virt. eigenvalues --  290.05183 290.07274 290.07488 290.12716 290.13785
 Alpha virt. eigenvalues -- 1020.803891020.953711020.969071021.011951021.02172
          Condensed to atoms (all electrons):
               1          2          3          4          5          6
     1  C    7.765610   0.960361  -2.162686  -0.417366  -2.162686   0.960361
     2  C    0.960361   6.995227  -0.092265  -1.006189  -0.883462  -0.147741
     3  C   -2.162686  -0.092265   9.891562   0.446299  -0.513422  -0.883462
     4  C   -0.417366  -1.006189   0.446299   7.519606   0.446299  -1.006189
     5  C   -2.162686  -0.883462  -0.513422   0.446299   9.891562  -0.092265
     6  C    0.960361  -0.147741  -0.883462  -1.006189  -0.092265   6.995227
     7  Br  -0.040936   0.018330  -0.146028   0.185566  -0.000228  -0.106687
     8  Br   0.077786  -0.087344  -0.117814  -0.019048   0.114181   0.063770
     9  Br   0.156069   0.122273  -0.230789   0.105024  -0.230789   0.122273
    10  Br   0.077786   0.063770   0.114181  -0.019048  -0.117814  -0.087344
    11  Br  -0.040936  -0.106687  -0.000228   0.185566  -0.146028   0.018330
               7          8          9         10         11
     1  C   -0.040936   0.077786   0.156069   0.077786  -0.040936
     2  C    0.018330  -0.087344   0.122273   0.063770  -0.106687
     3  C   -0.146028  -0.117814  -0.230789   0.114181  -0.000228
     4  C    0.185566  -0.019048   0.105024  -0.019048   0.185566
     5  C   -0.000228   0.114181  -0.230789  -0.117814  -0.146028
     6  C   -0.106687   0.063770   0.122273  -0.087344   0.018330
     7  Br  35.407419  -0.039509  -0.004618  -0.000345   0.002760
     8  Br  -0.039509  35.260654  -0.046353  -0.005990  -0.000345
     9  Br  -0.004618  -0.046353  35.229336  -0.046353  -0.004618
    10  Br  -0.000345  -0.005990  -0.046353  35.260654  -0.039509
    11  Br   0.002760  -0.000345  -0.004618  -0.039509  35.407419
 Mulliken charges:
               1
     1  C    0.826637
     2  C    0.163726
     3  C   -0.305348
     4  C   -0.420519
     5  C   -0.305348
     6  C    0.163726
     7  Br  -0.275721
     8  Br  -0.199988
     9  Br  -0.171455
    10  Br  -0.199988
    11  Br  -0.275721
 Sum of Mulliken charges =  -1.00000
 Mulliken charges with hydrogens summed into heavy atoms:
               1
     1  C    0.826637
     2  C    0.163726
     3  C   -0.305348
     4  C   -0.420519
     5  C   -0.305348
     6  C    0.163726
     7  Br  -0.275721
     8  Br  -0.199988
     9  Br  -0.171455
    10  Br  -0.199988
    11  Br  -0.275721
 APT charges:
               1
     1  C   -1.002057
     2  C    0.747521
     3  C    0.378486
     4  C    0.113429
     5  C    0.378486
     6  C    0.747522
     7  Br  -0.627253
     8  Br  -0.445484
     9  Br  -0.217913
    10  Br  -0.445484
    11  Br  -0.627253
 Sum of APT charges =  -1.00000
 APT charges with hydrogens summed into heavy atoms:
               1
     1  C   -1.002057
     2  C    0.747521
     3  C    0.378486
     4  C    0.113429
     5  C    0.378486
     6  C    0.747522
     7  Br  -0.627253
     8  Br  -0.445484
     9  Br  -0.217913
    10  Br  -0.445484
    11  Br  -0.627253
 Electronic spatial extent (au):  <R**2>=           7389.9223
 Charge=             -1.0000 electrons
 Dipole moment (field-independent basis, Debye):
    X=              0.0000    Y=             -0.0000    Z=              4.9498  Tot=              4.9498
 Quadrupole moment (field-independent basis, Debye-Ang):
   XX=           -131.8106   YY=           -159.2414   ZZ=           -155.0097
   XY=             -0.0000   XZ=             -0.0000   YZ=             -0.0000
 Traceless Quadrupole moment (field-independent basis, Debye-Ang):
   XX=             16.8766   YY=            -10.5542   ZZ=             -6.3224
   XY=             -0.0000   XZ=             -0.0000   YZ=             -0.0000
 Octapole moment (field-independent basis, Debye-Ang**2):
  XXX=              0.0000  YYY=             -0.0000  ZZZ=             82.3485  XYY=              0.0000
  XXY=             -0.0000  XXZ=             11.3674  XZZ=              0.0000  YZZ=             -0.0000
  YYZ=             43.4545  XYZ=              0.0000
 Hexadecapole moment (field-independent basis, Debye-Ang**3):
 XXXX=           -171.5619 YYYY=          -4371.7046 ZZZZ=          -2915.7483 XXXY=             -0.0000
 XXXZ=             -0.0000 YYYX=             -0.0000 YYYZ=             -0.0000 ZZZX=             -0.0000
 ZZZY=             -0.0000 XXYY=           -753.0022 XXZZ=           -511.5000 YYZZ=          -1241.3299
 XXYZ=              0.0000 YYXZ=             -0.0000 ZZXY=             -0.0000
 N-N= 2.603179768692D+03 E-N=-3.652981440397D+04  KE= 1.308305784133D+04
 Symmetry A1   KE= 6.395717703408D+03
 Symmetry A2   KE= 7.975044192160D+02
 Symmetry B1   KE= 1.089836649559D+03
 Symmetry B2   KE= 4.799999069142D+03
  Exact polarizability: 105.040   0.000 290.901  -0.000  -0.000 223.829
 Approx polarizability: 167.524   0.000 461.356   0.000   0.000 368.516
 No NMR shielding tensors so no spin-rotation constants.
 Leave Link  601 at Mon Sep 28 02:32:38 2026, MaxMem=  1610612736 cpu:               2.6 elap:               0.4
 (Enter /share/software/user/restricted/gaussian/g16.B01/l701.exe)
 ... and contract with generalized density number  0.
 Compute integral second derivatives.
 Leave Link  701 at Mon Sep 28 02:32:39 2026, MaxMem=  1610612736 cpu:               1.8 elap:               0.2
 (Enter /share/software/user/restricted/gaussian/g16.B01/l702.exe)
 L702 exits ... SP integral derivatives will be done elsewhere.
 Leave Link  702 at Mon Sep 28 02:32:39 2026, MaxMem=  1610612736 cpu:               0.2 elap:               0.0
 (Enter /share/software/user/restricted/gaussian/g16.B01/l703.exe)
 Integral derivatives from FoFJK, PRISM(SPDF).
 Compute integral second derivatives, UseDBF=F ICtDFT=           0.
 Calling FoFJK, ICntrl=    100127 FMM=F ISym2X=1 I1Cent= 0 IOpClX= 0 NMat=1 NMatS=1 NMatT=0.
 FoFJK:  IHMeth= 1 ICntrl=  100127 DoSepK=F KAlg= 0 I1Cent=           0 FoldK=F
 IRaf=         0 NMat=       1 IRICut=       1 DoRegI=T DoRafI=F ISym2E= 1 IDoP0=0 IntGTp=1.
 FoFCou: FMM=F IPFlag=           0 FMFlag=      100000 FMFlg1=         800
         NFxFlg=           0 DoJE=F BraDBF=F KetDBF=F FulRan=T
         wScrn=  0.000000 ICntrl=    100127 IOpCl=  0 I1Cent=           0 NGrid=           0
         NMat0=    1 NMatS0=      1 NMatT0=    0 NMatD0=    1 NMtDS0=    0 NMtDT0=    0
 Petite list used in FoFCou.
 Leave Link  703 at Mon Sep 28 02:33:37 2026, MaxMem=  1610612736 cpu:             463.9 elap:              58.1
 (Enter /share/software/user/restricted/gaussian/g16.B01/l716.exe)
 Dipole        = 2.60092014D-16-4.26325641D-14 1.94742038D+00
 Polarizability= 1.05039907D+02 4.76232372D-14 2.90900753D+02
                -1.74976271D-14-8.27721871D-08 2.23829482D+02
 Full mass-weighted force constant matrix:
 Low frequencies ---   -0.0095   -0.0059   -0.0053    1.0058    1.2334    1.7147
 Low frequencies ---   16.5143   41.4058  113.3917
 Diagonal vibrational polarizability:
        2.9023745      76.8968467      27.1494537
 Harmonic frequencies (cm**-1), IR intensities (KM/Mole), Raman scattering
 activities (A**4/AMU), depolarization ratios for plane and unpolarized
 incident light, reduced masses (AMU), force constants (mDyne/A),
 and normal coordinates:
                      1                      2                      3
                     A2                     B1                     B1
 Frequencies --     16.5010                41.4058               113.3915
 Red. masses --     77.4807                76.3009                14.0679
 Frc consts  --      0.0124                 0.0771                 0.1066
 IR Inten    --      0.0000                 0.0199                 1.0596
  Atom  AN      X      Y      Z        X      Y      Z        X      Y      Z
     1   6    -0.00   0.00   0.00     0.14  -0.00   0.00     0.56  -0.00   0.00
     2   6     0.06   0.00  -0.00     0.07  -0.00  -0.00     0.43  -0.00  -0.00
     3   6    -0.08   0.00  -0.00    -0.01   0.00  -0.00     0.32   0.00  -0.00
     4   6     0.00   0.00  -0.00     0.09   0.00   0.00     0.30   0.00   0.00
     5   6     0.08   0.00  -0.00    -0.01   0.00   0.00     0.32   0.00   0.00
     6   6    -0.06   0.00  -0.00     0.07  -0.00   0.00     0.43  -0.00   0.00
     7  35     0.50   0.00   0.00     0.14   0.00  -0.00    -0.11  -0.00  -0.00
     8  35    -0.49   0.00   0.00    -0.50   0.00  -0.00    -0.04  -0.00   0.00
     9  35     0.00  -0.00  -0.00     0.66   0.00   0.00    -0.05   0.00   0.00
    10  35     0.49   0.00  -0.00    -0.50  -0.00  -0.00    -0.04  -0.00  -0.00
    11  35    -0.50  -0.00   0.00     0.14   0.00   0.00    -0.11   0.00  -0.00
                      4                      5                      6
                     A1                     B2                     A1
 Frequencies --    117.6087               131.0739               138.8361
 Red. masses --     66.1531                66.5321                64.0238
 Frc consts  --      0.5391                 0.6735                 0.7271
 IR Inten    --      1.1701                 3.7060                 0.7659
  Atom  AN      X      Y      Z        X      Y      Z        X      Y      Z
     1   6     0.00  -0.00  -0.22     0.00  -0.17   0.00     0.00  -0.00  -0.14
     2   6     0.00  -0.01  -0.17    -0.00  -0.18   0.01     0.00   0.04  -0.19
     3   6     0.00  -0.02  -0.17    -0.00  -0.19  -0.02     0.00  -0.00  -0.18
     4   6     0.00   0.00  -0.17    -0.00  -0.14  -0.00     0.00   0.00  -0.25
     5   6     0.00   0.02  -0.17    -0.00  -0.19   0.02    -0.00   0.00  -0.18
     6   6     0.00   0.01  -0.17    -0.00  -0.18  -0.01    -0.00  -0.04  -0.19
     7  35    -0.00   0.43   0.39     0.00  -0.02   0.49    -0.00   0.17  -0.15
     8  35    -0.00  -0.05  -0.20     0.00  -0.08  -0.32    -0.00  -0.37   0.39
     9  35    -0.00   0.00  -0.22     0.00   0.35  -0.00     0.00  -0.00  -0.30
    10  35    -0.00   0.05  -0.20     0.00  -0.08   0.32    -0.00   0.37   0.39
    11  35    -0.00  -0.43   0.39    -0.00  -0.02  -0.49     0.00  -0.17  -0.15
                      7                      8                      9
                     B2                     A1                     B2
 Frequencies --    148.1294               180.2794               180.4706
 Red. masses --     78.7356                63.8737                69.5054
 Frc consts  --      1.0179                 1.2231                 1.3338
 IR Inten    --      0.7735                 0.0713                14.0177
  Atom  AN      X      Y      Z        X      Y      Z        X      Y      Z
     1   6    -0.00  -0.03  -0.00    -0.00  -0.00   0.36    -0.00  -0.02  -0.00
     2   6    -0.00   0.00  -0.01    -0.00   0.10   0.10    -0.00  -0.06  -0.09
     3   6    -0.00  -0.03  -0.01    -0.00   0.10   0.12    -0.00  -0.19  -0.11
     4   6    -0.00  -0.00  -0.00    -0.00  -0.00   0.09    -0.00  -0.15  -0.00
     5   6    -0.00  -0.03   0.01     0.00  -0.10   0.12    -0.00  -0.19   0.11
     6   6    -0.00   0.00   0.01     0.00  -0.10   0.10    -0.00  -0.06   0.09
     7  35     0.00  -0.13  -0.04     0.00   0.43  -0.27     0.00   0.41  -0.23
     8  35     0.00  -0.23   0.41     0.00   0.32   0.12     0.00  -0.40  -0.20
     9  35     0.00   0.73  -0.00    -0.00   0.00   0.18    -0.00   0.08  -0.00
    10  35     0.00  -0.23  -0.41     0.00  -0.32   0.12     0.00  -0.40   0.20
    11  35     0.00  -0.13   0.04     0.00  -0.43  -0.27     0.00   0.41   0.23
                     10                     11                     12
                     A1                     B1                     A2
 Frequencies --    206.4430               251.5925               335.4713
 Red. masses --     71.2662                12.3902                12.2629
 Frc consts  --      1.7895                 0.4621                 0.8131
 IR Inten    --      7.4501                 0.4950                 0.0000
  Atom  AN      X      Y      Z        X      Y      Z        X      Y      Z
     1   6     0.00   0.00  -0.04    -0.55   0.00  -0.00     0.00  -0.00  -0.00
     2   6     0.00  -0.08   0.04    -0.14   0.00   0.00     0.47  -0.00  -0.00
     3   6    -0.00  -0.11   0.06     0.39  -0.00   0.00     0.52  -0.00  -0.00
     4   6    -0.00   0.00   0.26     0.59  -0.00   0.00    -0.00  -0.00  -0.00
     5   6    -0.00   0.11   0.06     0.39   0.00  -0.00    -0.52  -0.00  -0.00
     6   6     0.00   0.08   0.04    -0.14   0.00  -0.00    -0.47  -0.00  -0.00
     7  35    -0.00   0.14  -0.13     0.02  -0.00  -0.00    -0.03   0.00  -0.00
     8  35     0.00  -0.39  -0.22    -0.04  -0.00  -0.00    -0.03   0.00   0.00
     9  35     0.00   0.00   0.64    -0.05   0.00   0.00     0.00   0.00   0.00
    10  35     0.00   0.39  -0.22    -0.04   0.00   0.00     0.03  -0.00   0.00
    11  35    -0.00  -0.14  -0.13     0.02  -0.00  -0.00     0.03   0.00  -0.00
                     13                     14                     15
                     A1                     B2                     B1
 Frequencies --    389.0850               416.8475               504.9968
 Red. masses --     15.0926                14.3745                12.0222
 Frc consts  --      1.3462                 1.4716                 1.8064
 IR Inten    --      7.4216               249.6486                 1.3050
  Atom  AN      X      Y      Z        X      Y      Z        X      Y      Z
     1   6    -0.00   0.00   0.63    -0.00   0.48  -0.00     0.48  -0.00  -0.00
     2   6     0.00   0.03   0.39     0.00   0.50   0.06    -0.33  -0.00  -0.00
     3   6     0.00   0.03   0.32    -0.00   0.28   0.06    -0.27   0.00  -0.00
     4   6     0.00  -0.00   0.21    -0.00   0.23  -0.00     0.64   0.00  -0.00
     5   6    -0.00  -0.03   0.32    -0.00   0.28  -0.06    -0.27   0.00   0.00
     6   6    -0.00  -0.03   0.39     0.00   0.50  -0.06    -0.33  -0.00   0.00
     7  35    -0.00   0.01  -0.02    -0.00  -0.07   0.01     0.01   0.00   0.00
     8  35    -0.00  -0.07  -0.07    -0.00  -0.10  -0.06     0.01  -0.00   0.00
     9  35    -0.00   0.00  -0.16     0.00  -0.01   0.00    -0.01  -0.00   0.00
    10  35     0.00   0.07  -0.07     0.00  -0.10   0.06     0.01  -0.00  -0.00
    11  35     0.00  -0.01  -0.02    -0.00  -0.07  -0.01     0.01   0.00  -0.00
                     16                     17                     18
                     B2                     A2                     B1
 Frequencies --    512.1401               570.4865               602.8984
 Red. masses --     12.3648                12.0331                12.0044
 Frc consts  --      1.9108                 2.3074                 2.5709
 IR Inten    --     18.3980                 0.0000                 0.3149
  Atom  AN      X      Y      Z        X      Y      Z        X      Y      Z
     1   6    -0.00  -0.29   0.00    -0.00   0.00   0.00    -0.39  -0.00  -0.00
     2   6     0.00  -0.06  -0.38     0.52   0.00   0.00     0.43   0.00  -0.00
     3   6     0.00   0.26  -0.36    -0.47   0.00   0.00    -0.41  -0.00  -0.00
     4   6    -0.00   0.47   0.00     0.00  -0.00  -0.00     0.38  -0.00  -0.00
     5   6     0.00   0.26   0.36     0.47   0.00  -0.00    -0.41  -0.00   0.00
     6   6     0.00  -0.06   0.38    -0.52  -0.00  -0.00     0.43   0.00   0.00
     7  35    -0.00   0.00   0.03    -0.01  -0.00  -0.00    -0.00   0.00   0.00
     8  35    -0.00  -0.03   0.02     0.01  -0.00  -0.00     0.00   0.00   0.00
     9  35     0.00  -0.03  -0.00     0.00   0.00   0.00    -0.00  -0.00   0.00
    10  35    -0.00  -0.03  -0.02    -0.01   0.00   0.00     0.00   0.00  -0.00
    11  35    -0.00   0.00  -0.03     0.01   0.00   0.00    -0.00   0.00  -0.00
                     19                     20                     21
                     A1                     B2                     A1
 Frequencies --    655.1061               663.5451               894.5246
 Red. masses --     12.4057                12.1740                12.0480
 Frc consts  --      3.1369                 3.1581                 5.6800
 IR Inten    --    185.4574                10.2364               103.1302
  Atom  AN      X      Y      Z        X      Y      Z        X      Y      Z
     1   6     0.00   0.00   0.61    -0.00  -0.12   0.00     0.00  -0.00   0.27
     2   6    -0.00   0.33  -0.14     0.00  -0.34   0.30    -0.00   0.16  -0.18
     3   6     0.00   0.17  -0.23    -0.00   0.39   0.28     0.00  -0.49  -0.20
     4   6    -0.00  -0.00  -0.46     0.00   0.31  -0.00    -0.00   0.00   0.50
     5   6    -0.00  -0.17  -0.23    -0.00   0.39  -0.28    -0.00   0.49  -0.20
     6   6     0.00  -0.33  -0.14     0.00  -0.34  -0.30     0.00  -0.16  -0.18
     7  35    -0.00  -0.02   0.02     0.00   0.01  -0.01    -0.00  -0.00   0.00
     8  35    -0.00  -0.01  -0.01     0.00  -0.03  -0.01    -0.00   0.01   0.01
     9  35     0.00  -0.00   0.06     0.00   0.00   0.00    -0.00  -0.00  -0.02
    10  35     0.00   0.01  -0.01     0.00  -0.03   0.01     0.00  -0.01   0.01
    11  35    -0.00   0.02   0.02    -0.00   0.01   0.01    -0.00   0.00   0.00
                     22                     23                     24
                     A1                     A1                     B2
 Frequencies --   1073.9346              1248.7377              1249.2014
 Red. masses --     12.0534                12.0188                12.0069
 Frc consts  --      8.1906                11.0421                11.0394
 IR Inten    --      4.5624               144.2754               646.0644
  Atom  AN      X      Y      Z        X      Y      Z        X      Y      Z
     1   6    -0.00  -0.00  -0.29    -0.00  -0.00   0.29    -0.00  -0.32  -0.00
     2   6     0.00   0.50  -0.15    -0.00  -0.33  -0.26     0.00   0.12  -0.41
     3   6    -0.00   0.26   0.21     0.00   0.38  -0.15    -0.00   0.13   0.47
     4   6    -0.00  -0.00   0.40    -0.00  -0.00   0.49     0.00  -0.24  -0.00
     5   6     0.00  -0.26   0.21    -0.00  -0.38  -0.15    -0.00   0.13  -0.47
     6   6    -0.00  -0.50  -0.15     0.00   0.33  -0.26     0.00   0.12   0.41
     7  35    -0.00  -0.00   0.00    -0.00  -0.00   0.01     0.00   0.00   0.00
     8  35     0.00  -0.01  -0.01    -0.00  -0.00   0.00     0.00  -0.00  -0.00
     9  35    -0.00  -0.00  -0.02    -0.00   0.00  -0.01     0.00   0.00   0.00
    10  35    -0.00   0.01  -0.01     0.00   0.00   0.00     0.00  -0.00   0.00
    11  35    -0.00   0.00   0.00     0.00   0.00   0.01     0.00   0.00  -0.00
                     25                     26                     27
                     B2                     A1                     B2
 Frequencies --   1304.0256              1484.0489              1554.1043
 Red. masses --     12.0016                12.0015                12.0096
 Frc consts  --     12.0243                15.5733                17.0898
 IR Inten    --    153.1965                 2.2004               342.6120
  Atom  AN      X      Y      Z        X      Y      Z        X      Y      Z
     1   6     0.00   0.33   0.00     0.00   0.00   0.17    -0.00   0.68  -0.00
     2   6     0.00  -0.12  -0.19     0.00  -0.11  -0.45     0.00  -0.32  -0.25
     3   6    -0.00  -0.35   0.24    -0.00  -0.14   0.47    -0.00   0.20  -0.05
     4   6    -0.00   0.65   0.00     0.00  -0.00  -0.24    -0.00  -0.36   0.00
     5   6    -0.00  -0.35  -0.24     0.00   0.14   0.47    -0.00   0.20   0.05
     6   6     0.00  -0.12   0.19    -0.00   0.11  -0.45    -0.00  -0.32   0.25
     7  35    -0.00  -0.00  -0.00     0.00  -0.00   0.00     0.00  -0.01   0.00
     8  35     0.00   0.00   0.00    -0.00   0.00  -0.00     0.00   0.00   0.00
     9  35     0.00  -0.00  -0.00    -0.00   0.00   0.00     0.00   0.00  -0.00
    10  35     0.00   0.00  -0.00    -0.00  -0.00  -0.00     0.00   0.00  -0.00
    11  35    -0.00  -0.00   0.00    -0.00   0.00   0.00     0.00  -0.01  -0.00

 -------------------
 - Thermochemistry -
 -------------------
 Temperature   298.150 Kelvin.  Pressure   1.00000 Atm.
 Atom     1 has atomic number  6 and mass  12.00000
 Atom     2 has atomic number  6 and mass  12.00000
 Atom     3 has atomic number  6 and mass  12.00000
 Atom     4 has atomic number  6 and mass  12.00000
 Atom     5 has atomic number  6 and mass  12.00000
 Atom     6 has atomic number  6 and mass  12.00000
 Atom     7 has atomic number 35 and mass  78.91834
 Atom     8 has atomic number 35 and mass  78.91834
 Atom     9 has atomic number 35 and mass  78.91834
 Atom    10 has atomic number 35 and mass  78.91834
 Atom    11 has atomic number 35 and mass  78.91834
 Molecular mass:   466.59168 amu.
 Principal axes and moments of inertia in atomic units:
                           1         2         3
     Eigenvalues --  6138.376089704.57460**********
           X           -0.00000   0.00000   1.00000
           Y            1.00000   0.00000   0.00000
           Z           -0.00000   1.00000  -0.00000
 This molecule is an asymmetric top.
 Rotational symmetry number  2.
 Warning -- assumption of classical behavior for rotation
           may cause significant error
 Rotational temperatures (Kelvin)      0.01411     0.00893     0.00547
 Rotational constants (GHZ):           0.29401     0.18597     0.11391
 Zero-point vibrational energy      89629.5 (Joules/Mol)
                                   21.42197 (Kcal/Mol)
 Warning -- explicit consideration of  18 degrees of freedom as
           vibrations may cause significant error
 Vibrational temperatures:     23.74    59.57   163.15   169.21   188.59
          (Kelvin)            199.75   213.13   259.38   259.66   297.03
                              361.99   482.67   559.81   599.75   726.58
                              736.86   820.80   867.44   942.55   954.69
                             1287.02  1545.15  1796.65  1797.32  1876.20
                             2135.22  2236.01
 
 Zero-point correction=                           0.034138 (Hartree/Particle)
 Thermal correction to Energy=                    0.046500
 Thermal correction to Enthalpy=                  0.047444
 Thermal correction to Gibbs Free Energy=        -0.009564
 Sum of electronic and zero-point Energies=         -13099.384298
 Sum of electronic and thermal Energies=            -13099.371936
 Sum of electronic and thermal Enthalpies=          -13099.370992
 Sum of electronic and thermal Free Energies=       -13099.428000
 
                     E (Thermal)             CV                S
                      KCal/Mol        Cal/Mol-Kelvin    Cal/Mol-Kelvin
 Total                   29.179             39.247            119.984
 Electronic               0.000              0.000              0.000
 Translational            0.889              2.981             44.309
 Rotational               0.889              2.981             33.822
 Vibrational             27.402             33.285             41.853
 Vibration     1          0.593              1.986              7.016
 Vibration     2          0.594              1.981              5.191
 Vibration     3          0.607              1.938              3.210
 Vibration     4          0.608              1.935              3.139
 Vibration     5          0.612              1.922              2.930
 Vibration     6          0.614              1.915              2.820
 Vibration     7          0.618              1.905              2.696
 Vibration     8          0.629              1.866              2.326
 Vibration     9          0.629              1.866              2.324
 Vibration    10          0.641              1.831              2.075
 Vibration    11          0.664              1.760              1.719
 Vibration    12          0.717              1.605              1.234
 Vibration    13          0.757              1.494              1.004
 Vibration    14          0.780              1.434              0.903
 Vibration    15          0.860              1.239              0.646
 Vibration    16          0.867              1.223              0.628
 Vibration    17          0.927              1.095              0.503
 Vibration    18          0.961              1.026              0.445
                       Q            Log10(Q)             Ln(Q)
 Total Bot       0.250730D+05          4.399206         10.129545
 Total V=0       0.126363D+21         20.101619         46.285689
 Vib (Bot)       0.115106D-10        -10.938902        -25.187753
 Vib (Bot)    1  0.125550D+02          1.098817          2.530120
 Vib (Bot)    2  0.499641D+01          0.698658          1.608720
 Vib (Bot)    3  0.180491D+01          0.256456          0.590512
 Vib (Bot)    4  0.173856D+01          0.240189          0.553055
 Vib (Bot)    5  0.155492D+01          0.191709          0.441427
 Vib (Bot)    6  0.146503D+01          0.165847          0.381876
 Vib (Bot)    7  0.136960D+01          0.136593          0.314516
 Vib (Bot)    8  0.111400D+01          0.046885          0.107957
 Vib (Bot)    9  0.111275D+01          0.046396          0.106831
 Vib (Bot)   10  0.963448D+00         -0.016172         -0.037237
 Vib (Bot)   11  0.775158D+00         -0.110610         -0.254689
 Vib (Bot)   12  0.555081D+00         -0.255644         -0.588641
 Vib (Bot)   13  0.461720D+00         -0.335621         -0.772797
 Vib (Bot)   14  0.422244D+00         -0.374437         -0.862173
 Vib (Bot)   15  0.324007D+00         -0.489446         -1.126990
 Vib (Bot)   16  0.317440D+00         -0.498338         -1.147466
 Vib (Bot)   17  0.269649D+00         -0.569201         -1.310634
 Vib (Bot)   18  0.246931D+00         -0.607425         -1.398647
 Vib (V=0)       0.580111D+05          4.763511         10.968390
 Vib (V=0)    1  0.130650D+02          1.116108          2.569934
 Vib (V=0)    2  0.552137D+01          0.742046          1.708625
 Vib (V=0)    3  0.237289D+01          0.375277          0.864108
 Vib (V=0)    4  0.230903D+01          0.363429          0.836826
 Vib (V=0)    5  0.213334D+01          0.329060          0.757688
 Vib (V=0)    6  0.204800D+01          0.311331          0.716865
 Vib (V=0)    7  0.195801D+01          0.291815          0.671929
 Vib (V=0)    8  0.172106D+01          0.235797          0.542942
 Vib (V=0)    9  0.171992D+01          0.235508          0.542277
 Vib (V=0)   10  0.158546D+01          0.200156          0.460877
 Vib (V=0)   11  0.142243D+01          0.153030          0.352364
 Vib (V=0)   12  0.124707D+01          0.095891          0.220797
 Vib (V=0)   13  0.118058D+01          0.072094          0.166004
 Vib (V=0)   14  0.115444D+01          0.062371          0.143614
 Vib (V=0)   15  0.109580D+01          0.039732          0.091487
 Vib (V=0)   16  0.109226D+01          0.038325          0.088246
 Vib (V=0)   17  0.106808D+01          0.028602          0.065859
 Vib (V=0)   18  0.105765D+01          0.024342          0.056051
 Electronic      0.100000D+01          0.000000          0.000000
 Translational   0.396150D+09          8.597859         19.797303
 Rotational      0.549856D+07          6.740249         15.519996
 
                                                      BrPh_23456_anion b3lyp_gas
                                                             IR Spectrum
 
     1     1              1  11              1                                                                                       
     5     4              3  22              0             8                  66   6  5   55      4  3   3      2   21111111         
     5     8              0  44              7             9                  65   0  7   10      1  8   3      5   08843311     4 1 
     4     4              4  99              4             5                  45   3  0   25      7  9   5      2   60089183     1 7 
 
     X     X              X  XX              X             X                  XX   X      XX      X  X          X   XXXXXXXX         
     X                    X  XX                            X                   X                  X                                  
     X                    X  XX                            X                   X                  X                                  
     X                    X  XX                                                X                  X                                  
     X                    X  X                                                 X                  X                                  
     X                       X                                                 X                  X                                  
     X                       X                                                                    X                                  
     X                       X                                                                    X                                  
     X                       X                                                                                                       
     X                       X                                                                                                       
     X                       X                                                                                                       
                             X                                                                                                       
                             X                                                                                                       
                             X                                                                                                       
                             X                                                                                                       
                             X                                                                                                       
                             X                                                                                                       
                             X                                                                                                       
                             X                                                                                                       
                             X                                                                                                       
 
 ***** Axes restored to original set *****
 -------------------------------------------------------------------
 Center     Atomic                   Forces (Hartrees/Bohr)
 Number     Number              X              Y              Z
 -------------------------------------------------------------------
      1        6          -0.000000000    0.000013312    0.000000000
      2        6           0.000000664    0.000119125   -0.000000000
      3        6           0.000115920   -0.000171482   -0.000000000
      4        6           0.000000000    0.000307348    0.000000000
      5        6          -0.000115920   -0.000171482    0.000000000
      6        6          -0.000000664    0.000119125    0.000000000
      7       35          -0.000073199   -0.000083340   -0.000000000
      8       35           0.000011823    0.000049439   -0.000000000
      9       35          -0.000000000   -0.000148146    0.000000000
     10       35          -0.000011823    0.000049439   -0.000000000
     11       35           0.000073199   -0.000083340   -0.000000000
 -------------------------------------------------------------------
 Cartesian Forces:  Max     0.000307348 RMS     0.000088836
 Force constants in Cartesian coordinates: 
                1             2             3             4             5 
      1  0.685749D+00
      2  0.000000D+00  0.249814D+00
      3  0.000000D+00  0.000000D+00  0.619090D-01
      4 -0.270210D+00  0.106597D+00  0.000000D+00  0.421871D+00
      5  0.134092D+00 -0.128187D+00  0.000000D+00 -0.108612D+00  0.531953D+00
      6  0.000000D+00  0.000000D+00 -0.423524D-01  0.000000D+00  0.000000D+00
      7  0.182049D-01  0.134975D-01  0.000000D+00 -0.657488D-01  0.279957D-01
      8  0.729763D-01 -0.124774D-01  0.000000D+00 -0.287964D-01 -0.300591D+00
      9  0.000000D+00  0.000000D+00  0.673355D-02  0.000000D+00  0.000000D+00
     10 -0.620413D-01  0.000000D+00  0.000000D+00  0.266093D-01 -0.737280D-01
     11  0.000000D+00  0.242678D-02  0.000000D+00 -0.182971D-01 -0.311349D-01
     12  0.000000D+00  0.000000D+00  0.235059D-02  0.000000D+00  0.000000D+00
     13  0.182049D-01 -0.134975D-01  0.000000D+00 -0.205408D-01  0.277705D-01
     14 -0.729763D-01 -0.124774D-01  0.000000D+00  0.115528D-01 -0.507528D-01
     15  0.000000D+00  0.000000D+00  0.673356D-02  0.000000D+00  0.000000D+00
     16 -0.270210D+00 -0.106597D+00  0.000000D+00 -0.721065D-01  0.222340D-03
     17 -0.134092D+00 -0.128187D+00  0.000000D+00 -0.222340D-03  0.355126D-01
     18  0.000000D+00  0.000000D+00 -0.423524D-01  0.000000D+00  0.000000D+00
     19 -0.622322D-01  0.169561D-01  0.000000D+00 -0.592777D-02 -0.270738D-01
     20 -0.140126D-01  0.204140D-01  0.000000D+00  0.576309D-02 -0.416387D-01
     21  0.000000D+00  0.000000D+00 -0.131046D-03  0.000000D+00  0.000000D+00
     22  0.214986D-02  0.794278D-02  0.000000D+00 -0.249366D-01  0.720579D-02
     23 -0.400181D-03 -0.583156D-02  0.000000D+00  0.323605D-01 -0.108107D-01
     24  0.000000D+00  0.000000D+00  0.321182D-02  0.000000D+00  0.000000D+00
     25  0.467635D-03  0.000000D+00  0.000000D+00 -0.269437D-02 -0.641371D-03
     26  0.000000D+00 -0.764547D-04  0.000000D+00 -0.530264D-03 -0.167093D-02
     27  0.000000D+00  0.000000D+00  0.816505D-03  0.000000D+00  0.000000D+00
     28  0.214986D-02 -0.794278D-02  0.000000D+00  0.677761D-02  0.244078D-02
     29  0.400181D-03 -0.583156D-02  0.000000D+00  0.611190D-02  0.703387D-03
     30  0.000000D+00  0.000000D+00  0.321182D-02  0.000000D+00  0.000000D+00
     31 -0.622322D-01 -0.169561D-01  0.000000D+00  0.690688D-02  0.103288D-01
     32  0.140126D-01  0.204140D-01  0.000000D+00 -0.592721D-02 -0.338280D-02
     33  0.000000D+00  0.000000D+00 -0.131046D-03  0.000000D+00  0.000000D+00
                6             7             8             9            10 
      6  0.954547D-01
      7  0.000000D+00  0.440654D+00
      8  0.000000D+00  0.706220D-01  0.529274D+00
      9 -0.437145D-01  0.000000D+00  0.000000D+00  0.877085D-01
     10  0.000000D+00 -0.233507D+00 -0.612388D-01  0.000000D+00  0.558846D+00
     11  0.000000D+00 -0.113008D+00 -0.131247D+00  0.000000D+00  0.000000D+00
     12  0.835876D-03  0.000000D+00  0.000000D+00 -0.390130D-01  0.000000D+00
     13  0.000000D+00 -0.551807D-01 -0.269484D-01  0.000000D+00 -0.233507D+00
     14  0.000000D+00  0.269484D-01  0.537693D-01  0.000000D+00  0.612388D-01
     15  0.479441D-02  0.000000D+00  0.000000D+00 -0.598911D-02  0.000000D+00
     16  0.000000D+00 -0.205408D-01 -0.115528D-01  0.000000D+00  0.266093D-01
     17  0.000000D+00 -0.277705D-01 -0.507528D-01  0.000000D+00  0.737280D-01
     18 -0.797813D-02  0.000000D+00  0.000000D+00  0.479441D-02  0.000000D+00
     19  0.000000D+00 -0.162151D-01 -0.123260D-01  0.000000D+00  0.115942D-02
     20  0.000000D+00 -0.236065D-01 -0.185598D-01  0.000000D+00  0.178403D-02
     21 -0.159921D-01  0.000000D+00  0.000000D+00  0.934923D-03  0.000000D+00
     22  0.000000D+00 -0.685278D-01  0.190089D-01  0.000000D+00 -0.281279D-01
     23  0.000000D+00  0.223511D-01 -0.395142D-01  0.000000D+00 -0.302173D-04
     24  0.644679D-03  0.000000D+00  0.000000D+00 -0.162387D-01  0.000000D+00
     25  0.000000D+00  0.120967D-03 -0.169637D-01  0.000000D+00 -0.290714D-01
     26  0.000000D+00  0.194662D-02 -0.288525D-01  0.000000D+00  0.000000D+00
     27  0.227791D-02  0.000000D+00  0.000000D+00  0.244276D-03  0.000000D+00
     28  0.000000D+00 -0.441807D-03  0.520286D-04  0.000000D+00 -0.281279D-01
     29  0.000000D+00  0.123855D-02 -0.245814D-02  0.000000D+00  0.302170D-04
     30  0.751305D-03  0.000000D+00  0.000000D+00  0.459216D-02  0.000000D+00
     31  0.000000D+00  0.118275D-02 -0.483308D-02  0.000000D+00  0.115942D-02
     32  0.000000D+00 -0.214584D-03  0.141015D-02  0.000000D+00 -0.178403D-02
     33  0.527815D-02  0.000000D+00  0.000000D+00 -0.526128D-04  0.000000D+00
               11            12            13            14            15 
     11  0.440489D+00
     12  0.000000D+00  0.819558D-01
     13  0.113008D+00  0.000000D+00  0.440654D+00
     14 -0.131247D+00  0.000000D+00 -0.706220D-01  0.529274D+00
     15  0.000000D+00 -0.390130D-01  0.000000D+00  0.000000D+00  0.877085D-01
     16  0.182971D-01  0.000000D+00 -0.657488D-01  0.287964D-01  0.000000D+00
     17 -0.311349D-01  0.000000D+00 -0.279957D-01 -0.300591D+00  0.000000D+00
     18  0.000000D+00  0.835878D-03  0.000000D+00  0.000000D+00 -0.437145D-01
     19  0.156849D-04  0.000000D+00  0.118275D-02  0.483308D-02  0.000000D+00
     20 -0.195597D-02  0.000000D+00  0.214584D-03  0.141015D-02  0.000000D+00
     21  0.000000D+00  0.291687D-02  0.000000D+00  0.000000D+00 -0.526128D-04
     22  0.145381D-01  0.000000D+00 -0.441807D-03 -0.520286D-04  0.000000D+00
     23  0.617855D-03  0.000000D+00 -0.123855D-02 -0.245814D-02  0.000000D+00
     24  0.000000D+00 -0.126826D-05  0.000000D+00  0.000000D+00  0.459216D-02
     25  0.000000D+00  0.000000D+00  0.120966D-03  0.169637D-01  0.000000D+00
     26 -0.115475D+00  0.000000D+00 -0.194662D-02 -0.288525D-01  0.000000D+00
     27  0.000000D+00 -0.137834D-01  0.000000D+00  0.000000D+00  0.244276D-03
     28 -0.145381D-01  0.000000D+00 -0.685278D-01 -0.190089D-01  0.000000D+00
     29  0.617855D-03  0.000000D+00 -0.223511D-01 -0.395142D-01  0.000000D+00
     30  0.000000D+00 -0.126823D-05  0.000000D+00  0.000000D+00 -0.162387D-01
     31 -0.156849D-04  0.000000D+00 -0.162151D-01  0.123260D-01  0.000000D+00
     32 -0.195596D-02  0.000000D+00  0.236065D-01 -0.185598D-01  0.000000D+00
     33  0.000000D+00  0.291688D-02  0.000000D+00  0.000000D+00  0.934923D-03
               16            17            18            19            20 
     16  0.421871D+00
     17  0.108612D+00  0.531953D+00
     18  0.000000D+00  0.000000D+00  0.954547D-01
     19  0.690688D-02 -0.103288D-01  0.000000D+00  0.785000D-01
     20  0.592721D-02 -0.338280D-02  0.000000D+00  0.303155D-01  0.546868D-01
     21  0.000000D+00  0.000000D+00  0.527815D-02  0.000000D+00  0.000000D+00
     22  0.677761D-02 -0.244078D-02  0.000000D+00  0.317730D-02 -0.265951D-02
     23 -0.611190D-02  0.703387D-03  0.000000D+00  0.104923D-02 -0.964878D-02
     24  0.000000D+00  0.000000D+00  0.751305D-03  0.000000D+00  0.000000D+00
     25 -0.269437D-02  0.641371D-03  0.000000D+00  0.202058D-03 -0.661112D-03
     26  0.530264D-03 -0.167093D-02  0.000000D+00 -0.976806D-03 -0.822785D-03
     27  0.000000D+00  0.000000D+00  0.227791D-02  0.000000D+00  0.000000D+00
     28 -0.249366D-01 -0.720579D-02  0.000000D+00 -0.452286D-02 -0.173469D-02
     29 -0.323605D-01 -0.108107D-01  0.000000D+00 -0.379405D-02 -0.122669D-02
     30  0.000000D+00  0.000000D+00  0.644679D-03  0.000000D+00  0.000000D+00
     31 -0.592777D-02  0.270738D-01  0.000000D+00 -0.223043D-02 -0.132990D-02
     32 -0.576309D-02 -0.416387D-01  0.000000D+00  0.132990D-02  0.724612D-03
     33  0.000000D+00  0.000000D+00 -0.159921D-01  0.000000D+00  0.000000D+00
               21            22            23            24            25 
     21  0.657754D-02
     22  0.000000D+00  0.123432D+00
     23  0.000000D+00 -0.424750D-01  0.685253D-01
     24  0.969126D-03  0.000000D+00  0.000000D+00  0.674007D-02
     25  0.000000D+00 -0.853296D-02 -0.932896D-02  0.000000D+00  0.504124D-01
     26  0.000000D+00 -0.277298D-02 -0.128105D-02  0.000000D+00  0.000000D+00
     27  0.173425D-03  0.000000D+00  0.000000D+00  0.405727D-03  0.000000D+00
     28  0.000000D+00 -0.446856D-03  0.299580D-04  0.000000D+00 -0.853296D-02
     29  0.000000D+00 -0.299580D-04  0.924601D-03  0.000000D+00  0.932896D-02
     30 -0.129334D-02  0.000000D+00  0.000000D+00  0.218419D-03  0.000000D+00
     31  0.000000D+00 -0.452286D-02  0.379405D-02  0.000000D+00  0.202058D-03
     32  0.000000D+00  0.173469D-02 -0.122669D-02  0.000000D+00  0.661112D-03
     33  0.619023D-03  0.000000D+00  0.000000D+00 -0.129334D-02  0.000000D+00
               26            27            28            29            30 
     26  0.180806D+00
     27  0.000000D+00  0.676420D-02
     28  0.277298D-02  0.000000D+00  0.123432D+00
     29 -0.128105D-02  0.000000D+00  0.424750D-01  0.685253D-01
     30  0.000000D+00  0.405727D-03  0.000000D+00  0.000000D+00  0.674007D-02
     31  0.976805D-03  0.000000D+00  0.317730D-02 -0.104923D-02  0.000000D+00
     32 -0.822785D-03  0.000000D+00  0.265951D-02 -0.964878D-02  0.000000D+00
     33  0.000000D+00  0.173425D-03  0.000000D+00  0.000000D+00  0.969126D-03
               31            32            33 
     31  0.785000D-01
     32 -0.303155D-01  0.546868D-01
     33  0.000000D+00  0.000000D+00  0.657754D-02
 FormGI is forming the generalized inverse of G from B-inverse, IUseBI=4.
 Leave Link  716 at Mon Sep 28 02:33:37 2026, MaxMem=  1610612736 cpu:               0.4 elap:               0.1
 (Enter /share/software/user/restricted/gaussian/g16.B01/l103.exe)

 GradGradGradGradGradGradGradGradGradGradGradGradGradGradGradGradGradGrad
 Berny optimization.
 Red2BG is reusing G-inverse.
 Internal  Forces:  Max     0.000148146 RMS     0.000051397
 Search for a local minimum.
 Step number   1 out of a maximum of    2
 All quantities printed in internal units (Hartrees-Bohrs-Radians)
 Second derivative matrix not updated -- analytic derivatives used.
 ITU=  0
     Eigenvalues ---    0.00265   0.01087   0.01740   0.02112   0.02586
     Eigenvalues ---    0.02904   0.03887   0.03934   0.06498   0.07837
     Eigenvalues ---    0.10584   0.11534   0.12413   0.15882   0.16304
     Eigenvalues ---    0.19331   0.21653   0.22452   0.22734   0.27088
     Eigenvalues ---    0.30737   0.43950   0.45157   0.47626   0.48912
     Eigenvalues ---    0.50737   0.52450
 Angle between quadratic step and forces=  25.85 degrees.
 Linear search not attempted -- first point.
 Iteration  1 RMS(Cart)=  0.00032090 RMS(Int)=  0.00000004
 Iteration  2 RMS(Cart)=  0.00000007 RMS(Int)=  0.00000001
 ITry= 1 IFail=0 DXMaxC= 9.81D-04 DCOld= 1.00D+10 DXMaxT= 3.00D-01 DXLimC= 3.00D+00 Rises=F
 ClnCor:  largest displacement from symmetrization is 3.01D-10 for atom     9.
 Variable       Old X    -DE/DX   Delta X   Delta X   Delta X     New X
                                 (Linear)    (Quad)   (Total)
    R1        2.55979  -0.00001   0.00000   0.00010   0.00010   2.55988
    R2        2.55979  -0.00001   0.00000   0.00010   0.00010   2.55988
    R3        2.63486   0.00004   0.00000   0.00029   0.00029   2.63516
    R4        3.80036  -0.00011   0.00000  -0.00098  -0.00098   3.79938
    R5        2.66170   0.00002   0.00000  -0.00009  -0.00009   2.66162
    R6        3.67334  -0.00001   0.00000  -0.00033  -0.00033   3.67301
    R7        2.66170   0.00002   0.00000  -0.00009  -0.00009   2.66162
    R8        3.62781   0.00015   0.00000   0.00110   0.00110   3.62891
    R9        2.63486   0.00004   0.00000   0.00029   0.00029   2.63516
   R10        3.67334  -0.00001   0.00000  -0.00033  -0.00033   3.67301
   R11        3.80036  -0.00011   0.00000  -0.00098  -0.00098   3.79938
    A1        2.08063  -0.00003   0.00000  -0.00019  -0.00019   2.08044
    A2        2.13815   0.00005   0.00000   0.00025   0.00025   2.13840
    A3        2.06840   0.00004   0.00000   0.00009   0.00009   2.06849
    A4        2.07664  -0.00009   0.00000  -0.00034  -0.00034   2.07630
    A5        2.05751  -0.00006   0.00000  -0.00048  -0.00048   2.05704
    A6        2.13129  -0.00006   0.00000  -0.00005  -0.00005   2.13124
    A7        2.09438   0.00012   0.00000   0.00053   0.00053   2.09491
    A8        2.09441   0.00006   0.00000   0.00066   0.00066   2.09507
    A9        2.09439  -0.00003   0.00000  -0.00033  -0.00033   2.09406
   A10        2.09439  -0.00003   0.00000  -0.00033  -0.00033   2.09406
   A11        2.05751  -0.00006   0.00000  -0.00048  -0.00048   2.05704
   A12        2.09438   0.00012   0.00000   0.00053   0.00053   2.09491
   A13        2.13129  -0.00006   0.00000  -0.00005  -0.00005   2.13124
   A14        2.13815   0.00005   0.00000   0.00025   0.00025   2.13840
   A15        2.06840   0.00004   0.00000   0.00009   0.00009   2.06849
   A16        2.07664  -0.00009   0.00000  -0.00034  -0.00034   2.07630
    D1        0.00000  -0.00000   0.00000  -0.00000   0.00000   0.00000
    D2        3.14159  -0.00000   0.00000  -0.00000   0.00000   3.14159
    D3       -0.00000   0.00000   0.00000   0.00000   0.00000   0.00000
    D4        3.14159   0.00000   0.00000   0.00000   0.00000   3.14159
    D5        0.00000  -0.00000   0.00000   0.00000   0.00000   0.00000
    D6        3.14159  -0.00000   0.00000  -0.00000   0.00000   3.14159
    D7        3.14159   0.00000   0.00000   0.00000   0.00000   3.14159
    D8       -0.00000  -0.00000   0.00000   0.00000   0.00000   0.00000
    D9       -0.00000   0.00000   0.00000   0.00000   0.00000   0.00000
   D10        3.14159  -0.00000   0.00000   0.00000   0.00000   3.14159
   D11        3.14159   0.00000   0.00000   0.00000   0.00000   3.14159
   D12        0.00000   0.00000   0.00000   0.00000   0.00000   0.00000
   D13        0.00000  -0.00000   0.00000  -0.00000   0.00000   0.00000
   D14        3.14159  -0.00000   0.00000  -0.00000   0.00000   3.14159
   D15        3.14159   0.00000   0.00000  -0.00000   0.00000   3.14159
   D16       -0.00000  -0.00000   0.00000  -0.00000   0.00000   0.00000
   D17        0.00000   0.00000   0.00000   0.00000   0.00000   0.00000
   D18        3.14159  -0.00000   0.00000  -0.00000   0.00000   3.14159
   D19        3.14159   0.00000   0.00000   0.00000   0.00000   3.14159
   D20       -0.00000   0.00000   0.00000   0.00000   0.00000   0.00000
         Item               Value     Threshold  Converged?
 Maximum Force            0.000148     0.000450     YES
 RMS     Force            0.000051     0.000300     YES
 Maximum Displacement     0.000981     0.001800     YES
 RMS     Displacement     0.000321     0.001200     YES
 Predicted change in Energy=-3.759441D-07
 Optimization completed.
    -- Stationary point found.
                           ----------------------------
                           !   Optimized Parameters   !
                           ! (Angstroms and Degrees)  !
 --------------------------                            --------------------------
 ! Name  Definition              Value          Derivative Info.                !
 --------------------------------------------------------------------------------
 ! R1    R(1,2)                  1.3546         -DE/DX =    0.0                 !
 ! R2    R(1,6)                  1.3546         -DE/DX =    0.0                 !
 ! R3    R(2,3)                  1.3943         -DE/DX =    0.0                 !
 ! R4    R(2,7)                  2.0111         -DE/DX =   -0.0001              !
 ! R5    R(3,4)                  1.4085         -DE/DX =    0.0                 !
 ! R6    R(3,8)                  1.9438         -DE/DX =    0.0                 !
 ! R7    R(4,5)                  1.4085         -DE/DX =    0.0                 !
 ! R8    R(4,9)                  1.9198         -DE/DX =    0.0001              !
 ! R9    R(5,6)                  1.3943         -DE/DX =    0.0                 !
 ! R10   R(5,10)                 1.9438         -DE/DX =    0.0                 !
 ! R11   R(6,11)                 2.0111         -DE/DX =   -0.0001              !
 ! A1    A(2,1,6)              119.2113         -DE/DX =    0.0                 !
 ! A2    A(1,2,3)              122.5071         -DE/DX =    0.0                 !
 ! A3    A(1,2,7)              118.5104         -DE/DX =    0.0                 !
 ! A4    A(3,2,7)              118.9826         -DE/DX =   -0.0001              !
 ! A5    A(2,3,4)              117.8869         -DE/DX =   -0.0001              !
 ! A6    A(2,3,8)              122.1138         -DE/DX =   -0.0001              !
 ! A7    A(4,3,8)              119.9993         -DE/DX =    0.0001              !
 ! A8    A(3,4,5)              120.0008         -DE/DX =    0.0001              !
 ! A9    A(3,4,9)              119.9996         -DE/DX =    0.0                 !
 ! A10   A(5,4,9)              119.9996         -DE/DX =    0.0                 !
 ! A11   A(4,5,6)              117.8869         -DE/DX =   -0.0001              !
 ! A12   A(4,5,10)             119.9993         -DE/DX =    0.0001              !
 ! A13   A(6,5,10)             122.1138         -DE/DX =   -0.0001              !
 ! A14   A(1,6,5)              122.5071         -DE/DX =    0.0                 !
 ! A15   A(1,6,11)             118.5104         -DE/DX =    0.0                 !
 ! A16   A(5,6,11)             118.9826         -DE/DX =   -0.0001              !
 ! D1    D(6,1,2,3)              0.0            -DE/DX =    0.0                 !
 ! D2    D(6,1,2,7)            180.0            -DE/DX =    0.0                 !
 ! D3    D(2,1,6,5)              0.0            -DE/DX =    0.0                 !
 ! D4    D(2,1,6,11)           180.0            -DE/DX =    0.0                 !
 ! D5    D(1,2,3,4)              0.0            -DE/DX =    0.0                 !
 ! D6    D(1,2,3,8)            180.0            -DE/DX =    0.0                 !
 ! D7    D(7,2,3,4)            180.0            -DE/DX =    0.0                 !
 ! D8    D(7,2,3,8)              0.0            -DE/DX =    0.0                 !
 ! D9    D(2,3,4,5)              0.0            -DE/DX =    0.0                 !
 ! D10   D(2,3,4,9)            180.0            -DE/DX =    0.0                 !
 ! D11   D(8,3,4,5)            180.0            -DE/DX =    0.0                 !
 ! D12   D(8,3,4,9)              0.0            -DE/DX =    0.0                 !
 ! D13   D(3,4,5,6)              0.0            -DE/DX =    0.0                 !
 ! D14   D(3,4,5,10)           180.0            -DE/DX =    0.0                 !
 ! D15   D(9,4,5,6)            180.0            -DE/DX =    0.0                 !
 ! D16   D(9,4,5,10)             0.0            -DE/DX =    0.0                 !
 ! D17   D(4,5,6,1)              0.0            -DE/DX =    0.0                 !
 ! D18   D(4,5,6,11)           180.0            -DE/DX =    0.0                 !
 ! D19   D(10,5,6,1)           180.0            -DE/DX =    0.0                 !
 ! D20   D(10,5,6,11)            0.0            -DE/DX =    0.0                 !
 --------------------------------------------------------------------------------
 GradGradGradGradGradGradGradGradGradGradGradGradGradGradGradGradGradGrad

 Leave Link  103 at Mon Sep 28 02:33:37 2026, MaxMem=  1610612736 cpu:               0.2 elap:               0.0
 (Enter /share/software/user/restricted/gaussian/g16.B01/l9999.exe)

 ----------------------------------------------------------------------

 Electric dipole moment (input orientation):
 (Debye = 10**-18 statcoulomb cm , SI units = C m)
                  (au)            (Debye)         (10**-30 SI)
   Tot        0.194742D+01      0.494985D+01      0.165109D+02
   x          0.000000D+00      0.000000D+00      0.000000D+00
   y         -0.194742D+01     -0.494985D+01     -0.165109D+02
   z          0.000000D+00      0.000000D+00      0.000000D+00

 Dipole polarizability, Alpha (input orientation).
 (esu units = cm**3 , SI units = C**2 m**2 J**-1)
 Alpha(0;0):
               (au)            (10**-24 esu)      (10**-40 SI)
   iso        0.206590D+03      0.306135D+02      0.340621D+02
   aniso      0.163024D+03      0.241577D+02      0.268791D+02
   xx         0.290901D+03      0.431070D+02      0.479631D+02
   yx         0.000000D+00      0.000000D+00      0.000000D+00
   yy         0.223829D+03      0.331681D+02      0.369045D+02
   zx         0.000000D+00      0.000000D+00      0.000000D+00
   zy         0.000000D+00      0.000000D+00      0.000000D+00
   zz         0.105040D+03      0.155653D+02      0.173187D+02

 ----------------------------------------------------------------------

 Dipole orientation:
     6         -0.00000000          0.00000000         -2.59726219
     6          2.20797706         -0.00000000         -1.30214145
     6          2.30511167         -0.00000000          1.33093068
     6          0.00000000          0.00000000          2.66176504
     6         -2.30511167          0.00000000          1.33093068
     6         -2.20797706          0.00000000         -1.30214145
    35          5.46226614         -0.00000000         -3.26488853
    35          5.48628403         -0.00000000          3.16766189
    35          0.00000000          0.00000000          6.28957094
    35         -5.48628403          0.00000000          3.16766189
    35         -5.46226614          0.00000000         -3.26488853

 Electric dipole moment (dipole orientation):
 (Debye = 10**-18 statcoulomb cm , SI units = C m)
                  (au)            (Debye)         (10**-30 SI)
   Tot        0.194742D+01      0.494985D+01      0.165109D+02
   x          0.000000D+00      0.000000D+00      0.000000D+00
   y          0.000000D+00      0.000000D+00      0.000000D+00
   z          0.194742D+01      0.494985D+01      0.165109D+02

 Dipole polarizability, Alpha (dipole orientation).
 (esu units = cm**3 , SI units = C**2 m**2 J**-1)
 Alpha(0;0):
               (au)            (10**-24 esu)      (10**-40 SI)
   iso        0.206590D+03      0.306135D+02      0.340621D+02
   aniso      0.163024D+03      0.241577D+02      0.268791D+02
   xx         0.290901D+03      0.431070D+02      0.479631D+02
   yx         0.000000D+00      0.000000D+00      0.000000D+00
   yy         0.105040D+03      0.155653D+02      0.173187D+02
   zx         0.000000D+00      0.000000D+00      0.000000D+00
   zy         0.000000D+00      0.000000D+00      0.000000D+00
   zz         0.223829D+03      0.331681D+02      0.369045D+02

 ----------------------------------------------------------------------
 1\1\GINC-SH02-10N42\Freq\RB3LYP\6-311++G(d)\C6Br5(1-)\JLAPIER\28-Sep-2
 026\0\\#P Geom=AllCheck Guess=TCheck SCRF=Check GenChk RB3LYP/6-311++G
 (d) Freq\\BrPh_23456_anion b3lyp_gas\\-1,1\C,0.,1.3744119637,0.\C,1.16
 84111421,0.6890635812,0.\C,1.2198125631,-0.704298184,0.\C,0.,-1.408545
 401,0.\C,-1.2198125631,-0.704298184,0.\C,-1.1684111421,0.6890635812,0.
 \Br,2.8905067629,1.7277046083,0.\Br,2.9032164826,-1.6762544821,0.\Br,0
 .,-3.3282976098,0.\Br,-2.9032164826,-1.6762544821,0.\Br,-2.8905067629,
 1.7277046083,0.\\Version=ES64L-G16RevB.01\State=1-A1\HF=-13099.418436\
 RMSD=1.252e-09\RMSF=8.884e-05\ZeroPoint=0.0341381\Thermal=0.0464999\Di
 pole=0.,-1.9474204,0.\DipoleDeriv=-2.1139257,0.,0.,0.,-0.6652297,0.,0.
 ,0.,-0.2270167,2.0367459,1.2038213,0.,0.5517575,0.2288097,0.,0.,0.,-0.
 0229911,0.8636709,-0.7566491,0.,-0.9412698,0.2912781,0.,0.,0.,-0.01948
 97,-0.3520132,0.,0.,0.,0.756163,0.,0.,0.,-0.0638638,0.8636707,0.756649
 1,0.,0.9412698,0.2912781,0.,0.,0.,-0.0194896,2.036746,-1.2038213,0.,-0
 .5517575,0.2288096,0.,0.,0.,-0.0229911,-1.2842673,-0.4888652,0.,-0.687
 1273,-0.3942715,0.,0.,0.,-0.2032209,-0.8886717,0.5575469,0.,0.5440104,
 -0.3601282,0.,0.,0.,-0.0876508,0.0109833,0.,0.,0.,-0.6223091,0.,0.,0.,
 -0.0424146,-0.8886717,-0.5575469,0.,-0.5440105,-0.3601283,0.,0.,0.,-0.
 0876508,-1.2842673,0.4888652,0.,0.6871273,-0.3942715,0.,0.,0.,-0.20322
 09\Polar=290.9007532,0.,223.829482,0.,0.,105.0399069\Quadrupole=-7.846
 7695,-4.7005785,12.5473481,0.,0.,0.\PG=C02V [C2(C1C1Br1),SGV(C4Br4)]\N
 Imag=0\\0.68574919,0.,0.24981392,0.,0.,0.06190904,-0.27021036,0.106597
 47,0.,0.42187143,0.13409160,-0.12818715,0.,-0.10861234,0.53195277,0.,0
 .,-0.04235240,0.,0.,0.09545471,0.01820493,0.01349754,0.,-0.06574882,0.
 02799571,0.,0.44065361,0.07297625,-0.01247742,0.,-0.02879645,-0.300590
 88,0.,0.07062196,0.52927374,0.,0.,0.00673355,0.,0.,-0.04371446,0.,0.,0
 .08770852,-0.06204133,0.,0.,0.02660931,-0.07372804,0.,-0.23350722,-0.0
 6123884,0.,0.55884558,0.,0.00242678,0.,-0.01829711,-0.03113492,0.,-0.1
 1300821,-0.13124740,0.,0.,0.44048888,0.,0.,0.00235059,0.,0.,0.00083588
 ,0.,0.,-0.03901296,0.,0.,0.08195576,0.01820493,-0.01349754,0.,-0.02054
 083,0.02777050,0.,-0.05518066,-0.02694837,0.,-0.23350722,0.11300821,0.
 ,0.44065361,-0.07297625,-0.01247742,0.,0.01155276,-0.05075279,0.,0.026
 94837,0.05376932,0.,0.06123884,-0.13124740,0.,-0.07062196,0.52927374,0
 .,0.,0.00673356,0.,0.,0.00479441,0.,0.,-0.00598911,0.,0.,-0.03901297,0
 .,0.,0.08770852,-0.27021036,-0.10659747,0.,-0.07210649,0.00022234,0.,-
 0.02054083,-0.01155276,0.,0.02660931,0.01829711,0.,-0.06574882,0.02879
 645,0.,0.42187143,-0.13409160,-0.12818715,0.,-0.00022234,0.03551262,0.
 ,-0.02777050,-0.05075279,0.,0.07372804,-0.03113492,0.,-0.02799571,-0.3
 0059088,0.,0.10861234,0.53195277,0.,0.,-0.04235240,0.,0.,-0.00797813,0
 .,0.,0.00479441,0.,0.,0.00083588,0.,0.,-0.04371446,0.,0.,0.09545471,-0
 .06223218,0.01695611,0.,-0.00592777,-0.02707381,0.,-0.01621513,-0.0123
 2597,0.,0.00115942,0.00001568,0.,0.00118275,0.00483308,0.,0.00690688,-
 0.01032882,0.,0.07849996,-0.01401260,0.02041401,0.,0.00576309,-0.04163
 866,0.,-0.02360654,-0.01855984,0.,0.00178403,-0.00195597,0.,0.00021458
 ,0.00141015,0.,0.00592721,-0.00338280,0.,0.03031545,0.05468675,0.,0.,-
 0.00013105,0.,0.,-0.01599207,0.,0.,0.00093492,0.,0.,0.00291687,0.,0.,-
 0.00005261,0.,0.,0.00527815,0.,0.,0.00657754,0.00214986,0.00794278,0.,
 -0.02493659,0.00720579,0.,-0.06852778,0.01900888,0.,-0.02812792,0.0145
 3812,0.,-0.00044181,-0.00005203,0.,0.00677761,-0.00244078,0.,0.0031773
 0,-0.00265951,0.,0.12343200,-0.00040018,-0.00583156,0.,0.03236049,-0.0
 1081065,0.,0.02235108,-0.03951424,0.,-0.00003022,0.00061786,0.,-0.0012
 3855,-0.00245814,0.,-0.00611190,0.00070339,0.,0.00104923,-0.00964878,0
 .,-0.04247500,0.06852526,0.,0.,0.00321182,0.,0.,0.00064468,0.,0.,-0.01
 623869,0.,0.,-0.00000127,0.,0.,0.00459216,0.,0.,0.00075131,0.,0.,0.000
 96913,0.,0.,0.00674007,0.00046763,0.,0.,-0.00269437,-0.00064137,0.,0.0
 0012097,-0.01696367,0.,-0.02907143,0.,0.,0.00012097,0.01696367,0.,-0.0
 0269437,0.00064137,0.,0.00020206,-0.00066111,0.,-0.00853296,-0.0093289
 6,0.,0.05041241,0.,-0.00007645,0.,-0.00053026,-0.00167093,0.,0.0019466
 2,-0.02885250,0.,0.,-0.11547480,0.,-0.00194662,-0.02885250,0.,0.000530
 26,-0.00167093,0.,-0.00097681,-0.00082279,0.,-0.00277298,-0.00128105,0
 .,0.,0.18080577,0.,0.,0.00081650,0.,0.,0.00227791,0.,0.,0.00024428,0.,
 0.,-0.01378338,0.,0.,0.00024428,0.,0.,0.00227791,0.,0.,0.00017343,0.,0
 .,0.00040573,0.,0.,0.00676420,0.00214986,-0.00794278,0.,0.00677761,0.0
 0244078,0.,-0.00044181,0.00005203,0.,-0.02812792,-0.01453812,0.,-0.068
 52778,-0.01900888,0.,-0.02493659,-0.00720579,0.,-0.00452286,-0.0017346
 9,0.,-0.00044686,0.00002996,0.,-0.00853296,0.00277298,0.,0.12343200,0.
 00040018,-0.00583156,0.,0.00611190,0.00070339,0.,0.00123855,-0.0024581
 4,0.,0.00003022,0.00061785,0.,-0.02235108,-0.03951424,0.,-0.03236049,-
 0.01081065,0.,-0.00379405,-0.00122669,0.,-0.00002996,0.00092460,0.,0.0
 0932896,-0.00128105,0.,0.04247500,0.06852526,0.,0.,0.00321182,0.,0.,0.
 00075131,0.,0.,0.00459216,0.,0.,-0.00000127,0.,0.,-0.01623869,0.,0.,0.
 00064468,0.,0.,-0.00129334,0.,0.,0.00021842,0.,0.,0.00040573,0.,0.,0.0
 0674007,-0.06223218,-0.01695611,0.,0.00690688,0.01032882,0.,0.00118275
 ,-0.00483308,0.,0.00115942,-0.00001568,0.,-0.01621513,0.01232597,0.,-0
 .00592777,0.02707381,0.,-0.00223043,-0.00132990,0.,-0.00452286,0.00379
 405,0.,0.00020206,0.00097681,0.,0.00317730,-0.00104923,0.,0.07849996,0
 .01401260,0.02041401,0.,-0.00592721,-0.00338280,0.,-0.00021458,0.00141
 015,0.,-0.00178403,-0.00195596,0.,0.02360654,-0.01855984,0.,-0.0057630
 9,-0.04163866,0.,0.00132990,0.00072461,0.,0.00173469,-0.00122669,0.,0.
 00066111,-0.00082279,0.,0.00265951,-0.00964878,0.,-0.03031545,0.054686
 75,0.,0.,-0.00013105,0.,0.,0.00527815,0.,0.,-0.00005261,0.,0.,0.002916
 88,0.,0.,0.00093492,0.,0.,-0.01599207,0.,0.,0.00061902,0.,0.,-0.001293
 34,0.,0.,0.00017343,0.,0.,0.00096913,0.,0.,0.00657754\\0.,-0.00001331,
 0.,-0.00000066,-0.00011913,0.,-0.00011592,0.00017148,0.,0.,-0.00030735
 ,0.,0.00011592,0.00017148,0.,0.00000066,-0.00011913,0.,0.00007320,0.00
 008334,0.,-0.00001182,-0.00004944,0.,0.,0.00014815,0.,0.00001182,-0.00
 004944,0.,-0.00007320,0.00008334,0.\\\@


 IT IS BY EATING THE LIGHT OF A STAR THAT WE EXIST, 
 IN THE FINAL ANALYSIS, 
 JUST AS IT IS BY PERCEIVING THE LIGHT OF STARS
 THAT WE DEFINE THE WORLD AROUND US.

                                    -- GILBERT GROSVENOR
 Job cpu time:       0 days  0 hours 35 minutes 16.5 seconds.
 Elapsed time:       0 days  0 hours  4 minutes 25.3 seconds.
 File lengths (MBytes):  RWF=    177 Int=      0 D2E=      0 Chk=     67 Scr=      1
 Normal termination of Gaussian 16 at Mon Sep 28 02:33:37 2026.
