 Entering Gaussian System, Link 0=g16
 Initial command:
 /share/software/user/restricted/gaussian/g16.B01/l1.exe "/lscratch/jlapier/g16_45672804_3/Gau-19340.inp" -scrdir="/lscratch/jlapier/g16_45672804_3/"
 Entering Link 1 = /share/software/user/restricted/gaussian/g16.B01/l1.exe PID=     19346.
  
 Copyright (c) 1988-2017, Gaussian, Inc.  All Rights Reserved.
  
 This is part of the Gaussian(R) 16 program.  It is based on
 the Gaussian(R) 09 system (copyright 2009, Gaussian, Inc.),
 the Gaussian(R) 03 system (copyright 2003, Gaussian, Inc.),
 the Gaussian(R) 98 system (copyright 1998, Gaussian, Inc.),
 the Gaussian(R) 94 system (copyright 1995, Gaussian, Inc.),
 the Gaussian 92(TM) system (copyright 1992, Gaussian, Inc.),
 the Gaussian 90(TM) system (copyright 1990, Gaussian, Inc.),
 the Gaussian 88(TM) system (copyright 1988, Gaussian, Inc.),
 the Gaussian 86(TM) system (copyright 1986, Carnegie Mellon
 University), and the Gaussian 82(TM) system (copyright 1983,
 Carnegie Mellon University). Gaussian is a federally registered
 trademark of Gaussian, Inc.
  
 This software contains proprietary and confidential information,
 including trade secrets, belonging to Gaussian, Inc.
  
 This software is provided under written license and may be
 used, copied, transmitted, or stored only in accord with that
 written license.
  
 The following legend is applicable only to US Government
 contracts under FAR:
  
                    RESTRICTED RIGHTS LEGEND
  
 Use, reproduction and disclosure by the US Government is
 subject to restrictions as set forth in subparagraphs (a)
 and (c) of the Commercial Computer Software - Restricted
 Rights clause in FAR 52.227-19.
  
 Gaussian, Inc.
 340 Quinnipiac St., Bldg. 40, Wallingford CT 06492
  
  
 ---------------------------------------------------------------
 Warning -- This program may not be used in any manner that
 competes with the business of Gaussian, Inc. or will provide
 assistance to any competitor of Gaussian, Inc.  The licensee
 of this program is prohibited from giving any competitor of
 Gaussian, Inc. access to this program.  By using this program,
 the user acknowledges that Gaussian, Inc. is engaged in the
 business of creating and licensing software in the field of
 computational chemistry and represents and warrants to the
 licensee that it is not a competitor of Gaussian, Inc. and that
 it will not use this program in any manner prohibited above.
 ---------------------------------------------------------------
  

 Cite this work as:
 Gaussian 16, Revision B.01,
 M. J. Frisch, G. W. Trucks, H. B. Schlegel, G. E. Scuseria, 
 M. A. Robb, J. R. Cheeseman, G. Scalmani, V. Barone, 
 G. A. Petersson, H. Nakatsuji, X. Li, M. Caricato, A. V. Marenich, 
 J. Bloino, B. G. Janesko, R. Gomperts, B. Mennucci, H. P. Hratchian, 
 J. V. Ortiz, A. F. Izmaylov, J. L. Sonnenberg, D. Williams-Young, 
 F. Ding, F. Lipparini, F. Egidi, J. Goings, B. Peng, A. Petrone, 
 T. Henderson, D. Ranasinghe, V. G. Zakrzewski, J. Gao, N. Rega, 
 G. Zheng, W. Liang, M. Hada, M. Ehara, K. Toyota, R. Fukuda, 
 J. Hasegawa, M. Ishida, T. Nakajima, Y. Honda, O. Kitao, H. Nakai, 
 T. Vreven, K. Throssell, J. A. Montgomery, Jr., J. E. Peralta, 
 F. Ogliaro, M. J. Bearpark, J. J. Heyd, E. N. Brothers, K. N. Kudin, 
 V. N. Staroverov, T. A. Keith, R. Kobayashi, J. Normand, 
 K. Raghavachari, A. P. Rendell, J. C. Burant, S. S. Iyengar, 
 J. Tomasi, M. Cossi, J. M. Millam, M. Klene, C. Adamo, R. Cammi, 
 J. W. Ochterski, R. L. Martin, K. Morokuma, O. Farkas, 
 J. B. Foresman, and D. J. Fox, Gaussian, Inc., Wallingford CT, 2016.
 
 ******************************************
 Gaussian 16:  ES64L-G16RevB.01 20-Dec-2017
                28-Sep-2026 
 ******************************************
 %nprocshared=8
 Will use up to    8 processors via shared memory.
 %mem=12GB
 %oldchk=calcs/am1/chks/ClBz_1.chk
 %chk=calcs/b3lyp_gas/chks/ClBz_1.chk
 Copying data from "calcs/am1/chks/ClBz_1.chk" to current chk file "calcs/b3lyp_gas/chks/ClBz_1.chk"
 IOpt=  2 FromEx=T IUOpen= 4 IOptOp= 5 NList=   0 IFRang= 0 IUIn= 4 IUOut= 2.
 ------------------------------------------------------
 #p Opt Freq B3LYP/6-311++G(d) Int=UltraFine Geom=Check
 ------------------------------------------------------
 1/18=20,19=15,26=4,29=2,38=1/1,3;
 2/9=110,12=2,40=1/2;
 3/5=4,6=6,7=1011,11=2,14=-4,25=1,30=1,71=1,74=-5,75=-5/1,2,3;
 4//1;
 5/5=2,38=5/2;
 6/7=2,8=2,9=2,10=2,28=1/1;
 7//1,2,3,16;
 1/18=20,19=15,26=4/3(2);
 2/9=110/2;
 99//99;
 2/9=110/2;
 3/5=4,6=6,7=1011,11=2,14=-2,25=1,30=1,71=1,74=-5,75=-5/1,2,3;
 4/5=5,16=3,69=1/1;
 5/5=2,38=5/2;
 7//1,2,3,16;
 1/18=20,19=15,26=4/3(-5);
 2/9=110/2;
 6/7=2,8=2,9=2,10=2,19=2,28=1/1;
 99/9=1/99;
 Leave Link    1 at Mon Sep 28 02:09:27 2026, MaxMem=  1610612736 cpu:               2.1 elap:               0.3
 (Enter /share/software/user/restricted/gaussian/g16.B01/l101.exe)
 ----------------
 ClBz_1 b3lyp_gas
 ----------------
 Structure from the checkpoint file:  "calcs/b3lyp_gas/chks/ClBz_1.chk"
 Charge =  0 Multiplicity = 1
 Redundant internal coordinates found in file.  (old form).
 C,0,0.,1.3950476428,0.
 C,0,1.2151737797,0.7028711289,0.
 C,0,1.2080565766,-0.691406032,0.
 C,0,0.,-1.3889291813,0.
 C,0,-1.2080565766,-0.691406032,0.
 C,0,-1.2151737797,0.7028711289,0.
 Cl,0,0.,3.0961636814,0.
 H,0,2.1683770878,1.2521689451,0.
 H,0,2.1614416796,-1.2403595408,0.
 H,0,0.,-2.4888311453,0.
 H,0,-2.1614416796,-1.2403595408,0.
 H,0,-2.1683770878,1.2521689451,0.
 Recover connectivity data from disk.
 ITRead=  0  0  0  0  0  0  0  0  0  0  0  0
 MicOpt= -1 -1 -1 -1 -1 -1 -1 -1 -1 -1 -1 -1
 NAtoms=     12 NQM=       12 NQMF=       0 NMMI=      0 NMMIF=      0
                NMic=       0 NMicF=      0.
                    Isotopes and Nuclear Properties:
 (Nuclear quadrupole moments (NQMom) in fm**2, nuclear magnetic moments (NMagM)
  in nuclear magnetons)

  Atom         1           2           3           4           5           6           7           8           9          10
 IAtWgt=          12          12          12          12          12          12          35           1           1           1
 AtmWgt=  12.0000000  12.0000000  12.0000000  12.0000000  12.0000000  12.0000000  34.9688527   1.0078250   1.0078250   1.0078250
 NucSpn=           0           0           0           0           0           0           3           1           1           1
 AtZEff=   3.9000000   3.9000000   3.9000000   3.9000000   3.9000000   3.9000000 204.0000000   1.0000000   1.0000000   1.0000000
 NQMom=    0.0000000   0.0000000   0.0000000   0.0000000   0.0000000   0.0000000  -8.1650000   0.0000000   0.0000000   0.0000000
 NMagM=    0.0000000   0.0000000   0.0000000   0.0000000   0.0000000   0.0000000   0.8218740   2.7928460   2.7928460   2.7928460
 AtZNuc=   6.0000000   6.0000000   6.0000000   6.0000000   6.0000000   6.0000000  17.0000000   1.0000000   1.0000000   1.0000000

  Atom        11          12
 IAtWgt=           1           1
 AtmWgt=   1.0078250   1.0078250
 NucSpn=           1           1
 AtZEff=   1.0000000   1.0000000
 NQMom=    0.0000000   0.0000000
 NMagM=    2.7928460   2.7928460
 AtZNuc=   1.0000000   1.0000000
 Leave Link  101 at Mon Sep 28 02:09:28 2026, MaxMem=  1610612736 cpu:               2.0 elap:               0.3
 (Enter /share/software/user/restricted/gaussian/g16.B01/l103.exe)

 GradGradGradGradGradGradGradGradGradGradGradGradGradGradGradGradGradGrad
 Berny optimization.
 Initialization pass.
                           ----------------------------
                           !    Initial Parameters    !
                           ! (Angstroms and Degrees)  !
 --------------------------                            --------------------------
 ! Name  Definition              Value          Derivative Info.                !
 --------------------------------------------------------------------------------
 ! R1    R(1,2)                  1.3985         estimate D2E/DX2                !
 ! R2    R(1,6)                  1.3985         estimate D2E/DX2                !
 ! R3    R(1,7)                  1.7011         estimate D2E/DX2                !
 ! R4    R(2,3)                  1.3943         estimate D2E/DX2                !
 ! R5    R(2,8)                  1.1001         estimate D2E/DX2                !
 ! R6    R(3,4)                  1.395          estimate D2E/DX2                !
 ! R7    R(3,9)                  1.1001         estimate D2E/DX2                !
 ! R8    R(4,5)                  1.395          estimate D2E/DX2                !
 ! R9    R(4,10)                 1.0999         estimate D2E/DX2                !
 ! R10   R(5,6)                  1.3943         estimate D2E/DX2                !
 ! R11   R(5,11)                 1.1001         estimate D2E/DX2                !
 ! R12   R(6,12)                 1.1001         estimate D2E/DX2                !
 ! A1    A(2,1,6)              120.6674         estimate D2E/DX2                !
 ! A2    A(2,1,7)              119.6663         estimate D2E/DX2                !
 ! A3    A(6,1,7)              119.6663         estimate D2E/DX2                !
 ! A4    A(1,2,3)              119.3739         estimate D2E/DX2                !
 ! A5    A(1,2,8)              120.3803         estimate D2E/DX2                !
 ! A6    A(3,2,8)              120.2458         estimate D2E/DX2                !
 ! A7    A(2,3,4)              120.2943         estimate D2E/DX2                !
 ! A8    A(2,3,9)              119.6406         estimate D2E/DX2                !
 ! A9    A(4,3,9)              120.0651         estimate D2E/DX2                !
 ! A10   A(3,4,5)              119.9963         estimate D2E/DX2                !
 ! A11   A(3,4,10)             120.0018         estimate D2E/DX2                !
 ! A12   A(5,4,10)             120.0018         estimate D2E/DX2                !
 ! A13   A(4,5,6)              120.2943         estimate D2E/DX2                !
 ! A14   A(4,5,11)             120.0651         estimate D2E/DX2                !
 ! A15   A(6,5,11)             119.6406         estimate D2E/DX2                !
 ! A16   A(1,6,5)              119.3739         estimate D2E/DX2                !
 ! A17   A(1,6,12)             120.3803         estimate D2E/DX2                !
 ! A18   A(5,6,12)             120.2458         estimate D2E/DX2                !
 ! D1    D(6,1,2,3)              0.0            estimate D2E/DX2                !
 ! D2    D(6,1,2,8)            180.0            estimate D2E/DX2                !
 ! D3    D(7,1,2,3)            180.0            estimate D2E/DX2                !
 ! D4    D(7,1,2,8)              0.0            estimate D2E/DX2                !
 ! D5    D(2,1,6,5)              0.0            estimate D2E/DX2                !
 ! D6    D(2,1,6,12)           180.0            estimate D2E/DX2                !
 ! D7    D(7,1,6,5)            180.0            estimate D2E/DX2                !
 ! D8    D(7,1,6,12)             0.0            estimate D2E/DX2                !
 ! D9    D(1,2,3,4)              0.0            estimate D2E/DX2                !
 ! D10   D(1,2,3,9)            180.0            estimate D2E/DX2                !
 ! D11   D(8,2,3,4)            180.0            estimate D2E/DX2                !
 ! D12   D(8,2,3,9)              0.0            estimate D2E/DX2                !
 ! D13   D(2,3,4,5)              0.0            estimate D2E/DX2                !
 ! D14   D(2,3,4,10)           180.0            estimate D2E/DX2                !
 ! D15   D(9,3,4,5)            180.0            estimate D2E/DX2                !
 ! D16   D(9,3,4,10)             0.0            estimate D2E/DX2                !
 ! D17   D(3,4,5,6)              0.0            estimate D2E/DX2                !
 ! D18   D(3,4,5,11)           180.0            estimate D2E/DX2                !
 ! D19   D(10,4,5,6)           180.0            estimate D2E/DX2                !
 ! D20   D(10,4,5,11)            0.0            estimate D2E/DX2                !
 ! D21   D(4,5,6,1)              0.0            estimate D2E/DX2                !
 ! D22   D(4,5,6,12)           180.0            estimate D2E/DX2                !
 ! D23   D(11,5,6,1)           180.0            estimate D2E/DX2                !
 ! D24   D(11,5,6,12)            0.0            estimate D2E/DX2                !
 --------------------------------------------------------------------------------
 Trust Radius=3.00D-01 FncErr=1.00D-07 GrdErr=1.00D-06 EigMax=2.50D+02 EigMin=1.00D-04
 Number of steps in this run=     64 maximum allowed number of steps=    100.
 GradGradGradGradGradGradGradGradGradGradGradGradGradGradGradGradGradGrad

 Leave Link  103 at Mon Sep 28 02:09:28 2026, MaxMem=  1610612736 cpu:               0.1 elap:               0.0
 (Enter /share/software/user/restricted/gaussian/g16.B01/l202.exe)
                          Input orientation:                          
 ---------------------------------------------------------------------
 Center     Atomic      Atomic             Coordinates (Angstroms)
 Number     Number       Type             X           Y           Z
 ---------------------------------------------------------------------
      1          6           0        0.000000    1.395048   -0.000000
      2          6           0        1.215174    0.702871    0.000000
      3          6           0        1.208057   -0.691406    0.000000
      4          6           0       -0.000000   -1.388929    0.000000
      5          6           0       -1.208057   -0.691406   -0.000000
      6          6           0       -1.215174    0.702871   -0.000000
      7         17           0        0.000000    3.096164   -0.000000
      8          1           0        2.168377    1.252169    0.000000
      9          1           0        2.161442   -1.240360    0.000000
     10          1           0       -0.000000   -2.488831    0.000000
     11          1           0       -2.161442   -1.240360   -0.000000
     12          1           0       -2.168377    1.252169   -0.000000
 ---------------------------------------------------------------------
                    Distance matrix (angstroms):
                    1          2          3          4          5
     1  C    0.000000
     2  C    1.398483   0.000000
     3  C    2.410952   1.394295   0.000000
     4  C    2.783977   2.419148   1.394969   0.000000
     5  C    2.410952   2.795721   2.416113   1.394969   0.000000
     6  C    1.398483   2.430348   2.795721   2.419148   1.394295
     7  Cl   1.701116   2.684119   3.975561   4.485093   3.975561
     8  H    2.173079   1.100148   2.167879   3.417200   3.895868
     9  H    3.408402   2.161381   1.100133   2.166542   3.413923
    10  H    3.883879   3.415203   2.165673   1.099902   2.165673
    11  H    3.408402   3.895854   3.413923   2.166542   1.100133
    12  H    2.173079   3.427848   3.895868   3.417200   2.167879
                    6          7          8          9         10
     6  C    0.000000
     7  Cl   2.684119   0.000000
     8  H    3.427848   2.846432   0.000000
     9  H    3.895854   4.845334   2.492538   0.000000
    10  H    3.415203   5.584995   4.323996   2.496099   0.000000
    11  H    2.161381   4.845334   4.996001   4.322883   2.496099
    12  H    1.100148   2.846432   4.336754   4.996001   4.323996
                   11         12
    11  H    0.000000
    12  H    2.492538   0.000000
 Stoichiometry    C6H5Cl
 Framework group  C2V[C2(HCCCl),SGV(C4H4)]
 Deg. of freedom    11
 Full point group                 C2V     NOp   4
 RotChk:  IX=0 Diff= 1.47D-16
 Largest Abelian subgroup         C2V     NOp   4
 Largest concise Abelian subgroup C2      NOp   2
                         Standard orientation:                         
 ---------------------------------------------------------------------
 Center     Atomic      Atomic             Coordinates (Angstroms)
 Number     Number       Type             X           Y           Z
 ---------------------------------------------------------------------
      1          6           0       -0.000000   -0.000000    0.527050
      2          6           0        0.000000    1.215174   -0.165126
      3          6           0        0.000000    1.208057   -1.559404
      4          6           0        0.000000    0.000000   -2.256927
      5          6           0       -0.000000   -1.208057   -1.559404
      6          6           0       -0.000000   -1.215174   -0.165126
      7         17           0       -0.000000   -0.000000    2.228166
      8          1           0        0.000000    2.168377    0.384171
      9          1           0        0.000000    2.161442   -2.108357
     10          1           0        0.000000    0.000000   -3.356829
     11          1           0       -0.000000   -2.161442   -2.108357
     12          1           0       -0.000000   -2.168377    0.384171
 ---------------------------------------------------------------------
 Rotational constants (GHZ):           5.6555882           1.5943066           1.2437066
 Leave Link  202 at Mon Sep 28 02:09:28 2026, MaxMem=  1610612736 cpu:               0.3 elap:               0.1
 (Enter /share/software/user/restricted/gaussian/g16.B01/l301.exe)
 Standard basis: 6-311++G(d) (5D, 7F)
 Ernie: Thresh=  0.10000D-02 Tol=  0.10000D-05 Strict=F.
 There are    86 symmetry adapted cartesian basis functions of A1  symmetry.
 There are    15 symmetry adapted cartesian basis functions of A2  symmetry.
 There are    29 symmetry adapted cartesian basis functions of B1  symmetry.
 There are    59 symmetry adapted cartesian basis functions of B2  symmetry.
 There are    81 symmetry adapted basis functions of A1  symmetry.
 There are    15 symmetry adapted basis functions of A2  symmetry.
 There are    29 symmetry adapted basis functions of B1  symmetry.
 There are    57 symmetry adapted basis functions of B2  symmetry.
   182 basis functions,   299 primitive gaussians,   189 cartesian basis functions
    29 alpha electrons       29 beta electrons
       nuclear repulsion energy       316.4165917776 Hartrees.
 IExCor=  402 DFT=T Ex+Corr=B3LYP ExCW=0 ScaHFX=  0.200000
 ScaDFX=  0.800000  0.720000  1.000000  0.810000 ScalE2=  1.000000  1.000000
 IRadAn=      5 IRanWt=     -1 IRanGd=            0 ICorTp=0 IEmpDi=  4
 NAtoms=   12 NActive=   12 NUniq=    8 SFac= 2.25D+00 NAtFMM=   60 NAOKFM=F Big=F
 Integral buffers will be    131072 words long.
 Raffenetti 2 integral format.
 Two-electron integral symmetry is turned on.
 Leave Link  301 at Mon Sep 28 02:09:28 2026, MaxMem=  1610612736 cpu:               0.2 elap:               0.0
 (Enter /share/software/user/restricted/gaussian/g16.B01/l302.exe)
 NPDir=0 NMtPBC=     1 NCelOv=     1 NCel=       1 NClECP=     1 NCelD=      1
         NCelK=      1 NCelE2=     1 NClLst=     1 CellRange=     0.0.
 One-electron integrals computed using PRISM.
 One-electron integral symmetry used in STVInt
 NBasis=   182 RedAO= T EigKep=  1.12D-06  NBF=    81    15    29    57
 NBsUse=   182 1.00D-06 EigRej= -1.00D+00 NBFU=    81    15    29    57
 Precomputing XC quadrature grid using
 IXCGrd= 4 IRadAn=           5 IRanWt=          -1 IRanGd=           0 AccXCQ= 0.00D+00.
 Generated NRdTot=       0 NPtTot=           0 NUsed=           0 NTot=          32
 NSgBfM=   189   189   189   189   189 MxSgAt=    12 MxSgA2=    12.
 Leave Link  302 at Mon Sep 28 02:09:28 2026, MaxMem=  1610612736 cpu:               0.9 elap:               0.1
 (Enter /share/software/user/restricted/gaussian/g16.B01/l303.exe)
 DipDrv:  MaxL=1.
 Leave Link  303 at Mon Sep 28 02:09:28 2026, MaxMem=  1610612736 cpu:               0.3 elap:               0.1
 (Enter /share/software/user/restricted/gaussian/g16.B01/l401.exe)
 ExpMin= 3.60D-02 ExpMax= 1.06D+05 ExpMxC= 3.62D+03 IAcc=3 IRadAn=         5 AccDes= 0.00D+00
 Harris functional with IExCor=  402 and IRadAn=       5 diagonalized for initial guess.
 HarFok:  IExCor=  402 AccDes= 0.00D+00 IRadAn=         5 IDoV= 1 UseB2=F ITyADJ=14
 ICtDFT=  3500011 ScaDFX=  1.000000  1.000000  1.000000  1.000000
 FoFCou: FMM=F IPFlag=           0 FMFlag=      100000 FMFlg1=           0
         NFxFlg=           0 DoJE=T BraDBF=F KetDBF=T FulRan=T
         wScrn=  0.000000 ICntrl=       500 IOpCl=  0 I1Cent=   200000004 NGrid=           0
         NMat0=    1 NMatS0=      1 NMatT0=    0 NMatD0=    1 NMtDS0=    0 NMtDT0=    0
 Petite list used in FoFCou.
 Harris En= -691.881379742148    
 JPrj=0 DoOrth=F DoCkMO=F.
 Initial guess orbital symmetries:
       Occupied  (A1) (A1) (B2) (A1) (B2) (A1) (A1) (A1) (A1) (B2)
                 (B1) (A1) (A1) (B2) (A1) (B2) (A1) (A1) (B2) (A1)
                 (B2) (A1) (B1) (B2) (A1) (B1) (A2) (B2) (B1)
       Virtual   (A2) (B1) (A1) (B2) (A1) (A1) (B1) (B2) (A1) (A1)
                 (B1) (A1) (A2) (B2) (B1) (A1) (B2) (A1) (A1) (B2)
                 (B1) (A1) (B2) (A2) (A1) (B2) (B1) (A1) (B2) (B1)
                 (A1) (B2) (A1) (B2) (A1) (A1) (B2) (A1) (B2) (A1)
                 (B2) (A1) (B2) (A1) (B2) (A1) (B2) (A1) (A1) (B2)
                 (B1) (A1) (B1) (B2) (A1) (B2) (A2) (A1) (B2) (B1)
                 (A2) (B1) (A1) (B1) (B2) (A1) (A1) (B2) (A1) (B2)
                 (B1) (B2) (A1) (A1) (A1) (B2) (A2) (B2) (A1) (A2)
                 (A1) (A1) (B2) (B1) (A1) (A2) (B1) (A2) (A1) (B2)
                 (B1) (A1) (A1) (B2) (B2) (A1) (A1) (B2) (A1) (A2)
                 (B1) (A1) (B2) (B1) (A2) (B1) (B2) (A1) (A1) (A1)
                 (B2) (B2) (A1) (A2) (B1) (B2) (A1) (B2) (B2) (B1)
                 (A1) (A1) (A2) (B1) (A1) (A2) (B1) (B2) (B1) (B2)
                 (A1) (A1) (B2) (A1) (B2) (A1) (A1) (B2) (A1) (A1)
                 (B2) (B2) (A1) (A1) (B2) (A1) (A1) (B2) (A1) (B1)
                 (B2) (A1) (A1)
 The electronic state of the initial guess is 1-A1.
 Leave Link  401 at Mon Sep 28 02:09:28 2026, MaxMem=  1610612736 cpu:               1.9 elap:               0.2
 (Enter /share/software/user/restricted/gaussian/g16.B01/l502.exe)
 Keep R1 ints in memory in symmetry-blocked form, NReq=176010216.
 FoFCou: FMM=F IPFlag=           0 FMFlag=           0 FMFlg1=           0
         NFxFlg=           0 DoJE=F BraDBF=F KetDBF=F FulRan=T
         wScrn=  0.000000 ICntrl=       600 IOpCl=  0 I1Cent=           0 NGrid=           0
         NMat0=    1 NMatS0=  16653 NMatT0=    0 NMatD0=    1 NMtDS0=    0 NMtDT0=    0
 Petite list used in FoFCou.
 Closed shell SCF:
 Using DIIS extrapolation, IDIIS=  1040.
 NGot=  1610612736 LenX=  1573198420 LenY=  1573162258
 Requested convergence on RMS density matrix=1.00D-08 within 128 cycles.
 Requested convergence on MAX density matrix=1.00D-06.
 Requested convergence on             energy=1.00D-06.
 No special actions if energy rises.

 Cycle   1  Pass 1  IDiag  1:
 E= -691.715344200383    
 DIIS: error= 4.06D-02 at cycle   1 NSaved=   1.
 NSaved= 1 IEnMin= 1 EnMin= -691.715344200383     IErMin= 1 ErrMin= 4.06D-02
 ErrMax= 4.06D-02  0.00D+00 EMaxC= 1.00D-01 BMatC= 2.26D-01 BMatP= 2.26D-01
 IDIUse=3 WtCom= 5.94D-01 WtEn= 4.06D-01
 Coeff-Com:  0.100D+01
 Coeff-En:   0.100D+01
 Coeff:      0.100D+01
 Gap=     0.151 Goal=   None    Shift=    0.000
 GapD=    0.151 DampG=1.000 DampE=0.500 DampFc=0.5000 IDamp=-1.
 Damping current iteration by 5.00D-01
 RMSDP=3.26D-02 MaxDP=1.63D+00              OVMax= 2.86D-01

 Cycle   2  Pass 1  IDiag  1:
 E= -691.788467813286     Delta-E=       -0.073123612902 Rises=F Damp=T
 DIIS: error= 1.21D-02 at cycle   2 NSaved=   2.
 NSaved= 2 IEnMin= 2 EnMin= -691.788467813286     IErMin= 2 ErrMin= 1.21D-02
 ErrMax= 1.21D-02  0.00D+00 EMaxC= 1.00D-01 BMatC= 2.08D-02 BMatP= 2.26D-01
 IDIUse=3 WtCom= 8.79D-01 WtEn= 1.21D-01
 Coeff-Com:  0.102D+00 0.898D+00
 Coeff-En:   0.269D+00 0.731D+00
 Coeff:      0.122D+00 0.878D+00
 Gap=     0.270 Goal=   None    Shift=    0.000
 RMSDP=7.08D-03 MaxDP=2.71D-01 DE=-7.31D-02 OVMax= 2.19D-01

 Cycle   3  Pass 1  IDiag  1:
 E= -691.916259633779     Delta-E=       -0.127791820493 Rises=F Damp=F
 DIIS: error= 1.03D-02 at cycle   3 NSaved=   3.
 NSaved= 3 IEnMin= 3 EnMin= -691.916259633779     IErMin= 3 ErrMin= 1.03D-02
 ErrMax= 1.03D-02  0.00D+00 EMaxC= 1.00D-01 BMatC= 6.23D-03 BMatP= 2.08D-02
 IDIUse=3 WtCom= 8.97D-01 WtEn= 1.03D-01
 Coeff-Com: -0.363D-01 0.313D+00 0.723D+00
 Coeff-En:   0.000D+00 0.000D+00 0.100D+01
 Coeff:     -0.326D-01 0.281D+00 0.752D+00
 Gap=     0.226 Goal=   None    Shift=    0.000
 RMSDP=5.95D-03 MaxDP=4.00D-01 DE=-1.28D-01 OVMax= 6.43D-02

 Cycle   4  Pass 1  IDiag  1:
 E= -691.917776338749     Delta-E=       -0.001516704970 Rises=F Damp=F
 DIIS: error= 1.14D-02 at cycle   4 NSaved=   4.
 NSaved= 4 IEnMin= 4 EnMin= -691.917776338749     IErMin= 3 ErrMin= 1.03D-02
 ErrMax= 1.14D-02  0.00D+00 EMaxC= 1.00D-01 BMatC= 4.85D-03 BMatP= 6.23D-03
 IDIUse=3 WtCom= 8.86D-01 WtEn= 1.14D-01
 Coeff-Com: -0.324D-01 0.121D+00 0.509D+00 0.403D+00
 Coeff-En:   0.000D+00 0.000D+00 0.447D+00 0.553D+00
 Coeff:     -0.287D-01 0.107D+00 0.501D+00 0.420D+00
 Gap=     0.224 Goal=   None    Shift=    0.000
 RMSDP=3.92D-03 MaxDP=2.66D-01 DE=-1.52D-03 OVMax= 3.26D-02

 Cycle   5  Pass 1  IDiag  1:
 E= -691.923065059793     Delta-E=       -0.005288721044 Rises=F Damp=F
 DIIS: error= 1.30D-03 at cycle   5 NSaved=   5.
 NSaved= 5 IEnMin= 5 EnMin= -691.923065059793     IErMin= 5 ErrMin= 1.30D-03
 ErrMax= 1.30D-03  0.00D+00 EMaxC= 1.00D-01 BMatC= 1.28D-04 BMatP= 4.85D-03
 IDIUse=3 WtCom= 9.87D-01 WtEn= 1.30D-02
 Coeff-Com: -0.706D-02 0.131D-01 0.139D+00 0.193D+00 0.662D+00
 Coeff-En:   0.000D+00 0.000D+00 0.000D+00 0.000D+00 0.100D+01
 Coeff:     -0.697D-02 0.129D-01 0.137D+00 0.190D+00 0.667D+00
 Gap=     0.224 Goal=   None    Shift=    0.000
 RMSDP=8.11D-04 MaxDP=5.46D-02 DE=-5.29D-03 OVMax= 3.22D-03

 Cycle   6  Pass 1  IDiag  1:
 E= -691.923192304219     Delta-E=       -0.000127244427 Rises=F Damp=F
 DIIS: error= 8.56D-05 at cycle   6 NSaved=   6.
 NSaved= 6 IEnMin= 6 EnMin= -691.923192304219     IErMin= 6 ErrMin= 8.56D-05
 ErrMax= 8.56D-05  0.00D+00 EMaxC= 1.00D-01 BMatC= 1.75D-06 BMatP= 1.28D-04
 IDIUse=1 WtCom= 1.00D+00 WtEn= 0.00D+00
 Coeff-Com: -0.146D-02 0.109D-02 0.359D-01 0.546D-01 0.225D+00 0.685D+00
 Coeff:     -0.146D-02 0.109D-02 0.359D-01 0.546D-01 0.225D+00 0.685D+00
 Gap=     0.224 Goal=   None    Shift=    0.000
 RMSDP=1.09D-04 MaxDP=5.35D-03 DE=-1.27D-04 OVMax= 4.09D-04

 Cycle   7  Pass 1  IDiag  1:
 E= -691.923193609389     Delta-E=       -0.000001305170 Rises=F Damp=F
 DIIS: error= 5.17D-05 at cycle   7 NSaved=   7.
 NSaved= 7 IEnMin= 7 EnMin= -691.923193609389     IErMin= 7 ErrMin= 5.17D-05
 ErrMax= 5.17D-05  0.00D+00 EMaxC= 1.00D-01 BMatC= 1.97D-07 BMatP= 1.75D-06
 IDIUse=1 WtCom= 1.00D+00 WtEn= 0.00D+00
 Coeff-Com:  0.317D-03-0.115D-02-0.489D-03 0.836D-03 0.203D-01 0.262D+00
 Coeff-Com:  0.718D+00
 Coeff:      0.317D-03-0.115D-02-0.489D-03 0.836D-03 0.203D-01 0.262D+00
 Coeff:      0.718D+00
 Gap=     0.224 Goal=   None    Shift=    0.000
 RMSDP=1.87D-05 MaxDP=8.97D-04 DE=-1.31D-06 OVMax= 2.42D-04

 Cycle   8  Pass 1  IDiag  1:
 E= -691.923193788430     Delta-E=       -0.000000179041 Rises=F Damp=F
 DIIS: error= 1.86D-05 at cycle   8 NSaved=   8.
 NSaved= 8 IEnMin= 8 EnMin= -691.923193788430     IErMin= 8 ErrMin= 1.86D-05
 ErrMax= 1.86D-05  0.00D+00 EMaxC= 1.00D-01 BMatC= 2.91D-08 BMatP= 1.97D-07
 IDIUse=1 WtCom= 1.00D+00 WtEn= 0.00D+00
 Coeff-Com:  0.266D-03-0.714D-03-0.232D-02-0.268D-02-0.142D-02 0.972D-01
 Coeff-Com:  0.399D+00 0.511D+00
 Coeff:      0.266D-03-0.714D-03-0.232D-02-0.268D-02-0.142D-02 0.972D-01
 Coeff:      0.399D+00 0.511D+00
 Gap=     0.224 Goal=   None    Shift=    0.000
 RMSDP=9.14D-06 MaxDP=6.07D-04 DE=-1.79D-07 OVMax= 5.26D-05

 Cycle   9  Pass 1  IDiag  1:
 E= -691.923193814388     Delta-E=       -0.000000025958 Rises=F Damp=F
 DIIS: error= 2.27D-06 at cycle   9 NSaved=   9.
 NSaved= 9 IEnMin= 9 EnMin= -691.923193814388     IErMin= 9 ErrMin= 2.27D-06
 ErrMax= 2.27D-06  0.00D+00 EMaxC= 1.00D-01 BMatC= 8.21D-10 BMatP= 2.91D-08
 IDIUse=1 WtCom= 1.00D+00 WtEn= 0.00D+00
 Coeff-Com:  0.346D-04-0.524D-04-0.393D-03-0.671D-03-0.179D-02-0.315D-02
 Coeff-Com:  0.536D-01 0.147D+00 0.805D+00
 Coeff:      0.346D-04-0.524D-04-0.393D-03-0.671D-03-0.179D-02-0.315D-02
 Coeff:      0.536D-01 0.147D+00 0.805D+00
 Gap=     0.224 Goal=   None    Shift=    0.000
 RMSDP=1.94D-06 MaxDP=1.11D-04 DE=-2.60D-08 OVMax= 1.67D-05

 Cycle  10  Pass 1  IDiag  1:
 E= -691.923193815240     Delta-E=       -0.000000000852 Rises=F Damp=F
 DIIS: error= 8.07D-07 at cycle  10 NSaved=  10.
 NSaved=10 IEnMin=10 EnMin= -691.923193815240     IErMin=10 ErrMin= 8.07D-07
 ErrMax= 8.07D-07  0.00D+00 EMaxC= 1.00D-01 BMatC= 6.41D-11 BMatP= 8.21D-10
 IDIUse=1 WtCom= 1.00D+00 WtEn= 0.00D+00
 Coeff-Com:  0.664D-05-0.429D-05-0.814D-04-0.189D-03-0.654D-03-0.407D-02
 Coeff-Com:  0.718D-02 0.232D-01 0.284D+00 0.691D+00
 Coeff:      0.664D-05-0.429D-05-0.814D-04-0.189D-03-0.654D-03-0.407D-02
 Coeff:      0.718D-02 0.232D-01 0.284D+00 0.691D+00
 Gap=     0.224 Goal=   None    Shift=    0.000
 RMSDP=8.06D-07 MaxDP=5.16D-05 DE=-8.52D-10 OVMax= 2.31D-06

 Cycle  11  Pass 1  IDiag  1:
 E= -691.923193815295     Delta-E=       -0.000000000055 Rises=F Damp=F
 DIIS: error= 3.22D-07 at cycle  11 NSaved=  11.
 NSaved=11 IEnMin=11 EnMin= -691.923193815295     IErMin=11 ErrMin= 3.22D-07
 ErrMax= 3.22D-07  0.00D+00 EMaxC= 1.00D-01 BMatC= 1.07D-11 BMatP= 6.41D-11
 IDIUse=1 WtCom= 1.00D+00 WtEn= 0.00D+00
 Coeff-Com:  0.242D-06 0.149D-05-0.103D-05-0.272D-04-0.145D-03-0.153D-02
 Coeff-Com: -0.212D-02-0.951D-02 0.477D-01 0.338D+00 0.627D+00
 Coeff:      0.242D-06 0.149D-05-0.103D-05-0.272D-04-0.145D-03-0.153D-02
 Coeff:     -0.212D-02-0.951D-02 0.477D-01 0.338D+00 0.627D+00
 Gap=     0.224 Goal=   None    Shift=    0.000
 RMSDP=6.66D-08 MaxDP=2.77D-06 DE=-5.54D-11 OVMax= 9.40D-07

 Cycle  12  Pass 1  IDiag  1:
 E= -691.923193815307     Delta-E=       -0.000000000011 Rises=F Damp=F
 DIIS: error= 1.03D-07 at cycle  12 NSaved=  12.
 NSaved=12 IEnMin=12 EnMin= -691.923193815307     IErMin=12 ErrMin= 1.03D-07
 ErrMax= 1.03D-07  0.00D+00 EMaxC= 1.00D-01 BMatC= 9.99D-13 BMatP= 1.07D-11
 IDIUse=1 WtCom= 1.00D+00 WtEn= 0.00D+00
 Coeff-Com: -0.552D-06 0.103D-05 0.118D-04 0.127D-04 0.213D-04-0.169D-03
 Coeff-Com: -0.132D-02-0.778D-02-0.745D-02 0.811D-01 0.296D+00 0.639D+00
 Coeff:     -0.552D-06 0.103D-05 0.118D-04 0.127D-04 0.213D-04-0.169D-03
 Coeff:     -0.132D-02-0.778D-02-0.745D-02 0.811D-01 0.296D+00 0.639D+00
 Gap=     0.224 Goal=   None    Shift=    0.000
 RMSDP=1.37D-07 MaxDP=9.52D-06 DE=-1.14D-11 OVMax= 4.42D-07

 Cycle  13  Pass 1  IDiag  1:
 E= -691.923193815305     Delta-E=        0.000000000002 Rises=F Damp=F
 DIIS: error= 1.41D-08 at cycle  13 NSaved=  13.
 NSaved=13 IEnMin=12 EnMin= -691.923193815307     IErMin=13 ErrMin= 1.41D-08
 ErrMax= 1.41D-08  0.00D+00 EMaxC= 1.00D-01 BMatC= 2.08D-14 BMatP= 9.99D-13
 IDIUse=1 WtCom= 1.00D+00 WtEn= 0.00D+00
 Coeff-Com: -0.306D-07 0.174D-07 0.151D-05 0.294D-05 0.741D-05 0.129D-04
 Coeff-Com: -0.705D-04-0.102D-02-0.265D-02-0.309D-02 0.556D-02 0.919D-01
 Coeff-Com:  0.909D+00
 Coeff:     -0.306D-07 0.174D-07 0.151D-05 0.294D-05 0.741D-05 0.129D-04
 Coeff:     -0.705D-04-0.102D-02-0.265D-02-0.309D-02 0.556D-02 0.919D-01
 Coeff:      0.909D+00
 Gap=     0.224 Goal=   None    Shift=    0.000
 RMSDP=1.54D-08 MaxDP=1.02D-06 DE= 1.82D-12 OVMax= 3.08D-08

 Cycle  14  Pass 1  IDiag  1:
 E= -691.923193815303     Delta-E=        0.000000000001 Rises=F Damp=F
 DIIS: error= 2.18D-09 at cycle  14 NSaved=  14.
 NSaved=14 IEnMin=12 EnMin= -691.923193815307     IErMin=14 ErrMin= 2.18D-09
 ErrMax= 2.18D-09  0.00D+00 EMaxC= 1.00D-01 BMatC= 3.07D-16 BMatP= 2.08D-14
 IDIUse=1 WtCom= 1.00D+00 WtEn= 0.00D+00
 Coeff-Com:  0.229D-08-0.488D-08 0.560D-07 0.270D-06 0.134D-05 0.441D-05
 Coeff-Com:  0.224D-04 0.471D-05-0.207D-03-0.245D-02-0.831D-02 0.126D-02
 Coeff-Com:  0.153D+00 0.856D+00
 Coeff:      0.229D-08-0.488D-08 0.560D-07 0.270D-06 0.134D-05 0.441D-05
 Coeff:      0.224D-04 0.471D-05-0.207D-03-0.245D-02-0.831D-02 0.126D-02
 Coeff:      0.153D+00 0.856D+00
 Gap=     0.224 Goal=   None    Shift=    0.000
 RMSDP=6.62D-09 MaxDP=2.15D-07 DE= 1.36D-12 OVMax= 1.06D-08

 SCF Done:  E(RB3LYP) =  -691.923193815     A.U. after   14 cycles
            NFock= 14  Conv=0.66D-08     -V/T= 2.0031
 KE= 6.897676121321D+02 PE=-2.263957246685D+03 EE= 5.658498489598D+02
 Leave Link  502 at Mon Sep 28 02:09:33 2026, MaxMem=  1610612736 cpu:              33.0 elap:               4.3
 (Enter /share/software/user/restricted/gaussian/g16.B01/l601.exe)
 Copying SCF densities to generalized density rwf, IOpCl= 0 IROHF=0.

 **********************************************************************

            Population analysis using the SCF Density.

 **********************************************************************

 Orbital symmetries:
       Occupied  (A1) (A1) (B2) (A1) (A1) (B2) (A1) (A1) (A1) (B1)
                 (B2) (A1) (A1) (B2) (A1) (B2) (A1) (A1) (B2) (A1)
                 (A1) (B2) (B1) (A1) (B2) (B1) (B2) (A2) (B1)
       Virtual   (A2) (B1) (A1) (B2) (A1) (A1) (B2) (A1) (B1) (A1)
                 (A1) (B1) (A2) (B2) (A1) (B2) (A1) (B1) (A1) (B2)
                 (B1) (A2) (A1) (B2) (B2) (A1) (B1) (A1) (B2) (B1)
                 (A1) (B2) (A1) (A1) (B2) (B2) (A1) (A1) (B2) (B2)
                 (A1) (A1) (A1) (B2) (B2) (A1) (A1) (B2) (B1) (B2)
                 (A1) (B1) (A1) (B2) (B2) (A1) (A2) (B1) (B2) (A1)
                 (B1) (A2) (B1) (A1) (A1) (B2) (B2) (A1) (A1) (B1)
                 (B2) (A1) (A1) (A2) (B2) (A1) (B2) (A1) (B2) (A1)
                 (A1) (A2) (B2) (A1) (B1) (A1) (A2) (B2) (B1) (A2)
                 (A1) (B1) (A1) (B2) (B2) (A1) (A1) (B2) (A2) (A1)
                 (B1) (A1) (B2) (A2) (B1) (B1) (B2) (A1) (A1) (B2)
                 (A1) (B2) (A1) (B1) (A2) (B2) (A1) (B2) (B2) (A1)
                 (B1) (A1) (A2) (B1) (A1) (B1) (B2) (A2) (B1) (B2)
                 (A1) (A1) (B2) (B2) (A1) (A1) (A1) (B2) (A1) (A1)
                 (B2) (B2) (A1) (A1) (A1) (B2) (A1) (B2) (A1) (B1)
                 (B2) (A1) (A1)
 The electronic state is 1-A1.
 Alpha  occ. eigenvalues -- -101.55808 -10.24235 -10.19463 -10.19461 -10.19342
 Alpha  occ. eigenvalues --  -10.19339 -10.18952  -9.47388  -7.23825  -7.22872
 Alpha  occ. eigenvalues --   -7.22829  -0.90785  -0.84864  -0.76607  -0.74022
 Alpha  occ. eigenvalues --   -0.62636  -0.60836  -0.53279  -0.47926  -0.47650
 Alpha  occ. eigenvalues --   -0.44206  -0.44100  -0.40721  -0.37278  -0.37034
 Alpha  occ. eigenvalues --   -0.34450  -0.32060  -0.27259  -0.25287
 Alpha virt. eigenvalues --   -0.02900  -0.02840  -0.01096   0.00680   0.01146
 Alpha virt. eigenvalues --    0.02172   0.03343   0.04251   0.05437   0.05603
 Alpha virt. eigenvalues --    0.08056   0.08161   0.08506   0.08570   0.10646
 Alpha virt. eigenvalues --    0.11508   0.11592   0.11697   0.12400   0.12717
 Alpha virt. eigenvalues --    0.12915   0.13347   0.13635   0.13638   0.14062
 Alpha virt. eigenvalues --    0.14773   0.15531   0.17791   0.18003   0.18799
 Alpha virt. eigenvalues --    0.19723   0.21234   0.21362   0.22510   0.24299
 Alpha virt. eigenvalues --    0.25289   0.26163   0.27116   0.27262   0.28260
 Alpha virt. eigenvalues --    0.28468   0.30119   0.32686   0.33881   0.34639
 Alpha virt. eigenvalues --    0.34648   0.44683   0.45847   0.45924   0.48008
 Alpha virt. eigenvalues --    0.48223   0.52756   0.53338   0.54317   0.54807
 Alpha virt. eigenvalues --    0.54911   0.56419   0.57829   0.58194   0.59716
 Alpha virt. eigenvalues --    0.60491   0.60628   0.66353   0.67282   0.70922
 Alpha virt. eigenvalues --    0.71039   0.72797   0.75896   0.77904   0.82600
 Alpha virt. eigenvalues --    0.83457   0.83562   0.84842   0.85723   0.87426
 Alpha virt. eigenvalues --    0.88218   0.88615   0.88794   0.89446   0.93830
 Alpha virt. eigenvalues --    0.96624   0.99582   0.99886   1.04430   1.06606
 Alpha virt. eigenvalues --    1.16909   1.18609   1.19135   1.20737   1.21502
 Alpha virt. eigenvalues --    1.31738   1.32456   1.37949   1.50143   1.51579
 Alpha virt. eigenvalues --    1.52829   1.58753   1.72256   1.77250   1.77887
 Alpha virt. eigenvalues --    1.77895   1.81164   1.82826   1.90424   1.90948
 Alpha virt. eigenvalues --    1.97319   1.98467   1.98884   2.07830   2.21891
 Alpha virt. eigenvalues --    2.23327   2.24070   2.25611   2.26986   2.32312
 Alpha virt. eigenvalues --    2.40796   2.43426   2.44276   2.47232   2.57857
 Alpha virt. eigenvalues --    2.62426   2.64328   2.74580   2.75798   2.76046
 Alpha virt. eigenvalues --    2.86495   2.86542   2.86703   3.04696   3.09531
 Alpha virt. eigenvalues --    3.20467   3.25746   3.26203   3.27468   3.27560
 Alpha virt. eigenvalues --    3.40772   3.57828   3.60036   3.72431   3.97805
 Alpha virt. eigenvalues --    3.99040   4.76937   9.79062  23.25952  23.81873
 Alpha virt. eigenvalues --   23.83169  23.99519  24.02438  24.11957  25.82940
 Alpha virt. eigenvalues --   26.13299  26.64483 215.78221
          Condensed to atoms (all electrons):
               1          2          3          4          5          6
     1  C   12.000897  -2.127357   0.780199  -2.233294   0.780199  -2.127357
     2  C   -2.127357  13.179779  -0.884371   1.551174  -2.029618  -3.935957
     3  C    0.780199  -0.884371   8.059161  -1.491434   1.826762  -2.029618
     4  C   -2.233294   1.551174  -1.491434   7.813374  -1.491434   1.551174
     5  C    0.780199  -2.029618   1.826762  -1.491434   8.059161  -0.884371
     6  C   -2.127357  -3.935957  -2.029618   1.551174  -0.884371  13.179779
     7  Cl  -0.965945   0.135720   0.020944   0.101330   0.020944   0.135720
     8  H   -0.124627   0.444117   0.032997   0.030665   0.002152  -0.126113
     9  H    0.021510  -0.023838   0.260103   0.007499  -0.023984   0.062165
    10  H    0.031094  -0.017142   0.006540   0.283080   0.006540  -0.017142
    11  H    0.021510   0.062165  -0.023984   0.007499   0.260103  -0.023838
    12  H   -0.124627  -0.126113   0.002152   0.030665   0.032997   0.444117
               7          8          9         10         11         12
     1  C   -0.965945  -0.124627   0.021510   0.031094   0.021510  -0.124627
     2  C    0.135720   0.444117  -0.023838  -0.017142   0.062165  -0.126113
     3  C    0.020944   0.032997   0.260103   0.006540  -0.023984   0.002152
     4  C    0.101330   0.030665   0.007499   0.283080   0.007499   0.030665
     5  C    0.020944   0.002152  -0.023984   0.006540   0.260103   0.032997
     6  C    0.135720  -0.126113   0.062165  -0.017142  -0.023838   0.444117
     7  Cl  17.189415   0.017080  -0.006655   0.001339  -0.006655   0.017080
     8  H    0.017080   0.460717  -0.008864  -0.000685   0.002579  -0.003810
     9  H   -0.006655  -0.008864   0.449436  -0.000623  -0.003209   0.002579
    10  H    0.001339  -0.000685  -0.000623   0.454828  -0.000623  -0.000685
    11  H   -0.006655   0.002579  -0.003209  -0.000623   0.449436  -0.008864
    12  H    0.017080  -0.003810   0.002579  -0.000685  -0.008864   0.460717
 Mulliken charges:
               1
     1  C    0.067797
     2  C   -0.228557
     3  C   -0.559452
     4  C   -0.160296
     5  C   -0.559452
     6  C   -0.228557
     7  Cl   0.339683
     8  H    0.273795
     9  H    0.263882
    10  H    0.253479
    11  H    0.263882
    12  H    0.273795
 Sum of Mulliken charges =  -0.00000
 Mulliken charges with hydrogens summed into heavy atoms:
               1
     1  C    0.067797
     2  C    0.045238
     3  C   -0.295569
     4  C    0.093183
     5  C   -0.295569
     6  C    0.045238
     7  Cl   0.339683
 Electronic spatial extent (au):  <R**2>=            892.4625
 Charge=             -0.0000 electrons
 Dipole moment (field-independent basis, Debye):
    X=             -0.0000    Y=             -0.0000    Z=             -1.6161  Tot=              1.6161
 Quadrupole moment (field-independent basis, Debye-Ang):
   XX=            -52.0308   YY=            -42.6689   ZZ=            -46.2446
   XY=              0.0000   XZ=              0.0000   YZ=              0.0000
 Traceless Quadrupole moment (field-independent basis, Debye-Ang):
   XX=             -5.0494   YY=              4.3125   ZZ=              0.7369
   XY=              0.0000   XZ=              0.0000   YZ=              0.0000
 Octapole moment (field-independent basis, Debye-Ang**2):
  XXX=              0.0000  YYY=              0.0000  ZZZ=             -3.2359  XYY=              0.0000
  XXY=              0.0000  XXZ=              7.4766  XZZ=              0.0000  YZZ=              0.0000
  YYZ=             -1.0305  XYZ=             -0.0000
 Hexadecapole moment (field-independent basis, Debye-Ang**3):
 XXXX=            -62.5990 YYYY=           -283.7273 ZZZZ=           -784.2778 XXXY=             -0.0000
 XXXZ=             -0.0000 YYYX=             -0.0000 YYYZ=              0.0000 ZZZX=             -0.0000
 ZZZY=              0.0000 XXYY=            -69.9677 XXZZ=           -162.9906 YYZZ=           -182.2452
 XXYZ=             -0.0000 YYXZ=              0.0000 ZZXY=             -0.0000
 N-N= 3.164165917776D+02 E-N=-2.263957246668D+03  KE= 6.897676121321D+02
 Symmetry A1   KE= 5.133797314831D+02
 Symmetry A2   KE= 2.244420872343D+00
 Symmetry B1   KE= 4.999468648017D+01
 Symmetry B2   KE= 1.241487732964D+02
 No NMR shielding tensors so no spin-rotation constants.
 Leave Link  601 at Mon Sep 28 02:09:33 2026, MaxMem=  1610612736 cpu:               0.6 elap:               0.1
 (Enter /share/software/user/restricted/gaussian/g16.B01/l701.exe)
 ... and contract with generalized density number  0.
 Compute integral first derivatives.
 Leave Link  701 at Mon Sep 28 02:09:33 2026, MaxMem=  1610612736 cpu:               0.7 elap:               0.1
 (Enter /share/software/user/restricted/gaussian/g16.B01/l702.exe)
 L702 exits ... SP integral derivatives will be done elsewhere.
 Leave Link  702 at Mon Sep 28 02:09:33 2026, MaxMem=  1610612736 cpu:               0.2 elap:               0.0
 (Enter /share/software/user/restricted/gaussian/g16.B01/l703.exe)
 Integral derivatives from FoFJK, PRISM(SPDF).
 Compute integral first derivatives, UseDBF=F ICtDFT=           0.
 Calling FoFJK, ICntrl=      2127 FMM=F ISym2X=1 I1Cent= 0 IOpClX= 0 NMat=1 NMatS=1 NMatT=0.
 FoFJK:  IHMeth= 1 ICntrl=    2127 DoSepK=F KAlg= 0 I1Cent=           0 FoldK=F
 IRaf=         0 NMat=       1 IRICut=       1 DoRegI=T DoRafI=F ISym2E= 1 IDoP0=0 IntGTp=1.
 FoFCou: FMM=F IPFlag=           0 FMFlag=      100000 FMFlg1=         800
         NFxFlg=           0 DoJE=F BraDBF=F KetDBF=F FulRan=T
         wScrn=  0.000000 ICntrl=      2127 IOpCl=  0 I1Cent=           0 NGrid=           0
         NMat0=    1 NMatS0=      1 NMatT0=    0 NMatD0=    1 NMtDS0=    0 NMtDT0=    0
 Petite list used in FoFCou.
 Leave Link  703 at Mon Sep 28 02:09:34 2026, MaxMem=  1610612736 cpu:               9.7 elap:               1.2
 (Enter /share/software/user/restricted/gaussian/g16.B01/l716.exe)
 Dipole        =-7.64019343D-17 3.46389584D-14-6.35814804D-01
 ***** Axes restored to original set *****
 -------------------------------------------------------------------
 Center     Atomic                   Forces (Hartrees/Bohr)
 Number     Number              X              Y              Z
 -------------------------------------------------------------------
      1        6          -0.000000000   -0.027302601   -0.000000000
      2        6           0.006659168    0.003219743    0.000000000
      3        6           0.005788005   -0.004019955    0.000000000
      4        6           0.000000000   -0.010125612   -0.000000000
      5        6          -0.005788005   -0.004019955    0.000000000
      6        6          -0.006659168    0.003219743    0.000000000
      7       17          -0.000000000    0.027351833   -0.000000000
      8        1          -0.009817926   -0.004158429    0.000000000
      9        1          -0.008303644    0.005167114    0.000000000
     10        1           0.000000000    0.009659434   -0.000000000
     11        1           0.008303644    0.005167114    0.000000000
     12        1           0.009817926   -0.004158429    0.000000000
 -------------------------------------------------------------------
 Cartesian Forces:  Max     0.027351833 RMS     0.008022191
 Leave Link  716 at Mon Sep 28 02:09:34 2026, MaxMem=  1610612736 cpu:               0.2 elap:               0.0
 (Enter /share/software/user/restricted/gaussian/g16.B01/l103.exe)

 GradGradGradGradGradGradGradGradGradGradGradGradGradGradGradGradGradGrad
 Berny optimization.
 FormGI is forming the generalized inverse of G from B-inverse, IUseBI=4.
 Internal  Forces:  Max     0.027351833 RMS     0.004910927
 Search for a local minimum.
 Step number   1 out of a maximum of   64
 All quantities printed in internal units (Hartrees-Bohrs-Radians)
 RMS Force = .49109D-02 SwitMx=.10000D-02 MixMth= 1
 Mixed Optimization -- RFO/linear search
 Second derivative matrix not updated -- first step.
 ITU=  0
     Eigenvalues ---    0.02109   0.02119   0.02134   0.02139   0.02151
     Eigenvalues ---    0.02155   0.02158   0.02160   0.02161   0.16000
     Eigenvalues ---    0.16000   0.16000   0.16000   0.16000   0.22000
     Eigenvalues ---    0.22000   0.23489   0.25000   0.33666   0.33666
     Eigenvalues ---    0.33667   0.33667   0.33693   0.35756   0.42029
     Eigenvalues ---    0.42123   0.45998   0.46187   0.46489   0.46579
 RFO step:  Lambda=-3.71783112D-03 EMin= 2.10881837D-02
 Linear search not attempted -- first point.
 Iteration  1 RMS(Cart)=  0.01493496 RMS(Int)=  0.00003655
 Iteration  2 RMS(Cart)=  0.00004509 RMS(Int)=  0.00000053
 Iteration  3 RMS(Cart)=  0.00000000 RMS(Int)=  0.00000053
 ITry= 1 IFail=0 DXMaxC= 6.68D-02 DCOld= 1.00D+10 DXMaxT= 3.00D-01 DXLimC= 3.00D+00 Rises=F
 ClnCor:  largest displacement from symmetrization is 3.34D-11 for atom    10.
 Variable       Old X    -DE/DX   Delta X   Delta X   Delta X     New X
                                 (Linear)    (Quad)   (Total)
    R1        2.64275  -0.00310   0.00000  -0.00692  -0.00692   2.63583
    R2        2.64275  -0.00310   0.00000  -0.00692  -0.00692   2.63583
    R3        3.21464   0.02735   0.00000   0.07571   0.07571   3.29035
    R4        2.63484  -0.00091   0.00000  -0.00194  -0.00194   2.63290
    R5        2.07898  -0.01058   0.00000  -0.03109  -0.03109   2.04789
    R6        2.63611  -0.00170   0.00000  -0.00341  -0.00341   2.63270
    R7        2.07895  -0.00977   0.00000  -0.02871  -0.02871   2.05024
    R8        2.63611  -0.00170   0.00000  -0.00341  -0.00341   2.63270
    R9        2.07851  -0.00966   0.00000  -0.02836  -0.02836   2.05016
   R10        2.63484  -0.00091   0.00000  -0.00194  -0.00194   2.63290
   R11        2.07895  -0.00977   0.00000  -0.02871  -0.02871   2.05024
   R12        2.07898  -0.01058   0.00000  -0.03109  -0.03109   2.04789
    A1        2.10604  -0.00129   0.00000  -0.00598  -0.00598   2.10006
    A2        2.08857   0.00065   0.00000   0.00299   0.00299   2.09156
    A3        2.08857   0.00065   0.00000   0.00299   0.00299   2.09156
    A4        2.08347   0.00097   0.00000   0.00377   0.00376   2.08723
    A5        2.10103  -0.00184   0.00000  -0.01013  -0.01013   2.09090
    A6        2.09869   0.00086   0.00000   0.00637   0.00637   2.10505
    A7        2.09953   0.00059   0.00000   0.00295   0.00295   2.10248
    A8        2.08812  -0.00064   0.00000  -0.00360  -0.00360   2.08452
    A9        2.09553   0.00005   0.00000   0.00065   0.00065   2.09618
   A10        2.09433  -0.00183   0.00000  -0.00745  -0.00745   2.08688
   A11        2.09443   0.00092   0.00000   0.00372   0.00372   2.09815
   A12        2.09443   0.00092   0.00000   0.00372   0.00372   2.09815
   A13        2.09953   0.00059   0.00000   0.00295   0.00295   2.10248
   A14        2.09553   0.00005   0.00000   0.00065   0.00065   2.09618
   A15        2.08812  -0.00064   0.00000  -0.00360  -0.00360   2.08452
   A16        2.08347   0.00097   0.00000   0.00377   0.00376   2.08723
   A17        2.10103  -0.00184   0.00000  -0.01013  -0.01013   2.09090
   A18        2.09869   0.00086   0.00000   0.00637   0.00637   2.10505
    D1       -0.00000   0.00000   0.00000   0.00000   0.00000   0.00000
    D2        3.14159   0.00000   0.00000   0.00000   0.00000   3.14159
    D3        3.14159  -0.00000   0.00000  -0.00000   0.00000   3.14159
    D4        0.00000  -0.00000   0.00000  -0.00000  -0.00000   0.00000
    D5        0.00000  -0.00000   0.00000  -0.00000   0.00000   0.00000
    D6        3.14159  -0.00000   0.00000  -0.00000   0.00000   3.14159
    D7        3.14159   0.00000   0.00000   0.00000   0.00000   3.14159
    D8        0.00000  -0.00000   0.00000  -0.00000  -0.00000   0.00000
    D9        0.00000  -0.00000   0.00000  -0.00000  -0.00000   0.00000
   D10        3.14159  -0.00000   0.00000  -0.00000   0.00000   3.14159
   D11        3.14159   0.00000   0.00000   0.00000   0.00000   3.14159
   D12        0.00000  -0.00000   0.00000  -0.00000   0.00000   0.00000
   D13        0.00000  -0.00000   0.00000  -0.00000   0.00000   0.00000
   D14        3.14159  -0.00000   0.00000  -0.00000   0.00000   3.14159
   D15        3.14159  -0.00000   0.00000  -0.00000   0.00000   3.14159
   D16       -0.00000  -0.00000   0.00000  -0.00000   0.00000   0.00000
   D17       -0.00000   0.00000   0.00000   0.00000   0.00000   0.00000
   D18        3.14159   0.00000   0.00000   0.00000   0.00000   3.14159
   D19        3.14159   0.00000   0.00000   0.00000   0.00000   3.14159
   D20       -0.00000   0.00000   0.00000   0.00000   0.00000   0.00000
   D21       -0.00000   0.00000   0.00000   0.00000   0.00000   0.00000
   D22        3.14159   0.00000   0.00000   0.00000   0.00000   3.14159
   D23        3.14159  -0.00000   0.00000  -0.00000   0.00000   3.14159
   D24        0.00000   0.00000   0.00000   0.00000   0.00000   0.00000
         Item               Value     Threshold  Converged?
 Maximum Force            0.027352     0.000450     NO 
 RMS     Force            0.004911     0.000300     NO 
 Maximum Displacement     0.066844     0.001800     NO 
 RMS     Displacement     0.014938     0.001200     NO 
 Predicted change in Energy=-1.878877D-03
 Lowest energy point so far.  Saving SCF results.
 GradGradGradGradGradGradGradGradGradGradGradGradGradGradGradGradGradGrad

 Leave Link  103 at Mon Sep 28 02:09:34 2026, MaxMem=  1610612736 cpu:               0.1 elap:               0.0
 (Enter /share/software/user/restricted/gaussian/g16.B01/l202.exe)
                          Input orientation:                          
 ---------------------------------------------------------------------
 Center     Atomic      Atomic             Coordinates (Angstroms)
 Number     Number       Type             X           Y           Z
 ---------------------------------------------------------------------
      1          6           0        0.000000    1.390357   -0.000000
      2          6           0        1.209924    0.696371    0.000000
      3          6           0        1.203891   -0.696884    0.000000
      4          6           0       -0.000000   -1.397992    0.000000
      5          6           0       -1.203891   -0.696884   -0.000000
      6          6           0       -1.209924    0.696371   -0.000000
      7         17           0        0.000000    3.131536   -0.000000
      8          1           0        2.144984    1.244145    0.000000
      9          1           0        2.146466   -1.234139    0.000000
     10          1           0       -0.000000   -2.482889    0.000000
     11          1           0       -2.146466   -1.234139   -0.000000
     12          1           0       -2.144984    1.244145   -0.000000
 ---------------------------------------------------------------------
                    Distance matrix (angstroms):
                    1          2          3          4          5
     1  C    0.000000
     2  C    1.394823   0.000000
     3  C    2.409549   1.393268   0.000000
     4  C    2.788350   2.418734   1.393164   0.000000
     5  C    2.409549   2.787052   2.407782   1.393164   0.000000
     6  C    1.394823   2.419848   2.787052   2.418734   1.393268
     7  Cl   1.741179   2.719181   4.013247   4.529529   4.013247
     8  H    2.149962   1.083695   2.157139   3.403211   3.870731
     9  H    3.390471   2.145689   1.084938   2.152711   3.393160
    10  H    3.873246   3.401707   2.153873   1.084897   2.153873
    11  H    3.390471   3.871979   3.393160   2.152711   1.084938
    12  H    2.149962   3.399333   3.870731   3.403211   2.157139
                    6          7          8          9         10
     6  C    0.000000
     7  Cl   2.719181   0.000000
     8  H    3.399333   2.857132   0.000000
     9  H    3.871979   4.864816   2.478284   0.000000
    10  H    3.401707   5.614425   4.300202   2.483283   0.000000
    11  H    2.145689   4.864816   4.955647   4.292931   2.483283
    12  H    1.083695   2.857132   4.289969   4.955647   4.300202
                   11         12
    11  H    0.000000
    12  H    2.478284   0.000000
 Stoichiometry    C6H5Cl
 Framework group  C2V[C2(HCCCl),SGV(C4H4)]
 Deg. of freedom    11
 Full point group                 C2V     NOp   4
 RotChk:  IX=0 Diff= 1.47D-16
 Largest Abelian subgroup         C2V     NOp   4
 Largest concise Abelian subgroup C2      NOp   2
                         Standard orientation:                         
 ---------------------------------------------------------------------
 Center     Atomic      Atomic             Coordinates (Angstroms)
 Number     Number       Type             X           Y           Z
 ---------------------------------------------------------------------
      1          6           0       -0.000000   -0.000000    0.515852
      2          6           0        0.000000    1.209924   -0.178133
      3          6           0        0.000000    1.203891   -1.571389
      4          6           0        0.000000    0.000000   -2.272497
      5          6           0       -0.000000   -1.203891   -1.571389
      6          6           0       -0.000000   -1.209924   -0.178133
      7         17           0       -0.000000   -0.000000    2.257031
      8          1           0        0.000000    2.144984    0.369640
      9          1           0        0.000000    2.146466   -2.108643
     10          1           0        0.000000    0.000000   -3.357394
     11          1           0       -0.000000   -2.146466   -2.108643
     12          1           0       -0.000000   -2.144984    0.369640
 ---------------------------------------------------------------------
 Rotational constants (GHZ):           5.7118455           1.5636441           1.2275866
 Leave Link  202 at Mon Sep 28 02:09:34 2026, MaxMem=  1610612736 cpu:               0.0 elap:               0.0
 (Enter /share/software/user/restricted/gaussian/g16.B01/l301.exe)
 Standard basis: 6-311++G(d) (5D, 7F)
 Ernie: Thresh=  0.10000D-02 Tol=  0.10000D-05 Strict=F.
 There are    86 symmetry adapted cartesian basis functions of A1  symmetry.
 There are    15 symmetry adapted cartesian basis functions of A2  symmetry.
 There are    29 symmetry adapted cartesian basis functions of B1  symmetry.
 There are    59 symmetry adapted cartesian basis functions of B2  symmetry.
 There are    81 symmetry adapted basis functions of A1  symmetry.
 There are    15 symmetry adapted basis functions of A2  symmetry.
 There are    29 symmetry adapted basis functions of B1  symmetry.
 There are    57 symmetry adapted basis functions of B2  symmetry.
   182 basis functions,   299 primitive gaussians,   189 cartesian basis functions
    29 alpha electrons       29 beta electrons
       nuclear repulsion energy       315.3751193603 Hartrees.
 IExCor=  402 DFT=T Ex+Corr=B3LYP ExCW=0 ScaHFX=  0.200000
 ScaDFX=  0.800000  0.720000  1.000000  0.810000 ScalE2=  1.000000  1.000000
 IRadAn=      5 IRanWt=     -1 IRanGd=            0 ICorTp=0 IEmpDi=  4
 NAtoms=   12 NActive=   12 NUniq=    8 SFac= 2.25D+00 NAtFMM=   60 NAOKFM=F Big=F
 Integral buffers will be    131072 words long.
 Raffenetti 2 integral format.
 Two-electron integral symmetry is turned on.
 Leave Link  301 at Mon Sep 28 02:09:34 2026, MaxMem=  1610612736 cpu:               0.2 elap:               0.0
 (Enter /share/software/user/restricted/gaussian/g16.B01/l302.exe)
 NPDir=0 NMtPBC=     1 NCelOv=     1 NCel=       1 NClECP=     1 NCelD=      1
         NCelK=      1 NCelE2=     1 NClLst=     1 CellRange=     0.0.
 One-electron integrals computed using PRISM.
 One-electron integral symmetry used in STVInt
 NBasis=   182 RedAO= T EigKep=  1.14D-06  NBF=    81    15    29    57
 NBsUse=   182 1.00D-06 EigRej= -1.00D+00 NBFU=    81    15    29    57
 Precomputing XC quadrature grid using
 IXCGrd= 4 IRadAn=           5 IRanWt=          -1 IRanGd=           0 AccXCQ= 0.00D+00.
 Generated NRdTot=       0 NPtTot=           0 NUsed=           0 NTot=          32
 NSgBfM=   189   189   189   189   189 MxSgAt=    12 MxSgA2=    12.
 Leave Link  302 at Mon Sep 28 02:09:35 2026, MaxMem=  1610612736 cpu:               0.9 elap:               0.1
 (Enter /share/software/user/restricted/gaussian/g16.B01/l303.exe)
 DipDrv:  MaxL=1.
 Leave Link  303 at Mon Sep 28 02:09:35 2026, MaxMem=  1610612736 cpu:               0.2 elap:               0.0
 (Enter /share/software/user/restricted/gaussian/g16.B01/l401.exe)
 Initial guess from the checkpoint file:  "calcs/b3lyp_gas/chks/ClBz_1.chk"
 B after Tr=     0.000000    0.000000    0.000000
         Rot=    1.000000   -0.000000    0.000000    0.000000 Ang=   0.00 deg.
 Guess basis will be translated and rotated to current coordinates.
 JPrj=2 DoOrth=T DoCkMO=T.
 Initial guess orbital symmetries:
       Occupied  (A1) (A1) (B2) (A1) (A1) (B2) (A1) (A1) (A1) (B1)
                 (B2) (A1) (A1) (B2) (A1) (B2) (A1) (A1) (B2) (A1)
                 (A1) (B2) (B1) (A1) (B2) (B1) (B2) (A2) (B1)
       Virtual   (A2) (B1) (A1) (B2) (A1) (A1) (B2) (A1) (B1) (A1)
                 (A1) (B1) (A2) (B2) (A1) (B2) (A1) (B1) (A1) (B2)
                 (B1) (A2) (A1) (B2) (B2) (A1) (B1) (A1) (B2) (B1)
                 (A1) (B2) (A1) (A1) (B2) (B2) (A1) (A1) (B2) (B2)
                 (A1) (A1) (A1) (B2) (B2) (A1) (A1) (B2) (B1) (B2)
                 (A1) (B1) (A1) (B2) (B2) (A1) (A2) (B1) (B2) (A1)
                 (B1) (A2) (B1) (A1) (A1) (B2) (B2) (A1) (A1) (B1)
                 (B2) (A1) (A1) (A2) (B2) (A1) (B2) (A1) (B2) (A1)
                 (A1) (A2) (B2) (A1) (B1) (A1) (A2) (B2) (B1) (A2)
                 (A1) (B1) (A1) (B2) (B2) (A1) (A1) (B2) (A2) (A1)
                 (B1) (A1) (B2) (A2) (B1) (B1) (B2) (A1) (A1) (B2)
                 (A1) (B2) (A1) (B1) (A2) (B2) (A1) (B2) (B2) (A1)
                 (B1) (A1) (A2) (B1) (A1) (B1) (B2) (A2) (B1) (B2)
                 (A1) (A1) (B2) (B2) (A1) (A1) (A1) (B2) (A1) (A1)
                 (B2) (B2) (A1) (A1) (A1) (B2) (A1) (B2) (A1) (B1)
                 (B2) (A1) (A1)
 The electronic state of the initial guess is 1-A1.
 Generating alternative initial guess.
 ExpMin= 3.60D-02 ExpMax= 1.06D+05 ExpMxC= 3.62D+03 IAcc=3 IRadAn=         5 AccDes= 0.00D+00
 Harris functional with IExCor=  402 and IRadAn=       5 diagonalized for initial guess.
 HarFok:  IExCor=  402 AccDes= 0.00D+00 IRadAn=         5 IDoV= 1 UseB2=F ITyADJ=14
 ICtDFT=  3500011 ScaDFX=  1.000000  1.000000  1.000000  1.000000
 FoFCou: FMM=F IPFlag=           0 FMFlag=      100000 FMFlg1=           0
         NFxFlg=           0 DoJE=T BraDBF=F KetDBF=T FulRan=T
         wScrn=  0.000000 ICntrl=       500 IOpCl=  0 I1Cent=   200000004 NGrid=           0
         NMat0=    1 NMatS0=      1 NMatT0=    0 NMatD0=    1 NMtDS0=    0 NMtDT0=    0
 Petite list used in FoFCou.
 Harris En= -691.888201667674    
 Leave Link  401 at Mon Sep 28 02:09:35 2026, MaxMem=  1610612736 cpu:               2.4 elap:               0.3
 (Enter /share/software/user/restricted/gaussian/g16.B01/l502.exe)
 Keep R1 ints in memory in symmetry-blocked form, NReq=176010216.
 FoFCou: FMM=F IPFlag=           0 FMFlag=           0 FMFlg1=           0
         NFxFlg=           0 DoJE=F BraDBF=F KetDBF=F FulRan=T
         wScrn=  0.000000 ICntrl=       600 IOpCl=  0 I1Cent=           0 NGrid=           0
         NMat0=    1 NMatS0=  16653 NMatT0=    0 NMatD0=    1 NMtDS0=    0 NMtDT0=    0
 Petite list used in FoFCou.
 Closed shell SCF:
 Using DIIS extrapolation, IDIIS=  1040.
 NGot=  1610612736 LenX=  1573198420 LenY=  1573162258
 Requested convergence on RMS density matrix=1.00D-08 within 128 cycles.
 Requested convergence on MAX density matrix=1.00D-06.
 Requested convergence on             energy=1.00D-06.
 No special actions if energy rises.

 Cycle   1  Pass 1  IDiag  1:
 E= -691.924454034133    
 DIIS: error= 1.50D-03 at cycle   1 NSaved=   1.
 NSaved= 1 IEnMin= 1 EnMin= -691.924454034133     IErMin= 1 ErrMin= 1.50D-03
 ErrMax= 1.50D-03  0.00D+00 EMaxC= 1.00D-01 BMatC= 6.51D-04 BMatP= 6.51D-04
 IDIUse=3 WtCom= 9.85D-01 WtEn= 1.50D-02
 Coeff-Com:  0.100D+01
 Coeff-En:   0.100D+01
 Coeff:      0.100D+01
 Gap=     0.226 Goal=   None    Shift=    0.000
 GapD=    0.226 DampG=1.000 DampE=1.000 DampFc=1.0000 IDamp=-1.
 RMSDP=3.88D-03 MaxDP=1.37D-01              OVMax= 7.88D-03

 Cycle   2  Pass 1  IDiag  1:
 E= -691.925134807170     Delta-E=       -0.000680773037 Rises=F Damp=F
 DIIS: error= 1.16D-03 at cycle   2 NSaved=   2.
 NSaved= 2 IEnMin= 2 EnMin= -691.925134807170     IErMin= 2 ErrMin= 1.16D-03
 ErrMax= 1.16D-03  0.00D+00 EMaxC= 1.00D-01 BMatC= 1.39D-04 BMatP= 6.51D-04
 IDIUse=3 WtCom= 9.88D-01 WtEn= 1.16D-02
 Coeff-Com:  0.237D+00 0.763D+00
 Coeff-En:   0.000D+00 0.100D+01
 Coeff:      0.234D+00 0.766D+00
 Gap=     0.227 Goal=   None    Shift=    0.000
 RMSDP=1.45D-03 MaxDP=1.00D-01 DE=-6.81D-04 OVMax= 9.37D-03

 Cycle   3  Pass 1  IDiag  1:
 E= -691.925138430223     Delta-E=       -0.000003623053 Rises=F Damp=F
 DIIS: error= 1.33D-03 at cycle   3 NSaved=   3.
 NSaved= 3 IEnMin= 3 EnMin= -691.925138430223     IErMin= 2 ErrMin= 1.16D-03
 ErrMax= 1.33D-03  0.00D+00 EMaxC= 1.00D-01 BMatC= 1.34D-04 BMatP= 1.39D-04
 IDIUse=3 WtCom= 9.87D-01 WtEn= 1.33D-02
 Coeff-Com:  0.842D-02 0.493D+00 0.498D+00
 Coeff-En:   0.000D+00 0.494D+00 0.506D+00
 Coeff:      0.831D-02 0.493D+00 0.499D+00
 Gap=     0.227 Goal=   None    Shift=    0.000
 RMSDP=6.17D-04 MaxDP=4.03D-02 DE=-3.62D-06 OVMax= 5.68D-03

 Cycle   4  Pass 1  IDiag  1:
 E= -691.925265459925     Delta-E=       -0.000127029702 Rises=F Damp=F
 DIIS: error= 3.94D-04 at cycle   4 NSaved=   4.
 NSaved= 4 IEnMin= 4 EnMin= -691.925265459925     IErMin= 4 ErrMin= 3.94D-04
 ErrMax= 3.94D-04  0.00D+00 EMaxC= 1.00D-01 BMatC= 6.11D-06 BMatP= 1.34D-04
 IDIUse=3 WtCom= 9.96D-01 WtEn= 3.94D-03
 Coeff-Com: -0.558D-02 0.233D+00 0.279D+00 0.493D+00
 Coeff-En:   0.000D+00 0.000D+00 0.000D+00 0.100D+01
 Coeff:     -0.556D-02 0.233D+00 0.278D+00 0.495D+00
 Gap=     0.227 Goal=   None    Shift=    0.000
 RMSDP=1.20D-04 MaxDP=8.00D-03 DE=-1.27D-04 OVMax= 1.42D-03

 Cycle   5  Pass 1  IDiag  1:
 E= -691.925271605059     Delta-E=       -0.000006145134 Rises=F Damp=F
 DIIS: error= 1.41D-04 at cycle   5 NSaved=   5.
 NSaved= 5 IEnMin= 5 EnMin= -691.925271605059     IErMin= 5 ErrMin= 1.41D-04
 ErrMax= 1.41D-04  0.00D+00 EMaxC= 1.00D-01 BMatC= 8.07D-07 BMatP= 6.11D-06
 IDIUse=3 WtCom= 9.99D-01 WtEn= 1.41D-03
 Coeff-Com: -0.406D-02 0.634D-01 0.888D-01 0.292D+00 0.560D+00
 Coeff-En:   0.000D+00 0.000D+00 0.000D+00 0.993D-01 0.901D+00
 Coeff:     -0.405D-02 0.633D-01 0.886D-01 0.291D+00 0.561D+00
 Gap=     0.227 Goal=   None    Shift=    0.000
 RMSDP=3.74D-05 MaxDP=2.38D-03 DE=-6.15D-06 OVMax= 4.28D-04

 Cycle   6  Pass 1  IDiag  1:
 E= -691.925272431015     Delta-E=       -0.000000825956 Rises=F Damp=F
 DIIS: error= 1.16D-05 at cycle   6 NSaved=   6.
 NSaved= 6 IEnMin= 6 EnMin= -691.925272431015     IErMin= 6 ErrMin= 1.16D-05
 ErrMax= 1.16D-05  0.00D+00 EMaxC= 1.00D-01 BMatC= 1.72D-08 BMatP= 8.07D-07
 IDIUse=1 WtCom= 1.00D+00 WtEn= 0.00D+00
 Coeff-Com: -0.142D-02 0.142D-01 0.213D-01 0.896D-01 0.221D+00 0.655D+00
 Coeff:     -0.142D-02 0.142D-01 0.213D-01 0.896D-01 0.221D+00 0.655D+00
 Gap=     0.227 Goal=   None    Shift=    0.000
 RMSDP=1.12D-05 MaxDP=7.24D-04 DE=-8.26D-07 OVMax= 4.50D-05

 Cycle   7  Pass 1  IDiag  1:
 E= -691.925272445546     Delta-E=       -0.000000014531 Rises=F Damp=F
 DIIS: error= 5.16D-06 at cycle   7 NSaved=   7.
 NSaved= 7 IEnMin= 7 EnMin= -691.925272445546     IErMin= 7 ErrMin= 5.16D-06
 ErrMax= 5.16D-06  0.00D+00 EMaxC= 1.00D-01 BMatC= 2.77D-09 BMatP= 1.72D-08
 IDIUse=1 WtCom= 1.00D+00 WtEn= 0.00D+00
 Coeff-Com: -0.313D-03 0.509D-03 0.128D-02 0.153D-01 0.550D-01 0.331D+00
 Coeff-Com:  0.597D+00
 Coeff:     -0.313D-03 0.509D-03 0.128D-02 0.153D-01 0.550D-01 0.331D+00
 Coeff:      0.597D+00
 Gap=     0.227 Goal=   None    Shift=    0.000
 RMSDP=6.73D-06 MaxDP=4.64D-04 DE=-1.45D-08 OVMax= 1.69D-05

 Cycle   8  Pass 1  IDiag  1:
 E= -691.925272448374     Delta-E=       -0.000000002828 Rises=F Damp=F
 DIIS: error= 1.20D-06 at cycle   8 NSaved=   8.
 NSaved= 8 IEnMin= 8 EnMin= -691.925272448374     IErMin= 8 ErrMin= 1.20D-06
 ErrMax= 1.20D-06  0.00D+00 EMaxC= 1.00D-01 BMatC= 1.43D-10 BMatP= 2.77D-09
 IDIUse=1 WtCom= 1.00D+00 WtEn= 0.00D+00
 Coeff-Com: -0.144D-04-0.794D-03-0.109D-02 0.248D-03 0.845D-02 0.905D-01
 Coeff-Com:  0.250D+00 0.652D+00
 Coeff:     -0.144D-04-0.794D-03-0.109D-02 0.248D-03 0.845D-02 0.905D-01
 Coeff:      0.250D+00 0.652D+00
 Gap=     0.227 Goal=   None    Shift=    0.000
 RMSDP=5.11D-07 MaxDP=1.41D-05 DE=-2.83D-09 OVMax= 5.91D-06

 Cycle   9  Pass 1  IDiag  1:
 E= -691.925272448512     Delta-E=       -0.000000000138 Rises=F Damp=F
 DIIS: error= 2.26D-07 at cycle   9 NSaved=   9.
 NSaved= 9 IEnMin= 9 EnMin= -691.925272448512     IErMin= 9 ErrMin= 2.26D-07
 ErrMax= 2.26D-07  0.00D+00 EMaxC= 1.00D-01 BMatC= 1.01D-11 BMatP= 1.43D-10
 IDIUse=1 WtCom= 1.00D+00 WtEn= 0.00D+00
 Coeff-Com:  0.145D-04-0.281D-03-0.510D-03-0.108D-02-0.129D-02 0.363D-02
 Coeff-Com:  0.416D-01 0.246D+00 0.712D+00
 Coeff:      0.145D-04-0.281D-03-0.510D-03-0.108D-02-0.129D-02 0.363D-02
 Coeff:      0.416D-01 0.246D+00 0.712D+00
 Gap=     0.227 Goal=   None    Shift=    0.000
 RMSDP=1.78D-07 MaxDP=9.04D-06 DE=-1.38D-10 OVMax= 9.69D-07

 Cycle  10  Pass 1  IDiag  1:
 E= -691.925272448522     Delta-E=       -0.000000000011 Rises=F Damp=F
 DIIS: error= 5.60D-08 at cycle  10 NSaved=  10.
 NSaved=10 IEnMin=10 EnMin= -691.925272448522     IErMin=10 ErrMin= 5.60D-08
 ErrMax= 5.60D-08  0.00D+00 EMaxC= 1.00D-01 BMatC= 3.58D-13 BMatP= 1.01D-11
 IDIUse=1 WtCom= 1.00D+00 WtEn= 0.00D+00
 Coeff-Com:  0.519D-05-0.558D-04-0.127D-03-0.344D-03-0.549D-03-0.260D-02
 Coeff-Com:  0.379D-02 0.461D-01 0.203D+00 0.751D+00
 Coeff:      0.519D-05-0.558D-04-0.127D-03-0.344D-03-0.549D-03-0.260D-02
 Coeff:      0.379D-02 0.461D-01 0.203D+00 0.751D+00
 Gap=     0.227 Goal=   None    Shift=    0.000
 RMSDP=1.37D-07 MaxDP=9.09D-06 DE=-1.07D-11 OVMax= 3.17D-07

 Cycle  11  Pass 1  IDiag  1:
 E= -691.925272448523     Delta-E=       -0.000000000001 Rises=F Damp=F
 DIIS: error= 3.29D-08 at cycle  11 NSaved=  11.
 NSaved=11 IEnMin=11 EnMin= -691.925272448523     IErMin=11 ErrMin= 3.29D-08
 ErrMax= 3.29D-08  0.00D+00 EMaxC= 1.00D-01 BMatC= 9.87D-14 BMatP= 3.58D-13
 IDIUse=1 WtCom= 1.00D+00 WtEn= 0.00D+00
 Coeff-Com:  0.169D-05 0.423D-07-0.176D-04-0.904D-04-0.209D-03-0.232D-02
 Coeff-Com: -0.313D-02-0.411D-02 0.296D-01 0.398D+00 0.583D+00
 Coeff:      0.169D-05 0.423D-07-0.176D-04-0.904D-04-0.209D-03-0.232D-02
 Coeff:     -0.313D-02-0.411D-02 0.296D-01 0.398D+00 0.583D+00
 Gap=     0.227 Goal=   None    Shift=    0.000
 RMSDP=9.07D-09 MaxDP=5.17D-07 DE=-1.14D-12 OVMax= 7.39D-08

 SCF Done:  E(RB3LYP) =  -691.925272449     A.U. after   11 cycles
            NFock= 11  Conv=0.91D-08     -V/T= 2.0030
 KE= 6.898317393211D+02 PE=-2.261922073891D+03 EE= 5.647899427613D+02
 Leave Link  502 at Mon Sep 28 02:09:39 2026, MaxMem=  1610612736 cpu:              27.3 elap:               3.5
 (Enter /share/software/user/restricted/gaussian/g16.B01/l701.exe)
 ... and contract with generalized density number  0.
 Compute integral first derivatives.
 Leave Link  701 at Mon Sep 28 02:09:39 2026, MaxMem=  1610612736 cpu:               0.6 elap:               0.1
 (Enter /share/software/user/restricted/gaussian/g16.B01/l702.exe)
 L702 exits ... SP integral derivatives will be done elsewhere.
 Leave Link  702 at Mon Sep 28 02:09:39 2026, MaxMem=  1610612736 cpu:               0.2 elap:               0.0
 (Enter /share/software/user/restricted/gaussian/g16.B01/l703.exe)
 Integral derivatives from FoFJK, PRISM(SPDF).
 Compute integral first derivatives, UseDBF=F ICtDFT=           0.
 Calling FoFJK, ICntrl=      2127 FMM=F ISym2X=1 I1Cent= 0 IOpClX= 0 NMat=1 NMatS=1 NMatT=0.
 FoFJK:  IHMeth= 1 ICntrl=    2127 DoSepK=F KAlg= 0 I1Cent=           0 FoldK=F
 IRaf=         0 NMat=       1 IRICut=       1 DoRegI=T DoRafI=F ISym2E= 1 IDoP0=0 IntGTp=1.
 FoFCou: FMM=F IPFlag=           0 FMFlag=      100000 FMFlg1=         800
         NFxFlg=           0 DoJE=F BraDBF=F KetDBF=F FulRan=T
         wScrn=  0.000000 ICntrl=      2127 IOpCl=  0 I1Cent=           0 NGrid=           0
         NMat0=    1 NMatS0=      1 NMatT0=    0 NMatD0=    1 NMtDS0=    0 NMtDT0=    0
 Petite list used in FoFCou.
 Leave Link  703 at Mon Sep 28 02:09:40 2026, MaxMem=  1610612736 cpu:               9.6 elap:               1.2
 (Enter /share/software/user/restricted/gaussian/g16.B01/l716.exe)
 Dipole        =-6.96382793D-17 5.32907052D-15-7.01543781D-01
 ***** Axes restored to original set *****
 -------------------------------------------------------------------
 Center     Atomic                   Forces (Hartrees/Bohr)
 Number     Number              X              Y              Z
 -------------------------------------------------------------------
      1        6           0.000000000   -0.012358797   -0.000000000
      2        6           0.000565827    0.002707038    0.000000000
      3        6          -0.000220149   -0.000131752    0.000000000
      4        6           0.000000000   -0.000259764   -0.000000000
      5        6           0.000220149   -0.000131752    0.000000000
      6        6          -0.000565827    0.002707038    0.000000000
      7       17          -0.000000000    0.006792312   -0.000000000
      8        1           0.000203338    0.000068006    0.000000000
      9        1           0.000275348    0.000235970    0.000000000
     10        1          -0.000000000    0.000067725   -0.000000000
     11        1          -0.000275348    0.000235970    0.000000000
     12        1          -0.000203338    0.000068006    0.000000000
 -------------------------------------------------------------------
 Cartesian Forces:  Max     0.012358797 RMS     0.002442281
 Leave Link  716 at Mon Sep 28 02:09:40 2026, MaxMem=  1610612736 cpu:               0.2 elap:               0.0
 (Enter /share/software/user/restricted/gaussian/g16.B01/l103.exe)

 GradGradGradGradGradGradGradGradGradGradGradGradGradGradGradGradGradGrad
 Berny optimization.
 Using GEDIIS/GDIIS optimizer.
 FormGI is forming the generalized inverse of G from B-inverse, IUseBI=4.
 Internal  Forces:  Max     0.006792312 RMS     0.001135697
 Search for a local minimum.
 Step number   2 out of a maximum of   64
 All quantities printed in internal units (Hartrees-Bohrs-Radians)
 RMS Force = .11357D-02 SwitMx=.10000D-02 MixMth= 1
 Mixed Optimization -- RFO/linear search
 Update second derivatives using D2CorX and points    1    2
 DE= -2.08D-03 DEPred=-1.88D-03 R= 1.11D+00
 TightC=F SS=  1.41D+00  RLast= 1.04D-01 DXNew= 5.0454D-01 3.1091D-01
 Trust test= 1.11D+00 RLast= 1.04D-01 DXMaxT set to 3.11D-01
 ITU=  1  0
 Use linear search instead of GDIIS.
     Eigenvalues ---    0.02109   0.02119   0.02134   0.02139   0.02151
     Eigenvalues ---    0.02155   0.02158   0.02160   0.02161   0.15922
     Eigenvalues ---    0.16000   0.16000   0.16000   0.16053   0.21884
     Eigenvalues ---    0.22000   0.22774   0.25000   0.29542   0.33666
     Eigenvalues ---    0.33667   0.33667   0.33691   0.36894   0.42081
     Eigenvalues ---    0.42579   0.45998   0.46224   0.46489   0.46594
 RFO step:  Lambda=-2.07713343D-04 EMin= 2.10881837D-02
 Quartic linear search produced a step of  0.14805.
 Iteration  1 RMS(Cart)=  0.00306508 RMS(Int)=  0.00001057
 Iteration  2 RMS(Cart)=  0.00001496 RMS(Int)=  0.00000363
 Iteration  3 RMS(Cart)=  0.00000000 RMS(Int)=  0.00000363
 ITry= 1 IFail=0 DXMaxC= 1.74D-02 DCOld= 1.00D+10 DXMaxT= 3.11D-01 DXLimC= 3.00D+00 Rises=F
 ClnCor:  largest displacement from symmetrization is 3.55D-11 for atom    11.
 Variable       Old X    -DE/DX   Delta X   Delta X   Delta X     New X
                                 (Linear)    (Quad)   (Total)
    R1        2.63583  -0.00141  -0.00102  -0.00305  -0.00407   2.63177
    R2        2.63583  -0.00141  -0.00102  -0.00305  -0.00407   2.63177
    R3        3.29035   0.00679   0.01121   0.01498   0.02619   3.31654
    R4        2.63290  -0.00000  -0.00029   0.00016  -0.00012   2.63277
    R5        2.04789   0.00021  -0.00460   0.00351  -0.00109   2.04679
    R6        2.63270   0.00078  -0.00051   0.00239   0.00188   2.63458
    R7        2.05024   0.00012  -0.00425   0.00300  -0.00125   2.04898
    R8        2.63270   0.00078  -0.00051   0.00239   0.00188   2.63458
    R9        2.05016  -0.00007  -0.00420   0.00232  -0.00188   2.04828
   R10        2.63290  -0.00000  -0.00029   0.00016  -0.00012   2.63277
   R11        2.05024   0.00012  -0.00425   0.00300  -0.00125   2.04898
   R12        2.04789   0.00021  -0.00460   0.00351  -0.00109   2.04679
    A1        2.10006   0.00284  -0.00089   0.01322   0.01235   2.11241
    A2        2.09156  -0.00142   0.00044  -0.00661  -0.00617   2.08539
    A3        2.09156  -0.00142   0.00044  -0.00661  -0.00617   2.08539
    A4        2.08723  -0.00135   0.00056  -0.00744  -0.00688   2.08035
    A5        2.09090   0.00072  -0.00150   0.00476   0.00326   2.09416
    A6        2.10505   0.00063   0.00094   0.00268   0.00362   2.10867
    A7        2.10248  -0.00017   0.00044  -0.00051  -0.00008   2.10240
    A8        2.08452  -0.00027  -0.00053  -0.00207  -0.00260   2.08193
    A9        2.09618   0.00043   0.00010   0.00258   0.00268   2.09885
   A10        2.08688   0.00020  -0.00110   0.00268   0.00156   2.08845
   A11        2.09815  -0.00010   0.00055  -0.00134  -0.00078   2.09737
   A12        2.09815  -0.00010   0.00055  -0.00134  -0.00078   2.09737
   A13        2.10248  -0.00017   0.00044  -0.00051  -0.00008   2.10240
   A14        2.09618   0.00043   0.00010   0.00258   0.00268   2.09885
   A15        2.08452  -0.00027  -0.00053  -0.00207  -0.00260   2.08193
   A16        2.08723  -0.00135   0.00056  -0.00744  -0.00688   2.08035
   A17        2.09090   0.00072  -0.00150   0.00476   0.00326   2.09416
   A18        2.10505   0.00063   0.00094   0.00268   0.00362   2.10867
    D1       -0.00000   0.00000   0.00000   0.00000   0.00000   0.00000
    D2        3.14159   0.00000   0.00000   0.00000   0.00000   3.14159
    D3        3.14159  -0.00000   0.00000  -0.00000   0.00000   3.14159
    D4       -0.00000  -0.00000   0.00000  -0.00000   0.00000   0.00000
    D5        0.00000  -0.00000   0.00000  -0.00000   0.00000   0.00000
    D6        3.14159  -0.00000   0.00000  -0.00000   0.00000   3.14159
    D7        3.14159   0.00000   0.00000   0.00000   0.00000   3.14159
    D8       -0.00000  -0.00000   0.00000  -0.00000   0.00000   0.00000
    D9       -0.00000  -0.00000   0.00000  -0.00000   0.00000   0.00000
   D10        3.14159  -0.00000   0.00000  -0.00000   0.00000   3.14159
   D11        3.14159   0.00000   0.00000   0.00000   0.00000   3.14159
   D12        0.00000  -0.00000   0.00000  -0.00000   0.00000   0.00000
   D13        0.00000  -0.00000   0.00000  -0.00000   0.00000   0.00000
   D14        3.14159  -0.00000   0.00000  -0.00000   0.00000   3.14159
   D15        3.14159  -0.00000   0.00000  -0.00000   0.00000   3.14159
   D16       -0.00000   0.00000   0.00000   0.00000   0.00000   0.00000
   D17       -0.00000   0.00000   0.00000   0.00000   0.00000   0.00000
   D18        3.14159   0.00000   0.00000   0.00000   0.00000   3.14159
   D19        3.14159   0.00000   0.00000   0.00000   0.00000   3.14159
   D20        0.00000   0.00000   0.00000   0.00000   0.00000   0.00000
   D21        0.00000   0.00000   0.00000   0.00000   0.00000   0.00000
   D22        3.14159   0.00000   0.00000   0.00000   0.00000   3.14159
   D23        3.14159  -0.00000   0.00000  -0.00000   0.00000   3.14159
   D24       -0.00000   0.00000   0.00000   0.00000   0.00000   0.00000
         Item               Value     Threshold  Converged?
 Maximum Force            0.006792     0.000450     NO 
 RMS     Force            0.001136     0.000300     NO 
 Maximum Displacement     0.017424     0.001800     NO 
 RMS     Displacement     0.003063     0.001200     NO 
 Predicted change in Energy=-1.368951D-04
 Lowest energy point so far.  Saving SCF results.
 GradGradGradGradGradGradGradGradGradGradGradGradGradGradGradGradGradGrad

 Leave Link  103 at Mon Sep 28 02:09:40 2026, MaxMem=  1610612736 cpu:               0.1 elap:               0.0
 (Enter /share/software/user/restricted/gaussian/g16.B01/l202.exe)
                          Input orientation:                          
 ---------------------------------------------------------------------
 Center     Atomic      Atomic             Coordinates (Angstroms)
 Number     Number       Type             X           Y           Z
 ---------------------------------------------------------------------
      1          6           0        0.000000    1.381137   -0.000000
      2          6           0        1.212312    0.695692    0.000000
      3          6           0        1.205299   -0.697493    0.000000
      4          6           0       -0.000000   -1.398162    0.000000
      5          6           0       -1.205299   -0.697493   -0.000000
      6          6           0       -1.212312    0.695692   -0.000000
      7         17           0        0.000000    3.136175   -0.000000
      8          1           0        2.145275    1.245892    0.000000
      9          1           0        2.148313   -1.232634    0.000000
     10          1           0       -0.000000   -2.482064    0.000000
     11          1           0       -2.148313   -1.232634   -0.000000
     12          1           0       -2.145275    1.245892   -0.000000
 ---------------------------------------------------------------------
                    Distance matrix (angstroms):
                    1          2          3          4          5
     1  C    0.000000
     2  C    1.392672   0.000000
     3  C    2.402800   1.393203   0.000000
     4  C    2.779299   2.419489   1.394160   0.000000
     5  C    2.402800   2.790307   2.410598   1.394160   0.000000
     6  C    1.392672   2.424625   2.790307   2.419489   1.393203
     7  Cl   1.755038   2.725006   4.018676   4.534337   4.018676
     8  H    2.149534   1.083116   2.158773   3.404883   3.873383
     9  H    3.383349   2.143488   1.084275   2.154681   3.396040
    10  H    3.863201   3.401152   2.153471   1.083902   2.153471
    11  H    3.383349   3.874564   3.396040   2.154681   1.084275
    12  H    2.149534   3.402369   3.873383   3.404883   2.158773
                    6          7          8          9         10
     6  C    0.000000
     7  Cl   2.725006   0.000000
     8  H    3.402369   2.859261   0.000000
     9  H    3.874564   4.868444   2.478529   0.000000
    10  H    3.401152   5.618238   4.301146   2.485221   0.000000
    11  H    2.143488   4.868444   4.957620   4.296626   2.485221
    12  H    1.083116   2.859261   4.290551   4.957620   4.301146
                   11         12
    11  H    0.000000
    12  H    2.478529   0.000000
 Stoichiometry    C6H5Cl
 Framework group  C2V[C2(HCCCl),SGV(C4H4)]
 Deg. of freedom    11
 Full point group                 C2V     NOp   4
 RotChk:  IX=0 Diff= 1.47D-16
 Largest Abelian subgroup         C2V     NOp   4
 Largest concise Abelian subgroup C2      NOp   2
                         Standard orientation:                         
 ---------------------------------------------------------------------
 Center     Atomic      Atomic             Coordinates (Angstroms)
 Number     Number       Type             X           Y           Z
 ---------------------------------------------------------------------
      1          6           0        0.000000    0.000000    0.506384
      2          6           0        0.000000    1.212312   -0.179060
      3          6           0        0.000000    1.205299   -1.572246
      4          6           0       -0.000000   -0.000000   -2.272915
      5          6           0       -0.000000   -1.205299   -1.572246
      6          6           0       -0.000000   -1.212312   -0.179060
      7         17           0        0.000000    0.000000    2.261422
      8          1           0        0.000000    2.145275    0.371139
      9          1           0        0.000000    2.148313   -2.107387
     10          1           0       -0.000000   -0.000000   -3.356816
     11          1           0       -0.000000   -2.148313   -2.107387
     12          1           0       -0.000000   -2.145275    0.371139
 ---------------------------------------------------------------------
 Rotational constants (GHZ):           5.6964721           1.5604529           1.2249095
 Leave Link  202 at Mon Sep 28 02:09:40 2026, MaxMem=  1610612736 cpu:               0.0 elap:               0.0
 (Enter /share/software/user/restricted/gaussian/g16.B01/l301.exe)
 Standard basis: 6-311++G(d) (5D, 7F)
 Ernie: Thresh=  0.10000D-02 Tol=  0.10000D-05 Strict=F.
 There are    86 symmetry adapted cartesian basis functions of A1  symmetry.
 There are    15 symmetry adapted cartesian basis functions of A2  symmetry.
 There are    29 symmetry adapted cartesian basis functions of B1  symmetry.
 There are    59 symmetry adapted cartesian basis functions of B2  symmetry.
 There are    81 symmetry adapted basis functions of A1  symmetry.
 There are    15 symmetry adapted basis functions of A2  symmetry.
 There are    29 symmetry adapted basis functions of B1  symmetry.
 There are    57 symmetry adapted basis functions of B2  symmetry.
   182 basis functions,   299 primitive gaussians,   189 cartesian basis functions
    29 alpha electrons       29 beta electrons
       nuclear repulsion energy       315.0409388014 Hartrees.
 IExCor=  402 DFT=T Ex+Corr=B3LYP ExCW=0 ScaHFX=  0.200000
 ScaDFX=  0.800000  0.720000  1.000000  0.810000 ScalE2=  1.000000  1.000000
 IRadAn=      5 IRanWt=     -1 IRanGd=            0 ICorTp=0 IEmpDi=  4
 NAtoms=   12 NActive=   12 NUniq=    8 SFac= 2.25D+00 NAtFMM=   60 NAOKFM=F Big=F
 Integral buffers will be    131072 words long.
 Raffenetti 2 integral format.
 Two-electron integral symmetry is turned on.
 Leave Link  301 at Mon Sep 28 02:09:40 2026, MaxMem=  1610612736 cpu:               0.2 elap:               0.0
 (Enter /share/software/user/restricted/gaussian/g16.B01/l302.exe)
 NPDir=0 NMtPBC=     1 NCelOv=     1 NCel=       1 NClECP=     1 NCelD=      1
         NCelK=      1 NCelE2=     1 NClLst=     1 CellRange=     0.0.
 One-electron integrals computed using PRISM.
 One-electron integral symmetry used in STVInt
 NBasis=   182 RedAO= T EigKep=  1.15D-06  NBF=    81    15    29    57
 NBsUse=   182 1.00D-06 EigRej= -1.00D+00 NBFU=    81    15    29    57
 Precomputing XC quadrature grid using
 IXCGrd= 4 IRadAn=           5 IRanWt=          -1 IRanGd=           0 AccXCQ= 0.00D+00.
 Generated NRdTot=       0 NPtTot=           0 NUsed=           0 NTot=          32
 NSgBfM=   189   189   189   189   189 MxSgAt=    12 MxSgA2=    12.
 Leave Link  302 at Mon Sep 28 02:09:40 2026, MaxMem=  1610612736 cpu:               0.9 elap:               0.1
 (Enter /share/software/user/restricted/gaussian/g16.B01/l303.exe)
 DipDrv:  MaxL=1.
 Leave Link  303 at Mon Sep 28 02:09:40 2026, MaxMem=  1610612736 cpu:               0.3 elap:               0.0
 (Enter /share/software/user/restricted/gaussian/g16.B01/l401.exe)
 Initial guess from the checkpoint file:  "calcs/b3lyp_gas/chks/ClBz_1.chk"
 B after Tr=    -0.000000   -0.000000    0.000000
         Rot=    1.000000    0.000000   -0.000000    0.000000 Ang=   0.00 deg.
 Guess basis will be translated and rotated to current coordinates.
 JPrj=2 DoOrth=T DoCkMO=T.
 Initial guess orbital symmetries:
       Occupied  (A1) (A1) (B2) (A1) (A1) (B2) (A1) (A1) (A1) (B1)
                 (B2) (A1) (A1) (B2) (A1) (B2) (A1) (A1) (B2) (A1)
                 (B2) (A1) (B1) (A1) (B2) (B1) (B2) (A2) (B1)
       Virtual   (A2) (B1) (A1) (B2) (A1) (A1) (B2) (A1) (B1) (A1)
                 (A1) (B1) (A2) (B2) (A1) (B2) (A1) (B1) (A1) (B2)
                 (B1) (A2) (A1) (B2) (B2) (A1) (B1) (A1) (B2) (B1)
                 (A1) (B2) (A1) (A1) (B2) (B2) (A1) (B2) (A1) (B2)
                 (A1) (A1) (A1) (B2) (A1) (B2) (A1) (B2) (B1) (B2)
                 (A1) (B1) (A1) (B2) (B2) (A1) (A2) (B1) (B2) (A1)
                 (B1) (A2) (B1) (A1) (A1) (B2) (B2) (A1) (A1) (B2)
                 (B1) (A1) (A1) (A2) (B2) (A1) (B2) (A1) (B2) (A1)
                 (A1) (A2) (B2) (A1) (B1) (A1) (A2) (B2) (B1) (A2)
                 (B1) (A1) (A1) (B2) (B2) (A1) (A1) (B2) (A2) (A1)
                 (B1) (A1) (B2) (A2) (B1) (B1) (B2) (A1) (A1) (B2)
                 (A1) (B2) (A1) (B1) (A2) (B2) (A1) (B2) (B2) (A1)
                 (B1) (A1) (A2) (B1) (A1) (B1) (A2) (B2) (B1) (B2)
                 (A1) (A1) (B2) (A1) (B2) (A1) (A1) (B2) (A1) (A1)
                 (B2) (B2) (A1) (A1) (A1) (B2) (A1) (B2) (A1) (B1)
                 (B2) (A1) (A1)
 The electronic state of the initial guess is 1-A1.
 Leave Link  401 at Mon Sep 28 02:09:41 2026, MaxMem=  1610612736 cpu:               0.8 elap:               0.1
 (Enter /share/software/user/restricted/gaussian/g16.B01/l502.exe)
 Keep R1 ints in memory in symmetry-blocked form, NReq=176010216.
 FoFCou: FMM=F IPFlag=           0 FMFlag=           0 FMFlg1=           0
         NFxFlg=           0 DoJE=F BraDBF=F KetDBF=F FulRan=T
         wScrn=  0.000000 ICntrl=       600 IOpCl=  0 I1Cent=           0 NGrid=           0
         NMat0=    1 NMatS0=  16653 NMatT0=    0 NMatD0=    1 NMtDS0=    0 NMtDT0=    0
 Petite list used in FoFCou.
 Closed shell SCF:
 Using DIIS extrapolation, IDIIS=  1040.
 NGot=  1610612736 LenX=  1573198420 LenY=  1573162258
 Requested convergence on RMS density matrix=1.00D-08 within 128 cycles.
 Requested convergence on MAX density matrix=1.00D-06.
 Requested convergence on             energy=1.00D-06.
 No special actions if energy rises.

 Cycle   1  Pass 1  IDiag  1:
 E= -691.925334468278    
 DIIS: error= 5.10D-04 at cycle   1 NSaved=   1.
 NSaved= 1 IEnMin= 1 EnMin= -691.925334468278     IErMin= 1 ErrMin= 5.10D-04
 ErrMax= 5.10D-04  0.00D+00 EMaxC= 1.00D-01 BMatC= 7.03D-05 BMatP= 7.03D-05
 IDIUse=3 WtCom= 9.95D-01 WtEn= 5.10D-03
 Coeff-Com:  0.100D+01
 Coeff-En:   0.100D+01
 Coeff:      0.100D+01
 Gap=     0.227 Goal=   None    Shift=    0.000
 RMSDP=1.95D-03 MaxDP=1.32D-01              OVMax= 5.05D-03

 Cycle   2  Pass 1  IDiag  1:
 E= -691.925436217183     Delta-E=       -0.000101748905 Rises=F Damp=F
 DIIS: error= 2.96D-04 at cycle   2 NSaved=   2.
 NSaved= 2 IEnMin= 2 EnMin= -691.925436217183     IErMin= 2 ErrMin= 2.96D-04
 ErrMax= 2.96D-04  0.00D+00 EMaxC= 1.00D-01 BMatC= 9.04D-06 BMatP= 7.03D-05
 IDIUse=3 WtCom= 9.97D-01 WtEn= 2.96D-03
 Coeff-Com:  0.135D+00 0.865D+00
 Coeff-En:   0.000D+00 0.100D+01
 Coeff:      0.135D+00 0.865D+00
 Gap=     0.227 Goal=   None    Shift=    0.000
 RMSDP=2.93D-04 MaxDP=1.98D-02 DE=-1.02D-04 OVMax= 1.37D-03

 Cycle   3  Pass 1  IDiag  1:
 E= -691.925438014340     Delta-E=       -0.000001797157 Rises=F Damp=F
 DIIS: error= 2.86D-04 at cycle   3 NSaved=   3.
 NSaved= 3 IEnMin= 3 EnMin= -691.925438014340     IErMin= 3 ErrMin= 2.86D-04
 ErrMax= 2.86D-04  0.00D+00 EMaxC= 1.00D-01 BMatC= 8.15D-06 BMatP= 9.04D-06
 IDIUse=3 WtCom= 9.97D-01 WtEn= 2.86D-03
 Coeff-Com: -0.131D-01 0.490D+00 0.523D+00
 Coeff-En:   0.000D+00 0.450D+00 0.550D+00
 Coeff:     -0.131D-01 0.490D+00 0.523D+00
 Gap=     0.227 Goal=   None    Shift=    0.000
 RMSDP=1.64D-04 MaxDP=1.08D-02 DE=-1.80D-06 OVMax= 7.39D-04

 Cycle   4  Pass 1  IDiag  1:
 E= -691.925445533554     Delta-E=       -0.000007519213 Rises=F Damp=F
 DIIS: error= 3.79D-05 at cycle   4 NSaved=   4.
 NSaved= 4 IEnMin= 4 EnMin= -691.925445533554     IErMin= 4 ErrMin= 3.79D-05
 ErrMax= 3.79D-05  0.00D+00 EMaxC= 1.00D-01 BMatC= 2.25D-07 BMatP= 8.15D-06
 IDIUse=1 WtCom= 1.00D+00 WtEn= 0.00D+00
 Coeff-Com: -0.949D-02 0.222D+00 0.257D+00 0.531D+00
 Coeff:     -0.949D-02 0.222D+00 0.257D+00 0.531D+00
 Gap=     0.227 Goal=   None    Shift=    0.000
 RMSDP=2.85D-05 MaxDP=1.36D-03 DE=-7.52D-06 OVMax= 2.10D-04

 Cycle   5  Pass 1  IDiag  1:
 E= -691.925445751157     Delta-E=       -0.000000217604 Rises=F Damp=F
 DIIS: error= 1.31D-05 at cycle   5 NSaved=   5.
 NSaved= 5 IEnMin= 5 EnMin= -691.925445751157     IErMin= 5 ErrMin= 1.31D-05
 ErrMax= 1.31D-05  0.00D+00 EMaxC= 1.00D-01 BMatC= 1.60D-08 BMatP= 2.25D-07
 IDIUse=1 WtCom= 1.00D+00 WtEn= 0.00D+00
 Coeff-Com: -0.350D-02 0.585D-01 0.658D-01 0.233D+00 0.646D+00
 Coeff:     -0.350D-02 0.585D-01 0.658D-01 0.233D+00 0.646D+00
 Gap=     0.227 Goal=   None    Shift=    0.000
 RMSDP=1.19D-05 MaxDP=8.48D-04 DE=-2.18D-07 OVMax= 7.89D-05

 Cycle   6  Pass 1  IDiag  1:
 E= -691.925445760705     Delta-E=       -0.000000009547 Rises=F Damp=F
 DIIS: error= 1.28D-05 at cycle   6 NSaved=   6.
 NSaved= 6 IEnMin= 6 EnMin= -691.925445760705     IErMin= 6 ErrMin= 1.28D-05
 ErrMax= 1.28D-05  0.00D+00 EMaxC= 1.00D-01 BMatC= 5.86D-09 BMatP= 1.60D-08
 IDIUse=1 WtCom= 1.00D+00 WtEn= 0.00D+00
 Coeff-Com: -0.135D-02 0.167D-01 0.185D-01 0.994D-01 0.423D+00 0.444D+00
 Coeff:     -0.135D-02 0.167D-01 0.185D-01 0.994D-01 0.423D+00 0.444D+00
 Gap=     0.227 Goal=   None    Shift=    0.000
 RMSDP=5.14D-06 MaxDP=3.24D-04 DE=-9.55D-09 OVMax= 3.98D-05

 Cycle   7  Pass 1  IDiag  1:
 E= -691.925445767153     Delta-E=       -0.000000006449 Rises=F Damp=F
 DIIS: error= 2.08D-06 at cycle   7 NSaved=   7.
 NSaved= 7 IEnMin= 7 EnMin= -691.925445767153     IErMin= 7 ErrMin= 2.08D-06
 ErrMax= 2.08D-06  0.00D+00 EMaxC= 1.00D-01 BMatC= 1.85D-10 BMatP= 5.86D-09
 IDIUse=1 WtCom= 1.00D+00 WtEn= 0.00D+00
 Coeff-Com: -0.143D-03-0.364D-04 0.523D-03 0.156D-01 0.110D+00 0.196D+00
 Coeff-Com:  0.678D+00
 Coeff:     -0.143D-03-0.364D-04 0.523D-03 0.156D-01 0.110D+00 0.196D+00
 Coeff:      0.678D+00
 Gap=     0.227 Goal=   None    Shift=    0.000
 RMSDP=1.66D-06 MaxDP=9.30D-05 DE=-6.45D-09 OVMax= 6.01D-06

 Cycle   8  Pass 1  IDiag  1:
 E= -691.925445767323     Delta-E=       -0.000000000170 Rises=F Damp=F
 DIIS: error= 4.95D-07 at cycle   8 NSaved=   8.
 NSaved= 8 IEnMin= 8 EnMin= -691.925445767323     IErMin= 8 ErrMin= 4.95D-07
 ErrMax= 4.95D-07  0.00D+00 EMaxC= 1.00D-01 BMatC= 2.82D-11 BMatP= 1.85D-10
 IDIUse=1 WtCom= 1.00D+00 WtEn= 0.00D+00
 Coeff-Com:  0.773D-05-0.113D-02-0.681D-03-0.866D-04 0.185D-01 0.651D-01
 Coeff-Com:  0.365D+00 0.553D+00
 Coeff:      0.773D-05-0.113D-02-0.681D-03-0.866D-04 0.185D-01 0.651D-01
 Coeff:      0.365D+00 0.553D+00
 Gap=     0.227 Goal=   None    Shift=    0.000
 RMSDP=2.45D-07 MaxDP=1.37D-05 DE=-1.70D-10 OVMax= 1.45D-06

 Cycle   9  Pass 1  IDiag  1:
 E= -691.925445767350     Delta-E=       -0.000000000027 Rises=F Damp=F
 DIIS: error= 8.07D-08 at cycle   9 NSaved=   9.
 NSaved= 9 IEnMin= 9 EnMin= -691.925445767350     IErMin= 9 ErrMin= 8.07D-08
 ErrMax= 8.07D-08  0.00D+00 EMaxC= 1.00D-01 BMatC= 8.99D-13 BMatP= 2.82D-11
 IDIUse=1 WtCom= 1.00D+00 WtEn= 0.00D+00
 Coeff-Com:  0.134D-04-0.504D-03-0.303D-03-0.113D-02 0.935D-03 0.160D-01
 Coeff-Com:  0.110D+00 0.232D+00 0.643D+00
 Coeff:      0.134D-04-0.504D-03-0.303D-03-0.113D-02 0.935D-03 0.160D-01
 Coeff:      0.110D+00 0.232D+00 0.643D+00
 Gap=     0.227 Goal=   None    Shift=    0.000
 RMSDP=1.07D-07 MaxDP=7.25D-06 DE=-2.71D-11 OVMax= 2.63D-07

 Cycle  10  Pass 1  IDiag  1:
 E= -691.925445767349     Delta-E=        0.000000000001 Rises=F Damp=F
 DIIS: error= 1.78D-08 at cycle  10 NSaved=  10.
 NSaved=10 IEnMin= 9 EnMin= -691.925445767350     IErMin=10 ErrMin= 1.78D-08
 ErrMax= 1.78D-08  0.00D+00 EMaxC= 1.00D-01 BMatC= 2.43D-14 BMatP= 8.99D-13
 IDIUse=1 WtCom= 1.00D+00 WtEn= 0.00D+00
 Coeff-Com:  0.319D-05-0.617D-04-0.371D-04-0.357D-03-0.644D-03-0.260D-04
 Coeff-Com:  0.366D-02 0.207D-01 0.136D+00 0.841D+00
 Coeff:      0.319D-05-0.617D-04-0.371D-04-0.357D-03-0.644D-03-0.260D-04
 Coeff:      0.366D-02 0.207D-01 0.136D+00 0.841D+00
 Gap=     0.227 Goal=   None    Shift=    0.000
 RMSDP=4.47D-08 MaxDP=2.43D-06 DE= 1.36D-12 OVMax= 3.88D-08

 Cycle  11  Pass 1  IDiag  1:
 E= -691.925445767346     Delta-E=        0.000000000003 Rises=F Damp=F
 DIIS: error= 8.05D-09 at cycle  11 NSaved=  11.
 NSaved=11 IEnMin= 9 EnMin= -691.925445767350     IErMin=11 ErrMin= 8.05D-09
 ErrMax= 8.05D-09  0.00D+00 EMaxC= 1.00D-01 BMatC= 4.44D-15 BMatP= 2.43D-14
 IDIUse=1 WtCom= 1.00D+00 WtEn= 0.00D+00
 Coeff-Com:  0.644D-06-0.460D-05-0.137D-05-0.114D-03-0.235D-03-0.578D-03
 Coeff-Com: -0.227D-02 0.106D-02 0.339D-01 0.371D+00 0.597D+00
 Coeff:      0.644D-06-0.460D-05-0.137D-05-0.114D-03-0.235D-03-0.578D-03
 Coeff:     -0.227D-02 0.106D-02 0.339D-01 0.371D+00 0.597D+00
 Gap=     0.227 Goal=   None    Shift=    0.000
 RMSDP=3.24D-09 MaxDP=2.00D-07 DE= 2.73D-12 OVMax= 3.69D-08

 SCF Done:  E(RB3LYP) =  -691.925445767     A.U. after   11 cycles
            NFock= 11  Conv=0.32D-08     -V/T= 2.0030
 KE= 6.898221170446D+02 PE=-2.261251694515D+03 EE= 5.644631929014D+02
 Leave Link  502 at Mon Sep 28 02:09:44 2026, MaxMem=  1610612736 cpu:              26.8 elap:               3.5
 (Enter /share/software/user/restricted/gaussian/g16.B01/l701.exe)
 ... and contract with generalized density number  0.
 Compute integral first derivatives.
 Leave Link  701 at Mon Sep 28 02:09:44 2026, MaxMem=  1610612736 cpu:               0.6 elap:               0.1
 (Enter /share/software/user/restricted/gaussian/g16.B01/l702.exe)
 L702 exits ... SP integral derivatives will be done elsewhere.
 Leave Link  702 at Mon Sep 28 02:09:44 2026, MaxMem=  1610612736 cpu:               0.2 elap:               0.0
 (Enter /share/software/user/restricted/gaussian/g16.B01/l703.exe)
 Integral derivatives from FoFJK, PRISM(SPDF).
 Compute integral first derivatives, UseDBF=F ICtDFT=           0.
 Calling FoFJK, ICntrl=      2127 FMM=F ISym2X=1 I1Cent= 0 IOpClX= 0 NMat=1 NMatS=1 NMatT=0.
 FoFJK:  IHMeth= 1 ICntrl=    2127 DoSepK=F KAlg= 0 I1Cent=           0 FoldK=F
 IRaf=         0 NMat=       1 IRICut=       1 DoRegI=T DoRafI=F ISym2E= 1 IDoP0=0 IntGTp=1.
 FoFCou: FMM=F IPFlag=           0 FMFlag=      100000 FMFlg1=         800
         NFxFlg=           0 DoJE=F BraDBF=F KetDBF=F FulRan=T
         wScrn=  0.000000 ICntrl=      2127 IOpCl=  0 I1Cent=           0 NGrid=           0
         NMat0=    1 NMatS0=      1 NMatT0=    0 NMatD0=    1 NMtDS0=    0 NMtDT0=    0
 Petite list used in FoFCou.
 Leave Link  703 at Mon Sep 28 02:09:45 2026, MaxMem=  1610612736 cpu:               9.5 elap:               1.2
 (Enter /share/software/user/restricted/gaussian/g16.B01/l716.exe)
 Dipole        =-6.94423531D-17-1.06581410D-14-7.28553234D-01
 ***** Axes restored to original set *****
 -------------------------------------------------------------------
 Center     Atomic                   Forces (Hartrees/Bohr)
 Number     Number              X              Y              Z
 -------------------------------------------------------------------
      1        6           0.000000000   -0.003649576   -0.000000000
      2        6          -0.000171947    0.001341254    0.000000000
      3        6          -0.000762849   -0.000309748    0.000000000
      4        6          -0.000000000    0.000809959   -0.000000000
      5        6           0.000762849   -0.000309748    0.000000000
      6        6           0.000171947    0.001341254    0.000000000
      7       17          -0.000000000    0.001770990   -0.000000000
      8        1           0.000369042    0.000171879    0.000000000
      9        1           0.000454805   -0.000374637    0.000000000
     10        1           0.000000000   -0.000588869   -0.000000000
     11        1          -0.000454805   -0.000374637    0.000000000
     12        1          -0.000369042    0.000171879    0.000000000
 -------------------------------------------------------------------
 Cartesian Forces:  Max     0.003649576 RMS     0.000807900
 Leave Link  716 at Mon Sep 28 02:09:45 2026, MaxMem=  1610612736 cpu:               0.3 elap:               0.0
 (Enter /share/software/user/restricted/gaussian/g16.B01/l103.exe)

 GradGradGradGradGradGradGradGradGradGradGradGradGradGradGradGradGradGrad
 Berny optimization.
 Using GEDIIS/GDIIS optimizer.
 FormGI is forming the generalized inverse of G from B-inverse, IUseBI=4.
 Internal  Forces:  Max     0.001770990 RMS     0.000376570
 Search for a local minimum.
 Step number   3 out of a maximum of   64
 All quantities printed in internal units (Hartrees-Bohrs-Radians)
 RMS Force = .37657D-03 SwitMx=.10000D-02 MixMth= 2
 Mixed Optimization -- En-DIIS/RFO-DIIS
 Update second derivatives using D2CorX and points    1    2    3
 DE= -1.73D-04 DEPred=-1.37D-04 R= 1.27D+00
 TightC=F SS=  1.41D+00  RLast= 3.37D-02 DXNew= 5.2288D-01 1.0117D-01
 Trust test= 1.27D+00 RLast= 3.37D-02 DXMaxT set to 3.11D-01
 ITU=  1  1  0
 Use linear search instead of GDIIS.
     Eigenvalues ---    0.02109   0.02119   0.02134   0.02139   0.02151
     Eigenvalues ---    0.02155   0.02158   0.02160   0.02160   0.15972
     Eigenvalues ---    0.16000   0.16000   0.16000   0.16171   0.16957
     Eigenvalues ---    0.22000   0.22049   0.25000   0.28433   0.33666
     Eigenvalues ---    0.33667   0.33680   0.33755   0.38261   0.42108
     Eigenvalues ---    0.42319   0.45996   0.46280   0.46489   0.47357
 RFO step:  Lambda=-1.19142031D-05 EMin= 2.10881837D-02
 Quartic linear search produced a step of  0.36693.
 Iteration  1 RMS(Cart)=  0.00146105 RMS(Int)=  0.00000295
 Iteration  2 RMS(Cart)=  0.00000310 RMS(Int)=  0.00000216
 Iteration  3 RMS(Cart)=  0.00000000 RMS(Int)=  0.00000216
 ITry= 1 IFail=0 DXMaxC= 6.12D-03 DCOld= 1.00D+10 DXMaxT= 3.11D-01 DXLimC= 3.00D+00 Rises=F
 ClnCor:  largest displacement from symmetrization is 3.67D-11 for atom    11.
 Variable       Old X    -DE/DX   Delta X   Delta X   Delta X     New X
                                 (Linear)    (Quad)   (Total)
    R1        2.63177  -0.00049  -0.00149  -0.00040  -0.00189   2.62988
    R2        2.63177  -0.00049  -0.00149  -0.00040  -0.00189   2.62988
    R3        3.31654   0.00177   0.00961   0.00088   0.01049   3.32703
    R4        2.63277   0.00057  -0.00005   0.00164   0.00160   2.63437
    R5        2.04679   0.00041  -0.00040   0.00111   0.00071   2.04750
    R6        2.63458  -0.00013   0.00069  -0.00101  -0.00033   2.63425
    R7        2.04898   0.00058  -0.00046   0.00192   0.00146   2.05044
    R8        2.63458  -0.00013   0.00069  -0.00101  -0.00033   2.63425
    R9        2.04828   0.00059  -0.00069   0.00215   0.00146   2.04973
   R10        2.63277   0.00057  -0.00005   0.00164   0.00160   2.63437
   R11        2.04898   0.00058  -0.00046   0.00192   0.00146   2.05044
   R12        2.04679   0.00041  -0.00040   0.00111   0.00071   2.04750
    A1        2.11241   0.00088   0.00453   0.00100   0.00554   2.11795
    A2        2.08539  -0.00044  -0.00227  -0.00050  -0.00277   2.08262
    A3        2.08539  -0.00044  -0.00227  -0.00050  -0.00277   2.08262
    A4        2.08035  -0.00050  -0.00252  -0.00084  -0.00336   2.07699
    A5        2.09416   0.00029   0.00120   0.00058   0.00178   2.09594
    A6        2.10867   0.00021   0.00133   0.00026   0.00159   2.11025
    A7        2.10240  -0.00001  -0.00003   0.00014   0.00011   2.10252
    A8        2.08193   0.00011  -0.00095   0.00150   0.00055   2.08248
    A9        2.09885  -0.00010   0.00098  -0.00165  -0.00067   2.09819
   A10        2.08845   0.00015   0.00057   0.00040   0.00096   2.08941
   A11        2.09737  -0.00007  -0.00029  -0.00020  -0.00048   2.09689
   A12        2.09737  -0.00007  -0.00029  -0.00020  -0.00048   2.09689
   A13        2.10240  -0.00001  -0.00003   0.00014   0.00011   2.10252
   A14        2.09885  -0.00010   0.00098  -0.00165  -0.00067   2.09819
   A15        2.08193   0.00011  -0.00095   0.00150   0.00055   2.08248
   A16        2.08035  -0.00050  -0.00252  -0.00084  -0.00336   2.07699
   A17        2.09416   0.00029   0.00120   0.00058   0.00178   2.09594
   A18        2.10867   0.00021   0.00133   0.00026   0.00159   2.11025
    D1       -0.00000   0.00000   0.00000   0.00000   0.00000   0.00000
    D2        3.14159   0.00000   0.00000   0.00000   0.00000   3.14159
    D3        3.14159  -0.00000   0.00000  -0.00000   0.00000   3.14159
    D4       -0.00000  -0.00000   0.00000  -0.00000   0.00000   0.00000
    D5        0.00000  -0.00000   0.00000  -0.00000   0.00000   0.00000
    D6        3.14159  -0.00000   0.00000  -0.00000   0.00000   3.14159
    D7        3.14159   0.00000   0.00000   0.00000   0.00000   3.14159
    D8       -0.00000  -0.00000   0.00000  -0.00000   0.00000   0.00000
    D9        0.00000  -0.00000   0.00000  -0.00000  -0.00000   0.00000
   D10        3.14159  -0.00000   0.00000  -0.00000   0.00000   3.14159
   D11        3.14159   0.00000   0.00000   0.00000   0.00000   3.14159
   D12        0.00000  -0.00000   0.00000  -0.00000   0.00000   0.00000
   D13        0.00000  -0.00000   0.00000  -0.00000   0.00000   0.00000
   D14        3.14159  -0.00000   0.00000  -0.00000   0.00000   3.14159
   D15        3.14159  -0.00000   0.00000  -0.00000   0.00000   3.14159
   D16        0.00000   0.00000   0.00000   0.00000  -0.00000   0.00000
   D17       -0.00000   0.00000   0.00000   0.00000   0.00000   0.00000
   D18        3.14159   0.00000   0.00000   0.00000   0.00000   3.14159
   D19        3.14159   0.00000   0.00000   0.00000   0.00000   3.14159
   D20        0.00000   0.00000   0.00000   0.00000   0.00000   0.00000
   D21        0.00000   0.00000   0.00000   0.00000  -0.00000   0.00000
   D22        3.14159   0.00000   0.00000   0.00000   0.00000   3.14159
   D23        3.14159  -0.00000   0.00000  -0.00000   0.00000   3.14159
   D24       -0.00000   0.00000   0.00000   0.00000   0.00000   0.00000
         Item               Value     Threshold  Converged?
 Maximum Force            0.001771     0.000450     NO 
 RMS     Force            0.000377     0.000300     NO 
 Maximum Displacement     0.006120     0.001800     NO 
 RMS     Displacement     0.001460     0.001200     NO 
 Predicted change in Energy=-1.862670D-05
 Lowest energy point so far.  Saving SCF results.
 GradGradGradGradGradGradGradGradGradGradGradGradGradGradGradGradGradGrad

 Leave Link  103 at Mon Sep 28 02:09:46 2026, MaxMem=  1610612736 cpu:               0.7 elap:               0.1
 (Enter /share/software/user/restricted/gaussian/g16.B01/l202.exe)
                          Input orientation:                          
 ---------------------------------------------------------------------
 Center     Atomic      Atomic             Coordinates (Angstroms)
 Number     Number       Type             X           Y           Z
 ---------------------------------------------------------------------
      1          6           0        0.000000    1.377899   -0.000000
      2          6           0        1.213334    0.696303    0.000000
      3          6           0        1.205488   -0.697724    0.000000
      4          6           0       -0.000000   -1.397725    0.000000
      5          6           0       -1.205488   -0.697724   -0.000000
      6          6           0       -1.213334    0.696303   -0.000000
      7         17           0        0.000000    3.138486   -0.000000
      8          1           0        2.146073    1.247619    0.000000
      9          1           0        2.148558   -1.234329    0.000000
     10          1           0       -0.000000   -2.482398    0.000000
     11          1           0       -2.148558   -1.234329   -0.000000
     12          1           0       -2.146073    1.247619   -0.000000
 ---------------------------------------------------------------------
                    Distance matrix (angstroms):
                    1          2          3          4          5
     1  C    0.000000
     2  C    1.391673   0.000000
     3  C    2.400294   1.394049   0.000000
     4  C    2.775623   2.420151   1.393988   0.000000
     5  C    2.400294   2.791776   2.410975   1.393988   0.000000
     6  C    1.391673   2.426669   2.791776   2.420151   1.394049
     7  Cl   1.760587   2.726983   4.021158   4.536211   4.021158
     8  H    2.150024   1.083490   2.160801   3.406387   3.875219
     9  H    3.382312   2.145224   1.085047   2.154762   3.396700
    10  H    3.860296   3.402399   2.153662   1.084673   2.153662
    11  H    3.382312   3.876811   3.396700   2.154762   1.085047
    12  H    2.150024   3.404345   3.875219   3.406387   2.160801
                    6          7          8          9         10
     6  C    0.000000
     7  Cl   2.726983   0.000000
     8  H    3.404345   2.860246   0.000000
     9  H    3.876811   4.872147   2.481950   0.000000
    10  H    3.402399   5.620884   4.303331   2.484749   0.000000
    11  H    2.145224   4.872147   4.960235   4.297117   2.484749
    12  H    1.083490   2.860246   4.292146   4.960235   4.303331
                   11         12
    11  H    0.000000
    12  H    2.481950   0.000000
 Stoichiometry    C6H5Cl
 Framework group  C2V[C2(HCCCl),SGV(C4H4)]
 Deg. of freedom    11
 Full point group                 C2V     NOp   4
 RotChk:  IX=0 Diff= 1.47D-16
 Largest Abelian subgroup         C2V     NOp   4
 Largest concise Abelian subgroup C2      NOp   2
                         Standard orientation:                         
 ---------------------------------------------------------------------
 Center     Atomic      Atomic             Coordinates (Angstroms)
 Number     Number       Type             X           Y           Z
 ---------------------------------------------------------------------
      1          6           0       -0.000000   -0.000000    0.502684
      2          6           0        0.000000    1.213334   -0.178912
      3          6           0        0.000000    1.205488   -1.572939
      4          6           0        0.000000    0.000000   -2.272939
      5          6           0       -0.000000   -1.205488   -1.572939
      6          6           0       -0.000000   -1.213334   -0.178912
      7         17           0       -0.000000   -0.000000    2.263272
      8          1           0        0.000000    2.146073    0.372405
      9          1           0        0.000000    2.148558   -2.109544
     10          1           0        0.000000    0.000000   -3.357612
     11          1           0       -0.000000   -2.148558   -2.109544
     12          1           0       -0.000000   -2.146073    0.372405
 ---------------------------------------------------------------------
 Rotational constants (GHZ):           5.6913764           1.5588881           1.2237097
 Leave Link  202 at Mon Sep 28 02:09:46 2026, MaxMem=  1610612736 cpu:               0.2 elap:               0.0
 (Enter /share/software/user/restricted/gaussian/g16.B01/l301.exe)
 Standard basis: 6-311++G(d) (5D, 7F)
 Ernie: Thresh=  0.10000D-02 Tol=  0.10000D-05 Strict=F.
 There are    86 symmetry adapted cartesian basis functions of A1  symmetry.
 There are    15 symmetry adapted cartesian basis functions of A2  symmetry.
 There are    29 symmetry adapted cartesian basis functions of B1  symmetry.
 There are    59 symmetry adapted cartesian basis functions of B2  symmetry.
 There are    81 symmetry adapted basis functions of A1  symmetry.
 There are    15 symmetry adapted basis functions of A2  symmetry.
 There are    29 symmetry adapted basis functions of B1  symmetry.
 There are    57 symmetry adapted basis functions of B2  symmetry.
   182 basis functions,   299 primitive gaussians,   189 cartesian basis functions
    29 alpha electrons       29 beta electrons
       nuclear repulsion energy       314.8819889202 Hartrees.
 IExCor=  402 DFT=T Ex+Corr=B3LYP ExCW=0 ScaHFX=  0.200000
 ScaDFX=  0.800000  0.720000  1.000000  0.810000 ScalE2=  1.000000  1.000000
 IRadAn=      5 IRanWt=     -1 IRanGd=            0 ICorTp=0 IEmpDi=  4
 NAtoms=   12 NActive=   12 NUniq=    8 SFac= 2.25D+00 NAtFMM=   60 NAOKFM=F Big=F
 Integral buffers will be    131072 words long.
 Raffenetti 2 integral format.
 Two-electron integral symmetry is turned on.
 Leave Link  301 at Mon Sep 28 02:09:46 2026, MaxMem=  1610612736 cpu:               0.3 elap:               0.0
 (Enter /share/software/user/restricted/gaussian/g16.B01/l302.exe)
 NPDir=0 NMtPBC=     1 NCelOv=     1 NCel=       1 NClECP=     1 NCelD=      1
         NCelK=      1 NCelE2=     1 NClLst=     1 CellRange=     0.0.
 One-electron integrals computed using PRISM.
 One-electron integral symmetry used in STVInt
 NBasis=   182 RedAO= T EigKep=  1.15D-06  NBF=    81    15    29    57
 NBsUse=   182 1.00D-06 EigRej= -1.00D+00 NBFU=    81    15    29    57
 Precomputing XC quadrature grid using
 IXCGrd= 4 IRadAn=           5 IRanWt=          -1 IRanGd=           0 AccXCQ= 0.00D+00.
 Generated NRdTot=       0 NPtTot=           0 NUsed=           0 NTot=          32
 NSgBfM=   189   189   189   189   189 MxSgAt=    12 MxSgA2=    12.
 Leave Link  302 at Mon Sep 28 02:09:46 2026, MaxMem=  1610612736 cpu:               0.8 elap:               0.1
 (Enter /share/software/user/restricted/gaussian/g16.B01/l303.exe)
 DipDrv:  MaxL=1.
 Leave Link  303 at Mon Sep 28 02:09:46 2026, MaxMem=  1610612736 cpu:               0.4 elap:               0.1
 (Enter /share/software/user/restricted/gaussian/g16.B01/l401.exe)
 Initial guess from the checkpoint file:  "calcs/b3lyp_gas/chks/ClBz_1.chk"
 B after Tr=    -0.000000   -0.000000   -0.000000
         Rot=    1.000000    0.000000    0.000000   -0.000000 Ang=   0.00 deg.
 Guess basis will be translated and rotated to current coordinates.
 JPrj=2 DoOrth=T DoCkMO=T.
 Initial guess orbital symmetries:
       Occupied  (A1) (A1) (B2) (A1) (A1) (B2) (A1) (A1) (A1) (B1)
                 (B2) (A1) (A1) (B2) (A1) (B2) (A1) (A1) (B2) (A1)
                 (B2) (A1) (B1) (A1) (B2) (B1) (B2) (A2) (B1)
       Virtual   (A2) (B1) (A1) (B2) (A1) (A1) (B2) (A1) (B1) (A1)
                 (A1) (B1) (A2) (B2) (A1) (B2) (A1) (B1) (A1) (B2)
                 (B1) (A1) (A2) (B2) (B2) (A1) (B1) (A1) (B2) (B1)
                 (A1) (B2) (A1) (A1) (B2) (B2) (A1) (B2) (A1) (B2)
                 (A1) (A1) (A1) (B2) (A1) (B2) (A1) (B2) (B1) (B2)
                 (A1) (B1) (A1) (B2) (B2) (A1) (A2) (B1) (B2) (A1)
                 (B1) (A2) (B1) (A1) (A1) (B2) (B2) (A1) (A1) (B2)
                 (B1) (A1) (A1) (A2) (B2) (A1) (B2) (A1) (B2) (A1)
                 (A1) (A2) (B2) (A1) (B1) (A1) (A2) (B2) (B1) (A2)
                 (B1) (A1) (A1) (B2) (B2) (A1) (A1) (B2) (A2) (B1)
                 (A1) (A1) (B2) (A2) (B1) (B1) (B2) (A1) (A1) (B2)
                 (A1) (B2) (A1) (B1) (A2) (B2) (A1) (B2) (B2) (A1)
                 (B1) (A1) (A2) (B1) (A1) (B1) (A2) (B2) (B1) (B2)
                 (A1) (A1) (B2) (A1) (B2) (A1) (A1) (B2) (A1) (A1)
                 (B2) (B2) (A1) (A1) (A1) (B2) (A1) (B2) (A1) (B1)
                 (B2) (A1) (A1)
 The electronic state of the initial guess is 1-A1.
 Leave Link  401 at Mon Sep 28 02:09:46 2026, MaxMem=  1610612736 cpu:               0.8 elap:               0.1
 (Enter /share/software/user/restricted/gaussian/g16.B01/l502.exe)
 Keep R1 ints in memory in symmetry-blocked form, NReq=176010216.
 FoFCou: FMM=F IPFlag=           0 FMFlag=           0 FMFlg1=           0
         NFxFlg=           0 DoJE=F BraDBF=F KetDBF=F FulRan=T
         wScrn=  0.000000 ICntrl=       600 IOpCl=  0 I1Cent=           0 NGrid=           0
         NMat0=    1 NMatS0=  16653 NMatT0=    0 NMatD0=    1 NMtDS0=    0 NMtDT0=    0
 Petite list used in FoFCou.
 Closed shell SCF:
 Using DIIS extrapolation, IDIIS=  1040.
 NGot=  1610612736 LenX=  1573198420 LenY=  1573162258
 Requested convergence on RMS density matrix=1.00D-08 within 128 cycles.
 Requested convergence on MAX density matrix=1.00D-06.
 Requested convergence on             energy=1.00D-06.
 No special actions if energy rises.

 Cycle   1  Pass 1  IDiag  1:
 E= -691.925444588898    
 DIIS: error= 2.19D-04 at cycle   1 NSaved=   1.
 NSaved= 1 IEnMin= 1 EnMin= -691.925444588898     IErMin= 1 ErrMin= 2.19D-04
 ErrMax= 2.19D-04  0.00D+00 EMaxC= 1.00D-01 BMatC= 1.31D-05 BMatP= 1.31D-05
 IDIUse=3 WtCom= 9.98D-01 WtEn= 2.19D-03
 Coeff-Com:  0.100D+01
 Coeff-En:   0.100D+01
 Coeff:      0.100D+01
 Gap=     0.227 Goal=   None    Shift=    0.000
 RMSDP=9.05D-04 MaxDP=6.04D-02              OVMax= 2.04D-03

 Cycle   2  Pass 1  IDiag  1:
 E= -691.925463628978     Delta-E=       -0.000019040080 Rises=F Damp=F
 DIIS: error= 1.15D-04 at cycle   2 NSaved=   2.
 NSaved= 2 IEnMin= 2 EnMin= -691.925463628978     IErMin= 2 ErrMin= 1.15D-04
 ErrMax= 1.15D-04  0.00D+00 EMaxC= 1.00D-01 BMatC= 1.65D-06 BMatP= 1.31D-05
 IDIUse=3 WtCom= 9.99D-01 WtEn= 1.15D-03
 Coeff-Com:  0.133D+00 0.867D+00
 Coeff-En:   0.000D+00 0.100D+01
 Coeff:      0.133D+00 0.867D+00
 Gap=     0.226 Goal=   None    Shift=    0.000
 RMSDP=1.22D-04 MaxDP=7.34D-03 DE=-1.90D-05 OVMax= 6.76D-04

 Cycle   3  Pass 1  IDiag  1:
 E= -691.925463941453     Delta-E=       -0.000000312474 Rises=F Damp=F
 DIIS: error= 1.06D-04 at cycle   3 NSaved=   3.
 NSaved= 3 IEnMin= 3 EnMin= -691.925463941453     IErMin= 3 ErrMin= 1.06D-04
 ErrMax= 1.06D-04  0.00D+00 EMaxC= 1.00D-01 BMatC= 1.53D-06 BMatP= 1.65D-06
 IDIUse=3 WtCom= 9.99D-01 WtEn= 1.06D-03
 Coeff-Com: -0.119D-01 0.494D+00 0.518D+00
 Coeff-En:   0.000D+00 0.456D+00 0.544D+00
 Coeff:     -0.119D-01 0.494D+00 0.518D+00
 Gap=     0.227 Goal=   None    Shift=    0.000
 RMSDP=6.58D-05 MaxDP=3.69D-03 DE=-3.12D-07 OVMax= 3.37D-04

 Cycle   4  Pass 1  IDiag  1:
 E= -691.925465471035     Delta-E=       -0.000001529582 Rises=F Damp=F
 DIIS: error= 1.83D-05 at cycle   4 NSaved=   4.
 NSaved= 4 IEnMin= 4 EnMin= -691.925465471035     IErMin= 4 ErrMin= 1.83D-05
 ErrMax= 1.83D-05  0.00D+00 EMaxC= 1.00D-01 BMatC= 2.64D-08 BMatP= 1.53D-06
 IDIUse=1 WtCom= 1.00D+00 WtEn= 0.00D+00
 Coeff-Com: -0.912D-02 0.195D+00 0.219D+00 0.596D+00
 Coeff:     -0.912D-02 0.195D+00 0.219D+00 0.596D+00
 Gap=     0.227 Goal=   None    Shift=    0.000
 RMSDP=7.98D-06 MaxDP=3.56D-04 DE=-1.53D-06 OVMax= 7.33D-05

 Cycle   5  Pass 1  IDiag  1:
 E= -691.925465494431     Delta-E=       -0.000000023396 Rises=F Damp=F
 DIIS: error= 6.59D-06 at cycle   5 NSaved=   5.
 NSaved= 5 IEnMin= 5 EnMin= -691.925465494431     IErMin= 5 ErrMin= 6.59D-06
 ErrMax= 6.59D-06  0.00D+00 EMaxC= 1.00D-01 BMatC= 2.98D-09 BMatP= 2.64D-08
 IDIUse=1 WtCom= 1.00D+00 WtEn= 0.00D+00
 Coeff-Com: -0.363D-02 0.575D-01 0.622D-01 0.282D+00 0.602D+00
 Coeff:     -0.363D-02 0.575D-01 0.622D-01 0.282D+00 0.602D+00
 Gap=     0.227 Goal=   None    Shift=    0.000
 RMSDP=4.40D-06 MaxDP=3.12D-04 DE=-2.34D-08 OVMax= 3.61D-05

 Cycle   6  Pass 1  IDiag  1:
 E= -691.925465496611     Delta-E=       -0.000000002180 Rises=F Damp=F
 DIIS: error= 4.46D-06 at cycle   6 NSaved=   6.
 NSaved= 6 IEnMin= 6 EnMin= -691.925465496611     IErMin= 6 ErrMin= 4.46D-06
 ErrMax= 4.46D-06  0.00D+00 EMaxC= 1.00D-01 BMatC= 9.06D-10 BMatP= 2.98D-09
 IDIUse=1 WtCom= 1.00D+00 WtEn= 0.00D+00
 Coeff-Com: -0.131D-02 0.152D-01 0.160D-01 0.116D+00 0.396D+00 0.458D+00
 Coeff:     -0.131D-02 0.152D-01 0.160D-01 0.116D+00 0.396D+00 0.458D+00
 Gap=     0.227 Goal=   None    Shift=    0.000
 RMSDP=2.42D-06 MaxDP=1.59D-04 DE=-2.18D-09 OVMax= 1.39D-05

 Cycle   7  Pass 1  IDiag  1:
 E= -691.925465497578     Delta-E=       -0.000000000967 Rises=F Damp=F
 DIIS: error= 8.66D-07 at cycle   7 NSaved=   7.
 NSaved= 7 IEnMin= 7 EnMin= -691.925465497578     IErMin= 7 ErrMin= 8.66D-07
 ErrMax= 8.66D-07  0.00D+00 EMaxC= 1.00D-01 BMatC= 3.19D-11 BMatP= 9.06D-10
 IDIUse=1 WtCom= 1.00D+00 WtEn= 0.00D+00
 Coeff-Com: -0.821D-04-0.124D-02-0.892D-03 0.137D-01 0.101D+00 0.202D+00
 Coeff-Com:  0.686D+00
 Coeff:     -0.821D-04-0.124D-02-0.892D-03 0.137D-01 0.101D+00 0.202D+00
 Coeff:      0.686D+00
 Gap=     0.227 Goal=   None    Shift=    0.000
 RMSDP=6.70D-07 MaxDP=3.27D-05 DE=-9.67D-10 OVMax= 2.95D-06

 Cycle   8  Pass 1  IDiag  1:
 E= -691.925465497611     Delta-E=       -0.000000000033 Rises=F Damp=F
 DIIS: error= 2.36D-07 at cycle   8 NSaved=   8.
 NSaved= 8 IEnMin= 8 EnMin= -691.925465497611     IErMin= 8 ErrMin= 2.36D-07
 ErrMax= 2.36D-07  0.00D+00 EMaxC= 1.00D-01 BMatC= 3.78D-12 BMatP= 3.19D-11
 IDIUse=1 WtCom= 1.00D+00 WtEn= 0.00D+00
 Coeff-Com:  0.161D-04-0.123D-02-0.838D-03 0.672D-04 0.253D-01 0.727D-01
 Coeff-Com:  0.350D+00 0.554D+00
 Coeff:      0.161D-04-0.123D-02-0.838D-03 0.672D-04 0.253D-01 0.727D-01
 Coeff:      0.350D+00 0.554D+00
 Gap=     0.227 Goal=   None    Shift=    0.000
 RMSDP=5.24D-08 MaxDP=2.17D-06 DE=-3.34D-11 OVMax= 9.95D-07

 Cycle   9  Pass 1  IDiag  1:
 E= -691.925465497615     Delta-E=       -0.000000000004 Rises=F Damp=F
 DIIS: error= 5.11D-08 at cycle   9 NSaved=   9.
 NSaved= 9 IEnMin= 9 EnMin= -691.925465497615     IErMin= 9 ErrMin= 5.11D-08
 ErrMax= 5.11D-08  0.00D+00 EMaxC= 1.00D-01 BMatC= 2.52D-13 BMatP= 3.78D-12
 IDIUse=1 WtCom= 1.00D+00 WtEn= 0.00D+00
 Coeff-Com:  0.163D-04-0.550D-03-0.343D-03-0.143D-02 0.319D-02 0.175D-01
 Coeff-Com:  0.105D+00 0.274D+00 0.603D+00
 Coeff:      0.163D-04-0.550D-03-0.343D-03-0.143D-02 0.319D-02 0.175D-01
 Coeff:      0.105D+00 0.274D+00 0.603D+00
 Gap=     0.227 Goal=   None    Shift=    0.000
 RMSDP=2.25D-08 MaxDP=1.48D-06 DE=-3.64D-12 OVMax= 1.52D-07

 Cycle  10  Pass 1  IDiag  1:
 E= -691.925465497616     Delta-E=       -0.000000000001 Rises=F Damp=F
 DIIS: error= 7.89D-09 at cycle  10 NSaved=  10.
 NSaved=10 IEnMin=10 EnMin= -691.925465497616     IErMin=10 ErrMin= 7.89D-09
 ErrMax= 7.89D-09  0.00D+00 EMaxC= 1.00D-01 BMatC= 6.97D-15 BMatP= 2.52D-13
 IDIUse=1 WtCom= 1.00D+00 WtEn= 0.00D+00
 Coeff-Com:  0.411D-05-0.849D-04-0.451D-04-0.509D-03-0.409D-03 0.341D-03
 Coeff-Com:  0.618D-02 0.534D-01 0.152D+00 0.789D+00
 Coeff:      0.411D-05-0.849D-04-0.451D-04-0.509D-03-0.409D-03 0.341D-03
 Coeff:      0.618D-02 0.534D-01 0.152D+00 0.789D+00
 Gap=     0.227 Goal=   None    Shift=    0.000
 RMSDP=1.89D-08 MaxDP=1.07D-06 DE=-7.96D-13 OVMax= 2.20D-08

 Cycle  11  Pass 1  IDiag  1:
 E= -691.925465497611     Delta-E=        0.000000000004 Rises=F Damp=F
 DIIS: error= 4.12D-09 at cycle  11 NSaved=  11.
 NSaved=11 IEnMin=10 EnMin= -691.925465497616     IErMin=11 ErrMin= 4.12D-09
 ErrMax= 4.12D-09  0.00D+00 EMaxC= 1.00D-01 BMatC= 1.34D-15 BMatP= 6.97D-15
 IDIUse=1 WtCom= 1.00D+00 WtEn= 0.00D+00
 Coeff-Com:  0.805D-06-0.519D-05 0.331D-06-0.159D-03-0.272D-03-0.837D-03
 Coeff-Com: -0.321D-02 0.117D-01 0.306D-01 0.365D+00 0.597D+00
 Coeff:      0.805D-06-0.519D-05 0.331D-06-0.159D-03-0.272D-03-0.837D-03
 Coeff:     -0.321D-02 0.117D-01 0.306D-01 0.365D+00 0.597D+00
 Gap=     0.227 Goal=   None    Shift=    0.000
 RMSDP=2.02D-09 MaxDP=1.20D-07 DE= 4.43D-12 OVMax= 1.40D-08

 SCF Done:  E(RB3LYP) =  -691.925465498     A.U. after   11 cycles
            NFock= 11  Conv=0.20D-08     -V/T= 2.0031
 KE= 6.898116648733D+02 PE=-2.260927750732D+03 EE= 5.643086314404D+02
 Leave Link  502 at Mon Sep 28 02:09:50 2026, MaxMem=  1610612736 cpu:              27.1 elap:               3.5
 (Enter /share/software/user/restricted/gaussian/g16.B01/l701.exe)
 ... and contract with generalized density number  0.
 Compute integral first derivatives.
 Leave Link  701 at Mon Sep 28 02:09:50 2026, MaxMem=  1610612736 cpu:               0.5 elap:               0.1
 (Enter /share/software/user/restricted/gaussian/g16.B01/l702.exe)
 L702 exits ... SP integral derivatives will be done elsewhere.
 Leave Link  702 at Mon Sep 28 02:09:50 2026, MaxMem=  1610612736 cpu:               0.2 elap:               0.0
 (Enter /share/software/user/restricted/gaussian/g16.B01/l703.exe)
 Integral derivatives from FoFJK, PRISM(SPDF).
 Compute integral first derivatives, UseDBF=F ICtDFT=           0.
 Calling FoFJK, ICntrl=      2127 FMM=F ISym2X=1 I1Cent= 0 IOpClX= 0 NMat=1 NMatS=1 NMatT=0.
 FoFJK:  IHMeth= 1 ICntrl=    2127 DoSepK=F KAlg= 0 I1Cent=           0 FoldK=F
 IRaf=         0 NMat=       1 IRICut=       1 DoRegI=T DoRafI=F ISym2E= 1 IDoP0=0 IntGTp=1.
 FoFCou: FMM=F IPFlag=           0 FMFlag=      100000 FMFlg1=         800
         NFxFlg=           0 DoJE=F BraDBF=F KetDBF=F FulRan=T
         wScrn=  0.000000 ICntrl=      2127 IOpCl=  0 I1Cent=           0 NGrid=           0
         NMat0=    1 NMatS0=      1 NMatT0=    0 NMatD0=    1 NMtDS0=    0 NMtDT0=    0
 Petite list used in FoFCou.
 Leave Link  703 at Mon Sep 28 02:09:51 2026, MaxMem=  1610612736 cpu:               9.6 elap:               1.2
 (Enter /share/software/user/restricted/gaussian/g16.B01/l716.exe)
 Dipole        =-6.93955551D-17 3.55271368D-15-7.40037368D-01
 ***** Axes restored to original set *****
 -------------------------------------------------------------------
 Center     Atomic                   Forces (Hartrees/Bohr)
 Number     Number              X              Y              Z
 -------------------------------------------------------------------
      1        6          -0.000000000   -0.000097655   -0.000000000
      2        6          -0.000028331    0.000109158    0.000000000
      3        6           0.000004213   -0.000017692    0.000000000
      4        6           0.000000000    0.000200580   -0.000000000
      5        6          -0.000004213   -0.000017692    0.000000000
      6        6           0.000028331    0.000109158    0.000000000
      7       17          -0.000000000   -0.000071642   -0.000000000
      8        1           0.000059022   -0.000005318    0.000000000
      9        1           0.000036693   -0.000066102    0.000000000
     10        1           0.000000000   -0.000071376   -0.000000000
     11        1          -0.000036693   -0.000066102    0.000000000
     12        1          -0.000059022   -0.000005318    0.000000000
 -------------------------------------------------------------------
 Cartesian Forces:  Max     0.000200580 RMS     0.000053890
 Leave Link  716 at Mon Sep 28 02:09:51 2026, MaxMem=  1610612736 cpu:               0.2 elap:               0.0
 (Enter /share/software/user/restricted/gaussian/g16.B01/l103.exe)

 GradGradGradGradGradGradGradGradGradGradGradGradGradGradGradGradGradGrad
 Berny optimization.
 Using GEDIIS/GDIIS optimizer.
 FormGI is forming the generalized inverse of G from B-inverse, IUseBI=4.
 Internal  Forces:  Max     0.000098211 RMS     0.000038257
 Search for a local minimum.
 Step number   4 out of a maximum of   64
 All quantities printed in internal units (Hartrees-Bohrs-Radians)
 RMS Force = .38257D-04 SwitMx=.10000D-02 MixMth= 2
 Mixed Optimization -- En-DIIS/RFO-DIIS
 Swapping is turned off.
 Update second derivatives using D2CorX and points    1    2    3    4
 DE= -1.97D-05 DEPred=-1.86D-05 R= 1.06D+00
 TightC=F SS=  1.41D+00  RLast= 1.46D-02 DXNew= 5.2288D-01 4.3755D-02
 Trust test= 1.06D+00 RLast= 1.46D-02 DXMaxT set to 3.11D-01
 ITU=  1  1  1  0
     Eigenvalues ---    0.02109   0.02119   0.02134   0.02139   0.02151
     Eigenvalues ---    0.02155   0.02158   0.02160   0.02160   0.15445
     Eigenvalues ---    0.16000   0.16000   0.16000   0.16059   0.16530
     Eigenvalues ---    0.22000   0.22061   0.25000   0.28768   0.33666
     Eigenvalues ---    0.33667   0.33679   0.33743   0.35024   0.42119
     Eigenvalues ---    0.42230   0.45995   0.46319   0.46489   0.47252
 En-DIIS/RFO-DIIS/Sim-DIIS IScMMF=       -3 using points:     4    3
 RFO step:  Lambda=-3.28745347D-07.
 NNeg= 0 NGDIIS= 2 SimSw=  2.50D-01 Rises=F DC= -1.97D-05 SmlDif=  1.00D-05
 NRisDI= 0 DoIntr=F SqrtH=F CThrHd= 10.0 CDAdj=  3.0
 RMS Error=  0.1677662086D-03 NUsed= 2 OKEnD=T EnDIS=F
 InvSVX:  RCond= 5.32D-05 Info=           0 Equed=N FErr=  9.75D-16 BErr=  8.67D-17
 DidBck=F Rises=F RFO-DIIS coefs:    1.03713   -0.03713
 Iteration  1 RMS(Cart)=  0.00022209 RMS(Int)=  0.00000005
 Iteration  2 RMS(Cart)=  0.00000005 RMS(Int)=  0.00000003
 ITry= 1 IFail=0 DXMaxC= 6.72D-04 DCOld= 1.00D+10 DXMaxT= 3.11D-01 DXLimC= 3.00D+00 Rises=F
 ClnCor:  largest displacement from symmetrization is 3.69D-11 for atom    11.
 Variable       Old X    -DE/DX   Delta X   Delta X   Delta X     New X
                                 (Linear)    (Quad)   (Total)
    R1        2.62988   0.00000  -0.00007   0.00007   0.00000   2.62988
    R2        2.62988   0.00000  -0.00007   0.00007   0.00000   2.62988
    R3        3.32703  -0.00007   0.00039  -0.00047  -0.00008   3.32695
    R4        2.63437   0.00002   0.00006  -0.00000   0.00005   2.63443
    R5        2.04750   0.00005   0.00003   0.00010   0.00012   2.04762
    R6        2.63425  -0.00002  -0.00001  -0.00004  -0.00005   2.63420
    R7        2.05044   0.00006   0.00005   0.00013   0.00018   2.05062
    R8        2.63425  -0.00002  -0.00001  -0.00004  -0.00005   2.63420
    R9        2.04973   0.00007   0.00005   0.00015   0.00020   2.04994
   R10        2.63437   0.00002   0.00006  -0.00000   0.00005   2.63443
   R11        2.05044   0.00006   0.00005   0.00013   0.00018   2.05062
   R12        2.04750   0.00005   0.00003   0.00010   0.00012   2.04762
    A1        2.11795   0.00010   0.00021   0.00025   0.00045   2.11840
    A2        2.08262  -0.00005  -0.00010  -0.00012  -0.00023   2.08239
    A3        2.08262  -0.00005  -0.00010  -0.00012  -0.00023   2.08239
    A4        2.07699  -0.00005  -0.00012  -0.00012  -0.00024   2.07675
    A5        2.09594   0.00006   0.00007   0.00027   0.00034   2.09628
    A6        2.11025  -0.00001   0.00006  -0.00016  -0.00010   2.11016
    A7        2.10252  -0.00004   0.00000  -0.00020  -0.00020   2.10232
    A8        2.08248   0.00006   0.00002   0.00035   0.00037   2.08285
    A9        2.09819  -0.00002  -0.00002  -0.00014  -0.00016   2.09802
   A10        2.08941   0.00010   0.00004   0.00040   0.00044   2.08985
   A11        2.09689  -0.00005  -0.00002  -0.00020  -0.00022   2.09667
   A12        2.09689  -0.00005  -0.00002  -0.00020  -0.00022   2.09667
   A13        2.10252  -0.00004   0.00000  -0.00020  -0.00020   2.10232
   A14        2.09819  -0.00002  -0.00002  -0.00014  -0.00016   2.09802
   A15        2.08248   0.00006   0.00002   0.00035   0.00037   2.08285
   A16        2.07699  -0.00005  -0.00012  -0.00012  -0.00024   2.07675
   A17        2.09594   0.00006   0.00007   0.00027   0.00034   2.09628
   A18        2.11025  -0.00001   0.00006  -0.00016  -0.00010   2.11016
    D1       -0.00000   0.00000   0.00000   0.00000   0.00000   0.00000
    D2        3.14159   0.00000   0.00000   0.00000   0.00000   3.14159
    D3        3.14159  -0.00000   0.00000  -0.00000   0.00000   3.14159
    D4        0.00000  -0.00000   0.00000  -0.00000  -0.00000   0.00000
    D5        0.00000  -0.00000   0.00000  -0.00000   0.00000   0.00000
    D6        3.14159  -0.00000   0.00000  -0.00000   0.00000   3.14159
    D7        3.14159   0.00000   0.00000   0.00000   0.00000   3.14159
    D8        0.00000  -0.00000   0.00000  -0.00000  -0.00000   0.00000
    D9       -0.00000  -0.00000   0.00000  -0.00000   0.00000   0.00000
   D10        3.14159  -0.00000   0.00000  -0.00000   0.00000   3.14159
   D11        3.14159   0.00000   0.00000   0.00000   0.00000   3.14159
   D12       -0.00000  -0.00000   0.00000  -0.00000   0.00000   0.00000
   D13        0.00000  -0.00000   0.00000  -0.00000   0.00000   0.00000
   D14        3.14159  -0.00000   0.00000  -0.00000   0.00000   3.14159
   D15        3.14159  -0.00000   0.00000  -0.00000   0.00000   3.14159
   D16        0.00000   0.00000   0.00000   0.00000  -0.00000   0.00000
   D17       -0.00000   0.00000   0.00000   0.00000   0.00000   0.00000
   D18        3.14159   0.00000   0.00000   0.00000   0.00000   3.14159
   D19        3.14159   0.00000   0.00000   0.00000   0.00000   3.14159
   D20        0.00000   0.00000   0.00000   0.00000  -0.00000   0.00000
   D21        0.00000   0.00000   0.00000   0.00000  -0.00000   0.00000
   D22        3.14159   0.00000   0.00000   0.00000   0.00000   3.14159
   D23        3.14159  -0.00000   0.00000  -0.00000   0.00000   3.14159
   D24       -0.00000   0.00000   0.00000   0.00000   0.00000   0.00000
         Item               Value     Threshold  Converged?
 Maximum Force            0.000098     0.000450     YES
 RMS     Force            0.000038     0.000300     YES
 Maximum Displacement     0.000672     0.001800     YES
 RMS     Displacement     0.000222     0.001200     YES
 Predicted change in Energy=-1.643729D-07
 Optimization completed.
    -- Stationary point found.
                           ----------------------------
                           !   Optimized Parameters   !
                           ! (Angstroms and Degrees)  !
 --------------------------                            --------------------------
 ! Name  Definition              Value          Derivative Info.                !
 --------------------------------------------------------------------------------
 ! R1    R(1,2)                  1.3917         -DE/DX =    0.0                 !
 ! R2    R(1,6)                  1.3917         -DE/DX =    0.0                 !
 ! R3    R(1,7)                  1.7606         -DE/DX =   -0.0001              !
 ! R4    R(2,3)                  1.394          -DE/DX =    0.0                 !
 ! R5    R(2,8)                  1.0835         -DE/DX =    0.0                 !
 ! R6    R(3,4)                  1.394          -DE/DX =    0.0                 !
 ! R7    R(3,9)                  1.085          -DE/DX =    0.0001              !
 ! R8    R(4,5)                  1.394          -DE/DX =    0.0                 !
 ! R9    R(4,10)                 1.0847         -DE/DX =    0.0001              !
 ! R10   R(5,6)                  1.394          -DE/DX =    0.0                 !
 ! R11   R(5,11)                 1.085          -DE/DX =    0.0001              !
 ! R12   R(6,12)                 1.0835         -DE/DX =    0.0                 !
 ! A1    A(2,1,6)              121.3494         -DE/DX =    0.0001              !
 ! A2    A(2,1,7)              119.3253         -DE/DX =    0.0                 !
 ! A3    A(6,1,7)              119.3253         -DE/DX =    0.0                 !
 ! A4    A(1,2,3)              119.0028         -DE/DX =   -0.0001              !
 ! A5    A(1,2,8)              120.0885         -DE/DX =    0.0001              !
 ! A6    A(3,2,8)              120.9087         -DE/DX =    0.0                 !
 ! A7    A(2,3,4)              120.4653         -DE/DX =    0.0                 !
 ! A8    A(2,3,9)              119.3173         -DE/DX =    0.0001              !
 ! A9    A(4,3,9)              120.2174         -DE/DX =    0.0                 !
 ! A10   A(3,4,5)              119.7144         -DE/DX =    0.0001              !
 ! A11   A(3,4,10)             120.1428         -DE/DX =    0.0                 !
 ! A12   A(5,4,10)             120.1428         -DE/DX =    0.0                 !
 ! A13   A(4,5,6)              120.4653         -DE/DX =    0.0                 !
 ! A14   A(4,5,11)             120.2174         -DE/DX =    0.0                 !
 ! A15   A(6,5,11)             119.3173         -DE/DX =    0.0001              !
 ! A16   A(1,6,5)              119.0028         -DE/DX =   -0.0001              !
 ! A17   A(1,6,12)             120.0885         -DE/DX =    0.0001              !
 ! A18   A(5,6,12)             120.9087         -DE/DX =    0.0                 !
 ! D1    D(6,1,2,3)              0.0            -DE/DX =    0.0                 !
 ! D2    D(6,1,2,8)            180.0            -DE/DX =    0.0                 !
 ! D3    D(7,1,2,3)            180.0            -DE/DX =    0.0                 !
 ! D4    D(7,1,2,8)              0.0            -DE/DX =    0.0                 !
 ! D5    D(2,1,6,5)              0.0            -DE/DX =    0.0                 !
 ! D6    D(2,1,6,12)           180.0            -DE/DX =    0.0                 !
 ! D7    D(7,1,6,5)            180.0            -DE/DX =    0.0                 !
 ! D8    D(7,1,6,12)             0.0            -DE/DX =    0.0                 !
 ! D9    D(1,2,3,4)              0.0            -DE/DX =    0.0                 !
 ! D10   D(1,2,3,9)            180.0            -DE/DX =    0.0                 !
 ! D11   D(8,2,3,4)            180.0            -DE/DX =    0.0                 !
 ! D12   D(8,2,3,9)              0.0            -DE/DX =    0.0                 !
 ! D13   D(2,3,4,5)              0.0            -DE/DX =    0.0                 !
 ! D14   D(2,3,4,10)           180.0            -DE/DX =    0.0                 !
 ! D15   D(9,3,4,5)            180.0            -DE/DX =    0.0                 !
 ! D16   D(9,3,4,10)             0.0            -DE/DX =    0.0                 !
 ! D17   D(3,4,5,6)              0.0            -DE/DX =    0.0                 !
 ! D18   D(3,4,5,11)           180.0            -DE/DX =    0.0                 !
 ! D19   D(10,4,5,6)           180.0            -DE/DX =    0.0                 !
 ! D20   D(10,4,5,11)            0.0            -DE/DX =    0.0                 !
 ! D21   D(4,5,6,1)              0.0            -DE/DX =    0.0                 !
 ! D22   D(4,5,6,12)           180.0            -DE/DX =    0.0                 !
 ! D23   D(11,5,6,1)           180.0            -DE/DX =    0.0                 !
 ! D24   D(11,5,6,12)            0.0            -DE/DX =    0.0                 !
 --------------------------------------------------------------------------------
 Lowest energy point so far.  Saving SCF results.
 Largest change from initial coordinates is atom    7       0.025 Angstoms.
 GradGradGradGradGradGradGradGradGradGradGradGradGradGradGradGradGradGrad

 Leave Link  103 at Mon Sep 28 02:09:51 2026, MaxMem=  1610612736 cpu:               0.1 elap:               0.0
 (Enter /share/software/user/restricted/gaussian/g16.B01/l202.exe)
                          Input orientation:                          
 ---------------------------------------------------------------------
 Center     Atomic      Atomic             Coordinates (Angstroms)
 Number     Number       Type             X           Y           Z
 ---------------------------------------------------------------------
      1          6           0        0.000000    1.377899   -0.000000
      2          6           0        1.213334    0.696303    0.000000
      3          6           0        1.205488   -0.697724    0.000000
      4          6           0       -0.000000   -1.397725    0.000000
      5          6           0       -1.205488   -0.697724   -0.000000
      6          6           0       -1.213334    0.696303   -0.000000
      7         17           0        0.000000    3.138486   -0.000000
      8          1           0        2.146073    1.247619    0.000000
      9          1           0        2.148558   -1.234329    0.000000
     10          1           0       -0.000000   -2.482398    0.000000
     11          1           0       -2.148558   -1.234329   -0.000000
     12          1           0       -2.146073    1.247619   -0.000000
 ---------------------------------------------------------------------
                    Distance matrix (angstroms):
                    1          2          3          4          5
     1  C    0.000000
     2  C    1.391673   0.000000
     3  C    2.400294   1.394049   0.000000
     4  C    2.775623   2.420151   1.393988   0.000000
     5  C    2.400294   2.791776   2.410975   1.393988   0.000000
     6  C    1.391673   2.426669   2.791776   2.420151   1.394049
     7  Cl   1.760587   2.726983   4.021158   4.536211   4.021158
     8  H    2.150024   1.083490   2.160801   3.406387   3.875219
     9  H    3.382312   2.145224   1.085047   2.154762   3.396700
    10  H    3.860296   3.402399   2.153662   1.084673   2.153662
    11  H    3.382312   3.876811   3.396700   2.154762   1.085047
    12  H    2.150024   3.404345   3.875219   3.406387   2.160801
                    6          7          8          9         10
     6  C    0.000000
     7  Cl   2.726983   0.000000
     8  H    3.404345   2.860246   0.000000
     9  H    3.876811   4.872147   2.481950   0.000000
    10  H    3.402399   5.620884   4.303331   2.484749   0.000000
    11  H    2.145224   4.872147   4.960235   4.297117   2.484749
    12  H    1.083490   2.860246   4.292146   4.960235   4.303331
                   11         12
    11  H    0.000000
    12  H    2.481950   0.000000
 Stoichiometry    C6H5Cl
 Framework group  C2V[C2(HCCCl),SGV(C4H4)]
 Deg. of freedom    11
 Full point group                 C2V     NOp   4
 RotChk:  IX=0 Diff= 1.47D-16
 Largest Abelian subgroup         C2V     NOp   4
 Largest concise Abelian subgroup C2      NOp   2
                         Standard orientation:                         
 ---------------------------------------------------------------------
 Center     Atomic      Atomic             Coordinates (Angstroms)
 Number     Number       Type             X           Y           Z
 ---------------------------------------------------------------------
      1          6           0       -0.000000   -0.000000    0.502684
      2          6           0        0.000000    1.213334   -0.178912
      3          6           0        0.000000    1.205488   -1.572939
      4          6           0        0.000000    0.000000   -2.272939
      5          6           0       -0.000000   -1.205488   -1.572939
      6          6           0       -0.000000   -1.213334   -0.178912
      7         17           0       -0.000000   -0.000000    2.263272
      8          1           0        0.000000    2.146073    0.372405
      9          1           0        0.000000    2.148558   -2.109544
     10          1           0        0.000000    0.000000   -3.357612
     11          1           0       -0.000000   -2.148558   -2.109544
     12          1           0       -0.000000   -2.146073    0.372405
 ---------------------------------------------------------------------
 Rotational constants (GHZ):           5.6913764           1.5588881           1.2237097
 Leave Link  202 at Mon Sep 28 02:09:51 2026, MaxMem=  1610612736 cpu:               0.1 elap:               0.0
 (Enter /share/software/user/restricted/gaussian/g16.B01/l601.exe)
 Copying SCF densities to generalized density rwf, IOpCl= 0 IROHF=0.

 **********************************************************************

            Population analysis using the SCF Density.

 **********************************************************************

 Orbital symmetries:
       Occupied  (A1) (A1) (B2) (A1) (A1) (B2) (A1) (A1) (A1) (B1)
                 (B2) (A1) (A1) (B2) (A1) (B2) (A1) (A1) (B2) (A1)
                 (B2) (A1) (B1) (A1) (B2) (B1) (B2) (A2) (B1)
       Virtual   (A2) (B1) (A1) (B2) (A1) (A1) (B2) (A1) (B1) (A1)
                 (A1) (B1) (A2) (B2) (A1) (A1) (B2) (B1) (A1) (B2)
                 (B1) (A1) (A2) (B2) (B2) (A1) (B1) (A1) (B2) (B1)
                 (A1) (B2) (A1) (A1) (B2) (B2) (A1) (B2) (A1) (B2)
                 (A1) (A1) (A1) (B2) (A1) (B2) (A1) (B2) (B1) (B2)
                 (A1) (B1) (A1) (B2) (B2) (A1) (A2) (B1) (B2) (A1)
                 (B1) (A2) (B1) (A1) (A1) (B2) (B2) (A1) (A1) (B2)
                 (B1) (A1) (A1) (A2) (B2) (A1) (B2) (A1) (B2) (A1)
                 (A1) (A2) (B2) (A1) (B1) (A1) (A2) (B2) (B1) (A2)
                 (B1) (A1) (A1) (B2) (B2) (A1) (A1) (B2) (A2) (B1)
                 (A1) (A1) (B2) (A2) (B1) (B1) (B2) (A1) (A1) (B2)
                 (A1) (B2) (A1) (B1) (A2) (B2) (A1) (B2) (B2) (A1)
                 (B1) (A1) (A2) (B1) (A1) (B1) (A2) (B2) (B1) (B2)
                 (A1) (A1) (B2) (A1) (B2) (A1) (A1) (B2) (A1) (A1)
                 (B2) (B2) (A1) (A1) (A1) (B2) (A1) (B2) (A1) (B1)
                 (B2) (A1) (A1)
 The electronic state is 1-A1.
 Alpha  occ. eigenvalues -- -101.55610 -10.24463 -10.19445 -10.19443 -10.19337
 Alpha  occ. eigenvalues --  -10.19334 -10.18969  -9.47068  -7.23523  -7.22552
 Alpha  occ. eigenvalues --   -7.22521  -0.89956  -0.84497  -0.76920  -0.74449
 Alpha  occ. eigenvalues --   -0.62992  -0.61126  -0.53681  -0.47929  -0.47792
 Alpha  occ. eigenvalues --   -0.44508  -0.44141  -0.40439  -0.37373  -0.37267
 Alpha  occ. eigenvalues --   -0.34135  -0.31980  -0.27409  -0.25694
 Alpha virt. eigenvalues --   -0.03027  -0.02881  -0.01178   0.00692   0.01076
 Alpha virt. eigenvalues --    0.01424   0.03370   0.03991   0.05410   0.05648
 Alpha virt. eigenvalues --    0.07818   0.08186   0.08477   0.08623   0.10679
 Alpha virt. eigenvalues --    0.11547   0.11553   0.11696   0.12474   0.12766
 Alpha virt. eigenvalues --    0.12864   0.13278   0.13339   0.13646   0.14092
 Alpha virt. eigenvalues --    0.14707   0.15523   0.17886   0.17973   0.18850
 Alpha virt. eigenvalues --    0.19707   0.21262   0.21519   0.22641   0.24273
 Alpha virt. eigenvalues --    0.25584   0.26176   0.27377   0.27396   0.28354
 Alpha virt. eigenvalues --    0.28457   0.30288   0.32997   0.34092   0.34710
 Alpha virt. eigenvalues --    0.34861   0.44247   0.46222   0.46268   0.47982
 Alpha virt. eigenvalues --    0.48187   0.52631   0.53357   0.54348   0.54838
 Alpha virt. eigenvalues --    0.54978   0.56317   0.57618   0.58217   0.60191
 Alpha virt. eigenvalues --    0.60225   0.60591   0.66155   0.67360   0.71163
 Alpha virt. eigenvalues --    0.71228   0.72708   0.76453   0.78066   0.83541
 Alpha virt. eigenvalues --    0.84020   0.84126   0.84897   0.86343   0.87238
 Alpha virt. eigenvalues --    0.88036   0.88483   0.88862   0.89483   0.94049
 Alpha virt. eigenvalues --    0.95574   0.99447   1.00315   1.03084   1.06177
 Alpha virt. eigenvalues --    1.16475   1.18337   1.19426   1.20273   1.21472
 Alpha virt. eigenvalues --    1.30805   1.31753   1.37851   1.50208   1.51742
 Alpha virt. eigenvalues --    1.52847   1.57876   1.72209   1.77127   1.77417
 Alpha virt. eigenvalues --    1.77622   1.81316   1.82600   1.90761   1.90879
 Alpha virt. eigenvalues --    1.97046   1.98376   1.98653   2.05936   2.21770
 Alpha virt. eigenvalues --    2.23179   2.23752   2.25467   2.26961   2.32597
 Alpha virt. eigenvalues --    2.40575   2.43873   2.44305   2.46911   2.56156
 Alpha virt. eigenvalues --    2.62366   2.64654   2.74542   2.75538   2.76925
 Alpha virt. eigenvalues --    2.86425   2.86665   2.88074   3.04791   3.09982
 Alpha virt. eigenvalues --    3.17798   3.27221   3.27483   3.28432   3.29192
 Alpha virt. eigenvalues --    3.43623   3.58643   3.61868   3.72743   3.98392
 Alpha virt. eigenvalues --    4.00088   4.77071   9.76977  23.25759  23.82210
 Alpha virt. eigenvalues --   23.84067  24.01172  24.02795  24.12698  25.82542
 Alpha virt. eigenvalues --   26.11756  26.60955 215.75988
          Condensed to atoms (all electrons):
               1          2          3          4          5          6
     1  C   12.342028  -2.386615   0.746643  -2.343528   0.746643  -2.386615
     2  C   -2.386615  13.738370  -0.806427   1.538668  -2.048002  -4.130188
     3  C    0.746643  -0.806427   7.929589  -1.351773   1.707471  -2.048002
     4  C   -2.343528   1.538668  -1.351773   7.718035  -1.351773   1.538668
     5  C    0.746643  -2.048002   1.707471  -1.351773   7.929589  -0.806427
     6  C   -2.386615  -4.130188  -2.048002   1.538668  -0.806427  13.738370
     7  Cl  -0.825203   0.097600   0.052022   0.074327   0.052022   0.097600
     8  H   -0.132597   0.465270   0.034522   0.033893   0.001241  -0.130091
     9  H    0.016272  -0.020865   0.257161   0.014103  -0.028507   0.065745
    10  H    0.029580  -0.017403   0.008515   0.284327   0.008515  -0.017403
    11  H    0.016272   0.065745  -0.028507   0.014103   0.257161  -0.020865
    12  H   -0.132597  -0.130091   0.001241   0.033893   0.034522   0.465270
               7          8          9         10         11         12
     1  C   -0.825203  -0.132597   0.016272   0.029580   0.016272  -0.132597
     2  C    0.097600   0.465270  -0.020865  -0.017403   0.065745  -0.130091
     3  C    0.052022   0.034522   0.257161   0.008515  -0.028507   0.001241
     4  C    0.074327   0.033893   0.014103   0.284327   0.014103   0.033893
     5  C    0.052022   0.001241  -0.028507   0.008515   0.257161   0.034522
     6  C    0.097600  -0.130091   0.065745  -0.017403  -0.020865   0.465270
     7  Cl  17.118899   0.013544  -0.005632   0.001015  -0.005632   0.013544
     8  H    0.013544   0.458550  -0.009160  -0.000691   0.002795  -0.004240
     9  H   -0.005632  -0.009160   0.448382  -0.000617  -0.003548   0.002795
    10  H    0.001015  -0.000691  -0.000617   0.452767  -0.000617  -0.000691
    11  H   -0.005632   0.002795  -0.003548  -0.000617   0.448382  -0.009160
    12  H    0.013544  -0.004240   0.002795  -0.000691  -0.009160   0.458550
 Mulliken charges:
               1
     1  C    0.309718
     2  C   -0.366062
     3  C   -0.502456
     4  C   -0.202944
     5  C   -0.502456
     6  C   -0.366062
     7  Cl   0.315894
     8  H    0.266964
     9  H    0.263869
    10  H    0.252702
    11  H    0.263869
    12  H    0.266964
 Sum of Mulliken charges =  -0.00000
 Mulliken charges with hydrogens summed into heavy atoms:
               1
     1  C    0.309718
     2  C   -0.099098
     3  C   -0.238587
     4  C    0.049759
     5  C   -0.238587
     6  C   -0.099098
     7  Cl   0.315894
 Electronic spatial extent (au):  <R**2>=            903.5896
 Charge=             -0.0000 electrons
 Dipole moment (field-independent basis, Debye):
    X=             -0.0000    Y=             -0.0000    Z=             -1.8810  Tot=              1.8810
 Quadrupole moment (field-independent basis, Debye-Ang):
   XX=            -52.0106   YY=            -42.5375   ZZ=            -46.4884
   XY=              0.0000   XZ=              0.0000   YZ=              0.0000
 Traceless Quadrupole moment (field-independent basis, Debye-Ang):
   XX=             -4.9984   YY=              4.4747   ZZ=              0.5238
   XY=              0.0000   XZ=              0.0000   YZ=              0.0000
 Octapole moment (field-independent basis, Debye-Ang**2):
  XXX=              0.0000  YYY=             -0.0000  ZZZ=             -5.2565  XYY=              0.0000
  XXY=              0.0000  XXZ=              7.1047  XZZ=              0.0000  YZZ=             -0.0000
  YYZ=             -1.3159  XYZ=             -0.0000
 Hexadecapole moment (field-independent basis, Debye-Ang**3):
 XXXX=            -62.5730 YYYY=           -280.3835 ZZZZ=           -800.1869 XXXY=             -0.0000
 XXXZ=             -0.0000 YYYX=             -0.0000 YYYZ=              0.0000 ZZZX=             -0.0000
 ZZZY=             -0.0000 XXYY=            -69.1421 XXZZ=           -165.9513 YYZZ=           -184.5487
 XXYZ=             -0.0000 YYXZ=              0.0000 ZZXY=             -0.0000
 N-N= 3.148819889202D+02 E-N=-2.260927751054D+03  KE= 6.898116648733D+02
 Symmetry A1   KE= 5.133781140268D+02
 Symmetry A2   KE= 2.246183758879D+00
 Symmetry B1   KE= 4.998904029931D+01
 Symmetry B2   KE= 1.241983267883D+02
 No NMR shielding tensors so no spin-rotation constants.
 Leave Link  601 at Mon Sep 28 02:09:51 2026, MaxMem=  1610612736 cpu:               1.2 elap:               0.2
 (Enter /share/software/user/restricted/gaussian/g16.B01/l9999.exe)
 1\1\GINC-SH03-01N61\FOpt\RB3LYP\6-311++G(d)\C6H5Cl1\JLAPIER\28-Sep-202
 6\0\\#p Opt Freq B3LYP/6-311++G(d) Int=UltraFine Geom=Check\\ClBz_1 b3
 lyp_gas\\0,1\C,0.,1.3778986719,0.\C,1.2133343029,0.6963028313,0.\C,1.2
 054877259,-0.6977242233,0.\C,0.,-1.3977246555,0.\C,-1.2054877259,-0.69
 77242233,0.\C,-1.2133343029,0.6963028313,0.\Cl,0.,3.1384860002,0.\H,2.
 1460730518,1.2476193303,0.\H,2.1485582952,-1.2343291825,0.\H,0.,-2.482
 3975284,0.\H,-2.1485582952,-1.2343291825,0.\H,-2.1460730518,1.24761933
 03,0.\\Version=ES64L-G16RevB.01\State=1-A1\HF=-691.9254655\RMSD=2.022e
 -09\RMSF=5.389e-05\Dipole=0.,-0.7400374,0.\Quadrupole=3.3267989,0.3894
 125,-3.7162113,0.,0.,0.\PG=C02V [C2(H1C1C1Cl1),SGV(C4H4)]\\@


 DIATOMIC MOLECULES ARE PECULIAR BECAUSE THEY ONLY HAVE TWO ENDS,
 AND THESE ENDS ARE VERY CLOSE TOGETHER.
 KLAUS RUEDENBERG, REV.MOD.PHYS. PG 176, 32, (1960)
 Leave Link 9999 at Mon Sep 28 02:09:51 2026, MaxMem=  1610612736 cpu:               0.2 elap:               0.0
 Job cpu time:       0 days  0 hours  2 minutes 56.2 seconds.
 Elapsed time:       0 days  0 hours  0 minutes 23.1 seconds.
 File lengths (MBytes):  RWF=     21 Int=      0 D2E=      0 Chk=     67 Scr=      1
 Normal termination of Gaussian 16 at Mon Sep 28 02:09:51 2026.
 (Enter /share/software/user/restricted/gaussian/g16.B01/l1.exe)
 Link1:  Proceeding to internal job step number  2.
 ----------------------------------------------------------------------
 #P Geom=AllCheck Guess=TCheck SCRF=Check GenChk RB3LYP/6-311++G(d) Fre
 q
 ----------------------------------------------------------------------
 1/10=4,29=7,30=1,38=1,40=1/1,3;
 2/12=2,40=1/2;
 3/5=4,6=6,7=1011,11=2,14=-4,25=1,30=1,70=2,71=2,74=-5,75=-5,116=1,140=1/1,2,3;
 4/5=101/1;
 5/5=2,38=6,98=1/2;
 8/6=4,10=90,11=11/1;
 11/6=1,8=1,9=11,15=111,16=1/1,2,10;
 10/6=1/2;
 6/7=2,8=2,9=2,10=2,28=1/1;
 7/8=1,10=1,25=1/1,2,3,16;
 1/10=4,30=1/3;
 99//99;
 Leave Link    1 at Mon Sep 28 02:09:52 2026, MaxMem=  1610612736 cpu:               0.1 elap:               0.0
 (Enter /share/software/user/restricted/gaussian/g16.B01/l101.exe)
 Structure from the checkpoint file:  "calcs/b3lyp_gas/chks/ClBz_1.chk"
 ----------------
 ClBz_1 b3lyp_gas
 ----------------
 Charge =  0 Multiplicity = 1
 Redundant internal coordinates found in file.  (old form).
 C,0,0.,1.3778986719,0.
 C,0,1.2133343029,0.6963028313,0.
 C,0,1.2054877259,-0.6977242233,0.
 C,0,0.,-1.3977246555,0.
 C,0,-1.2054877259,-0.6977242233,0.
 C,0,-1.2133343029,0.6963028313,0.
 Cl,0,0.,3.1384860002,0.
 H,0,2.1460730518,1.2476193303,0.
 H,0,2.1485582952,-1.2343291825,0.
 H,0,0.,-2.4823975284,0.
 H,0,-2.1485582952,-1.2343291825,0.
 H,0,-2.1460730518,1.2476193303,0.
 Recover connectivity data from disk.
 ITRead=  0  0  0  0  0  0  0  0  0  0  0  0
 MicOpt= -1 -1 -1 -1 -1 -1 -1 -1 -1 -1 -1 -1
 NAtoms=     12 NQM=       12 NQMF=       0 NMMI=      0 NMMIF=      0
                NMic=       0 NMicF=      0.
                    Isotopes and Nuclear Properties:
 (Nuclear quadrupole moments (NQMom) in fm**2, nuclear magnetic moments (NMagM)
  in nuclear magnetons)

  Atom         1           2           3           4           5           6           7           8           9          10
 IAtWgt=          12          12          12          12          12          12          35           1           1           1
 AtmWgt=  12.0000000  12.0000000  12.0000000  12.0000000  12.0000000  12.0000000  34.9688527   1.0078250   1.0078250   1.0078250
 NucSpn=           0           0           0           0           0           0           3           1           1           1
 AtZEff=   3.6000000   3.6000000   3.6000000   3.6000000   3.6000000   3.6000000  14.2400000   1.0000000   1.0000000   1.0000000
 NQMom=    0.0000000   0.0000000   0.0000000   0.0000000   0.0000000   0.0000000  -8.1650000   0.0000000   0.0000000   0.0000000
 NMagM=    0.0000000   0.0000000   0.0000000   0.0000000   0.0000000   0.0000000   0.8218740   2.7928460   2.7928460   2.7928460
 AtZNuc=   6.0000000   6.0000000   6.0000000   6.0000000   6.0000000   6.0000000  17.0000000   1.0000000   1.0000000   1.0000000

  Atom        11          12
 IAtWgt=           1           1
 AtmWgt=   1.0078250   1.0078250
 NucSpn=           1           1
 AtZEff=   1.0000000   1.0000000
 NQMom=    0.0000000   0.0000000
 NMagM=    2.7928460   2.7928460
 AtZNuc=   1.0000000   1.0000000
 Leave Link  101 at Mon Sep 28 02:09:52 2026, MaxMem=  1610612736 cpu:               1.9 elap:               0.3
 (Enter /share/software/user/restricted/gaussian/g16.B01/l103.exe)

 GradGradGradGradGradGradGradGradGradGradGradGradGradGradGradGradGradGrad
 Berny optimization.
 Initialization pass.
                           ----------------------------
                           !    Initial Parameters    !
                           ! (Angstroms and Degrees)  !
 --------------------------                            --------------------------
 ! Name  Definition              Value          Derivative Info.                !
 --------------------------------------------------------------------------------
 ! R1    R(1,2)                  1.3917         calculate D2E/DX2 analytically  !
 ! R2    R(1,6)                  1.3917         calculate D2E/DX2 analytically  !
 ! R3    R(1,7)                  1.7606         calculate D2E/DX2 analytically  !
 ! R4    R(2,3)                  1.394          calculate D2E/DX2 analytically  !
 ! R5    R(2,8)                  1.0835         calculate D2E/DX2 analytically  !
 ! R6    R(3,4)                  1.394          calculate D2E/DX2 analytically  !
 ! R7    R(3,9)                  1.085          calculate D2E/DX2 analytically  !
 ! R8    R(4,5)                  1.394          calculate D2E/DX2 analytically  !
 ! R9    R(4,10)                 1.0847         calculate D2E/DX2 analytically  !
 ! R10   R(5,6)                  1.394          calculate D2E/DX2 analytically  !
 ! R11   R(5,11)                 1.085          calculate D2E/DX2 analytically  !
 ! R12   R(6,12)                 1.0835         calculate D2E/DX2 analytically  !
 ! A1    A(2,1,6)              121.3494         calculate D2E/DX2 analytically  !
 ! A2    A(2,1,7)              119.3253         calculate D2E/DX2 analytically  !
 ! A3    A(6,1,7)              119.3253         calculate D2E/DX2 analytically  !
 ! A4    A(1,2,3)              119.0028         calculate D2E/DX2 analytically  !
 ! A5    A(1,2,8)              120.0885         calculate D2E/DX2 analytically  !
 ! A6    A(3,2,8)              120.9087         calculate D2E/DX2 analytically  !
 ! A7    A(2,3,4)              120.4653         calculate D2E/DX2 analytically  !
 ! A8    A(2,3,9)              119.3173         calculate D2E/DX2 analytically  !
 ! A9    A(4,3,9)              120.2174         calculate D2E/DX2 analytically  !
 ! A10   A(3,4,5)              119.7144         calculate D2E/DX2 analytically  !
 ! A11   A(3,4,10)             120.1428         calculate D2E/DX2 analytically  !
 ! A12   A(5,4,10)             120.1428         calculate D2E/DX2 analytically  !
 ! A13   A(4,5,6)              120.4653         calculate D2E/DX2 analytically  !
 ! A14   A(4,5,11)             120.2174         calculate D2E/DX2 analytically  !
 ! A15   A(6,5,11)             119.3173         calculate D2E/DX2 analytically  !
 ! A16   A(1,6,5)              119.0028         calculate D2E/DX2 analytically  !
 ! A17   A(1,6,12)             120.0885         calculate D2E/DX2 analytically  !
 ! A18   A(5,6,12)             120.9087         calculate D2E/DX2 analytically  !
 ! D1    D(6,1,2,3)              0.0            calculate D2E/DX2 analytically  !
 ! D2    D(6,1,2,8)            180.0            calculate D2E/DX2 analytically  !
 ! D3    D(7,1,2,3)            180.0            calculate D2E/DX2 analytically  !
 ! D4    D(7,1,2,8)              0.0            calculate D2E/DX2 analytically  !
 ! D5    D(2,1,6,5)              0.0            calculate D2E/DX2 analytically  !
 ! D6    D(2,1,6,12)           180.0            calculate D2E/DX2 analytically  !
 ! D7    D(7,1,6,5)            180.0            calculate D2E/DX2 analytically  !
 ! D8    D(7,1,6,12)             0.0            calculate D2E/DX2 analytically  !
 ! D9    D(1,2,3,4)              0.0            calculate D2E/DX2 analytically  !
 ! D10   D(1,2,3,9)            180.0            calculate D2E/DX2 analytically  !
 ! D11   D(8,2,3,4)            180.0            calculate D2E/DX2 analytically  !
 ! D12   D(8,2,3,9)              0.0            calculate D2E/DX2 analytically  !
 ! D13   D(2,3,4,5)              0.0            calculate D2E/DX2 analytically  !
 ! D14   D(2,3,4,10)           180.0            calculate D2E/DX2 analytically  !
 ! D15   D(9,3,4,5)            180.0            calculate D2E/DX2 analytically  !
 ! D16   D(9,3,4,10)             0.0            calculate D2E/DX2 analytically  !
 ! D17   D(3,4,5,6)              0.0            calculate D2E/DX2 analytically  !
 ! D18   D(3,4,5,11)           180.0            calculate D2E/DX2 analytically  !
 ! D19   D(10,4,5,6)           180.0            calculate D2E/DX2 analytically  !
 ! D20   D(10,4,5,11)            0.0            calculate D2E/DX2 analytically  !
 ! D21   D(4,5,6,1)              0.0            calculate D2E/DX2 analytically  !
 ! D22   D(4,5,6,12)           180.0            calculate D2E/DX2 analytically  !
 ! D23   D(11,5,6,1)           180.0            calculate D2E/DX2 analytically  !
 ! D24   D(11,5,6,12)            0.0            calculate D2E/DX2 analytically  !
 --------------------------------------------------------------------------------
 Trust Radius=3.00D-01 FncErr=1.00D-07 GrdErr=1.00D-07 EigMax=2.50D+02 EigMin=1.00D-04
 Number of steps in this run=      2 maximum allowed number of steps=      2.
 GradGradGradGradGradGradGradGradGradGradGradGradGradGradGradGradGradGrad

 Leave Link  103 at Mon Sep 28 02:09:52 2026, MaxMem=  1610612736 cpu:               0.2 elap:               0.0
 (Enter /share/software/user/restricted/gaussian/g16.B01/l202.exe)
                          Input orientation:                          
 ---------------------------------------------------------------------
 Center     Atomic      Atomic             Coordinates (Angstroms)
 Number     Number       Type             X           Y           Z
 ---------------------------------------------------------------------
      1          6           0        0.000000    1.377899   -0.000000
      2          6           0        1.213334    0.696303    0.000000
      3          6           0        1.205488   -0.697724    0.000000
      4          6           0       -0.000000   -1.397725    0.000000
      5          6           0       -1.205488   -0.697724   -0.000000
      6          6           0       -1.213334    0.696303   -0.000000
      7         17           0        0.000000    3.138486   -0.000000
      8          1           0        2.146073    1.247619    0.000000
      9          1           0        2.148558   -1.234329    0.000000
     10          1           0       -0.000000   -2.482398    0.000000
     11          1           0       -2.148558   -1.234329   -0.000000
     12          1           0       -2.146073    1.247619   -0.000000
 ---------------------------------------------------------------------
                    Distance matrix (angstroms):
                    1          2          3          4          5
     1  C    0.000000
     2  C    1.391673   0.000000
     3  C    2.400294   1.394049   0.000000
     4  C    2.775623   2.420151   1.393988   0.000000
     5  C    2.400294   2.791776   2.410975   1.393988   0.000000
     6  C    1.391673   2.426669   2.791776   2.420151   1.394049
     7  Cl   1.760587   2.726983   4.021158   4.536211   4.021158
     8  H    2.150024   1.083490   2.160801   3.406387   3.875219
     9  H    3.382312   2.145224   1.085047   2.154762   3.396700
    10  H    3.860296   3.402399   2.153662   1.084673   2.153662
    11  H    3.382312   3.876811   3.396700   2.154762   1.085047
    12  H    2.150024   3.404345   3.875219   3.406387   2.160801
                    6          7          8          9         10
     6  C    0.000000
     7  Cl   2.726983   0.000000
     8  H    3.404345   2.860246   0.000000
     9  H    3.876811   4.872147   2.481950   0.000000
    10  H    3.402399   5.620884   4.303331   2.484749   0.000000
    11  H    2.145224   4.872147   4.960235   4.297117   2.484749
    12  H    1.083490   2.860246   4.292146   4.960235   4.303331
                   11         12
    11  H    0.000000
    12  H    2.481950   0.000000
 Stoichiometry    C6H5Cl
 Framework group  C2V[C2(HCCCl),SGV(C4H4)]
 Deg. of freedom    11
 Full point group                 C2V     NOp   4
 RotChk:  IX=0 Diff= 1.47D-16
 Largest Abelian subgroup         C2V     NOp   4
 Largest concise Abelian subgroup C2      NOp   2
                         Standard orientation:                         
 ---------------------------------------------------------------------
 Center     Atomic      Atomic             Coordinates (Angstroms)
 Number     Number       Type             X           Y           Z
 ---------------------------------------------------------------------
      1          6           0       -0.000000   -0.000000    0.502684
      2          6           0        0.000000    1.213334   -0.178912
      3          6           0        0.000000    1.205488   -1.572939
      4          6           0        0.000000    0.000000   -2.272939
      5          6           0       -0.000000   -1.205488   -1.572939
      6          6           0       -0.000000   -1.213334   -0.178912
      7         17           0       -0.000000   -0.000000    2.263272
      8          1           0        0.000000    2.146073    0.372405
      9          1           0        0.000000    2.148558   -2.109544
     10          1           0        0.000000    0.000000   -3.357612
     11          1           0       -0.000000   -2.148558   -2.109544
     12          1           0       -0.000000   -2.146073    0.372405
 ---------------------------------------------------------------------
 Rotational constants (GHZ):           5.6913764           1.5588881           1.2237097
 Leave Link  202 at Mon Sep 28 02:09:52 2026, MaxMem=  1610612736 cpu:               0.1 elap:               0.0
 (Enter /share/software/user/restricted/gaussian/g16.B01/l301.exe)
 Standard basis: 6-311++G(d) (5D, 7F)
 Ernie: Thresh=  0.10000D-02 Tol=  0.10000D-05 Strict=F.
 There are    86 symmetry adapted cartesian basis functions of A1  symmetry.
 There are    15 symmetry adapted cartesian basis functions of A2  symmetry.
 There are    29 symmetry adapted cartesian basis functions of B1  symmetry.
 There are    59 symmetry adapted cartesian basis functions of B2  symmetry.
 There are    81 symmetry adapted basis functions of A1  symmetry.
 There are    15 symmetry adapted basis functions of A2  symmetry.
 There are    29 symmetry adapted basis functions of B1  symmetry.
 There are    57 symmetry adapted basis functions of B2  symmetry.
   182 basis functions,   299 primitive gaussians,   189 cartesian basis functions
    29 alpha electrons       29 beta electrons
       nuclear repulsion energy       314.8819889202 Hartrees.
 IExCor=  402 DFT=T Ex+Corr=B3LYP ExCW=0 ScaHFX=  0.200000
 ScaDFX=  0.800000  0.720000  1.000000  0.810000 ScalE2=  1.000000  1.000000
 IRadAn=      5 IRanWt=     -1 IRanGd=            0 ICorTp=0 IEmpDi=  4
 NAtoms=   12 NActive=   12 NUniq=    8 SFac= 2.25D+00 NAtFMM=   60 NAOKFM=F Big=F
 Integral buffers will be    131072 words long.
 Raffenetti 2 integral format.
 Two-electron integral symmetry is turned on.
 Leave Link  301 at Mon Sep 28 02:09:52 2026, MaxMem=  1610612736 cpu:               0.3 elap:               0.0
 (Enter /share/software/user/restricted/gaussian/g16.B01/l302.exe)
 NPDir=0 NMtPBC=     1 NCelOv=     1 NCel=       1 NClECP=     1 NCelD=      1
         NCelK=      1 NCelE2=     1 NClLst=     1 CellRange=     0.0.
 One-electron integrals computed using PRISM.
 One-electron integral symmetry used in STVInt
 NBasis=   182 RedAO= T EigKep=  1.15D-06  NBF=    81    15    29    57
 NBsUse=   182 1.00D-06 EigRej= -1.00D+00 NBFU=    81    15    29    57
 Precomputing XC quadrature grid using
 IXCGrd= 4 IRadAn=           5 IRanWt=          -1 IRanGd=           0 AccXCQ= 0.00D+00.
 Generated NRdTot=       0 NPtTot=           0 NUsed=           0 NTot=          32
 NSgBfM=   189   189   189   189   189 MxSgAt=    12 MxSgA2=    12.
 Leave Link  302 at Mon Sep 28 02:09:52 2026, MaxMem=  1610612736 cpu:               0.8 elap:               0.1
 (Enter /share/software/user/restricted/gaussian/g16.B01/l303.exe)
 DipDrv:  MaxL=1.
 Leave Link  303 at Mon Sep 28 02:09:52 2026, MaxMem=  1610612736 cpu:               0.2 elap:               0.0
 (Enter /share/software/user/restricted/gaussian/g16.B01/l401.exe)
 Initial guess from the checkpoint file:  "calcs/b3lyp_gas/chks/ClBz_1.chk"
 B after Tr=    -0.000000    0.000000    0.000000
         Rot=    1.000000   -0.000000    0.000000    0.000000 Ang=   0.00 deg.
 Guess basis will be translated and rotated to current coordinates.
 JPrj=2 DoOrth=T DoCkMO=T.
 Initial guess orbital symmetries:
       Occupied  (A1) (A1) (B2) (A1) (A1) (B2) (A1) (A1) (A1) (B1)
                 (B2) (A1) (A1) (B2) (A1) (B2) (A1) (A1) (B2) (A1)
                 (B2) (A1) (B1) (A1) (B2) (B1) (B2) (A2) (B1)
       Virtual   (A2) (B1) (A1) (B2) (A1) (A1) (B2) (A1) (B1) (A1)
                 (A1) (B1) (A2) (B2) (A1) (A1) (B2) (B1) (A1) (B2)
                 (B1) (A1) (A2) (B2) (B2) (A1) (B1) (A1) (B2) (B1)
                 (A1) (B2) (A1) (A1) (B2) (B2) (A1) (B2) (A1) (B2)
                 (A1) (A1) (A1) (B2) (A1) (B2) (A1) (B2) (B1) (B2)
                 (A1) (B1) (A1) (B2) (B2) (A1) (A2) (B1) (B2) (A1)
                 (B1) (A2) (B1) (A1) (A1) (B2) (B2) (A1) (A1) (B2)
                 (B1) (A1) (A1) (A2) (B2) (A1) (B2) (A1) (B2) (A1)
                 (A1) (A2) (B2) (A1) (B1) (A1) (A2) (B2) (B1) (A2)
                 (B1) (A1) (A1) (B2) (B2) (A1) (A1) (B2) (A2) (B1)
                 (A1) (A1) (B2) (A2) (B1) (B1) (B2) (A1) (A1) (B2)
                 (A1) (B2) (A1) (B1) (A2) (B2) (A1) (B2) (B2) (A1)
                 (B1) (A1) (A2) (B1) (A1) (B1) (A2) (B2) (B1) (B2)
                 (A1) (A1) (B2) (A1) (B2) (A1) (A1) (B2) (A1) (A1)
                 (B2) (B2) (A1) (A1) (A1) (B2) (A1) (B2) (A1) (B1)
                 (B2) (A1) (A1)
 The electronic state of the initial guess is 1-A1.
 Leave Link  401 at Mon Sep 28 02:09:52 2026, MaxMem=  1610612736 cpu:               0.6 elap:               0.1
 (Enter /share/software/user/restricted/gaussian/g16.B01/l502.exe)
 Keep R1 ints in memory in symmetry-blocked form, NReq=176010216.
 FoFCou: FMM=F IPFlag=           0 FMFlag=           0 FMFlg1=           0
         NFxFlg=           0 DoJE=F BraDBF=F KetDBF=F FulRan=T
         wScrn=  0.000000 ICntrl=       600 IOpCl=  0 I1Cent=           0 NGrid=           0
         NMat0=    1 NMatS0=  16653 NMatT0=    0 NMatD0=    1 NMtDS0=    0 NMtDT0=    0
 Petite list used in FoFCou.
 Closed shell SCF:
 Using DIIS extrapolation, IDIIS=  1040.
 NGot=  1610612736 LenX=  1573198420 LenY=  1573162258
 Requested convergence on RMS density matrix=1.00D-08 within 128 cycles.
 Requested convergence on MAX density matrix=1.00D-06.
 Requested convergence on             energy=1.00D-06.
 No special actions if energy rises.

 Cycle   1  Pass 1  IDiag  1:
 E= -691.925465497612    
 DIIS: error= 1.17D-09 at cycle   1 NSaved=   1.
 NSaved= 1 IEnMin= 1 EnMin= -691.925465497612     IErMin= 1 ErrMin= 1.17D-09
 ErrMax= 1.17D-09  0.00D+00 EMaxC= 1.00D-01 BMatC= 1.82D-16 BMatP= 1.82D-16
 IDIUse=1 WtCom= 1.00D+00 WtEn= 0.00D+00
 Coeff-Com:  0.100D+01
 Coeff:      0.100D+01
 Gap=     0.227 Goal=   None    Shift=    0.000
 RMSDP=3.39D-09 MaxDP=1.85D-07              OVMax= 1.19D-08

 SCF Done:  E(RB3LYP) =  -691.925465498     A.U. after    1 cycles
            NFock=  1  Conv=0.34D-08     -V/T= 2.0031
 KE= 6.898116648905D+02 PE=-2.260927751072D+03 EE= 5.643086317633D+02
 Leave Link  502 at Mon Sep 28 02:09:54 2026, MaxMem=  1610612736 cpu:              10.8 elap:               1.4
 (Enter /share/software/user/restricted/gaussian/g16.B01/l801.exe)
 DoSCS=F DFT=T ScalE2(SS,OS)=  1.000000  1.000000
 Range of M.O.s used for correlation:     1   182
 NBasis=   182 NAE=    29 NBE=    29 NFC=     0 NFV=     0
 NROrb=    182 NOA=    29 NOB=    29 NVA=   153 NVB=   153

 **** Warning!!: The largest alpha MO coefficient is  0.20448255D+03

 Leave Link  801 at Mon Sep 28 02:09:54 2026, MaxMem=  1610612736 cpu:               0.1 elap:               0.0
 (Enter /share/software/user/restricted/gaussian/g16.B01/l1101.exe)
 Using compressed storage, NAtomX=    12.
 Will process     13 centers per pass.
 Leave Link 1101 at Mon Sep 28 02:09:54 2026, MaxMem=  1610612736 cpu:               0.8 elap:               0.1
 (Enter /share/software/user/restricted/gaussian/g16.B01/l1102.exe)
 Symmetrizing basis deriv contribution to polar:
 IMax=3 JMax=2 DiffMx= 0.00D+00
 Leave Link 1102 at Mon Sep 28 02:09:54 2026, MaxMem=  1610612736 cpu:               0.3 elap:               0.1
 (Enter /share/software/user/restricted/gaussian/g16.B01/l1110.exe)
 Forming Gx(P) for the SCF density, NAtomX=    12.
 Integral derivatives from FoFJK, PRISM(SPDF).
 Do as many integral derivatives as possible in FoFJK.
 G2DrvN: MDV=    1610611664.
 G2DrvN: will do    13 centers at a time, making    1 passes.
 Calling FoFCou, ICntrl=  3107 FMM=F I1Cent=   0 AccDes= 0.00D+00.
 FoFJK:  IHMeth= 1 ICntrl=    3107 DoSepK=F KAlg= 0 I1Cent=           0 FoldK=F
 IRaf=         0 NMat=       1 IRICut=       1 DoRegI=T DoRafI=F ISym2E= 1 IDoP0=0 IntGTp=1.
 FoFCou: FMM=F IPFlag=           0 FMFlag=      100000 FMFlg1=           0
         NFxFlg=           0 DoJE=F BraDBF=F KetDBF=F FulRan=T
         wScrn=  0.000000 ICntrl=      3107 IOpCl=  0 I1Cent=           0 NGrid=           0
         NMat0=    1 NMatS0=      1 NMatT0=    0 NMatD0=    1 NMtDS0=    0 NMtDT0=    0
 Petite list used in FoFCou.
 End of G2Drv F.D. properties file   721 does not exist.
 End of G2Drv F.D. properties file   722 does not exist.
 End of G2Drv F.D. properties file   788 does not exist.
 Leave Link 1110 at Mon Sep 28 02:09:59 2026, MaxMem=  1610612736 cpu:              44.1 elap:               5.5
 (Enter /share/software/user/restricted/gaussian/g16.B01/l1002.exe)
 Minotr:  Closed shell wavefunction.
          IDoAtm=111111111111
          Direct CPHF calculation.
          Differentiating once with respect to electric field.
                with respect to dipole field.
          Differentiating once with respect to nuclear coordinates.
          Using symmetry in CPHF.
          Requested convergence is 1.0D-08 RMS, and 1.0D-07 maximum.
          Secondary convergence is 1.0D-12 RMS, and 1.0D-12 maximum.
          NewPWx=T KeepS1=F KeepF1=F KeepIn=T MapXYZ=F SortEE=F KeepMc=T.
         3696 words used for storage of precomputed grid.
 Keep R1 ints in memory in symmetry-blocked form, NReq=176015706.
 FoFCou: FMM=F IPFlag=           0 FMFlag=           0 FMFlg1=           0
         NFxFlg=           0 DoJE=F BraDBF=F KetDBF=F FulRan=T
         wScrn=  0.000000 ICntrl=       600 IOpCl=  0 I1Cent=           0 NGrid=           0
         NMat0=    1 NMatS0=  16653 NMatT0=    0 NMatD0=    1 NMtDS0=    0 NMtDT0=    0
 Petite list used in FoFCou.
          MDV=    1610612736 using IRadAn=       1.
          Solving linear equations simultaneously, MaxMat=       0.
          There are    27 degrees of freedom in the 1st order CPHF.  IDoFFX=4 NUNeed=    27.
     27 vectors produced by pass  0 Test12= 1.64D-14 3.70D-09 XBig12= 1.24D+02 7.12D+00.
 AX will form    27 AO Fock derivatives at one time.
     27 vectors produced by pass  1 Test12= 1.64D-14 3.70D-09 XBig12= 2.49D+01 1.28D+00.
     27 vectors produced by pass  2 Test12= 1.64D-14 3.70D-09 XBig12= 7.24D-01 1.53D-01.
     27 vectors produced by pass  3 Test12= 1.64D-14 3.70D-09 XBig12= 5.78D-03 1.12D-02.
     27 vectors produced by pass  4 Test12= 1.64D-14 3.70D-09 XBig12= 2.04D-05 5.94D-04.
     27 vectors produced by pass  5 Test12= 1.64D-14 3.70D-09 XBig12= 4.18D-08 3.74D-05.
     13 vectors produced by pass  6 Test12= 1.64D-14 3.70D-09 XBig12= 7.25D-11 1.11D-06.
      3 vectors produced by pass  7 Test12= 1.64D-14 3.70D-09 XBig12= 1.06D-13 4.17D-08.
 InvSVY:  IOpt=1 It=  1 EMax= 1.07D-14
 Solved reduced A of dimension   178 with    27 vectors.
 FullF1:  Do perturbations      1 to      27.
 Isotropic polarizability for W=    0.000000       78.67 Bohr**3.
 End of Minotr F.D. properties file   721 does not exist.
 End of Minotr F.D. properties file   722 does not exist.
 End of Minotr F.D. properties file   788 does not exist.
 Leave Link 1002 at Mon Sep 28 02:10:28 2026, MaxMem=  1610612736 cpu:             229.0 elap:              28.6
 (Enter /share/software/user/restricted/gaussian/g16.B01/l601.exe)
 Copying SCF densities to generalized density rwf, IOpCl= 0 IROHF=0.

 **********************************************************************

            Population analysis using the SCF Density.

 **********************************************************************

 Orbital symmetries:
       Occupied  (A1) (A1) (B2) (A1) (A1) (B2) (A1) (A1) (A1) (B1)
                 (B2) (A1) (A1) (B2) (A1) (B2) (A1) (A1) (B2) (A1)
                 (B2) (A1) (B1) (A1) (B2) (B1) (B2) (A2) (B1)
       Virtual   (A2) (B1) (A1) (B2) (A1) (A1) (B2) (A1) (B1) (A1)
                 (A1) (B1) (A2) (B2) (A1) (A1) (B2) (B1) (A1) (B2)
                 (B1) (A1) (A2) (B2) (B2) (A1) (B1) (A1) (B2) (B1)
                 (A1) (B2) (A1) (A1) (B2) (B2) (A1) (B2) (A1) (B2)
                 (A1) (A1) (A1) (B2) (A1) (B2) (A1) (B2) (B1) (B2)
                 (A1) (B1) (A1) (B2) (B2) (A1) (A2) (B1) (B2) (A1)
                 (B1) (A2) (B1) (A1) (A1) (B2) (B2) (A1) (A1) (B2)
                 (B1) (A1) (A1) (A2) (B2) (A1) (B2) (A1) (B2) (A1)
                 (A1) (A2) (B2) (A1) (B1) (A1) (A2) (B2) (B1) (A2)
                 (B1) (A1) (A1) (B2) (B2) (A1) (A1) (B2) (A2) (B1)
                 (A1) (A1) (B2) (A2) (B1) (B1) (B2) (A1) (A1) (B2)
                 (A1) (B2) (A1) (B1) (A2) (B2) (A1) (B2) (B2) (A1)
                 (B1) (A1) (A2) (B1) (A1) (B1) (A2) (B2) (B1) (B2)
                 (A1) (A1) (B2) (A1) (B2) (A1) (A1) (B2) (A1) (A1)
                 (B2) (B2) (A1) (A1) (A1) (B2) (A1) (B2) (A1) (B1)
                 (B2) (A1) (A1)
 The electronic state is 1-A1.
 Alpha  occ. eigenvalues -- -101.55610 -10.24463 -10.19445 -10.19443 -10.19337
 Alpha  occ. eigenvalues --  -10.19334 -10.18969  -9.47068  -7.23523  -7.22552
 Alpha  occ. eigenvalues --   -7.22521  -0.89956  -0.84497  -0.76920  -0.74449
 Alpha  occ. eigenvalues --   -0.62992  -0.61126  -0.53681  -0.47929  -0.47792
 Alpha  occ. eigenvalues --   -0.44508  -0.44141  -0.40439  -0.37373  -0.37267
 Alpha  occ. eigenvalues --   -0.34135  -0.31980  -0.27409  -0.25694
 Alpha virt. eigenvalues --   -0.03027  -0.02881  -0.01178   0.00692   0.01076
 Alpha virt. eigenvalues --    0.01424   0.03370   0.03991   0.05410   0.05648
 Alpha virt. eigenvalues --    0.07818   0.08186   0.08477   0.08623   0.10679
 Alpha virt. eigenvalues --    0.11547   0.11553   0.11696   0.12474   0.12766
 Alpha virt. eigenvalues --    0.12864   0.13278   0.13339   0.13646   0.14092
 Alpha virt. eigenvalues --    0.14707   0.15523   0.17886   0.17973   0.18850
 Alpha virt. eigenvalues --    0.19707   0.21262   0.21519   0.22641   0.24273
 Alpha virt. eigenvalues --    0.25584   0.26176   0.27377   0.27396   0.28354
 Alpha virt. eigenvalues --    0.28457   0.30288   0.32997   0.34092   0.34710
 Alpha virt. eigenvalues --    0.34861   0.44247   0.46222   0.46268   0.47982
 Alpha virt. eigenvalues --    0.48187   0.52631   0.53357   0.54348   0.54838
 Alpha virt. eigenvalues --    0.54978   0.56317   0.57618   0.58217   0.60191
 Alpha virt. eigenvalues --    0.60225   0.60591   0.66155   0.67360   0.71163
 Alpha virt. eigenvalues --    0.71228   0.72708   0.76453   0.78066   0.83541
 Alpha virt. eigenvalues --    0.84020   0.84126   0.84897   0.86343   0.87238
 Alpha virt. eigenvalues --    0.88036   0.88483   0.88862   0.89483   0.94049
 Alpha virt. eigenvalues --    0.95574   0.99447   1.00315   1.03084   1.06177
 Alpha virt. eigenvalues --    1.16475   1.18337   1.19426   1.20273   1.21472
 Alpha virt. eigenvalues --    1.30805   1.31753   1.37851   1.50208   1.51742
 Alpha virt. eigenvalues --    1.52847   1.57876   1.72209   1.77127   1.77417
 Alpha virt. eigenvalues --    1.77622   1.81316   1.82600   1.90761   1.90879
 Alpha virt. eigenvalues --    1.97046   1.98376   1.98653   2.05936   2.21770
 Alpha virt. eigenvalues --    2.23179   2.23752   2.25467   2.26961   2.32597
 Alpha virt. eigenvalues --    2.40575   2.43873   2.44305   2.46911   2.56156
 Alpha virt. eigenvalues --    2.62366   2.64654   2.74542   2.75538   2.76925
 Alpha virt. eigenvalues --    2.86425   2.86665   2.88074   3.04791   3.09982
 Alpha virt. eigenvalues --    3.17798   3.27221   3.27483   3.28432   3.29192
 Alpha virt. eigenvalues --    3.43623   3.58643   3.61868   3.72743   3.98392
 Alpha virt. eigenvalues --    4.00088   4.77071   9.76977  23.25759  23.82210
 Alpha virt. eigenvalues --   23.84067  24.01172  24.02795  24.12698  25.82542
 Alpha virt. eigenvalues --   26.11756  26.60955 215.75988
          Condensed to atoms (all electrons):
               1          2          3          4          5          6
     1  C   12.342029  -2.386615   0.746644  -2.343528   0.746644  -2.386615
     2  C   -2.386615  13.738371  -0.806427   1.538668  -2.048002  -4.130188
     3  C    0.746644  -0.806427   7.929590  -1.351773   1.707471  -2.048002
     4  C   -2.343528   1.538668  -1.351773   7.718035  -1.351773   1.538668
     5  C    0.746644  -2.048002   1.707471  -1.351773   7.929590  -0.806427
     6  C   -2.386615  -4.130188  -2.048002   1.538668  -0.806427  13.738371
     7  Cl  -0.825203   0.097600   0.052022   0.074327   0.052022   0.097600
     8  H   -0.132597   0.465270   0.034522   0.033893   0.001241  -0.130091
     9  H    0.016272  -0.020865   0.257161   0.014103  -0.028507   0.065745
    10  H    0.029580  -0.017403   0.008515   0.284327   0.008515  -0.017403
    11  H    0.016272   0.065745  -0.028507   0.014103   0.257161  -0.020865
    12  H   -0.132597  -0.130091   0.001241   0.033893   0.034522   0.465270
               7          8          9         10         11         12
     1  C   -0.825203  -0.132597   0.016272   0.029580   0.016272  -0.132597
     2  C    0.097600   0.465270  -0.020865  -0.017403   0.065745  -0.130091
     3  C    0.052022   0.034522   0.257161   0.008515  -0.028507   0.001241
     4  C    0.074327   0.033893   0.014103   0.284327   0.014103   0.033893
     5  C    0.052022   0.001241  -0.028507   0.008515   0.257161   0.034522
     6  C    0.097600  -0.130091   0.065745  -0.017403  -0.020865   0.465270
     7  Cl  17.118899   0.013544  -0.005632   0.001015  -0.005632   0.013544
     8  H    0.013544   0.458550  -0.009160  -0.000691   0.002795  -0.004240
     9  H   -0.005632  -0.009160   0.448382  -0.000617  -0.003548   0.002795
    10  H    0.001015  -0.000691  -0.000617   0.452767  -0.000617  -0.000691
    11  H   -0.005632   0.002795  -0.003548  -0.000617   0.448382  -0.009160
    12  H    0.013544  -0.004240   0.002795  -0.000691  -0.009160   0.458550
 Mulliken charges:
               1
     1  C    0.309718
     2  C   -0.366062
     3  C   -0.502456
     4  C   -0.202944
     5  C   -0.502456
     6  C   -0.366062
     7  Cl   0.315894
     8  H    0.266964
     9  H    0.263869
    10  H    0.252702
    11  H    0.263869
    12  H    0.266964
 Sum of Mulliken charges =   0.00000
 Mulliken charges with hydrogens summed into heavy atoms:
               1
     1  C    0.309718
     2  C   -0.099098
     3  C   -0.238587
     4  C    0.049759
     5  C   -0.238587
     6  C   -0.099098
     7  Cl   0.315894
 APT charges:
               1
     1  C    0.434268
     2  C   -0.134675
     3  C    0.011754
     4  C   -0.058902
     5  C    0.011754
     6  C   -0.134675
     7  Cl  -0.342326
     8  H    0.058431
     9  H    0.030350
    10  H    0.035242
    11  H    0.030350
    12  H    0.058431
 Sum of APT charges =  -0.00000
 APT charges with hydrogens summed into heavy atoms:
               1
     1  C    0.434268
     2  C   -0.076244
     3  C    0.042103
     4  C   -0.023660
     5  C    0.042103
     6  C   -0.076244
     7  Cl  -0.342326
 Electronic spatial extent (au):  <R**2>=            903.5896
 Charge=              0.0000 electrons
 Dipole moment (field-independent basis, Debye):
    X=             -0.0000    Y=             -0.0000    Z=             -1.8810  Tot=              1.8810
 Quadrupole moment (field-independent basis, Debye-Ang):
   XX=            -52.0106   YY=            -42.5375   ZZ=            -46.4884
   XY=              0.0000   XZ=              0.0000   YZ=             -0.0000
 Traceless Quadrupole moment (field-independent basis, Debye-Ang):
   XX=             -4.9984   YY=              4.4747   ZZ=              0.5238
   XY=              0.0000   XZ=              0.0000   YZ=             -0.0000
 Octapole moment (field-independent basis, Debye-Ang**2):
  XXX=              0.0000  YYY=             -0.0000  ZZZ=             -5.2565  XYY=              0.0000
  XXY=             -0.0000  XXZ=              7.1047  XZZ=              0.0000  YZZ=              0.0000
  YYZ=             -1.3159  XYZ=             -0.0000
 Hexadecapole moment (field-independent basis, Debye-Ang**3):
 XXXX=            -62.5730 YYYY=           -280.3835 ZZZZ=           -800.1869 XXXY=             -0.0000
 XXXZ=             -0.0000 YYYX=             -0.0000 YYYZ=             -0.0000 ZZZX=             -0.0000
 ZZZY=              0.0000 XXYY=            -69.1421 XXZZ=           -165.9513 YYZZ=           -184.5487
 XXYZ=              0.0000 YYXZ=              0.0000 ZZXY=             -0.0000
 N-N= 3.148819889202D+02 E-N=-2.260927751027D+03  KE= 6.898116648905D+02
 Symmetry A1   KE= 5.133781140242D+02
 Symmetry A2   KE= 2.246183757020D+00
 Symmetry B1   KE= 4.998904030985D+01
 Symmetry B2   KE= 1.241983267993D+02
  Exact polarizability:  46.236   0.000  83.090  -0.000   0.000 106.686
 Approx polarizability:  67.599   0.000 136.732   0.000   0.000 162.984
 No NMR shielding tensors so no spin-rotation constants.
 Leave Link  601 at Mon Sep 28 02:10:28 2026, MaxMem=  1610612736 cpu:               0.6 elap:               0.1
 (Enter /share/software/user/restricted/gaussian/g16.B01/l701.exe)
 ... and contract with generalized density number  0.
 Compute integral second derivatives.
 Leave Link  701 at Mon Sep 28 02:10:28 2026, MaxMem=  1610612736 cpu:               0.9 elap:               0.1
 (Enter /share/software/user/restricted/gaussian/g16.B01/l702.exe)
 L702 exits ... SP integral derivatives will be done elsewhere.
 Leave Link  702 at Mon Sep 28 02:10:29 2026, MaxMem=  1610612736 cpu:               0.2 elap:               0.0
 (Enter /share/software/user/restricted/gaussian/g16.B01/l703.exe)
 Integral derivatives from FoFJK, PRISM(SPDF).
 Compute integral second derivatives, UseDBF=F ICtDFT=           0.
 Calling FoFJK, ICntrl=    100127 FMM=F ISym2X=1 I1Cent= 0 IOpClX= 0 NMat=1 NMatS=1 NMatT=0.
 FoFJK:  IHMeth= 1 ICntrl=  100127 DoSepK=F KAlg= 0 I1Cent=           0 FoldK=F
 IRaf=         0 NMat=       1 IRICut=       1 DoRegI=T DoRafI=F ISym2E= 1 IDoP0=0 IntGTp=1.
 FoFCou: FMM=F IPFlag=           0 FMFlag=      100000 FMFlg1=         800
         NFxFlg=           0 DoJE=F BraDBF=F KetDBF=F FulRan=T
         wScrn=  0.000000 ICntrl=    100127 IOpCl=  0 I1Cent=           0 NGrid=           0
         NMat0=    1 NMatS0=      1 NMatT0=    0 NMatD0=    1 NMtDS0=    0 NMtDT0=    0
 Petite list used in FoFCou.
 Leave Link  703 at Mon Sep 28 02:10:36 2026, MaxMem=  1610612736 cpu:              62.2 elap:               7.8
 (Enter /share/software/user/restricted/gaussian/g16.B01/l716.exe)
 Dipole        =-6.93955507D-17-1.99840144D-14-7.40037494D-01
 Polarizability= 4.62361434D+01 1.50955783D-14 8.30903094D+01
                -2.92854747D-15 3.18984084D-09 1.06685856D+02
 Full mass-weighted force constant matrix:
 Low frequencies ---   -9.5094   -5.0021   -0.0023    0.0007    0.0033    1.0775
 Low frequencies ---  186.5801  297.0791  414.1379
 Diagonal vibrational polarizability:
        5.9771926       0.3184668       4.7593903
 Harmonic frequencies (cm**-1), IR intensities (KM/Mole), Raman scattering
 activities (A**4/AMU), depolarization ratios for plane and unpolarized
 incident light, reduced masses (AMU), force constants (mDyne/A),
 and normal coordinates:
                      1                      2                      3
                     B1                     B2                     A1
 Frequencies --    186.5800               297.0790               414.1379
 Red. masses --      5.1142                 5.7576                11.7483
 Frc consts  --      0.1049                 0.2994                 1.1872
 IR Inten    --      0.1883                 0.0703                 5.1578
  Atom  AN      X      Y      Z        X      Y      Z        X      Y      Z
     1   6    -0.27   0.00   0.00    -0.00  -0.29  -0.00     0.00   0.00   0.07
     2   6    -0.27   0.00  -0.00    -0.00  -0.23   0.13    -0.00  -0.09  -0.18
     3   6     0.03  -0.00  -0.00     0.00   0.01   0.16     0.00  -0.09  -0.25
     4   6     0.28  -0.00  -0.00     0.00   0.11  -0.00    -0.00  -0.00  -0.38
     5   6     0.03  -0.00   0.00    -0.00   0.01  -0.16    -0.00   0.09  -0.25
     6   6    -0.27   0.00   0.00    -0.00  -0.23  -0.13     0.00   0.09  -0.18
     7  17     0.15  -0.00   0.00     0.00   0.21   0.00    -0.00  -0.00   0.44
     8   1    -0.36   0.00  -0.00    -0.00  -0.32   0.29    -0.00   0.01  -0.35
     9   1     0.13  -0.00  -0.00     0.00   0.10   0.32     0.00  -0.02  -0.13
    10   1     0.62  -0.00  -0.00     0.00   0.26  -0.00    -0.00   0.00  -0.38
    11   1     0.13  -0.00   0.00     0.00   0.10  -0.32    -0.00   0.02  -0.13
    12   1    -0.36   0.00   0.00    -0.00  -0.32  -0.29     0.00  -0.01  -0.35
                      4                      5                      6
                     A2                     B1                     B2
 Frequencies --    415.4783               479.4361               628.8527
 Red. masses --      2.9882                 3.2842                 6.4530
 Frc consts  --      0.3039                 0.4448                 1.5035
 IR Inten    --      0.0000                 8.7703                 0.2687
  Atom  AN      X      Y      Z        X      Y      Z        X      Y      Z
     1   6     0.00   0.00  -0.00     0.34   0.00   0.00    -0.00   0.14   0.00
     2   6    -0.21   0.00   0.00    -0.04   0.00   0.00    -0.00   0.20   0.24
     3   6     0.21   0.00   0.00    -0.14  -0.00   0.00     0.00  -0.24   0.26
     4   6     0.00  -0.00   0.00     0.22  -0.00  -0.00    -0.00  -0.14  -0.00
     5   6    -0.21  -0.00   0.00    -0.14  -0.00  -0.00     0.00  -0.24  -0.26
     6   6     0.21  -0.00   0.00    -0.04   0.00  -0.00    -0.00   0.20  -0.24
     7  17    -0.00  -0.00  -0.00    -0.03  -0.00  -0.00     0.00   0.02  -0.00
     8   1    -0.45  -0.00   0.00    -0.36   0.00  -0.00    -0.00   0.29   0.10
     9   1     0.45   0.00   0.00    -0.46  -0.00  -0.00     0.00  -0.32   0.12
    10   1     0.00  -0.00   0.00     0.33  -0.00  -0.00    -0.00   0.29  -0.00
    11   1    -0.45  -0.00   0.00    -0.46  -0.00   0.00     0.00  -0.32  -0.12
    12   1     0.45   0.00   0.00    -0.36   0.00   0.00     0.00   0.29  -0.10
                      7                      8                      9
                     B1                     A1                     B1
 Frequencies --    702.3030               710.0892               751.9173
 Red. masses --      2.1587                 6.8456                 1.5703
 Frc consts  --      0.6273                 2.0337                 0.5231
 IR Inten    --     29.0128                27.6766                65.5073
  Atom  AN      X      Y      Z        X      Y      Z        X      Y      Z
     1   6    -0.13   0.00  -0.00    -0.00  -0.00   0.32     0.15  -0.00   0.00
     2   6     0.10   0.00  -0.00     0.00  -0.25   0.08    -0.09  -0.00   0.00
     3   6    -0.17   0.00  -0.00    -0.00  -0.26   0.08    -0.01   0.00  -0.00
     4   6     0.11  -0.00   0.00     0.00   0.00  -0.29    -0.11  -0.00  -0.00
     5   6    -0.17  -0.00  -0.00    -0.00   0.26   0.08    -0.01   0.00   0.00
     6   6     0.10  -0.00  -0.00     0.00   0.25   0.08    -0.09   0.00  -0.00
     7  17    -0.00   0.00   0.00    -0.00  -0.00  -0.13    -0.01  -0.00  -0.00
     8   1     0.53   0.00   0.00     0.00  -0.11  -0.15     0.18   0.00  -0.00
     9   1     0.06   0.00  -0.00     0.00  -0.08   0.41     0.55  -0.00  -0.00
    10   1     0.58   0.00   0.00     0.00  -0.00  -0.29     0.52  -0.00  -0.00
    11   1     0.06  -0.00  -0.00     0.00   0.08   0.41     0.55   0.00   0.00
    12   1     0.53  -0.00  -0.00     0.00   0.11  -0.15     0.18   0.00   0.00
                     10                     11                     12
                     A2                     B1                     A2
 Frequencies --    836.3470               906.1387               957.4642
 Red. masses --      1.2475                 1.3663                 1.3490
 Frc consts  --      0.5141                 0.6610                 0.7286
 IR Inten    --      0.0000                 3.0072                 0.0000
  Atom  AN      X      Y      Z        X      Y      Z        X      Y      Z
     1   6    -0.00   0.00   0.00    -0.05   0.00   0.00     0.00  -0.00  -0.00
     2   6    -0.08   0.00   0.00     0.10  -0.00  -0.00     0.08  -0.00  -0.00
     3   6    -0.07  -0.00  -0.00    -0.01  -0.00   0.00    -0.09   0.00  -0.00
     4   6    -0.00   0.00  -0.00    -0.10  -0.00   0.00    -0.00   0.00   0.00
     5   6     0.07   0.00  -0.00    -0.01   0.00   0.00     0.09  -0.00  -0.00
     6   6     0.08  -0.00   0.00     0.10   0.00  -0.00    -0.08   0.00  -0.00
     7  17    -0.00  -0.00  -0.00     0.00  -0.00  -0.00     0.00   0.00   0.00
     8   1     0.53   0.00   0.00    -0.55  -0.00  -0.00    -0.45  -0.00  -0.00
     9   1     0.45  -0.00  -0.00     0.05  -0.00  -0.00     0.53   0.00   0.00
    10   1    -0.00  -0.00  -0.00     0.60  -0.00   0.00     0.00   0.00   0.00
    11   1    -0.45   0.00  -0.00     0.05   0.00  -0.00    -0.53  -0.00   0.00
    12   1    -0.53  -0.00   0.00    -0.55   0.00  -0.00     0.45   0.00   0.00
                     13                     14                     15
                     B1                     A1                     A1
 Frequencies --    982.2486              1016.9524              1043.0802
 Red. masses --      1.2765                 6.3205                 2.9885
 Frc consts  --      0.7256                 3.8512                 1.9157
 IR Inten    --      0.1885                 3.4251                21.7925
  Atom  AN      X      Y      Z        X      Y      Z        X      Y      Z
     1   6     0.00  -0.00   0.00     0.00   0.00   0.09    -0.00  -0.00   0.13
     2   6    -0.04  -0.00  -0.00    -0.00  -0.33  -0.20     0.00  -0.06   0.05
     3   6     0.08   0.00  -0.00    -0.00   0.06  -0.04     0.00   0.25  -0.07
     4   6    -0.09   0.00   0.00     0.00  -0.00   0.41    -0.00  -0.00  -0.14
     5   6     0.08  -0.00  -0.00    -0.00  -0.06  -0.04    -0.00  -0.25  -0.07
     6   6    -0.04   0.00  -0.00     0.00   0.33  -0.20     0.00   0.06   0.05
     7  17    -0.00  -0.00   0.00    -0.00   0.00   0.00    -0.00   0.00  -0.02
     8   1     0.26  -0.00  -0.00     0.00  -0.33  -0.24    -0.00  -0.22   0.33
     9   1    -0.51   0.00   0.00     0.00   0.02  -0.08     0.00   0.43   0.23
    10   1     0.56  -0.00   0.00    -0.00  -0.00   0.42     0.00  -0.00  -0.16
    11   1    -0.51  -0.00  -0.00     0.00  -0.02  -0.08     0.00  -0.43   0.23
    12   1     0.26   0.00  -0.00    -0.00   0.33  -0.24    -0.00   0.22   0.33
                     16                     17                     18
                     B2                     A1                     B2
 Frequencies --   1098.1496              1099.1795              1185.2841
 Red. masses --      1.5748                 2.7277                 1.1244
 Frc consts  --      1.1189                 1.9417                 0.9307
 IR Inten    --      5.2926                43.9560                 0.0341
  Atom  AN      X      Y      Z        X      Y      Z        X      Y      Z
     1   6     0.00   0.05  -0.00    -0.00   0.00   0.34     0.00   0.01  -0.00
     2   6     0.00  -0.05  -0.11     0.00   0.10   0.01    -0.00  -0.01   0.01
     3   6    -0.00  -0.06   0.06    -0.00   0.04  -0.09     0.00  -0.03  -0.04
     4   6    -0.00   0.09  -0.00    -0.00   0.00   0.05    -0.00   0.07   0.00
     5   6    -0.00  -0.06  -0.06     0.00  -0.04  -0.09     0.00  -0.03   0.04
     6   6     0.00  -0.05   0.11    -0.00  -0.10   0.01    -0.00  -0.01  -0.01
     7  17    -0.00  -0.00   0.00    -0.00  -0.00  -0.04     0.00  -0.00  -0.00
     8   1     0.00   0.16  -0.47    -0.00   0.34  -0.37     0.00  -0.10   0.15
     9   1     0.00   0.06   0.27    -0.00  -0.13  -0.39    -0.00  -0.24  -0.41
    10   1     0.00   0.55  -0.00     0.00   0.00   0.05     0.00   0.68   0.00
    11   1     0.00   0.06  -0.27    -0.00   0.13  -0.39    -0.00  -0.24   0.41
    12   1    -0.00   0.16   0.47     0.00  -0.34  -0.37    -0.00  -0.10  -0.15
                     19                     20                     21
                     A1                     B2                     B2
 Frequencies --   1200.8738              1319.9693              1348.0350
 Red. masses --      1.1434                 3.6393                 1.5928
 Frc consts  --      0.9715                 3.7359                 1.7053
 IR Inten    --      0.0164                 0.1244                 0.4208
  Atom  AN      X      Y      Z        X      Y      Z        X      Y      Z
     1   6    -0.00  -0.00  -0.01     0.00   0.32   0.00     0.00   0.04  -0.00
     2   6     0.00   0.03  -0.05    -0.00  -0.11   0.11    -0.00   0.04  -0.12
     3   6    -0.00   0.03   0.05     0.00  -0.11  -0.15     0.00   0.00   0.05
     4   6     0.00  -0.00   0.00    -0.00   0.14  -0.00    -0.00  -0.11  -0.00
     5   6     0.00  -0.03   0.05     0.00  -0.11   0.15     0.00   0.00  -0.05
     6   6    -0.00  -0.03  -0.05    -0.00  -0.11  -0.11    -0.00   0.04   0.12
     7  17     0.00  -0.00   0.00    -0.00  -0.00  -0.00    -0.00  -0.00   0.00
     8   1     0.00   0.25  -0.42     0.00  -0.22   0.29    -0.00  -0.32   0.49
     9   1     0.00   0.25   0.44     0.00   0.22   0.44    -0.00   0.12   0.25
    10   1    -0.00   0.00   0.00    -0.00  -0.11   0.00     0.00   0.33  -0.00
    11   1    -0.00  -0.25   0.44     0.00   0.22  -0.44    -0.00   0.12  -0.25
    12   1     0.00  -0.25  -0.42     0.00  -0.22  -0.29    -0.00  -0.32  -0.49
                     22                     23                     24
                     B2                     A1                     A1
 Frequencies --   1480.6852              1513.6429              1626.0420
 Red. masses --      2.1167                 2.0728                 5.3364
 Frc consts  --      2.7342                 2.7980                 8.3130
 IR Inten    --      5.3385                45.0492                27.4622
  Atom  AN      X      Y      Z        X      Y      Z        X      Y      Z
     1   6    -0.00  -0.14  -0.00     0.00  -0.00   0.12    -0.00  -0.00   0.14
     2   6    -0.00   0.06   0.09     0.00   0.11  -0.10     0.00   0.06  -0.27
     3   6     0.00   0.01  -0.14     0.00  -0.10  -0.08    -0.00   0.09   0.30
     4   6     0.00  -0.13  -0.00    -0.00  -0.00   0.09    -0.00   0.00  -0.16
     5   6     0.00   0.01   0.14    -0.00   0.10  -0.08     0.00  -0.09   0.30
     6   6    -0.00   0.06  -0.09    -0.00  -0.11  -0.10    -0.00  -0.06  -0.27
     7  17     0.00   0.00   0.00    -0.00   0.00  -0.00    -0.00   0.00   0.00
     8   1     0.00   0.19  -0.10    -0.00  -0.19   0.44    -0.00  -0.24   0.24
     9   1    -0.00   0.29   0.32    -0.00   0.18   0.43     0.00  -0.27  -0.32
    10   1     0.00   0.67  -0.00    -0.00   0.00   0.11    -0.00  -0.00  -0.18
    11   1    -0.00   0.29  -0.32     0.00  -0.18   0.43    -0.00   0.27  -0.32
    12   1    -0.00   0.19   0.10     0.00   0.19   0.44     0.00   0.24   0.24
                     25                     26                     27
                     B2                     A1                     B2
 Frequencies --   1628.1146              3165.9290              3175.2736
 Red. masses --      5.7972                 1.0860                 1.0896
 Frc consts  --      9.0539                 6.4134                 6.4725
 IR Inten    --      2.6457                 0.0710                11.6878
  Atom  AN      X      Y      Z        X      Y      Z        X      Y      Z
     1   6    -0.00  -0.31  -0.00    -0.00  -0.00   0.00     0.00  -0.00   0.00
     2   6     0.00   0.20  -0.10     0.00   0.01   0.01    -0.00   0.02   0.01
     3   6     0.00  -0.21  -0.08     0.00  -0.04   0.02     0.00  -0.05   0.03
     4   6    -0.00   0.37   0.00    -0.00  -0.00  -0.05    -0.00   0.00   0.00
     5   6     0.00  -0.21   0.08    -0.00   0.04   0.02     0.00  -0.05  -0.03
     6   6     0.00   0.20   0.10    -0.00  -0.01   0.01     0.00   0.02  -0.01
     7  17    -0.00   0.00  -0.00     0.00   0.00  -0.00    -0.00  -0.00  -0.00
     8   1    -0.00  -0.01   0.29     0.00  -0.13  -0.07     0.00  -0.19  -0.11
     9   1     0.00  -0.04   0.26    -0.00   0.47  -0.27    -0.00   0.58  -0.33
    10   1    -0.00  -0.50   0.00    -0.00   0.00   0.60     0.00  -0.00  -0.00
    11   1     0.00  -0.04  -0.26     0.00  -0.47  -0.27    -0.00   0.58   0.33
    12   1    -0.00  -0.01  -0.29    -0.00   0.13  -0.07     0.00  -0.19   0.11
                     28                     29                     30
                     A1                     B2                     A1
 Frequencies --   3188.5205              3199.2951              3201.6950
 Red. masses --      1.0937                 1.0937                 1.0960
 Frc consts  --      6.5511                 6.5958                 6.6192
 IR Inten    --     20.2338                10.7382                 1.1549
  Atom  AN      X      Y      Z        X      Y      Z        X      Y      Z
     1   6    -0.00  -0.00  -0.00     0.00   0.00   0.00     0.00   0.00  -0.00
     2   6     0.00  -0.02  -0.01    -0.00  -0.05  -0.03     0.00  -0.05  -0.03
     3   6    -0.00   0.03  -0.01    -0.00  -0.02   0.01     0.00  -0.02   0.01
     4   6     0.00   0.00  -0.07     0.00   0.00   0.00    -0.00  -0.00   0.02
     5   6     0.00  -0.03  -0.01     0.00  -0.02  -0.01    -0.00   0.02   0.01
     6   6    -0.00   0.02  -0.01     0.00  -0.05   0.03    -0.00   0.05  -0.03
     7  17    -0.00   0.00   0.00     0.00  -0.00  -0.00    -0.00  -0.00   0.00
     8   1    -0.00   0.28   0.16    -0.00   0.58   0.34    -0.00   0.52   0.31
     9   1     0.00  -0.29   0.16    -0.00   0.19  -0.11     0.00   0.26  -0.15
    10   1    -0.00  -0.00   0.75     0.00  -0.00  -0.00     0.00   0.00  -0.26
    11   1    -0.00   0.29   0.16    -0.00   0.19   0.11     0.00  -0.26  -0.15
    12   1     0.00  -0.28   0.16    -0.00   0.58  -0.34     0.00  -0.52   0.31

 -------------------
 - Thermochemistry -
 -------------------
 Temperature   298.150 Kelvin.  Pressure   1.00000 Atm.
 Atom     1 has atomic number  6 and mass  12.00000
 Atom     2 has atomic number  6 and mass  12.00000
 Atom     3 has atomic number  6 and mass  12.00000
 Atom     4 has atomic number  6 and mass  12.00000
 Atom     5 has atomic number  6 and mass  12.00000
 Atom     6 has atomic number  6 and mass  12.00000
 Atom     7 has atomic number 17 and mass  34.96885
 Atom     8 has atomic number  1 and mass   1.00783
 Atom     9 has atomic number  1 and mass   1.00783
 Atom    10 has atomic number  1 and mass   1.00783
 Atom    11 has atomic number  1 and mass   1.00783
 Atom    12 has atomic number  1 and mass   1.00783
 Molecular mass:   112.00798 amu.
 Principal axes and moments of inertia in atomic units:
                           1         2         3
     Eigenvalues --   317.101011157.710531474.81154
           X            0.00000   0.00000   1.00000
           Y            0.00000   1.00000  -0.00000
           Z            1.00000  -0.00000   0.00000
 This molecule is an asymmetric top.
 Rotational symmetry number  2.
 Rotational temperatures (Kelvin)      0.27314     0.07481     0.05873
 Rotational constants (GHZ):           5.69138     1.55889     1.22371
 Zero-point vibrational energy     237810.4 (Joules/Mol)
                                   56.83805 (Kcal/Mol)
 Warning -- explicit consideration of   5 degrees of freedom as
           vibrations may cause significant error
 Vibrational temperatures:    268.45   427.43   595.85   597.78   689.80
          (Kelvin)            904.78  1010.46  1021.66  1081.84  1203.32
                             1303.73  1377.58  1413.24  1463.17  1500.76
                             1579.99  1581.47  1705.36  1727.79  1899.14
                             1939.52  2130.38  2177.79  2339.51  2342.49
                             4555.07  4568.51  4587.57  4603.07  4606.52
 
 Zero-point correction=                           0.090577 (Hartree/Particle)
 Thermal correction to Energy=                    0.096094
 Thermal correction to Enthalpy=                  0.097038
 Thermal correction to Gibbs Free Energy=         0.061438
 Sum of electronic and zero-point Energies=           -691.834888
 Sum of electronic and thermal Energies=              -691.829371
 Sum of electronic and thermal Enthalpies=            -691.828427
 Sum of electronic and thermal Free Energies=         -691.864028
 
                     E (Thermal)             CV                S
                      KCal/Mol        Cal/Mol-Kelvin    Cal/Mol-Kelvin
 Total                   60.300             21.103             74.928
 Electronic               0.000              0.000              0.000
 Translational            0.889              2.981             40.056
 Rotational               0.889              2.981             26.407
 Vibrational             58.523             15.141              8.465
 Vibration     1          0.632              1.858              2.262
 Vibration     2          0.691              1.679              1.433
 Vibration     3          0.778              1.440              0.912
 Vibration     4          0.779              1.437              0.907
 Vibration     5          0.836              1.296              0.712
                       Q            Log10(Q)             Ln(Q)
 Total Bot       0.550397D-28        -28.259324        -65.069498
 Total V=0       0.253080D+14         13.403258         30.862141
 Vib (Bot)       0.896945D-41        -41.047234        -94.514749
 Vib (Bot)    1  0.107400D+01          0.031004          0.071390
 Vib (Bot)    2  0.641203D+00         -0.193004         -0.444409
 Vib (Bot)    3  0.425879D+00         -0.370714         -0.853600
 Vib (Bot)    4  0.424075D+00         -0.372557         -0.857845
 Vib (Bot)    5  0.349008D+00         -0.457164         -1.052660
 Vib (V=0)       0.412428D+01          0.615348          1.416890
 Vib (V=0)    1  0.168468D+01          0.226519          0.521578
 Vib (V=0)    2  0.131311D+01          0.118300          0.272395
 Vib (V=0)    3  0.115679D+01          0.063254          0.145649
 Vib (V=0)    4  0.115562D+01          0.062816          0.144638
 Vib (V=0)    5  0.110976D+01          0.045229          0.104143
 Electronic      0.100000D+01          0.000000          0.000000
 Translational   0.465937D+08          7.668327         17.656976
 Rotational      0.131699D+06          5.119583         11.788275
 
                                                           ClBz_1 b3lyp_gas
                                                             IR Spectrum
 
   33333                                                           11   1 1    11   11  11 11                                        
   21111                                                           66   5 4    33   21  00 00 99 9 8   777  6    4 44    2   1       
   09876                                                           22   1 8    42   08  99 41 85 0 3   510  2    7 11    9   8       
   29956                                                           86   4 1    80   15  98 37 27 6 6   202  9    9 54    7   7       
 
   XXXXX                                                           XX   X X    XX       XX XX X  X     XXX  X    X  X    X   X       
    XXX                                                             X   X X             XX X           XXX       X  X                
    XXX                                                             X   X               X  X           XXX       X                   
     XX                                                             X   X               X  X           XXX                           
     X                                                              X   X               X  X           XXX                           
     X                                                              X   X               X  X           XXX                           
                                                                    X   X               X  X           XXX                           
                                                                    X   X               X              XXX                           
                                                                        X               X              X X                           
                                                                        X               X              X                             
                                                                        X               X              X                             
                                                                        X               X              X                             
                                                                        X               X              X                             
                                                                        X                              X                             
                                                                                                       X                             
                                                                                                       X                             
                                                                                                       X                             
                                                                                                       X                             
                                                                                                       X                             
                                                                                                       X                             
 
 ***** Axes restored to original set *****
 -------------------------------------------------------------------
 Center     Atomic                   Forces (Hartrees/Bohr)
 Number     Number              X              Y              Z
 -------------------------------------------------------------------
      1        6           0.000000000   -0.000097659   -0.000000000
      2        6          -0.000028334    0.000109161    0.000000000
      3        6           0.000004206   -0.000017697    0.000000000
      4        6          -0.000000000    0.000200584   -0.000000000
      5        6          -0.000004206   -0.000017697    0.000000000
      6        6           0.000028334    0.000109161    0.000000000
      7       17           0.000000000   -0.000071640   -0.000000000
      8        1           0.000059022   -0.000005318    0.000000000
      9        1           0.000036694   -0.000066102    0.000000000
     10        1          -0.000000000   -0.000071373   -0.000000000
     11        1          -0.000036694   -0.000066102    0.000000000
     12        1          -0.000059022   -0.000005318    0.000000000
 -------------------------------------------------------------------
 Cartesian Forces:  Max     0.000200584 RMS     0.000053891
 Force constants in Cartesian coordinates: 
                1             2             3             4             5 
      1  0.649796D+00
      2  0.000000D+00  0.497077D+00
      3  0.000000D+00  0.000000D+00  0.122922D+00
      4 -0.284379D+00  0.113646D+00  0.000000D+00  0.719787D+00
      5  0.484432D-01 -0.150290D+00  0.000000D+00  0.452141D-01  0.679770D+00
      6  0.000000D+00  0.000000D+00 -0.628896D-01  0.000000D+00  0.000000D+00
      7  0.353976D-01  0.258013D-01  0.000000D+00 -0.129501D+00  0.312161D-01
      8  0.835210D-01 -0.301746D-01  0.000000D+00 -0.358104D-01 -0.331779D+00
      9  0.000000D+00  0.000000D+00  0.715554D-02  0.000000D+00  0.000000D+00
     10 -0.743493D-01  0.000000D+00  0.000000D+00  0.351541D-01 -0.752450D-01
     11  0.000000D+00  0.100260D-02  0.000000D+00 -0.286389D-01 -0.279565D-01
     12  0.000000D+00  0.000000D+00 -0.781420D-02  0.000000D+00  0.000000D+00
     13  0.353976D-01 -0.258013D-01  0.000000D+00 -0.186316D-01  0.293995D-01
     14 -0.835210D-01 -0.301746D-01  0.000000D+00  0.296477D-01 -0.499240D-01
     15  0.000000D+00  0.000000D+00  0.715555D-02  0.000000D+00  0.000000D+00
     16 -0.284379D+00 -0.113646D+00  0.000000D+00 -0.541812D-01  0.230522D-01
     17 -0.484432D-01 -0.150290D+00  0.000000D+00 -0.230522D-01  0.611135D-01
     18  0.000000D+00  0.000000D+00 -0.628896D-01  0.000000D+00  0.000000D+00
     19 -0.403246D-01  0.000000D+00  0.000000D+00  0.335732D-02  0.269934D-01
     20  0.000000D+00 -0.149204D+00  0.000000D+00  0.129755D-03 -0.383270D-01
     21  0.000000D+00  0.000000D+00 -0.226557D-01  0.000000D+00  0.000000D+00
     22 -0.195194D-01 -0.165101D-01  0.000000D+00 -0.268403D+00 -0.121562D+00
     23  0.149518D-01  0.963478D-02  0.000000D+00 -0.124554D+00 -0.129578D+00
     24  0.000000D+00  0.000000D+00  0.234371D-02  0.000000D+00  0.000000D+00
     25  0.177579D-02 -0.698295D-03  0.000000D+00  0.383707D-02 -0.194718D-02
     26 -0.110725D-02 -0.405334D-02  0.000000D+00  0.289094D-01 -0.115900D-01
     27  0.000000D+00  0.000000D+00  0.724587D-02  0.000000D+00  0.000000D+00
     28 -0.167201D-02  0.000000D+00  0.000000D+00 -0.443784D-02 -0.230717D-02
     29  0.000000D+00  0.892092D-03  0.000000D+00 -0.301412D-02  0.612804D-03
     30  0.000000D+00  0.000000D+00 -0.163306D-03  0.000000D+00  0.000000D+00
     31  0.177579D-02  0.698295D-03  0.000000D+00  0.249790D-03  0.793898D-03
     32  0.110725D-02 -0.405334D-02  0.000000D+00  0.764176D-03 -0.827403D-03
     33  0.000000D+00  0.000000D+00  0.724587D-02  0.000000D+00  0.000000D+00
     34 -0.195194D-01  0.165101D-01  0.000000D+00 -0.285156D-02 -0.405149D-02
     35 -0.149518D-01  0.963478D-02  0.000000D+00 -0.324094D-02 -0.122389D-02
     36  0.000000D+00  0.000000D+00  0.234371D-02  0.000000D+00  0.000000D+00
                6             7             8             9            10 
      6  0.126741D+00
      7  0.000000D+00  0.717921D+00
      8  0.000000D+00 -0.323328D-01  0.674986D+00
      9 -0.594622D-01  0.000000D+00  0.000000D+00  0.130504D+00
     10  0.000000D+00 -0.280749D+00 -0.557765D-01  0.000000D+00  0.656494D+00
     11  0.000000D+00 -0.119126D+00 -0.180778D+00  0.000000D+00  0.000000D+00
     12  0.846385D-02  0.000000D+00  0.000000D+00 -0.606928D-01  0.000000D+00
     13  0.000000D+00 -0.591482D-01 -0.234412D-01  0.000000D+00 -0.280749D+00
     14  0.000000D+00  0.234412D-01  0.645898D-01  0.000000D+00  0.557765D-01
     15 -0.699543D-02  0.000000D+00  0.000000D+00  0.885436D-02  0.000000D+00
     16  0.000000D+00 -0.186316D-01 -0.296477D-01  0.000000D+00  0.351541D-01
     17  0.000000D+00 -0.293995D-01 -0.499240D-01  0.000000D+00  0.752450D-01
     18  0.100989D-01  0.000000D+00  0.000000D+00 -0.699543D-02  0.000000D+00
     19  0.000000D+00 -0.397656D-02 -0.160099D-02  0.000000D+00  0.211789D-02
     20  0.000000D+00  0.505604D-02  0.343071D-02  0.000000D+00  0.000000D+00
     21  0.384203D-02  0.000000D+00  0.000000D+00  0.502179D-02  0.000000D+00
     22  0.000000D+00  0.495438D-02  0.187334D-02  0.000000D+00  0.164088D-02
     23  0.000000D+00 -0.280391D-01 -0.102729D-01  0.000000D+00  0.143354D-02
     24 -0.341290D-01  0.000000D+00  0.000000D+00  0.263424D-02  0.000000D+00
     25  0.000000D+00 -0.268139D+00  0.118577D+00  0.000000D+00 -0.182472D-01
     26  0.000000D+00  0.118463D+00 -0.127120D+00  0.000000D+00 -0.148676D-01
     27  0.261126D-02  0.000000D+00  0.000000D+00 -0.351208D-01  0.000000D+00
     28  0.000000D+00  0.481204D-02 -0.285893D-01  0.000000D+00 -0.598611D-01
     29  0.000000D+00  0.242709D-02 -0.113051D-01  0.000000D+00  0.000000D+00
     30  0.675477D-02  0.000000D+00  0.000000D+00  0.195587D-02  0.000000D+00
     31  0.000000D+00 -0.318960D-02  0.405508D-02  0.000000D+00 -0.182472D-01
     32  0.000000D+00  0.322461D-02 -0.869224D-03  0.000000D+00  0.148676D-01
     33 -0.442061D-03  0.000000D+00  0.000000D+00  0.660266D-02  0.000000D+00
     34  0.000000D+00  0.249931D-03 -0.827881D-03  0.000000D+00  0.164088D-02
     35  0.000000D+00 -0.732404D-03 -0.783413D-03  0.000000D+00 -0.143354D-02
     36  0.540634D-02  0.000000D+00  0.000000D+00 -0.457100D-03  0.000000D+00
               11            12            13            14            15 
     11  0.741225D+00
     12  0.000000D+00  0.127822D+00
     13  0.119126D+00  0.000000D+00  0.717921D+00
     14 -0.180778D+00  0.000000D+00  0.323328D-01  0.674986D+00
     15  0.000000D+00 -0.606928D-01  0.000000D+00  0.000000D+00  0.130504D+00
     16  0.286389D-01  0.000000D+00 -0.129501D+00  0.358104D-01  0.000000D+00
     17 -0.279565D-01  0.000000D+00 -0.312161D-01 -0.331779D+00  0.000000D+00
     18  0.000000D+00  0.846385D-02  0.000000D+00  0.000000D+00 -0.594622D-01
     19  0.000000D+00  0.000000D+00 -0.397656D-02  0.160099D-02  0.000000D+00
     20 -0.255601D-02  0.000000D+00 -0.505604D-02  0.343071D-02  0.000000D+00
     21  0.000000D+00 -0.810654D-03  0.000000D+00  0.000000D+00  0.502179D-02
     22  0.802245D-03  0.000000D+00  0.249931D-03  0.827881D-03  0.000000D+00
     23 -0.527496D-02  0.000000D+00  0.732404D-03 -0.783413D-03  0.000000D+00
     24  0.000000D+00  0.700036D-02  0.000000D+00  0.000000D+00 -0.457100D-03
     25  0.159759D-01  0.000000D+00 -0.318960D-02 -0.405508D-02  0.000000D+00
     26  0.123107D-01  0.000000D+00 -0.322461D-02 -0.869224D-03  0.000000D+00
     27  0.000000D+00  0.264340D-02  0.000000D+00  0.000000D+00  0.660266D-02
     28  0.000000D+00  0.000000D+00  0.481204D-02  0.285893D-01  0.000000D+00
     29 -0.336275D+00  0.000000D+00 -0.242709D-02 -0.113051D-01  0.000000D+00
     30  0.000000D+00 -0.340267D-01  0.000000D+00  0.000000D+00  0.195587D-02
     31 -0.159759D-01  0.000000D+00 -0.268139D+00 -0.118577D+00  0.000000D+00
     32  0.123107D-01  0.000000D+00 -0.118463D+00 -0.127120D+00  0.000000D+00
     33  0.000000D+00  0.264340D-02  0.000000D+00  0.000000D+00 -0.351208D-01
     34 -0.802245D-03  0.000000D+00  0.495438D-02 -0.187334D-02  0.000000D+00
     35 -0.527496D-02  0.000000D+00  0.280391D-01 -0.102729D-01  0.000000D+00
     36  0.000000D+00  0.700036D-02  0.000000D+00  0.000000D+00  0.263424D-02
               16            17            18            19            20 
     16  0.719787D+00
     17 -0.452141D-01  0.679770D+00
     18  0.000000D+00  0.000000D+00  0.126741D+00
     19  0.335732D-02 -0.269934D-01  0.000000D+00  0.366883D-01
     20 -0.129755D-03 -0.383270D-01  0.000000D+00  0.000000D+00  0.222275D+00
     21  0.000000D+00  0.000000D+00  0.384203D-02  0.000000D+00  0.000000D+00
     22 -0.285156D-02  0.405149D-02  0.000000D+00  0.118125D-02 -0.182222D-03
     23  0.324094D-02 -0.122389D-02  0.000000D+00  0.762641D-03  0.123373D-02
     24  0.000000D+00  0.000000D+00  0.540634D-02  0.000000D+00  0.000000D+00
     25  0.249790D-03 -0.793898D-03  0.000000D+00  0.545038D-04 -0.197132D-03
     26 -0.764176D-03 -0.827403D-03  0.000000D+00  0.921522D-03 -0.152664D-02
     27  0.000000D+00  0.000000D+00 -0.442061D-03  0.000000D+00  0.000000D+00
     28 -0.443784D-02  0.230717D-02  0.000000D+00  0.285386D-03  0.000000D+00
     29  0.301412D-02  0.612804D-03  0.000000D+00  0.000000D+00 -0.136565D-03
     30  0.000000D+00  0.000000D+00  0.675477D-02  0.000000D+00  0.000000D+00
     31  0.383707D-02  0.194718D-02  0.000000D+00  0.545041D-04  0.197132D-03
     32 -0.289094D-01 -0.115900D-01  0.000000D+00 -0.921522D-03 -0.152664D-02
     33  0.000000D+00  0.000000D+00  0.261126D-02  0.000000D+00  0.000000D+00
     34 -0.268403D+00  0.121562D+00  0.000000D+00  0.118125D-02  0.182222D-03
     35  0.124554D+00 -0.129578D+00  0.000000D+00 -0.762642D-03  0.123373D-02
     36  0.000000D+00  0.000000D+00 -0.341290D-01  0.000000D+00  0.000000D+00
               21            22            23            24            25 
     21  0.114957D-01
     22  0.000000D+00  0.282798D+00
     23  0.000000D+00  0.131728D+00  0.135274D+00
     24 -0.251270D-02  0.000000D+00  0.000000D+00  0.239938D-01
     25  0.000000D+00  0.781270D-03  0.405995D-03  0.000000D+00  0.283030D+00
     26  0.000000D+00 -0.398955D-03  0.946451D-03  0.000000D+00 -0.127748D+00
     27  0.753633D-04  0.000000D+00  0.000000D+00 -0.395775D-02  0.000000D+00
     28  0.000000D+00  0.102104D-03 -0.133432D-02  0.000000D+00  0.879088D-03
     29  0.000000D+00  0.213208D-03 -0.607455D-03  0.000000D+00 -0.422156D-03
     30 -0.882331D-03  0.000000D+00  0.000000D+00  0.247757D-03  0.000000D+00
     31  0.000000D+00 -0.273662D-04 -0.928182D-04  0.000000D+00 -0.100366D-02
     32  0.000000D+00 -0.783942D-04  0.600436D-04  0.000000D+00  0.809579D-03
     33  0.753633D-04  0.000000D+00  0.000000D+00 -0.991442D-03  0.000000D+00
     34  0.000000D+00 -0.906531D-03  0.765168D-03  0.000000D+00 -0.273662D-04
     35  0.000000D+00 -0.765168D-03  0.591968D-03  0.000000D+00  0.928182D-04
     36 -0.251270D-02  0.000000D+00  0.000000D+00  0.421757D-03  0.000000D+00
               26            27            28            29            30 
     26  0.131468D+00
     27  0.000000D+00  0.248339D-01
     28  0.547385D-03  0.000000D+00  0.585369D-01
     29  0.795427D-03  0.000000D+00  0.000000D+00  0.356528D+00
     30  0.000000D+00 -0.369722D-02  0.000000D+00  0.000000D+00  0.245500D-01
     31 -0.809579D-03  0.000000D+00  0.879088D-03  0.422156D-03  0.000000D+00
     32  0.406218D-03  0.000000D+00 -0.547386D-03  0.795427D-03  0.000000D+00
     33  0.000000D+00  0.196851D-03  0.000000D+00  0.000000D+00 -0.369722D-02
     34  0.783942D-04  0.000000D+00  0.102104D-03 -0.213209D-03  0.000000D+00
     35  0.600436D-04  0.000000D+00  0.133432D-02 -0.607455D-03  0.000000D+00
     36  0.000000D+00 -0.991442D-03  0.000000D+00  0.000000D+00  0.247757D-03
               31            32            33            34            35 
     31  0.283030D+00
     32  0.127748D+00  0.131468D+00
     33  0.000000D+00  0.000000D+00  0.248339D-01
     34  0.781270D-03  0.398955D-03  0.000000D+00  0.282798D+00
     35 -0.405995D-03  0.946451D-03  0.000000D+00 -0.131728D+00  0.135274D+00
     36  0.000000D+00  0.000000D+00 -0.395775D-02  0.000000D+00  0.000000D+00
               36 
     36  0.239938D-01
 FormGI is forming the generalized inverse of G from B-inverse, IUseBI=4.
 Leave Link  716 at Mon Sep 28 02:10:36 2026, MaxMem=  1610612736 cpu:               0.2 elap:               0.0
 (Enter /share/software/user/restricted/gaussian/g16.B01/l103.exe)

 GradGradGradGradGradGradGradGradGradGradGradGradGradGradGradGradGradGrad
 Berny optimization.
 Red2BG is reusing G-inverse.
 Internal  Forces:  Max     0.000098211 RMS     0.000038256
 Search for a local minimum.
 Step number   1 out of a maximum of    2
 All quantities printed in internal units (Hartrees-Bohrs-Radians)
 Second derivative matrix not updated -- analytic derivatives used.
 ITU=  0
     Eigenvalues ---    0.01656   0.01672   0.01769   0.02221   0.02359
     Eigenvalues ---    0.02613   0.02803   0.02808   0.03072   0.10886
     Eigenvalues ---    0.11342   0.11625   0.12342   0.12591   0.15927
     Eigenvalues ---    0.18361   0.19543   0.19910   0.25532   0.28582
     Eigenvalues ---    0.35480   0.35582   0.35785   0.36014   0.36180
     Eigenvalues ---    0.41203   0.41539   0.46414   0.46492   0.50748
 Angle between quadratic step and forces=  21.35 degrees.
 Linear search not attempted -- first point.
 Iteration  1 RMS(Cart)=  0.00025594 RMS(Int)=  0.00000006
 Iteration  2 RMS(Cart)=  0.00000007 RMS(Int)=  0.00000000
 ITry= 1 IFail=0 DXMaxC= 8.09D-04 DCOld= 1.00D+10 DXMaxT= 3.00D-01 DXLimC= 3.00D+00 Rises=F
 ClnCor:  largest displacement from symmetrization is 6.04D-12 for atom    12.
 Variable       Old X    -DE/DX   Delta X   Delta X   Delta X     New X
                                 (Linear)    (Quad)   (Total)
    R1        2.62988   0.00000   0.00000  -0.00002  -0.00002   2.62986
    R2        2.62988   0.00000   0.00000  -0.00002  -0.00002   2.62986
    R3        3.32703  -0.00007   0.00000  -0.00015  -0.00015   3.32688
    R4        2.63437   0.00002   0.00000   0.00009   0.00009   2.63446
    R5        2.04750   0.00005   0.00000   0.00012   0.00012   2.04762
    R6        2.63425  -0.00002   0.00000  -0.00005  -0.00005   2.63420
    R7        2.05044   0.00006   0.00000   0.00017   0.00017   2.05061
    R8        2.63425  -0.00002   0.00000  -0.00005  -0.00005   2.63420
    R9        2.04973   0.00007   0.00000   0.00023   0.00023   2.04996
   R10        2.63437   0.00002   0.00000   0.00009   0.00009   2.63446
   R11        2.05044   0.00006   0.00000   0.00017   0.00017   2.05061
   R12        2.04750   0.00005   0.00000   0.00012   0.00012   2.04762
    A1        2.11795   0.00010   0.00000   0.00049   0.00049   2.11844
    A2        2.08262  -0.00005   0.00000  -0.00025  -0.00025   2.08237
    A3        2.08262  -0.00005   0.00000  -0.00025  -0.00025   2.08237
    A4        2.07699  -0.00005   0.00000  -0.00025  -0.00025   2.07674
    A5        2.09594   0.00006   0.00000   0.00034   0.00034   2.09628
    A6        2.11025  -0.00001   0.00000  -0.00009  -0.00009   2.11017
    A7        2.10252  -0.00004   0.00000  -0.00023  -0.00023   2.10228
    A8        2.08248   0.00006   0.00000   0.00049   0.00049   2.08297
    A9        2.09819  -0.00002   0.00000  -0.00026  -0.00026   2.09793
   A10        2.08941   0.00010   0.00000   0.00049   0.00049   2.08990
   A11        2.09689  -0.00005   0.00000  -0.00024  -0.00024   2.09664
   A12        2.09689  -0.00005   0.00000  -0.00024  -0.00024   2.09664
   A13        2.10252  -0.00004   0.00000  -0.00023  -0.00023   2.10228
   A14        2.09819  -0.00002   0.00000  -0.00026  -0.00026   2.09793
   A15        2.08248   0.00006   0.00000   0.00049   0.00049   2.08297
   A16        2.07699  -0.00005   0.00000  -0.00025  -0.00025   2.07674
   A17        2.09594   0.00006   0.00000   0.00034   0.00034   2.09628
   A18        2.11025  -0.00001   0.00000  -0.00009  -0.00009   2.11017
    D1       -0.00000   0.00000   0.00000   0.00000   0.00000   0.00000
    D2        3.14159   0.00000   0.00000   0.00000   0.00000   3.14159
    D3        3.14159   0.00000   0.00000   0.00000   0.00000   3.14159
    D4        0.00000   0.00000   0.00000   0.00000   0.00000   0.00000
    D5        0.00000  -0.00000   0.00000  -0.00000   0.00000   0.00000
    D6        3.14159  -0.00000   0.00000  -0.00000   0.00000   3.14159
    D7        3.14159  -0.00000   0.00000  -0.00000   0.00000   3.14159
    D8       -0.00000  -0.00000   0.00000  -0.00000   0.00000   0.00000
    D9       -0.00000  -0.00000   0.00000  -0.00000   0.00000   0.00000
   D10        3.14159  -0.00000   0.00000  -0.00000   0.00000   3.14159
   D11        3.14159   0.00000   0.00000  -0.00000   0.00000   3.14159
   D12        0.00000   0.00000   0.00000   0.00000   0.00000   0.00000
   D13        0.00000  -0.00000   0.00000  -0.00000   0.00000   0.00000
   D14        3.14159  -0.00000   0.00000  -0.00000   0.00000   3.14159
   D15        3.14159  -0.00000   0.00000  -0.00000   0.00000   3.14159
   D16       -0.00000  -0.00000   0.00000  -0.00000   0.00000   0.00000
   D17       -0.00000   0.00000   0.00000   0.00000   0.00000   0.00000
   D18        3.14159   0.00000   0.00000   0.00000   0.00000   3.14159
   D19        3.14159   0.00000   0.00000   0.00000   0.00000   3.14159
   D20       -0.00000   0.00000   0.00000   0.00000   0.00000   0.00000
   D21       -0.00000   0.00000   0.00000   0.00000   0.00000   0.00000
   D22        3.14159   0.00000   0.00000   0.00000   0.00000   3.14159
   D23        3.14159  -0.00000   0.00000  -0.00000   0.00000   3.14159
   D24        0.00000  -0.00000   0.00000   0.00000   0.00000   0.00000
         Item               Value     Threshold  Converged?
 Maximum Force            0.000098     0.000450     YES
 RMS     Force            0.000038     0.000300     YES
 Maximum Displacement     0.000809     0.001800     YES
 RMS     Displacement     0.000256     0.001200     YES
 Predicted change in Energy=-1.852620D-07
 Optimization completed.
    -- Stationary point found.
                           ----------------------------
                           !   Optimized Parameters   !
                           ! (Angstroms and Degrees)  !
 --------------------------                            --------------------------
 ! Name  Definition              Value          Derivative Info.                !
 --------------------------------------------------------------------------------
 ! R1    R(1,2)                  1.3917         -DE/DX =    0.0                 !
 ! R2    R(1,6)                  1.3917         -DE/DX =    0.0                 !
 ! R3    R(1,7)                  1.7606         -DE/DX =   -0.0001              !
 ! R4    R(2,3)                  1.394          -DE/DX =    0.0                 !
 ! R5    R(2,8)                  1.0835         -DE/DX =    0.0                 !
 ! R6    R(3,4)                  1.394          -DE/DX =    0.0                 !
 ! R7    R(3,9)                  1.085          -DE/DX =    0.0001              !
 ! R8    R(4,5)                  1.394          -DE/DX =    0.0                 !
 ! R9    R(4,10)                 1.0847         -DE/DX =    0.0001              !
 ! R10   R(5,6)                  1.394          -DE/DX =    0.0                 !
 ! R11   R(5,11)                 1.085          -DE/DX =    0.0001              !
 ! R12   R(6,12)                 1.0835         -DE/DX =    0.0                 !
 ! A1    A(2,1,6)              121.3494         -DE/DX =    0.0001              !
 ! A2    A(2,1,7)              119.3253         -DE/DX =    0.0                 !
 ! A3    A(6,1,7)              119.3253         -DE/DX =    0.0                 !
 ! A4    A(1,2,3)              119.0028         -DE/DX =   -0.0001              !
 ! A5    A(1,2,8)              120.0885         -DE/DX =    0.0001              !
 ! A6    A(3,2,8)              120.9087         -DE/DX =    0.0                 !
 ! A7    A(2,3,4)              120.4653         -DE/DX =    0.0                 !
 ! A8    A(2,3,9)              119.3173         -DE/DX =    0.0001              !
 ! A9    A(4,3,9)              120.2174         -DE/DX =    0.0                 !
 ! A10   A(3,4,5)              119.7144         -DE/DX =    0.0001              !
 ! A11   A(3,4,10)             120.1428         -DE/DX =    0.0                 !
 ! A12   A(5,4,10)             120.1428         -DE/DX =    0.0                 !
 ! A13   A(4,5,6)              120.4653         -DE/DX =    0.0                 !
 ! A14   A(4,5,11)             120.2174         -DE/DX =    0.0                 !
 ! A15   A(6,5,11)             119.3173         -DE/DX =    0.0001              !
 ! A16   A(1,6,5)              119.0028         -DE/DX =   -0.0001              !
 ! A17   A(1,6,12)             120.0885         -DE/DX =    0.0001              !
 ! A18   A(5,6,12)             120.9087         -DE/DX =    0.0                 !
 ! D1    D(6,1,2,3)              0.0            -DE/DX =    0.0                 !
 ! D2    D(6,1,2,8)            180.0            -DE/DX =    0.0                 !
 ! D3    D(7,1,2,3)            180.0            -DE/DX =    0.0                 !
 ! D4    D(7,1,2,8)              0.0            -DE/DX =    0.0                 !
 ! D5    D(2,1,6,5)              0.0            -DE/DX =    0.0                 !
 ! D6    D(2,1,6,12)           180.0            -DE/DX =    0.0                 !
 ! D7    D(7,1,6,5)            180.0            -DE/DX =    0.0                 !
 ! D8    D(7,1,6,12)             0.0            -DE/DX =    0.0                 !
 ! D9    D(1,2,3,4)              0.0            -DE/DX =    0.0                 !
 ! D10   D(1,2,3,9)            180.0            -DE/DX =    0.0                 !
 ! D11   D(8,2,3,4)            180.0            -DE/DX =    0.0                 !
 ! D12   D(8,2,3,9)              0.0            -DE/DX =    0.0                 !
 ! D13   D(2,3,4,5)              0.0            -DE/DX =    0.0                 !
 ! D14   D(2,3,4,10)           180.0            -DE/DX =    0.0                 !
 ! D15   D(9,3,4,5)            180.0            -DE/DX =    0.0                 !
 ! D16   D(9,3,4,10)             0.0            -DE/DX =    0.0                 !
 ! D17   D(3,4,5,6)              0.0            -DE/DX =    0.0                 !
 ! D18   D(3,4,5,11)           180.0            -DE/DX =    0.0                 !
 ! D19   D(10,4,5,6)           180.0            -DE/DX =    0.0                 !
 ! D20   D(10,4,5,11)            0.0            -DE/DX =    0.0                 !
 ! D21   D(4,5,6,1)              0.0            -DE/DX =    0.0                 !
 ! D22   D(4,5,6,12)           180.0            -DE/DX =    0.0                 !
 ! D23   D(11,5,6,1)           180.0            -DE/DX =    0.0                 !
 ! D24   D(11,5,6,12)            0.0            -DE/DX =    0.0                 !
 --------------------------------------------------------------------------------
 GradGradGradGradGradGradGradGradGradGradGradGradGradGradGradGradGradGrad

 Leave Link  103 at Mon Sep 28 02:10:36 2026, MaxMem=  1610612736 cpu:               0.5 elap:               0.1
 (Enter /share/software/user/restricted/gaussian/g16.B01/l9999.exe)

 ----------------------------------------------------------------------

 Electric dipole moment (input orientation):
 (Debye = 10**-18 statcoulomb cm , SI units = C m)
                  (au)            (Debye)         (10**-30 SI)
   Tot        0.740037D+00      0.188099D+01      0.627430D+01
   x          0.000000D+00      0.000000D+00      0.000000D+00
   y         -0.740037D+00     -0.188099D+01     -0.627430D+01
   z          0.000000D+00      0.000000D+00      0.000000D+00

 Dipole polarizability, Alpha (input orientation).
 (esu units = cm**3 , SI units = C**2 m**2 J**-1)
 Alpha(0;0):
               (au)            (10**-24 esu)      (10**-40 SI)
   iso        0.786708D+02      0.116578D+02      0.129711D+02
   aniso      0.527691D+02      0.781957D+01      0.870044D+01
   xx         0.830903D+02      0.123127D+02      0.136997D+02
   yx         0.000000D+00      0.000000D+00      0.000000D+00
   yy         0.106686D+03      0.158092D+02      0.175901D+02
   zx         0.000000D+00      0.000000D+00      0.000000D+00
   zy         0.000000D+00      0.000000D+00      0.000000D+00
   zz         0.462361D+02      0.685149D+01      0.762331D+01

 ----------------------------------------------------------------------

 Dipole orientation:
     6         -0.00000000         -0.00000000         -2.60385112
     6          2.29286953         -0.00000000         -1.31582165
     6          2.27804165         -0.00000000          1.31850769
     6          0.00000000         -0.00000000          2.64131680
     6         -2.27804165          0.00000000          1.31850769
     6         -2.29286953          0.00000000         -1.31582165
    17         -0.00000000         -0.00000000         -5.93087899
     1          4.05549031         -0.00000000         -2.35765884
     1          4.06018674         -0.00000000          2.33254410
     1          0.00000000         -0.00000000          4.69105146
     1         -4.06018674          0.00000000          2.33254410
     1         -4.05549031          0.00000000         -2.35765884

 Electric dipole moment (dipole orientation):
 (Debye = 10**-18 statcoulomb cm , SI units = C m)
                  (au)            (Debye)         (10**-30 SI)
   Tot        0.740037D+00      0.188099D+01      0.627430D+01
   x          0.000000D+00      0.000000D+00      0.000000D+00
   y          0.000000D+00      0.000000D+00      0.000000D+00
   z          0.740037D+00      0.188099D+01      0.627430D+01

 Dipole polarizability, Alpha (dipole orientation).
 (esu units = cm**3 , SI units = C**2 m**2 J**-1)
 Alpha(0;0):
               (au)            (10**-24 esu)      (10**-40 SI)
   iso        0.786708D+02      0.116578D+02      0.129711D+02
   aniso      0.527691D+02      0.781957D+01      0.870044D+01
   xx         0.830903D+02      0.123127D+02      0.136997D+02
   yx         0.000000D+00      0.000000D+00      0.000000D+00
   yy         0.462361D+02      0.685149D+01      0.762331D+01
   zx         0.000000D+00      0.000000D+00      0.000000D+00
   zy         0.000000D+00      0.000000D+00      0.000000D+00
   zz         0.106686D+03      0.158092D+02      0.175901D+02

 ----------------------------------------------------------------------
 1\1\GINC-SH03-01N61\Freq\RB3LYP\6-311++G(d)\C6H5Cl1\JLAPIER\28-Sep-202
 6\0\\#P Geom=AllCheck Guess=TCheck SCRF=Check GenChk RB3LYP/6-311++G(d
 ) Freq\\ClBz_1 b3lyp_gas\\0,1\C,0.,1.3778986719,0.\C,1.2133343029,0.69
 63028313,0.\C,1.2054877259,-0.6977242233,0.\C,0.,-1.3977246555,0.\C,-1
 .2054877259,-0.6977242233,0.\C,-1.2133343029,0.6963028313,0.\Cl,0.,3.1
 384860002,0.\H,2.1460730518,1.2476193303,0.\H,2.1485582952,-1.23432918
 25,0.\H,0.,-2.4823975284,0.\H,-2.1485582952,-1.2343291825,0.\H,-2.1460
 730518,1.2476193303,0.\\Version=ES64L-G16RevB.01\State=1-A1\HF=-691.92
 54655\RMSD=3.391e-09\RMSF=5.389e-05\ZeroPoint=0.0905772\Thermal=0.0960
 942\Dipole=0.,-0.7400375,0.\DipoleDeriv=0.0574937,0.,0.,0.,1.2467569,0
 .,0.,0.,-0.0014452,0.0037141,0.0915408,0.,0.0890803,-0.2825845,0.,0.,0
 .,-0.125156,0.0938662,-0.010425,0.,-0.0639522,0.0637657,0.,0.,0.,-0.12
 23712,-0.0824545,0.,0.,0.,0.052331,0.,0.,0.,-0.1465832,0.0938662,0.010
 425,0.,0.0639522,0.0637657,0.,0.,0.,-0.1223712,0.0037141,-0.0915408,0.
 ,-0.0890803,-0.2825845,0.,0.,0.,-0.125156,-0.0972685,0.,0.,0.,-0.85298
 57,0.,0.,0.,-0.0767251,-0.01154,-0.0591823,0.,-0.0673986,0.041842,0.,0
 .,0.,0.1449916,-0.0614044,0.0772067,0.,0.0754814,0.0102953,0.,0.,0.,0.
 142158,0.0729575,0.,0.,0.,-0.1127392,0.,0.,0.,0.1455087,-0.0614044,-0.
 0772067,0.,-0.0754814,0.0102953,0.,0.,0.,0.142158,-0.01154,0.0591823,0
 .,0.0673986,0.041842,0.,0.,0.,0.1449916\Polar=83.0903094,0.,106.685855
 7,0.,0.,46.2361434\Quadrupole=3.3267987,0.3894125,-3.7162112,0.,0.,0.\
 PG=C02V [C2(H1C1C1Cl1),SGV(C4H4)]\NImag=0\\0.64979602,0.,0.49707660,0.
 ,0.,0.12292215,-0.28437900,0.11364568,0.,0.71978701,0.04844315,-0.1502
 9027,0.,0.04521411,0.67977014,0.,0.,-0.06288960,0.,0.,0.12674114,0.035
 39760,0.02580132,0.,-0.12950127,0.03121608,0.,0.71792119,0.08352104,-0
 .03017460,0.,-0.03581038,-0.33177926,0.,-0.03233276,0.67498599,0.,0.,0
 .00715554,0.,0.,-0.05946222,0.,0.,0.13050391,-0.07434934,0.,0.,0.03515
 409,-0.07524502,0.,-0.28074861,-0.05577655,0.,0.65649419,0.,0.00100260
 ,0.,-0.02863890,-0.02795650,0.,-0.11912586,-0.18077786,0.,0.,0.7412251
 8,0.,0.,-0.00781420,0.,0.,0.00846385,0.,0.,-0.06069277,0.,0.,0.1278218
 5,0.03539760,-0.02580132,0.,-0.01863160,0.02939954,0.,-0.05914822,-0.0
 2344121,0.,-0.28074861,0.11912586,0.,0.71792119,-0.08352104,-0.0301746
 0,0.,0.02964773,-0.04992404,0.,0.02344121,0.06458980,0.,0.05577655,-0.
 18077786,0.,0.03233276,0.67498599,0.,0.,0.00715555,0.,0.,-0.00699543,0
 .,0.,0.00885436,0.,0.,-0.06069277,0.,0.,0.13050391,-0.28437900,-0.1136
 4568,0.,-0.05418117,0.02305216,0.,-0.01863160,-0.02964773,0.,0.0351540
 9,0.02863890,0.,-0.12950127,0.03581038,0.,0.71978701,-0.04844315,-0.15
 029027,0.,-0.02305216,0.06111350,0.,-0.02939954,-0.04992404,0.,0.07524
 502,-0.02795650,0.,-0.03121608,-0.33177926,0.,-0.04521411,0.67977014,0
 .,0.,-0.06288961,0.,0.,0.01009888,0.,0.,-0.00699543,0.,0.,0.00846385,0
 .,0.,-0.05946222,0.,0.,0.12674114,-0.04032458,0.,0.,0.00335732,0.02699
 344,0.,-0.00397656,-0.00160099,0.,0.00211789,0.,0.,-0.00397656,0.00160
 099,0.,0.00335732,-0.02699344,0.,0.03668828,0.,-0.14920445,0.,0.000129
 76,-0.03832696,0.,0.00505604,0.00343071,0.,0.,-0.00255601,0.,-0.005056
 04,0.00343071,0.,-0.00012975,-0.03832696,0.,0.,0.22227534,0.,0.,-0.022
 65568,0.,0.,0.00384203,0.,0.,0.00502179,0.,0.,-0.00081065,0.,0.,0.0050
 2179,0.,0.,0.00384203,0.,0.,0.01149568,-0.01951944,-0.01651006,0.,-0.2
 6840283,-0.12156152,0.,0.00495438,0.00187334,0.,0.00164088,0.00080224,
 0.,0.00024993,0.00082788,0.,-0.00285156,0.00405149,0.,0.00118125,-0.00
 018222,0.,0.28279791,0.01495178,0.00963478,0.,-0.12455439,-0.12957808,
 0.,-0.02803910,-0.01027290,0.,0.00143354,-0.00527496,0.,0.00073240,-0.
 00078341,0.,0.00324094,-0.00122389,0.,0.00076264,0.00123373,0.,0.13172
 817,0.13527372,0.,0.,0.00234371,0.,0.,-0.03412896,0.,0.,0.00263424,0.,
 0.,0.00700036,0.,0.,-0.00045710,0.,0.,0.00540634,0.,0.,-0.00251270,0.,
 0.,0.02399379,0.00177579,-0.00069830,0.,0.00383707,-0.00194718,0.,-0.2
 6813928,0.11857732,0.,-0.01824718,0.01597589,0.,-0.00318960,-0.0040550
 8,0.,0.00024979,-0.00079390,0.,0.00005450,-0.00019713,0.,0.00078127,0.
 00040600,0.,0.28302958,-0.00110725,-0.00405334,0.,0.02890944,-0.011590
 05,0.,0.11846332,-0.12712007,0.,-0.01486763,0.01231069,0.,-0.00322461,
 -0.00086922,0.,-0.00076418,-0.00082740,0.,0.00092152,-0.00152664,0.,-0
 .00039895,0.00094645,0.,-0.12774786,0.13146790,0.,0.,0.00724587,0.,0.,
 0.00261126,0.,0.,-0.03512083,0.,0.,0.00264340,0.,0.,0.00660266,0.,0.,-
 0.00044206,0.,0.,0.00007536,0.,0.,-0.00395775,0.,0.,0.02483390,-0.0016
 7201,0.,0.,-0.00443784,-0.00230717,0.,0.00481204,-0.02858927,0.,-0.059
 86110,0.,0.,0.00481204,0.02858927,0.,-0.00443784,0.00230717,0.,0.00028
 539,0.,0.,0.00010210,-0.00133432,0.,0.00087909,0.00054739,0.,0.0585369
 4,0.,0.00089209,0.,-0.00301412,0.00061280,0.,0.00242709,-0.01130513,0.
 ,0.,-0.33627453,0.,-0.00242709,-0.01130513,0.,0.00301412,0.00061280,0.
 ,0.,-0.00013656,0.,0.00021321,-0.00060745,0.,-0.00042216,0.00079543,0.
 ,0.,0.35652770,0.,0.,-0.00016331,0.,0.,0.00675477,0.,0.,0.00195587,0.,
 0.,-0.03402667,0.,0.,0.00195587,0.,0.,0.00675477,0.,0.,-0.00088233,0.,
 0.,0.00024776,0.,0.,-0.00369722,0.,0.,0.02454997,0.00177579,0.00069830
 ,0.,0.00024979,0.00079390,0.,-0.00318960,0.00405508,0.,-0.01824718,-0.
 01597589,0.,-0.26813928,-0.11857732,0.,0.00383707,0.00194718,0.,0.0000
 5450,0.00019713,0.,-0.00002737,-0.00009282,0.,-0.00100366,-0.00080958,
 0.,0.00087909,0.00042216,0.,0.28302958,0.00110725,-0.00405334,0.,0.000
 76418,-0.00082740,0.,0.00322461,-0.00086922,0.,0.01486763,0.01231069,0
 .,-0.11846332,-0.12712007,0.,-0.02890944,-0.01159005,0.,-0.00092152,-0
 .00152664,0.,-0.00007839,0.00006004,0.,0.00080958,0.00040622,0.,-0.000
 54739,0.00079543,0.,0.12774786,0.13146790,0.,0.,0.00724587,0.,0.,-0.00
 044206,0.,0.,0.00660266,0.,0.,0.00264340,0.,0.,-0.03512083,0.,0.,0.002
 61126,0.,0.,0.00007536,0.,0.,-0.00099144,0.,0.,0.00019685,0.,0.,-0.003
 69722,0.,0.,0.02483390,-0.01951944,0.01651006,0.,-0.00285156,-0.004051
 49,0.,0.00024993,-0.00082788,0.,0.00164088,-0.00080224,0.,0.00495438,-
 0.00187334,0.,-0.26840283,0.12156152,0.,0.00118125,0.00018222,0.,-0.00
 090653,0.00076517,0.,-0.00002737,0.00007839,0.,0.00010210,-0.00021321,
 0.,0.00078127,0.00039895,0.,0.28279791,-0.01495178,0.00963478,0.,-0.00
 324094,-0.00122389,0.,-0.00073240,-0.00078341,0.,-0.00143354,-0.005274
 96,0.,0.02803910,-0.01027290,0.,0.12455439,-0.12957808,0.,-0.00076264,
 0.00123373,0.,-0.00076517,0.00059197,0.,0.00009282,0.00006004,0.,0.001
 33432,-0.00060745,0.,-0.00040600,0.00094645,0.,-0.13172817,0.13527372,
 0.,0.,0.00234371,0.,0.,0.00540634,0.,0.,-0.00045710,0.,0.,0.00700036,0
 .,0.,0.00263424,0.,0.,-0.03412896,0.,0.,-0.00251270,0.,0.,0.00042176,0
 .,0.,-0.00099144,0.,0.,0.00024776,0.,0.,-0.00395775,0.,0.,0.02399379\\
 0.,0.00009766,0.,0.00002833,-0.00010916,0.,-0.00000421,0.00001770,0.,0
 .,-0.00020058,0.,0.00000421,0.00001770,0.,-0.00002833,-0.00010916,0.,0
 .,0.00007164,0.,-0.00005902,0.00000532,0.,-0.00003669,0.00006610,0.,0.
 ,0.00007137,0.,0.00003669,0.00006610,0.,0.00005902,0.00000532,0.\\\@


 I LOVE MANKIND - IT'S PEOPLE I CAN'T STAND.
     -- LINUS OF PEANUTS
 Job cpu time:       0 days  0 hours  5 minutes 54.7 seconds.
 Elapsed time:       0 days  0 hours  0 minutes 44.5 seconds.
 File lengths (MBytes):  RWF=     37 Int=      0 D2E=      0 Chk=     67 Scr=      1
 Normal termination of Gaussian 16 at Mon Sep 28 02:10:37 2026.
