 Entering Gaussian System, Link 0=g16
 Initial command:
 /share/software/user/restricted/gaussian/g16.B01/l1.exe "/lscratch/jlapier/g16_45673245_30/Gau-246672.inp" -scrdir="/lscratch/jlapier/g16_45673245_30/"
 Entering Link 1 = /share/software/user/restricted/gaussian/g16.B01/l1.exe PID=    246673.
  
 Copyright (c) 1988-2017, Gaussian, Inc.  All Rights Reserved.
  
 This is part of the Gaussian(R) 16 program.  It is based on
 the Gaussian(R) 09 system (copyright 2009, Gaussian, Inc.),
 the Gaussian(R) 03 system (copyright 2003, Gaussian, Inc.),
 the Gaussian(R) 98 system (copyright 1998, Gaussian, Inc.),
 the Gaussian(R) 94 system (copyright 1995, Gaussian, Inc.),
 the Gaussian 92(TM) system (copyright 1992, Gaussian, Inc.),
 the Gaussian 90(TM) system (copyright 1990, Gaussian, Inc.),
 the Gaussian 88(TM) system (copyright 1988, Gaussian, Inc.),
 the Gaussian 86(TM) system (copyright 1986, Carnegie Mellon
 University), and the Gaussian 82(TM) system (copyright 1983,
 Carnegie Mellon University). Gaussian is a federally registered
 trademark of Gaussian, Inc.
  
 This software contains proprietary and confidential information,
 including trade secrets, belonging to Gaussian, Inc.
  
 This software is provided under written license and may be
 used, copied, transmitted, or stored only in accord with that
 written license.
  
 The following legend is applicable only to US Government
 contracts under FAR:
  
                    RESTRICTED RIGHTS LEGEND
  
 Use, reproduction and disclosure by the US Government is
 subject to restrictions as set forth in subparagraphs (a)
 and (c) of the Commercial Computer Software - Restricted
 Rights clause in FAR 52.227-19.
  
 Gaussian, Inc.
 340 Quinnipiac St., Bldg. 40, Wallingford CT 06492
  
  
 ---------------------------------------------------------------
 Warning -- This program may not be used in any manner that
 competes with the business of Gaussian, Inc. or will provide
 assistance to any competitor of Gaussian, Inc.  The licensee
 of this program is prohibited from giving any competitor of
 Gaussian, Inc. access to this program.  By using this program,
 the user acknowledges that Gaussian, Inc. is engaged in the
 business of creating and licensing software in the field of
 computational chemistry and represents and warrants to the
 licensee that it is not a competitor of Gaussian, Inc. and that
 it will not use this program in any manner prohibited above.
 ---------------------------------------------------------------
  

 Cite this work as:
 Gaussian 16, Revision B.01,
 M. J. Frisch, G. W. Trucks, H. B. Schlegel, G. E. Scuseria, 
 M. A. Robb, J. R. Cheeseman, G. Scalmani, V. Barone, 
 G. A. Petersson, H. Nakatsuji, X. Li, M. Caricato, A. V. Marenich, 
 J. Bloino, B. G. Janesko, R. Gomperts, B. Mennucci, H. P. Hratchian, 
 J. V. Ortiz, A. F. Izmaylov, J. L. Sonnenberg, D. Williams-Young, 
 F. Ding, F. Lipparini, F. Egidi, J. Goings, B. Peng, A. Petrone, 
 T. Henderson, D. Ranasinghe, V. G. Zakrzewski, J. Gao, N. Rega, 
 G. Zheng, W. Liang, M. Hada, M. Ehara, K. Toyota, R. Fukuda, 
 J. Hasegawa, M. Ishida, T. Nakajima, Y. Honda, O. Kitao, H. Nakai, 
 T. Vreven, K. Throssell, J. A. Montgomery, Jr., J. E. Peralta, 
 F. Ogliaro, M. J. Bearpark, J. J. Heyd, E. N. Brothers, K. N. Kudin, 
 V. N. Staroverov, T. A. Keith, R. Kobayashi, J. Normand, 
 K. Raghavachari, A. P. Rendell, J. C. Burant, S. S. Iyengar, 
 J. Tomasi, M. Cossi, J. M. Millam, M. Klene, C. Adamo, R. Cammi, 
 J. W. Ochterski, R. L. Martin, K. Morokuma, O. Farkas, 
 J. B. Foresman, and D. J. Fox, Gaussian, Inc., Wallingford CT, 2016.
 
 ******************************************
 Gaussian 16:  ES64L-G16RevB.01 20-Dec-2017
                28-Sep-2026 
 ******************************************
 %nprocshared=8
 Will use up to    8 processors via shared memory.
 %mem=12GB
 %oldchk=calcs/am1/chks/ClPh_25_anion.chk
 %chk=calcs/b3lyp_gas/chks/ClPh_25_anion.chk
 Copying data from "calcs/am1/chks/ClPh_25_anion.chk" to current chk file "calcs/b3lyp_gas/chks/ClPh_25_anion.chk"
 IOpt=  2 FromEx=T IUOpen= 4 IOptOp= 5 NList=   0 IFRang= 0 IUIn= 4 IUOut= 2.
 ------------------------------------------------------
 #p Opt Freq B3LYP/6-311++G(d) Int=UltraFine Geom=Check
 ------------------------------------------------------
 1/18=20,19=15,26=4,29=2,38=1/1,3;
 2/9=110,12=2,40=1/2;
 3/5=4,6=6,7=1011,11=2,14=-4,25=1,30=1,71=1,74=-5,75=-5/1,2,3;
 4//1;
 5/5=2,38=5/2;
 6/7=2,8=2,9=2,10=2,28=1/1;
 7//1,2,3,16;
 1/18=20,19=15,26=4/3(2);
 2/9=110/2;
 99//99;
 2/9=110/2;
 3/5=4,6=6,7=1011,11=2,14=-2,25=1,30=1,71=1,74=-5,75=-5/1,2,3;
 4/5=5,16=3,69=1/1;
 5/5=2,38=5/2;
 7//1,2,3,16;
 1/18=20,19=15,26=4/3(-5);
 2/9=110/2;
 6/7=2,8=2,9=2,10=2,19=2,28=1/1;
 99/9=1/99;
 Leave Link    1 at Mon Sep 28 02:13:04 2026, MaxMem=  1610612736 cpu:               2.5 elap:               0.4
 (Enter /share/software/user/restricted/gaussian/g16.B01/l101.exe)
 -----------------------
 ClPh_25_anion b3lyp_gas
 -----------------------
 Structure from the checkpoint file:  "calcs/b3lyp_gas/chks/ClPh_25_anion.chk"
 Charge = -1 Multiplicity = 1
 Redundant internal coordinates found in file.  (old form).
 C,0,-0.0079686669,1.4291517338,0.
 C,0,1.1713392651,0.6982961983,0.
 C,0,1.2123276052,-0.6991659272,0.
 C,0,0.0056063463,-1.4018876056,0.
 C,0,-1.1938349343,-0.6814059994,0.
 C,0,-1.2035989477,0.7151161905,0.
 Cl,0,2.6880356647,1.5333350089,0.
 H,0,2.1605444689,-1.2533023744,0.
 H,0,0.0048648696,-2.4983591324,0.
 Cl,0,-2.678493977,-1.5685741014,0.
 H,0,-2.1588216939,1.2567960088,0.
 Recover connectivity data from disk.
 ITRead=  0  0  0  0  0  0  0  0  0  0  0
 MicOpt= -1 -1 -1 -1 -1 -1 -1 -1 -1 -1 -1
 NAtoms=     11 NQM=       11 NQMF=       0 NMMI=      0 NMMIF=      0
                NMic=       0 NMicF=      0.
                    Isotopes and Nuclear Properties:
 (Nuclear quadrupole moments (NQMom) in fm**2, nuclear magnetic moments (NMagM)
  in nuclear magnetons)

  Atom         1           2           3           4           5           6           7           8           9          10
 IAtWgt=          12          12          12          12          12          12          35           1           1          35
 AtmWgt=  12.0000000  12.0000000  12.0000000  12.0000000  12.0000000  12.0000000  34.9688527   1.0078250   1.0078250  34.9688527
 NucSpn=           0           0           0           0           0           0           3           1           1           3
 AtZEff=   3.9000000   3.9000000   3.9000000   3.9000000   3.9000000   3.9000000 204.0000000   1.0000000   1.0000000 204.0000000
 NQMom=    0.0000000   0.0000000   0.0000000   0.0000000   0.0000000   0.0000000  -8.1650000   0.0000000   0.0000000  -8.1650000
 NMagM=    0.0000000   0.0000000   0.0000000   0.0000000   0.0000000   0.0000000   0.8218740   2.7928460   2.7928460   0.8218740
 AtZNuc=   6.0000000   6.0000000   6.0000000   6.0000000   6.0000000   6.0000000  17.0000000   1.0000000   1.0000000  17.0000000

  Atom        11
 IAtWgt=           1
 AtmWgt=   1.0078250
 NucSpn=           1
 AtZEff=   1.0000000
 NQMom=    0.0000000
 NMagM=    2.7928460
 AtZNuc=   1.0000000
 Leave Link  101 at Mon Sep 28 02:13:04 2026, MaxMem=  1610612736 cpu:               4.1 elap:               0.5
 (Enter /share/software/user/restricted/gaussian/g16.B01/l103.exe)

 GradGradGradGradGradGradGradGradGradGradGradGradGradGradGradGradGradGrad
 Berny optimization.
 Initialization pass.
                           ----------------------------
                           !    Initial Parameters    !
                           ! (Angstroms and Degrees)  !
 --------------------------                            --------------------------
 ! Name  Definition              Value          Derivative Info.                !
 --------------------------------------------------------------------------------
 ! R1    R(1,2)                  1.3874         estimate D2E/DX2                !
 ! R2    R(1,6)                  1.3926         estimate D2E/DX2                !
 ! R3    R(2,3)                  1.3981         estimate D2E/DX2                !
 ! R4    R(2,7)                  1.7314         estimate D2E/DX2                !
 ! R5    R(3,4)                  1.3964         estimate D2E/DX2                !
 ! R6    R(3,8)                  1.0983         estimate D2E/DX2                !
 ! R7    R(4,5)                  1.3992         estimate D2E/DX2                !
 ! R8    R(4,9)                  1.0965         estimate D2E/DX2                !
 ! R9    R(5,6)                  1.3966         estimate D2E/DX2                !
 ! R10   R(5,10)                 1.7295         estimate D2E/DX2                !
 ! R11   R(6,11)                 1.0981         estimate D2E/DX2                !
 ! A1    A(2,1,6)              117.3663         estimate D2E/DX2                !
 ! A2    A(1,2,3)              123.4679         estimate D2E/DX2                !
 ! A3    A(1,2,7)              119.3765         estimate D2E/DX2                !
 ! A4    A(3,2,7)              117.1556         estimate D2E/DX2                !
 ! A5    A(2,3,4)              118.5339         estimate D2E/DX2                !
 ! A6    A(2,3,8)              121.982          estimate D2E/DX2                !
 ! A7    A(4,3,8)              119.4841         estimate D2E/DX2                !
 ! A8    A(3,4,5)              118.7936         estimate D2E/DX2                !
 ! A9    A(3,4,9)              120.2527         estimate D2E/DX2                !
 ! A10   A(5,4,9)              120.9537         estimate D2E/DX2                !
 ! A11   A(4,5,6)              121.393          estimate D2E/DX2                !
 ! A12   A(4,5,10)             118.1468         estimate D2E/DX2                !
 ! A13   A(6,5,10)             120.4601         estimate D2E/DX2                !
 ! A14   A(1,6,5)              120.4452         estimate D2E/DX2                !
 ! A15   A(1,6,11)             119.5978         estimate D2E/DX2                !
 ! A16   A(5,6,11)             119.9569         estimate D2E/DX2                !
 ! D1    D(6,1,2,3)              0.0            estimate D2E/DX2                !
 ! D2    D(6,1,2,7)            180.0            estimate D2E/DX2                !
 ! D3    D(2,1,6,5)              0.0            estimate D2E/DX2                !
 ! D4    D(2,1,6,11)           180.0            estimate D2E/DX2                !
 ! D5    D(1,2,3,4)              0.0            estimate D2E/DX2                !
 ! D6    D(1,2,3,8)            180.0            estimate D2E/DX2                !
 ! D7    D(7,2,3,4)            180.0            estimate D2E/DX2                !
 ! D8    D(7,2,3,8)              0.0            estimate D2E/DX2                !
 ! D9    D(2,3,4,5)              0.0            estimate D2E/DX2                !
 ! D10   D(2,3,4,9)            180.0            estimate D2E/DX2                !
 ! D11   D(8,3,4,5)            180.0            estimate D2E/DX2                !
 ! D12   D(8,3,4,9)              0.0            estimate D2E/DX2                !
 ! D13   D(3,4,5,6)              0.0            estimate D2E/DX2                !
 ! D14   D(3,4,5,10)           180.0            estimate D2E/DX2                !
 ! D15   D(9,4,5,6)            180.0            estimate D2E/DX2                !
 ! D16   D(9,4,5,10)             0.0            estimate D2E/DX2                !
 ! D17   D(4,5,6,1)              0.0            estimate D2E/DX2                !
 ! D18   D(4,5,6,11)           180.0            estimate D2E/DX2                !
 ! D19   D(10,5,6,1)           180.0            estimate D2E/DX2                !
 ! D20   D(10,5,6,11)            0.0            estimate D2E/DX2                !
 --------------------------------------------------------------------------------
 Trust Radius=3.00D-01 FncErr=1.00D-07 GrdErr=1.00D-06 EigMax=2.50D+02 EigMin=1.00D-04
 Number of steps in this run=     57 maximum allowed number of steps=    100.
 GradGradGradGradGradGradGradGradGradGradGradGradGradGradGradGradGradGrad

 Leave Link  103 at Mon Sep 28 02:13:04 2026, MaxMem=  1610612736 cpu:               0.1 elap:               0.0
 (Enter /share/software/user/restricted/gaussian/g16.B01/l202.exe)
                          Input orientation:                          
 ---------------------------------------------------------------------
 Center     Atomic      Atomic             Coordinates (Angstroms)
 Number     Number       Type             X           Y           Z
 ---------------------------------------------------------------------
      1          6           0       -0.007969    1.429152   -0.000000
      2          6           0        1.171339    0.698296   -0.000000
      3          6           0        1.212328   -0.699166   -0.000000
      4          6           0        0.005606   -1.401888    0.000000
      5          6           0       -1.193835   -0.681406    0.000000
      6          6           0       -1.203599    0.715116    0.000000
      7         17           0        2.688036    1.533335   -0.000000
      8          1           0        2.160544   -1.253302   -0.000000
      9          1           0        0.004865   -2.498359    0.000000
     10         17           0       -2.678494   -1.568574    0.000000
     11          1           0       -2.158822    1.256796    0.000000
 ---------------------------------------------------------------------
                    Distance matrix (angstroms):
                    1          2          3          4          5
     1  C    0.000000
     2  C    1.387414   0.000000
     3  C    2.453336   1.398063   0.000000
     4  C    2.831072   2.402021   1.396422   0.000000
     5  C    2.420895   2.738180   2.406228   1.399197   0.000000
     6  C    1.392616   2.374998   2.799445   2.438008   1.396556
     7  Cl   2.698017   1.731375   2.676149   3.976300   4.469228
     8  H    3.449349   2.187982   1.098263   2.160055   3.402782
     9  H    3.927532   3.402832   2.166809   1.096472   2.176741
    10  Cl   4.014731   4.467652   3.986774   2.689271   1.729532
    11  H    2.157748   3.376669   3.897491   3.428316   2.165139
                    6          7          8          9         10
     6  C    0.000000
     7  Cl   3.976720   0.000000
     8  H    3.897709   2.836123   0.000000
     9  H    3.433192   4.842929   2.489402   0.000000
    10  Cl   2.718558   6.198506   4.849298   2.839879   0.000000
    11  H    1.098120   4.854740   4.995750   4.333905   2.872764
                   11
    11  H    0.000000
 Stoichiometry    C6H3Cl2(1-)
 Framework group  CS[SG(C6H3Cl2)]
 Deg. of freedom    19
 Full point group                 CS      NOp   2
 RotChk:  IX=3 Diff= 3.24D-16
 Largest Abelian subgroup         CS      NOp   2
 Largest concise Abelian subgroup C1      NOp   1
                         Standard orientation:                         
 ---------------------------------------------------------------------
 Center     Atomic      Atomic             Coordinates (Angstroms)
 Number     Number       Type             X           Y           Z
 ---------------------------------------------------------------------
      1          6           0        1.295273    0.687930   -0.000000
      2          6           0        0.092398    1.379311   -0.000000
      3          6           0       -1.157217    0.752379   -0.000000
      4          6           0       -1.203295   -0.643282    0.000000
      5          6           0       -0.000000   -1.357309    0.000000
      6          6           0        1.233973   -0.703336    0.000000
      7         17           0        0.107888    3.110616   -0.000000
      8          1           0       -2.094889    1.324177   -0.000000
      9          1           0       -2.168153   -1.164147    0.000000
     10         17           0       -0.076579   -3.085144    0.000000
     11          1           0        2.164004   -1.287211    0.000000
 ---------------------------------------------------------------------
 Rotational constants (GHZ):           5.8802667           0.6785725           0.6083679
 Leave Link  202 at Mon Sep 28 02:13:05 2026, MaxMem=  1610612736 cpu:               0.0 elap:               0.0
 (Enter /share/software/user/restricted/gaussian/g16.B01/l301.exe)
 Standard basis: 6-311++G(d) (5D, 7F)
 Ernie: Thresh=  0.10000D-02 Tol=  0.10000D-05 Strict=F.
 There are   160 symmetry adapted cartesian basis functions of A'  symmetry.
 There are    52 symmetry adapted cartesian basis functions of A"  symmetry.
 There are   152 symmetry adapted basis functions of A'  symmetry.
 There are    52 symmetry adapted basis functions of A"  symmetry.
   204 basis functions,   340 primitive gaussians,   212 cartesian basis functions
    37 alpha electrons       37 beta electrons
       nuclear repulsion energy       436.1444414494 Hartrees.
 IExCor=  402 DFT=T Ex+Corr=B3LYP ExCW=0 ScaHFX=  0.200000
 ScaDFX=  0.800000  0.720000  1.000000  0.810000 ScalE2=  1.000000  1.000000
 IRadAn=      5 IRanWt=     -1 IRanGd=            0 ICorTp=0 IEmpDi=  4
 NAtoms=   11 NActive=   11 NUniq=   11 SFac= 1.00D+00 NAtFMM=   60 NAOKFM=F Big=F
 Integral buffers will be    131072 words long.
 Raffenetti 2 integral format.
 Two-electron integral symmetry is turned on.
 Leave Link  301 at Mon Sep 28 02:13:05 2026, MaxMem=  1610612736 cpu:               0.4 elap:               0.1
 (Enter /share/software/user/restricted/gaussian/g16.B01/l302.exe)
 NPDir=0 NMtPBC=     1 NCelOv=     1 NCel=       1 NClECP=     1 NCelD=      1
         NCelK=      1 NCelE2=     1 NClLst=     1 CellRange=     0.0.
 One-electron integrals computed using PRISM.
 One-electron integral symmetry used in STVInt
 NBasis=   204 RedAO= T EigKep=  1.66D-06  NBF=   152    52
 NBsUse=   204 1.00D-06 EigRej= -1.00D+00 NBFU=   152    52
 Precomputing XC quadrature grid using
 IXCGrd= 4 IRadAn=           5 IRanWt=          -1 IRanGd=           0 AccXCQ= 0.00D+00.
 Generated NRdTot=       0 NPtTot=           0 NUsed=           0 NTot=          32
 NSgBfM=   209   209   209   209   209 MxSgAt=    11 MxSgA2=    11.
 Leave Link  302 at Mon Sep 28 02:13:05 2026, MaxMem=  1610612736 cpu:               1.5 elap:               0.2
 (Enter /share/software/user/restricted/gaussian/g16.B01/l303.exe)
 DipDrv:  MaxL=1.
 Leave Link  303 at Mon Sep 28 02:13:05 2026, MaxMem=  1610612736 cpu:               0.3 elap:               0.0
 (Enter /share/software/user/restricted/gaussian/g16.B01/l401.exe)
 ExpMin= 3.60D-02 ExpMax= 1.06D+05 ExpMxC= 3.62D+03 IAcc=3 IRadAn=         5 AccDes= 0.00D+00
 Harris functional with IExCor=  402 and IRadAn=       5 diagonalized for initial guess.
 HarFok:  IExCor=  402 AccDes= 0.00D+00 IRadAn=         5 IDoV= 1 UseB2=F ITyADJ=14
 ICtDFT=  3500011 ScaDFX=  1.000000  1.000000  1.000000  1.000000
 FoFCou: FMM=F IPFlag=           0 FMFlag=      100000 FMFlg1=           0
         NFxFlg=           0 DoJE=T BraDBF=F KetDBF=T FulRan=T
         wScrn=  0.000000 ICntrl=       500 IOpCl=  0 I1Cent=   200000004 NGrid=           0
         NMat0=    1 NMatS0=      1 NMatT0=    0 NMatD0=    1 NMtDS0=    0 NMtDT0=    0
 Petite list used in FoFCou.
 Harris En= -1150.97217469531    
 JPrj=0 DoOrth=F DoCkMO=F.
 Initial guess orbital symmetries:
       Occupied  (A') (A') (A') (A') (A') (A') (A') (A') (A') (A')
                 (A') (A') (A') (A") (A') (A") (A') (A') (A') (A')
                 (A') (A') (A') (A') (A') (A') (A') (A") (A') (A')
                 (A") (A") (A") (A') (A') (A') (A")
       Virtual   (A") (A") (A') (A') (A') (A') (A') (A") (A') (A")
                 (A') (A') (A") (A') (A") (A') (A') (A') (A') (A')
                 (A") (A") (A') (A') (A') (A") (A') (A") (A') (A')
                 (A') (A") (A') (A') (A') (A') (A') (A') (A') (A')
                 (A') (A') (A') (A') (A') (A') (A') (A') (A') (A')
                 (A') (A") (A") (A') (A') (A') (A") (A') (A") (A')
                 (A') (A') (A") (A") (A") (A') (A') (A") (A') (A')
                 (A') (A') (A") (A') (A') (A') (A') (A") (A') (A')
                 (A") (A") (A') (A') (A') (A") (A') (A') (A') (A')
                 (A") (A') (A") (A") (A') (A') (A') (A') (A") (A")
                 (A') (A') (A') (A') (A') (A') (A") (A') (A") (A')
                 (A') (A") (A") (A") (A') (A') (A') (A') (A') (A')
                 (A') (A") (A") (A") (A') (A') (A') (A') (A") (A')
                 (A') (A') (A") (A") (A') (A") (A") (A') (A") (A')
                 (A') (A') (A') (A') (A') (A') (A') (A') (A') (A')
                 (A') (A') (A') (A') (A') (A') (A') (A') (A') (A")
                 (A") (A') (A') (A') (A') (A') (A')
 The electronic state of the initial guess is 1-A'.
 Leave Link  401 at Mon Sep 28 02:13:05 2026, MaxMem=  1610612736 cpu:               4.6 elap:               0.6
 (Enter /share/software/user/restricted/gaussian/g16.B01/l502.exe)
 Keep R1 ints in memory in symmetry-blocked form, NReq=334495850.
 FoFCou: FMM=F IPFlag=           0 FMFlag=           0 FMFlg1=           0
         NFxFlg=           0 DoJE=F BraDBF=F KetDBF=F FulRan=T
         wScrn=  0.000000 ICntrl=       600 IOpCl=  0 I1Cent=           0 NGrid=           0
         NMat0=    1 NMatS0=  20910 NMatT0=    0 NMatD0=    1 NMtDS0=    0 NMtDT0=    0
 Petite list used in FoFCou.
 Closed shell SCF:
 Using DIIS extrapolation, IDIIS=  1040.
 NGot=  1610612736 LenX=  1494649070 LenY=  1494603685
 Requested convergence on RMS density matrix=1.00D-08 within 128 cycles.
 Requested convergence on MAX density matrix=1.00D-06.
 Requested convergence on             energy=1.00D-06.
 No special actions if energy rises.

 Cycle   1  Pass 1  IDiag  1:
 E= -1150.57172265587    
 DIIS: error= 4.53D-02 at cycle   1 NSaved=   1.
 NSaved= 1 IEnMin= 1 EnMin= -1150.57172265587     IErMin= 1 ErrMin= 4.53D-02
 ErrMax= 4.53D-02  0.00D+00 EMaxC= 1.00D-01 BMatC= 3.70D-01 BMatP= 3.70D-01
 IDIUse=3 WtCom= 5.47D-01 WtEn= 4.53D-01
 Coeff-Com:  0.100D+01
 Coeff-En:   0.100D+01
 Coeff:      0.100D+01
 Gap=     0.084 Goal=   None    Shift=    0.000
 GapD=    0.084 DampG=0.500 DampE=0.500 DampFc=0.2500 IDamp=-1.
 Damping current iteration by 2.50D-01
 RMSDP=3.12D+00 MaxDP=1.61D+02              OVMax= 9.91D-01

 Cycle   2  Pass 1  IDiag  1:
 E= -1150.65747763713     Delta-E=       -0.085754981256 Rises=F Damp=T
 DIIS: error= 1.65D-02 at cycle   2 NSaved=   2.
 NSaved= 2 IEnMin= 2 EnMin= -1150.65747763713     IErMin= 2 ErrMin= 1.65D-02
 ErrMax= 1.65D-02  0.00D+00 EMaxC= 1.00D-01 BMatC= 6.63D-02 BMatP= 3.70D-01
 IDIUse=3 WtCom= 8.35D-01 WtEn= 1.65D-01
 Coeff-Com: -0.293D+00 0.129D+01
 Coeff-En:   0.288D+00 0.712D+00
 Coeff:     -0.197D+00 0.120D+01
 Gap=     0.000 Goal=   None    Shift=    0.000
 RMSDP=7.72D-01 MaxDP=3.96D+01 DE=-8.58D-02 OVMax= 9.49D-01

 Cycle   3  Pass 1  IDiag  1:
 E= -1150.77334006456     Delta-E=       -0.115862427430 Rises=F Damp=F
 DIIS: error= 4.55D-02 at cycle   3 NSaved=   3.
 NSaved= 3 IEnMin= 3 EnMin= -1150.77334006456     IErMin= 2 ErrMin= 1.65D-02
 ErrMax= 4.55D-02  0.00D+00 EMaxC= 1.00D-01 BMatC= 1.19D-01 BMatP= 6.63D-02
 IDIUse=2 WtCom= 0.00D+00 WtEn= 1.00D+00
 Coeff-En:   0.000D+00 0.187D+00 0.813D+00
 Coeff:      0.000D+00 0.187D+00 0.813D+00
 Gap=    -0.007 Goal=   None    Shift=    0.000
 RMSDP=1.54D+00 MaxDP=1.01D+02 DE=-1.16D-01 OVMax= 9.96D-01

 Cycle   4  Pass 1  IDiag  1:
 E= -1149.16634674850     Delta-E=        1.606993316061 Rises=F Damp=F
 DIIS: error= 1.13D-01 at cycle   4 NSaved=   4.
 NSaved= 4 IEnMin= 3 EnMin= -1150.77334006456     IErMin= 2 ErrMin= 1.65D-02
 ErrMax= 1.13D-01  0.00D+00 EMaxC= 1.00D-01 BMatC= 8.69D-01 BMatP= 6.63D-02
 IDIUse=2 WtCom= 0.00D+00 WtEn= 1.00D+00
 Coeff-En:   0.000D+00 0.000D+00 0.853D+00 0.147D+00
 Coeff:      0.000D+00 0.000D+00 0.853D+00 0.147D+00
 Gap=     0.005 Goal=   None    Shift=    0.000
 RMSDP=1.50D+00 MaxDP=9.49D+01 DE= 1.61D+00 OVMax= 9.88D-01

 Cycle   5  Pass 1  IDiag  1:
 E= -1150.82449130683     Delta-E=       -1.658144558339 Rises=F Damp=F
 DIIS: error= 3.32D-02 at cycle   5 NSaved=   5.
 NSaved= 5 IEnMin= 5 EnMin= -1150.82449130683     IErMin= 2 ErrMin= 1.65D-02
 ErrMax= 3.32D-02  0.00D+00 EMaxC= 1.00D-01 BMatC= 9.06D-02 BMatP= 6.63D-02
 IDIUse=2 WtCom= 0.00D+00 WtEn= 1.00D+00
 Coeff-En:   0.000D+00 0.000D+00 0.426D+00 0.000D+00 0.574D+00
 Coeff:      0.000D+00 0.000D+00 0.426D+00 0.000D+00 0.574D+00
 Gap=     0.101 Goal=   None    Shift=    0.000
 RMSDP=3.80D-02 MaxDP=2.89D+00 DE=-1.66D+00 OVMax= 1.50D-01

 Cycle   6  Pass 1  IDiag  1:
 E= -1150.92205653483     Delta-E=       -0.097565227993 Rises=F Damp=F
 DIIS: error= 8.67D-03 at cycle   6 NSaved=   6.
 NSaved= 6 IEnMin= 6 EnMin= -1150.92205653483     IErMin= 6 ErrMin= 8.67D-03
 ErrMax= 8.67D-03  0.00D+00 EMaxC= 1.00D-01 BMatC= 6.84D-03 BMatP= 6.63D-02
 IDIUse=3 WtCom= 9.13D-01 WtEn= 8.67D-02
 Coeff-Com:  0.107D-01 0.768D-02 0.157D+00-0.698D-02 0.296D+00 0.536D+00
 Coeff-En:   0.000D+00 0.000D+00 0.000D+00 0.000D+00 0.306D-01 0.969D+00
 Coeff:      0.976D-02 0.701D-02 0.143D+00-0.637D-02 0.273D+00 0.574D+00
 Gap=     0.108 Goal=   None    Shift=    0.000
 RMSDP=1.55D-02 MaxDP=1.45D+00 DE=-9.76D-02 OVMax= 4.70D-02

 Cycle   7  Pass 1  IDiag  1:
 E= -1150.92784309514     Delta-E=       -0.005786560317 Rises=F Damp=F
 DIIS: error= 4.47D-03 at cycle   7 NSaved=   7.
 NSaved= 7 IEnMin= 7 EnMin= -1150.92784309514     IErMin= 7 ErrMin= 4.47D-03
 ErrMax= 4.47D-03  0.00D+00 EMaxC= 1.00D-01 BMatC= 1.48D-03 BMatP= 6.84D-03
 IDIUse=3 WtCom= 9.55D-01 WtEn= 4.47D-02
 Coeff-Com:  0.291D-01-0.397D-01 0.431D-02-0.374D-03 0.743D-01 0.406D+00
 Coeff-Com:  0.526D+00
 Coeff-En:   0.000D+00 0.000D+00 0.000D+00 0.000D+00 0.000D+00 0.201D+00
 Coeff-En:   0.799D+00
 Coeff:      0.278D-01-0.379D-01 0.412D-02-0.357D-03 0.710D-01 0.397D+00
 Coeff:      0.539D+00
 Gap=     0.109 Goal=   None    Shift=    0.000
 RMSDP=3.98D-03 MaxDP=3.49D-01 DE=-5.79D-03 OVMax= 1.91D-02

 Cycle   8  Pass 1  IDiag  1:
 E= -1150.92932167713     Delta-E=       -0.001478581990 Rises=F Damp=F
 DIIS: error= 1.22D-03 at cycle   8 NSaved=   8.
 NSaved= 8 IEnMin= 8 EnMin= -1150.92932167713     IErMin= 8 ErrMin= 1.22D-03
 ErrMax= 1.22D-03  0.00D+00 EMaxC= 1.00D-01 BMatC= 1.09D-04 BMatP= 1.48D-03
 IDIUse=3 WtCom= 9.88D-01 WtEn= 1.22D-02
 Coeff-Com:  0.114D-01-0.149D-01-0.648D-02 0.126D-03 0.425D-02 0.129D+00
 Coeff-Com:  0.291D+00 0.585D+00
 Coeff-En:   0.000D+00 0.000D+00 0.000D+00 0.000D+00 0.000D+00 0.000D+00
 Coeff-En:   0.139D-01 0.986D+00
 Coeff:      0.113D-01-0.147D-01-0.640D-02 0.125D-03 0.420D-02 0.128D+00
 Coeff:      0.288D+00 0.590D+00
 Gap=     0.110 Goal=   None    Shift=    0.000
 RMSDP=1.15D-03 MaxDP=8.86D-02 DE=-1.48D-03 OVMax= 5.39D-03

 Cycle   9  Pass 1  IDiag  1:
 E= -1150.92943058640     Delta-E=       -0.000108909263 Rises=F Damp=F
 DIIS: error= 3.99D-04 at cycle   9 NSaved=   9.
 NSaved= 9 IEnMin= 9 EnMin= -1150.92943058640     IErMin= 9 ErrMin= 3.99D-04
 ErrMax= 3.99D-04  0.00D+00 EMaxC= 1.00D-01 BMatC= 1.04D-05 BMatP= 1.09D-04
 IDIUse=3 WtCom= 9.96D-01 WtEn= 3.99D-03
 Coeff-Com:  0.453D-02-0.579D-02-0.221D-02 0.478D-03-0.335D-02 0.365D-01
 Coeff-Com:  0.116D+00 0.336D+00 0.517D+00
 Coeff-En:   0.000D+00 0.000D+00 0.000D+00 0.000D+00 0.000D+00 0.000D+00
 Coeff-En:   0.000D+00 0.000D+00 0.100D+01
 Coeff:      0.451D-02-0.577D-02-0.220D-02 0.477D-03-0.334D-02 0.363D-01
 Coeff:      0.116D+00 0.335D+00 0.519D+00
 Gap=     0.110 Goal=   None    Shift=    0.000
 RMSDP=5.03D-04 MaxDP=3.46D-02 DE=-1.09D-04 OVMax= 1.84D-03

 Cycle  10  Pass 1  IDiag  1:
 E= -1150.92944164502     Delta-E=       -0.000011058620 Rises=F Damp=F
 DIIS: error= 7.34D-05 at cycle  10 NSaved=  10.
 NSaved=10 IEnMin=10 EnMin= -1150.92944164502     IErMin=10 ErrMin= 7.34D-05
 ErrMax= 7.34D-05  0.00D+00 EMaxC= 1.00D-01 BMatC= 5.88D-07 BMatP= 1.04D-05
 IDIUse=1 WtCom= 1.00D+00 WtEn= 0.00D+00
 Coeff-Com:  0.444D-03-0.635D-03-0.139D-03 0.128D-03-0.172D-02-0.374D-03
 Coeff-Com:  0.159D-01 0.733D-01 0.237D+00 0.676D+00
 Coeff:      0.444D-03-0.635D-03-0.139D-03 0.128D-03-0.172D-02-0.374D-03
 Coeff:      0.159D-01 0.733D-01 0.237D+00 0.676D+00
 Gap=     0.110 Goal=   None    Shift=    0.000
 RMSDP=1.74D-04 MaxDP=1.24D-02 DE=-1.11D-05 OVMax= 2.62D-04

 Cycle  11  Pass 1  IDiag  1:
 E= -1150.92944217946     Delta-E=       -0.000000534442 Rises=F Damp=F
 DIIS: error= 2.25D-05 at cycle  11 NSaved=  11.
 NSaved=11 IEnMin=11 EnMin= -1150.92944217946     IErMin=11 ErrMin= 2.25D-05
 ErrMax= 2.25D-05  0.00D+00 EMaxC= 1.00D-01 BMatC= 4.52D-08 BMatP= 5.88D-07
 IDIUse=1 WtCom= 1.00D+00 WtEn= 0.00D+00
 Coeff-Com: -0.131D-03 0.126D-03-0.380D-04 0.154D-04-0.316D-03-0.111D-02
 Coeff-Com:  0.117D-02 0.964D-02 0.681D-01 0.258D+00 0.664D+00
 Coeff:     -0.131D-03 0.126D-03-0.380D-04 0.154D-04-0.316D-03-0.111D-02
 Coeff:      0.117D-02 0.964D-02 0.681D-01 0.258D+00 0.664D+00
 Gap=     0.110 Goal=   None    Shift=    0.000
 RMSDP=2.46D-05 MaxDP=1.64D-03 DE=-5.34D-07 OVMax= 8.83D-05

 Cycle  12  Pass 1  IDiag  1:
 E= -1150.92944221885     Delta-E=       -0.000000039393 Rises=F Damp=F
 DIIS: error= 5.78D-06 at cycle  12 NSaved=  12.
 NSaved=12 IEnMin=12 EnMin= -1150.92944221885     IErMin=12 ErrMin= 5.78D-06
 ErrMax= 5.78D-06  0.00D+00 EMaxC= 1.00D-01 BMatC= 9.56D-09 BMatP= 4.52D-08
 IDIUse=1 WtCom= 1.00D+00 WtEn= 0.00D+00
 Coeff-Com: -0.100D-03 0.116D-03-0.836D-04 0.757D-05-0.352D-04-0.426D-04
 Coeff-Com:  0.267D-03 0.932D-03 0.175D-01 0.680D-01 0.339D+00 0.575D+00
 Coeff:     -0.100D-03 0.116D-03-0.836D-04 0.757D-05-0.352D-04-0.426D-04
 Coeff:      0.267D-03 0.932D-03 0.175D-01 0.680D-01 0.339D+00 0.575D+00
 Gap=     0.110 Goal=   None    Shift=    0.000
 RMSDP=2.82D-05 MaxDP=1.74D-03 DE=-3.94D-08 OVMax= 2.23D-05

 Cycle  13  Pass 1  IDiag  1:
 E= -1150.92944222726     Delta-E=       -0.000000008405 Rises=F Damp=F
 DIIS: error= 4.88D-06 at cycle  13 NSaved=  13.
 NSaved=13 IEnMin=13 EnMin= -1150.92944222726     IErMin=13 ErrMin= 4.88D-06
 ErrMax= 4.88D-06  0.00D+00 EMaxC= 1.00D-01 BMatC= 1.72D-09 BMatP= 9.56D-09
 IDIUse=1 WtCom= 1.00D+00 WtEn= 0.00D+00
 Coeff-Com: -0.333D-04 0.410D-04-0.775D-04 0.235D-05 0.305D-04 0.296D-03
 Coeff-Com:  0.380D-03 0.490D-03 0.124D-02-0.151D-02 0.523D-01 0.234D+00
 Coeff-Com:  0.712D+00
 Coeff:     -0.333D-04 0.410D-04-0.775D-04 0.235D-05 0.305D-04 0.296D-03
 Coeff:      0.380D-03 0.490D-03 0.124D-02-0.151D-02 0.523D-01 0.234D+00
 Coeff:      0.712D+00
 Gap=     0.110 Goal=   None    Shift=    0.000
 RMSDP=5.51D-06 MaxDP=2.79D-04 DE=-8.40D-09 OVMax= 1.60D-05

 Cycle  14  Pass 1  IDiag  1:
 E= -1150.92944222925     Delta-E=       -0.000000001994 Rises=F Damp=F
 DIIS: error= 1.55D-06 at cycle  14 NSaved=  14.
 NSaved=14 IEnMin=14 EnMin= -1150.92944222925     IErMin=14 ErrMin= 1.55D-06
 ErrMax= 1.55D-06  0.00D+00 EMaxC= 1.00D-01 BMatC= 1.80D-10 BMatP= 1.72D-09
 IDIUse=1 WtCom= 1.00D+00 WtEn= 0.00D+00
 Coeff-Com: -0.928D-05 0.123D-04-0.338D-04 0.179D-05 0.175D-04 0.150D-03
 Coeff-Com:  0.225D-03 0.454D-03-0.129D-03-0.564D-02-0.628D-02 0.455D-01
 Coeff-Com:  0.275D+00 0.691D+00
 Coeff:     -0.928D-05 0.123D-04-0.338D-04 0.179D-05 0.175D-04 0.150D-03
 Coeff:      0.225D-03 0.454D-03-0.129D-03-0.564D-02-0.628D-02 0.455D-01
 Coeff:      0.275D+00 0.691D+00
 Gap=     0.110 Goal=   None    Shift=    0.000
 RMSDP=2.00D-06 MaxDP=1.38D-04 DE=-1.99D-09 OVMax= 5.69D-06

 Cycle  15  Pass 1  IDiag  1:
 E= -1150.92944222948     Delta-E=       -0.000000000226 Rises=F Damp=F
 DIIS: error= 5.01D-07 at cycle  15 NSaved=  15.
 NSaved=15 IEnMin=15 EnMin= -1150.92944222948     IErMin=15 ErrMin= 5.01D-07
 ErrMax= 5.01D-07  0.00D+00 EMaxC= 1.00D-01 BMatC= 2.63D-11 BMatP= 1.80D-10
 IDIUse=1 WtCom= 1.00D+00 WtEn= 0.00D+00
 Coeff-Com: -0.190D-05 0.278D-05-0.995D-05-0.744D-07 0.811D-05 0.457D-04
 Coeff-Com:  0.661D-04 0.145D-03-0.314D-03-0.314D-02-0.979D-02-0.108D-01
 Coeff-Com:  0.226D-01 0.299D+00 0.703D+00
 Coeff:     -0.190D-05 0.278D-05-0.995D-05-0.744D-07 0.811D-05 0.457D-04
 Coeff:      0.661D-04 0.145D-03-0.314D-03-0.314D-02-0.979D-02-0.108D-01
 Coeff:      0.226D-01 0.299D+00 0.703D+00
 Gap=     0.110 Goal=   None    Shift=    0.000
 RMSDP=7.10D-07 MaxDP=5.02D-05 DE=-2.26D-10 OVMax= 2.21D-06

 Cycle  16  Pass 1  IDiag  1:
 E= -1150.92944222951     Delta-E=       -0.000000000032 Rises=F Damp=F
 DIIS: error= 9.05D-08 at cycle  16 NSaved=  16.
 NSaved=16 IEnMin=16 EnMin= -1150.92944222951     IErMin=16 ErrMin= 9.05D-08
 ErrMax= 9.05D-08  0.00D+00 EMaxC= 1.00D-01 BMatC= 1.13D-12 BMatP= 2.63D-11
 IDIUse=1 WtCom= 1.00D+00 WtEn= 0.00D+00
 Coeff-Com: -0.929D-06 0.137D-05-0.129D-05 0.205D-07 0.150D-05 0.488D-05
 Coeff-Com:  0.134D-04 0.525D-04 0.140D-04-0.528D-03-0.252D-02-0.766D-02
 Coeff-Com: -0.140D-01 0.700D-01 0.339D+00 0.616D+00
 Coeff:     -0.929D-06 0.137D-05-0.129D-05 0.205D-07 0.150D-05 0.488D-05
 Coeff:      0.134D-04 0.525D-04 0.140D-04-0.528D-03-0.252D-02-0.766D-02
 Coeff:     -0.140D-01 0.700D-01 0.339D+00 0.616D+00
 Gap=     0.110 Goal=   None    Shift=    0.000
 RMSDP=2.03D-07 MaxDP=1.44D-05 DE=-3.16D-11 OVMax= 3.26D-07

 Cycle  17  Pass 1  IDiag  1:
 E= -1150.92944222951     Delta-E=        0.000000000002 Rises=F Damp=F
 DIIS: error= 2.77D-08 at cycle  17 NSaved=  17.
 NSaved=17 IEnMin=16 EnMin= -1150.92944222951     IErMin=17 ErrMin= 2.77D-08
 ErrMax= 2.77D-08  0.00D+00 EMaxC= 1.00D-01 BMatC= 1.19D-13 BMatP= 1.13D-12
 IDIUse=1 WtCom= 1.00D+00 WtEn= 0.00D+00
 Coeff-Com: -0.401D-06 0.598D-06 0.293D-06-0.448D-07-0.919D-07-0.215D-05
 Coeff-Com:  0.191D-06 0.101D-04 0.398D-04 0.775D-04-0.210D-03-0.291D-02
 Coeff-Com: -0.928D-02 0.853D-03 0.873D-01 0.290D+00 0.634D+00
 Coeff:     -0.401D-06 0.598D-06 0.293D-06-0.448D-07-0.919D-07-0.215D-05
 Coeff:      0.191D-06 0.101D-04 0.398D-04 0.775D-04-0.210D-03-0.291D-02
 Coeff:     -0.928D-02 0.853D-03 0.873D-01 0.290D+00 0.634D+00
 Gap=     0.110 Goal=   None    Shift=    0.000
 RMSDP=7.03D-08 MaxDP=3.60D-06 DE= 1.82D-12 OVMax= 1.21D-07

 Cycle  18  Pass 1  IDiag  1:
 E= -1150.92944222950     Delta-E=        0.000000000009 Rises=F Damp=F
 DIIS: error= 5.22D-09 at cycle  18 NSaved=  18.
 NSaved=18 IEnMin=16 EnMin= -1150.92944222951     IErMin=18 ErrMin= 5.22D-09
 ErrMax= 5.22D-09  0.00D+00 EMaxC= 1.00D-01 BMatC= 5.41D-15 BMatP= 1.19D-13
 IDIUse=1 WtCom= 1.00D+00 WtEn= 0.00D+00
 Coeff-Com: -0.517D-08 0.191D-08 0.134D-06-0.686D-08-0.181D-06-0.542D-06
 Coeff-Com: -0.581D-07 0.131D-05 0.161D-04 0.781D-04 0.945D-04-0.594D-03
 Coeff-Com: -0.191D-02-0.602D-02 0.380D-02 0.525D-01 0.234D+00 0.718D+00
 Coeff:     -0.517D-08 0.191D-08 0.134D-06-0.686D-08-0.181D-06-0.542D-06
 Coeff:     -0.581D-07 0.131D-05 0.161D-04 0.781D-04 0.945D-04-0.594D-03
 Coeff:     -0.191D-02-0.602D-02 0.380D-02 0.525D-01 0.234D+00 0.718D+00
 Gap=     0.110 Goal=   None    Shift=    0.000
 RMSDP=3.32D-08 MaxDP=2.28D-06 DE= 9.09D-12 OVMax= 4.55D-08

 Cycle  19  Pass 1  IDiag  1:
 E= -1150.92944222950     Delta-E=       -0.000000000004 Rises=F Damp=F
 DIIS: error= 1.71D-09 at cycle  19 NSaved=  19.
 NSaved=19 IEnMin=16 EnMin= -1150.92944222951     IErMin=19 ErrMin= 1.71D-09
 ErrMax= 1.71D-09  0.00D+00 EMaxC= 1.00D-01 BMatC= 3.75D-16 BMatP= 5.41D-15
 IDIUse=1 WtCom= 1.00D+00 WtEn= 0.00D+00
 Large coefficients: NSaved= 19 BigCof=    0.00 CofMax=   10.00 Det=-1.27D-15
 Inversion failed.  Reducing to 18 matrices.
 Large coefficients: NSaved= 18 BigCof=    0.00 CofMax=   10.00 Det=-1.29D-15
 Inversion failed.  Reducing to 17 matrices.
 Large coefficients: NSaved= 17 BigCof=    0.00 CofMax=   10.00 Det=-1.29D-15
 Inversion failed.  Reducing to 16 matrices.
 Large coefficients: NSaved= 16 BigCof=    0.00 CofMax=   10.00 Det=-1.30D-15
 Inversion failed.  Reducing to 15 matrices.
 Coeff-Com: -0.412D-07-0.727D-07-0.146D-06-0.400D-06 0.180D-05 0.128D-04
 Coeff-Com:  0.319D-04-0.308D-04 0.118D-03-0.900D-03-0.443D-03 0.191D-02
 Coeff-Com:  0.306D-01 0.147D+00 0.822D+00
 Coeff:     -0.412D-07-0.727D-07-0.146D-06-0.400D-06 0.180D-05 0.128D-04
 Coeff:      0.319D-04-0.308D-04 0.118D-03-0.900D-03-0.443D-03 0.191D-02
 Coeff:      0.306D-01 0.147D+00 0.822D+00
 Gap=     0.110 Goal=   None    Shift=    0.000
 RMSDP=9.42D-09 MaxDP=4.50D-07 DE=-4.09D-12 OVMax= 7.86D-09

 SCF Done:  E(RB3LYP) =  -1150.92944223     A.U. after   19 cycles
            NFock= 19  Conv=0.94D-08     -V/T= 2.0026
 KE= 1.147977150524D+03 PE=-3.607945448562D+03 EE= 8.728944143590D+02
 Leave Link  502 at Mon Sep 28 02:13:24 2026, MaxMem=  1610612736 cpu:             130.0 elap:              18.3
 (Enter /share/software/user/restricted/gaussian/g16.B01/l601.exe)
 Copying SCF densities to generalized density rwf, IOpCl= 0 IROHF=0.

 **********************************************************************

            Population analysis using the SCF Density.

 **********************************************************************

 Orbital symmetries:
       Occupied  (A') (A') (A') (A') (A') (A') (A') (A') (A') (A')
                 (A') (A") (A') (A') (A") (A') (A') (A') (A') (A')
                 (A') (A') (A') (A') (A') (A') (A') (A") (A') (A")
                 (A') (A') (A") (A') (A") (A") (A')
       Virtual   (A') (A') (A') (A") (A') (A") (A') (A') (A") (A")
                 (A') (A') (A') (A') (A") (A') (A') (A") (A') (A')
                 (A') (A") (A') (A") (A") (A') (A') (A') (A") (A')
                 (A') (A') (A") (A') (A') (A') (A') (A') (A') (A')
                 (A') (A') (A') (A') (A') (A') (A') (A') (A') (A")
                 (A') (A") (A') (A') (A') (A') (A") (A') (A") (A")
                 (A') (A") (A") (A') (A') (A') (A") (A') (A') (A')
                 (A') (A') (A") (A') (A") (A') (A') (A") (A') (A")
                 (A') (A') (A') (A') (A') (A') (A') (A') (A") (A')
                 (A') (A") (A') (A") (A') (A") (A') (A') (A") (A")
                 (A') (A') (A') (A') (A') (A') (A") (A") (A') (A')
                 (A') (A") (A") (A") (A') (A') (A') (A') (A') (A")
                 (A") (A') (A') (A") (A') (A') (A') (A') (A') (A')
                 (A') (A") (A") (A") (A') (A") (A") (A') (A") (A')
                 (A') (A') (A') (A') (A') (A') (A') (A') (A') (A')
                 (A') (A') (A') (A') (A') (A') (A') (A') (A') (A")
                 (A") (A') (A') (A') (A') (A') (A')
 The electronic state is 1-A'.
 Alpha  occ. eigenvalues -- -101.41566-101.38693 -10.07656 -10.05562 -10.03473
 Alpha  occ. eigenvalues --  -10.03397 -10.01532  -9.95880  -9.33139  -9.30308
 Alpha  occ. eigenvalues --   -7.09512  -7.08652  -7.08630  -7.06666  -7.05838
 Alpha  occ. eigenvalues --   -7.05785  -0.74952  -0.72007  -0.66110  -0.58618
 Alpha  occ. eigenvalues --   -0.54912  -0.45126  -0.42232  -0.35557  -0.31221
 Alpha  occ. eigenvalues --   -0.30548  -0.27919  -0.25131  -0.24894  -0.21556
 Alpha  occ. eigenvalues --   -0.20880  -0.18391  -0.16412  -0.15245  -0.09654
 Alpha  occ. eigenvalues --   -0.07436  -0.01025
 Alpha virt. eigenvalues --    0.09950   0.11480   0.12351   0.13138   0.13530
 Alpha virt. eigenvalues --    0.14378   0.14618   0.17831   0.17985   0.18637
 Alpha virt. eigenvalues --    0.18676   0.18871   0.20152   0.20584   0.21010
 Alpha virt. eigenvalues --    0.22069   0.22444   0.23066   0.23596   0.24258
 Alpha virt. eigenvalues --    0.24609   0.25395   0.26236   0.26635   0.27124
 Alpha virt. eigenvalues --    0.27646   0.28745   0.29479   0.30010   0.30942
 Alpha virt. eigenvalues --    0.32702   0.33161   0.33282   0.34747   0.36091
 Alpha virt. eigenvalues --    0.36392   0.36800   0.37244   0.39002   0.40325
 Alpha virt. eigenvalues --    0.41510   0.42053   0.42333   0.44975   0.46845
 Alpha virt. eigenvalues --    0.48519   0.49170   0.56419   0.58021   0.58176
 Alpha virt. eigenvalues --    0.60091   0.60259   0.63104   0.64143   0.66544
 Alpha virt. eigenvalues --    0.68077   0.68901   0.70369   0.72271   0.74304
 Alpha virt. eigenvalues --    0.74856   0.76000   0.76899   0.77106   0.78730
 Alpha virt. eigenvalues --    0.81876   0.83387   0.83885   0.86254   0.87917
 Alpha virt. eigenvalues --    0.89595   0.94073   0.95987   0.96262   0.99783
 Alpha virt. eigenvalues --    1.00420   1.02240   1.02695   1.03048   1.03519
 Alpha virt. eigenvalues --    1.03576   1.04515   1.06745   1.08144   1.09669
 Alpha virt. eigenvalues --    1.11130   1.12826   1.14962   1.16979   1.20205
 Alpha virt. eigenvalues --    1.26599   1.28184   1.30041   1.37122   1.37934
 Alpha virt. eigenvalues --    1.39050   1.39221   1.40529   1.48191   1.50666
 Alpha virt. eigenvalues --    1.61488   1.66818   1.69295   1.70903   1.82464
 Alpha virt. eigenvalues --    1.89031   1.94457   1.96474   1.99182   1.99346
 Alpha virt. eigenvalues --    2.01495   2.07850   2.08563   2.16245   2.17280
 Alpha virt. eigenvalues --    2.22173   2.26203   2.38714   2.40312   2.40542
 Alpha virt. eigenvalues --    2.43247   2.43868   2.46241   2.50128   2.55948
 Alpha virt. eigenvalues --    2.58541   2.63819   2.67852   2.70892   2.72092
 Alpha virt. eigenvalues --    2.77883   2.79910   2.92422   2.94515   2.96133
 Alpha virt. eigenvalues --    3.03097   3.05496   3.22264   3.22809   3.28437
 Alpha virt. eigenvalues --    3.29514   3.40070   3.42467   3.44787   3.50766
 Alpha virt. eigenvalues --    3.68064   3.75284   3.89288   4.11842   4.14934
 Alpha virt. eigenvalues --    4.94489   9.91225   9.95520  23.43037  23.98994
 Alpha virt. eigenvalues --   24.01152  24.15910  24.19828  24.29018  25.96219
 Alpha virt. eigenvalues --   25.99856  26.22873  26.32301  26.69890  26.76879
 Alpha virt. eigenvalues --  215.90383 215.95007
          Condensed to atoms (all electrons):
               1          2          3          4          5          6
     1  C   11.086215   3.139850  -8.055124  -0.399392  -1.998501   1.856381
     2  C    3.139850  19.852291 -13.026982   5.016289  -5.527435   0.015205
     3  C   -8.055124 -13.026982  31.768987  -9.664436   5.194981  -1.919051
     4  C   -0.399392   5.016289  -9.664436  27.108018  -7.368029  -8.421848
     5  C   -1.998501  -5.527435   5.194981  -7.368029  18.523638  -1.159845
     6  C    1.856381   0.015205  -1.919051  -8.421848  -1.159845  16.811228
     7  Cl  -0.384596  -2.821293   2.134997  -0.684137   0.135968  -0.139381
     8  H   -0.020086  -0.445442   0.821130  -0.519747   0.175780  -0.008325
     9  H    0.052559   0.248064  -0.318671   0.780611  -0.373864  -0.154675
    10  Cl   0.366119   0.064973  -0.180863   0.969475  -1.894703  -0.208937
    11  H    0.193329  -0.101585  -0.044072  -0.105691  -0.289239   0.434696
               7          8          9         10         11
     1  C   -0.384596  -0.020086   0.052559   0.366119   0.193329
     2  C   -2.821293  -0.445442   0.248064   0.064973  -0.101585
     3  C    2.134997   0.821130  -0.318671  -0.180863  -0.044072
     4  C   -0.684137  -0.519747   0.780611   0.969475  -0.105691
     5  C    0.135968   0.175780  -0.373864  -1.894703  -0.289239
     6  C   -0.139381  -0.008325  -0.154675  -0.208937   0.434696
     7  Cl  18.226129   0.187467  -0.029768  -0.019424   0.015709
     8  H    0.187467   0.647723  -0.034149  -0.013908   0.005614
     9  H   -0.029768  -0.034149   0.566170   0.050521  -0.002636
    10  Cl  -0.019424  -0.013908   0.050521  17.625113   0.039719
    11  H    0.015709   0.005614  -0.002636   0.039719   0.657282
 Mulliken charges:
               1
     1  C    0.163247
     2  C   -0.413935
     3  C   -0.710898
     4  C   -0.711113
     5  C    0.581248
     6  C   -1.105447
     7  Cl   0.378329
     8  H    0.203943
     9  H    0.215837
    10  Cl   0.201914
    11  H    0.196874
 Sum of Mulliken charges =  -1.00000
 Mulliken charges with hydrogens summed into heavy atoms:
               1
     1  C    0.163247
     2  C   -0.413935
     3  C   -0.506955
     4  C   -0.495276
     5  C    0.581248
     6  C   -0.908573
     7  Cl   0.378329
    10  Cl   0.201914
 Electronic spatial extent (au):  <R**2>=           1653.6351
 Charge=             -1.0000 electrons
 Dipole moment (field-independent basis, Debye):
    X=             -4.0517    Y=             -2.5381    Z=              0.0000  Tot=              4.7811
 Quadrupole moment (field-independent basis, Debye-Ang):
   XX=            -72.8529   YY=            -89.5716   ZZ=            -67.1630
   XY=             -5.5618   XZ=              0.0000   YZ=              0.0000
 Traceless Quadrupole moment (field-independent basis, Debye-Ang):
   XX=              3.6763   YY=            -13.0425   ZZ=              9.3662
   XY=             -5.5618   XZ=              0.0000   YZ=              0.0000
 Octapole moment (field-independent basis, Debye-Ang**2):
  XXX=            -29.7141  YYY=            -13.9930  ZZZ=              0.0000  XYY=             -7.4359
  XXY=            -14.5609  XXZ=              0.0000  XZZ=             -2.5530  YZZ=             -1.9691
  YYZ=              0.0000  XYZ=              0.0000
 Hexadecapole moment (field-independent basis, Debye-Ang**3):
 XXXX=           -418.0265 YYYY=          -2050.6826 ZZZZ=            -89.5829 XXXY=            -51.9071
 XXXZ=              0.0000 YYYX=            -31.0966 YYYZ=              0.0000 ZZZX=              0.0000
 ZZZY=              0.0000 XXYY=           -391.3071 XXZZ=            -86.4856 YYZZ=           -333.7703
 XXYZ=              0.0000 YYXZ=              0.0000 ZZXY=             -9.0858
 N-N= 4.361444414494D+02 E-N=-3.607945448597D+03  KE= 1.147977150524D+03
 Symmetry A'   KE= 1.050114006421D+03
 Symmetry A"   KE= 9.786314410323D+01
 No NMR shielding tensors so no spin-rotation constants.
 Leave Link  601 at Mon Sep 28 02:13:24 2026, MaxMem=  1610612736 cpu:               1.2 elap:               0.2
 (Enter /share/software/user/restricted/gaussian/g16.B01/l701.exe)
 ... and contract with generalized density number  0.
 Compute integral first derivatives.
 Leave Link  701 at Mon Sep 28 02:13:24 2026, MaxMem=  1610612736 cpu:               1.0 elap:               0.1
 (Enter /share/software/user/restricted/gaussian/g16.B01/l702.exe)
 L702 exits ... SP integral derivatives will be done elsewhere.
 Leave Link  702 at Mon Sep 28 02:13:24 2026, MaxMem=  1610612736 cpu:               0.2 elap:               0.0
 (Enter /share/software/user/restricted/gaussian/g16.B01/l703.exe)
 Integral derivatives from FoFJK, PRISM(SPDF).
 Compute integral first derivatives, UseDBF=F ICtDFT=           0.
 Calling FoFJK, ICntrl=      2127 FMM=F ISym2X=1 I1Cent= 0 IOpClX= 0 NMat=1 NMatS=1 NMatT=0.
 FoFJK:  IHMeth= 1 ICntrl=    2127 DoSepK=F KAlg= 0 I1Cent=           0 FoldK=F
 IRaf=         0 NMat=       1 IRICut=       1 DoRegI=T DoRafI=F ISym2E= 1 IDoP0=0 IntGTp=1.
 FoFCou: FMM=F IPFlag=           0 FMFlag=      100000 FMFlg1=         800
         NFxFlg=           0 DoJE=F BraDBF=F KetDBF=F FulRan=T
         wScrn=  0.000000 ICntrl=      2127 IOpCl=  0 I1Cent=           0 NGrid=           0
         NMat0=    1 NMatS0=      1 NMatT0=    0 NMatD0=    1 NMtDS0=    0 NMtDT0=    0
 Petite list used in FoFCou.
 Leave Link  703 at Mon Sep 28 02:13:28 2026, MaxMem=  1610612736 cpu:              26.1 elap:               3.3
 (Enter /share/software/user/restricted/gaussian/g16.B01/l716.exe)
 Dipole        =-1.59407694D+00-9.98583262D-01 8.62719202D-32
 ***** Axes restored to original set *****
 -------------------------------------------------------------------
 Center     Atomic                   Forces (Hartrees/Bohr)
 Number     Number              X              Y              Z
 -------------------------------------------------------------------
      1        6           0.008441049    0.018933599   -0.000000000
      2        6          -0.040437087   -0.020789724    0.000000000
      3        6           0.005893570   -0.002017649   -0.000000000
      4        6          -0.001479236   -0.004787956    0.000000000
      5        6           0.023810771    0.010581754   -0.000000000
      6        6           0.001007932   -0.005633228    0.000000000
      7       17           0.033832289    0.015773867   -0.000000000
      8        1          -0.004443535    0.002413522    0.000000000
      9        1          -0.001145084    0.007361737   -0.000000000
     10       17          -0.026844447   -0.016224317    0.000000000
     11        1           0.001363779   -0.005611604    0.000000000
 -------------------------------------------------------------------
 Cartesian Forces:  Max     0.040437087 RMS     0.013216627
 Leave Link  716 at Mon Sep 28 02:13:28 2026, MaxMem=  1610612736 cpu:               0.4 elap:               0.1
 (Enter /share/software/user/restricted/gaussian/g16.B01/l103.exe)

 GradGradGradGradGradGradGradGradGradGradGradGradGradGradGradGradGradGrad
 Berny optimization.
 FormGI is forming the generalized inverse of G from B-inverse, IUseBI=4.
 Internal  Forces:  Max     0.037244987 RMS     0.008069546
 Search for a local minimum.
 Step number   1 out of a maximum of   57
 All quantities printed in internal units (Hartrees-Bohrs-Radians)
 RMS Force = .80695D-02 SwitMx=.10000D-02 MixMth= 1
 Mixed Optimization -- RFO/linear search
 Second derivative matrix not updated -- first step.
 ITU=  0
     Eigenvalues ---    0.02112   0.02119   0.02120   0.02126   0.02135
     Eigenvalues ---    0.02151   0.02162   0.02203   0.16000   0.16000
     Eigenvalues ---    0.16000   0.22324   0.23434   0.24563   0.25000
     Eigenvalues ---    0.25000   0.32364   0.32558   0.33875   0.33891
     Eigenvalues ---    0.34075   0.42065   0.43019   0.45953   0.46103
     Eigenvalues ---    0.46602   0.47342
 RFO step:  Lambda=-9.50389853D-03 EMin= 2.11179946D-02
 Linear search not attempted -- first point.
 Iteration  1 RMS(Cart)=  0.02870000 RMS(Int)=  0.00035822
 Iteration  2 RMS(Cart)=  0.00050186 RMS(Int)=  0.00005700
 Iteration  3 RMS(Cart)=  0.00000016 RMS(Int)=  0.00005700
 ITry= 1 IFail=0 DXMaxC= 1.20D-01 DCOld= 1.00D+10 DXMaxT= 3.00D-01 DXLimC= 3.00D+00 Rises=F
 ClnCor:  largest displacement from symmetrization is 7.13D-10 for atom     9.
 Variable       Old X    -DE/DX   Delta X   Delta X   Delta X     New X
                                 (Linear)    (Quad)   (Total)
    R1        2.62183   0.00055   0.00000   0.00174   0.00182   2.62365
    R2        2.63166   0.01117   0.00000   0.02390   0.02396   2.65563
    R3        2.64196   0.00116   0.00000   0.00257   0.00259   2.64455
    R4        3.27182   0.03724   0.00000   0.11180   0.11180   3.38362
    R5        2.63885  -0.00103   0.00000  -0.00275  -0.00281   2.63604
    R6        2.07542  -0.00505   0.00000  -0.01451  -0.01451   2.06090
    R7        2.64410  -0.00607   0.00000  -0.01364  -0.01372   2.63038
    R8        2.07203  -0.00736   0.00000  -0.02102  -0.02102   2.05102
    R9        2.63911   0.00156   0.00000   0.00323   0.00321   2.64232
   R10        3.26834   0.03137   0.00000   0.09361   0.09361   3.36195
   R11        2.07515  -0.00395   0.00000  -0.01135  -0.01135   2.06380
    A1        2.04843  -0.01355   0.00000  -0.05013  -0.04991   1.99852
    A2        2.15492   0.00558   0.00000   0.02195   0.02204   2.17696
    A3        2.08351   0.00130   0.00000   0.00478   0.00473   2.08825
    A4        2.04475  -0.00688   0.00000  -0.02673  -0.02677   2.01798
    A5        2.06881   0.00233   0.00000   0.00813   0.00807   2.07688
    A6        2.12899  -0.00100   0.00000  -0.00310  -0.00307   2.12592
    A7        2.08539  -0.00133   0.00000  -0.00503  -0.00500   2.08039
    A8        2.07334  -0.00079   0.00000  -0.00693  -0.00710   2.06624
    A9        2.09881   0.00159   0.00000   0.01049   0.01057   2.10938
   A10        2.11104  -0.00080   0.00000  -0.00356  -0.00348   2.10756
   A11        2.11871  -0.00202   0.00000  -0.00994  -0.01006   2.10865
   A12        2.06205   0.00075   0.00000   0.00398   0.00404   2.06609
   A13        2.10243   0.00127   0.00000   0.00596   0.00602   2.10845
   A14        2.10217   0.00845   0.00000   0.03692   0.03695   2.13912
   A15        2.08738   0.00014   0.00000   0.00731   0.00729   2.09467
   A16        2.09364  -0.00859   0.00000  -0.04422  -0.04424   2.04940
    D1        0.00000  -0.00000   0.00000  -0.00000   0.00000   0.00000
    D2        3.14159   0.00000   0.00000  -0.00000   0.00000   3.14159
    D3       -0.00000  -0.00000   0.00000   0.00000   0.00000   0.00000
    D4        3.14159   0.00000   0.00000   0.00000   0.00000   3.14159
    D5       -0.00000  -0.00000   0.00000  -0.00000   0.00000   0.00000
    D6        3.14159  -0.00000   0.00000  -0.00000   0.00000   3.14159
    D7        3.14159  -0.00000   0.00000  -0.00000   0.00000   3.14159
    D8        0.00000  -0.00000   0.00000  -0.00000   0.00000   0.00000
    D9       -0.00000   0.00000   0.00000   0.00000   0.00000   0.00000
   D10        3.14159   0.00000   0.00000   0.00000   0.00000   3.14159
   D11        3.14159   0.00000   0.00000   0.00000   0.00000   3.14159
   D12        0.00000   0.00000   0.00000   0.00000  -0.00000   0.00000
   D13        0.00000  -0.00000   0.00000  -0.00000   0.00000   0.00000
   D14        3.14159  -0.00000   0.00000  -0.00000   0.00000   3.14159
   D15        3.14159   0.00000   0.00000  -0.00000   0.00000   3.14159
   D16       -0.00000   0.00000   0.00000   0.00000   0.00000   0.00000
   D17       -0.00000  -0.00000   0.00000  -0.00000   0.00000   0.00000
   D18        3.14159  -0.00000   0.00000  -0.00000   0.00000   3.14159
   D19        3.14159  -0.00000   0.00000  -0.00000   0.00000   3.14159
   D20        0.00000  -0.00000   0.00000  -0.00000   0.00000   0.00000
         Item               Value     Threshold  Converged?
 Maximum Force            0.037245     0.000450     NO 
 RMS     Force            0.008070     0.000300     NO 
 Maximum Displacement     0.120260     0.001800     NO 
 RMS     Displacement     0.028775     0.001200     NO 
 Predicted change in Energy=-4.895604D-03
 Lowest energy point so far.  Saving SCF results.
 GradGradGradGradGradGradGradGradGradGradGradGradGradGradGradGradGradGrad

 Leave Link  103 at Mon Sep 28 02:13:28 2026, MaxMem=  1610612736 cpu:               0.1 elap:               0.0
 (Enter /share/software/user/restricted/gaussian/g16.B01/l202.exe)
                          Input orientation:                          
 ---------------------------------------------------------------------
 Center     Atomic      Atomic             Coordinates (Angstroms)
 Number     Number       Type             X           Y           Z
 ---------------------------------------------------------------------
      1          6           0       -0.003110    1.465293   -0.000000
      2          6           0        1.160791    0.708371   -0.000000
      3          6           0        1.202147   -0.690452   -0.000000
      4          6           0        0.002584   -1.402415    0.000000
      5          6           0       -1.191499   -0.687117    0.000000
      6          6           0       -1.188903    0.711136    0.000000
      7         17           0        2.751674    1.530020   -0.000000
      8          1           0        2.145546   -1.237599   -0.000000
      9          1           0       -0.000611   -2.487761    0.000000
     10         17           0       -2.721250   -1.595377    0.000000
     11          1           0       -2.157370    1.215900    0.000000
 ---------------------------------------------------------------------
                    Distance matrix (angstroms):
                    1          2          3          4          5
     1  C    0.000000
     2  C    1.388378   0.000000
     3  C    2.469793   1.399434   0.000000
     4  C    2.867713   2.407667   1.394935   0.000000
     5  C    2.458686   2.735079   2.393648   1.391935   0.000000
     6  C    1.405297   2.349696   2.771564   2.426260   1.398256
     7  Cl   2.755544   1.790535   2.707680   4.019536   4.523750
     8  H    3.452875   2.180950   1.090583   2.149291   3.382144
     9  H    3.953054   3.400605   2.162625   1.085351   2.158826
    10  Cl   4.093408   4.514144   4.026404   2.730660   1.779066
    11  H    2.168648   3.356750   3.862710   3.394255   2.134099
                    6          7          8          9         10
     6  C    0.000000
     7  Cl   4.024764   0.000000
     8  H    3.862139   2.833214   0.000000
     9  H    3.412474   4.870076   2.483727   0.000000
    10  Cl   2.769132   6.302460   4.879930   2.863254   0.000000
    11  H    1.092114   4.919084   4.953255   4.285873   2.867270
                   11
    11  H    0.000000
 Stoichiometry    C6H3Cl2(1-)
 Framework group  CS[SG(C6H3Cl2)]
 Deg. of freedom    19
 Full point group                 CS      NOp   2
 RotChk:  IX=3 Diff= 9.46D-04
 Largest Abelian subgroup         CS      NOp   2
 Largest concise Abelian subgroup C1      NOp   1
                         Standard orientation:                         
 ---------------------------------------------------------------------
 Center     Atomic      Atomic             Coordinates (Angstroms)
 Number     Number       Type             X           Y           Z
 ---------------------------------------------------------------------
      1          6           0        1.329535    0.708006   -0.000000
      2          6           0        0.110579    1.372642   -0.000000
      3          6           0       -1.139988    0.744551    0.000000
      4          6           0       -1.196665   -0.649232    0.000000
      5          6           0       -0.000000   -1.360200    0.000000
      6          6           0        1.229188   -0.693704   -0.000000
      7         17           0        0.077887    3.162879   -0.000000
      8          1           0       -2.069604    1.314802    0.000000
      9          1           0       -2.150218   -1.167616    0.000000
     10         17           0       -0.072563   -3.137786    0.000000
     11          1           0        2.133415   -1.306147   -0.000000
 ---------------------------------------------------------------------
 Rotational constants (GHZ):           5.8872414           0.6583821           0.5921597
 Leave Link  202 at Mon Sep 28 02:13:28 2026, MaxMem=  1610612736 cpu:               0.0 elap:               0.0
 (Enter /share/software/user/restricted/gaussian/g16.B01/l301.exe)
 Standard basis: 6-311++G(d) (5D, 7F)
 Ernie: Thresh=  0.10000D-02 Tol=  0.10000D-05 Strict=F.
 There are   160 symmetry adapted cartesian basis functions of A'  symmetry.
 There are    52 symmetry adapted cartesian basis functions of A"  symmetry.
 There are   152 symmetry adapted basis functions of A'  symmetry.
 There are    52 symmetry adapted basis functions of A"  symmetry.
   204 basis functions,   340 primitive gaussians,   212 cartesian basis functions
    37 alpha electrons       37 beta electrons
       nuclear repulsion energy       431.5192482500 Hartrees.
 IExCor=  402 DFT=T Ex+Corr=B3LYP ExCW=0 ScaHFX=  0.200000
 ScaDFX=  0.800000  0.720000  1.000000  0.810000 ScalE2=  1.000000  1.000000
 IRadAn=      5 IRanWt=     -1 IRanGd=            0 ICorTp=0 IEmpDi=  4
 NAtoms=   11 NActive=   11 NUniq=   11 SFac= 1.00D+00 NAtFMM=   60 NAOKFM=F Big=F
 Integral buffers will be    131072 words long.
 Raffenetti 2 integral format.
 Two-electron integral symmetry is turned on.
 Leave Link  301 at Mon Sep 28 02:13:28 2026, MaxMem=  1610612736 cpu:               0.5 elap:               0.1
 (Enter /share/software/user/restricted/gaussian/g16.B01/l302.exe)
 NPDir=0 NMtPBC=     1 NCelOv=     1 NCel=       1 NClECP=     1 NCelD=      1
         NCelK=      1 NCelE2=     1 NClLst=     1 CellRange=     0.0.
 One-electron integrals computed using PRISM.
 One-electron integral symmetry used in STVInt
 NBasis=   204 RedAO= T EigKep=  1.72D-06  NBF=   152    52
 NBsUse=   204 1.00D-06 EigRej= -1.00D+00 NBFU=   152    52
 Precomputing XC quadrature grid using
 IXCGrd= 4 IRadAn=           5 IRanWt=          -1 IRanGd=           0 AccXCQ= 0.00D+00.
 Generated NRdTot=       0 NPtTot=           0 NUsed=           0 NTot=          32
 NSgBfM=   209   209   209   209   209 MxSgAt=    11 MxSgA2=    11.
 Leave Link  302 at Mon Sep 28 02:13:28 2026, MaxMem=  1610612736 cpu:               1.5 elap:               0.2
 (Enter /share/software/user/restricted/gaussian/g16.B01/l303.exe)
 DipDrv:  MaxL=1.
 Leave Link  303 at Mon Sep 28 02:13:28 2026, MaxMem=  1610612736 cpu:               0.3 elap:               0.0
 (Enter /share/software/user/restricted/gaussian/g16.B01/l401.exe)
 Initial guess from the checkpoint file:  "calcs/b3lyp_gas/chks/ClPh_25_anion.chk"
 B after Tr=     0.000000    0.000000   -0.000000
         Rot=    0.999998    0.000000   -0.000000   -0.002202 Ang=  -0.25 deg.
 Guess basis will be translated and rotated to current coordinates.
 JPrj=2 DoOrth=T DoCkMO=T.
 Initial guess orbital symmetries:
       Occupied  (A') (A') (A') (A') (A') (A') (A') (A') (A') (A')
                 (A') (A") (A') (A') (A") (A') (A') (A') (A') (A')
                 (A') (A') (A') (A') (A') (A') (A') (A") (A') (A")
                 (A') (A') (A") (A') (A") (A") (A')
       Virtual   (A') (A') (A') (A") (A') (A") (A') (A') (A") (A")
                 (A') (A') (A') (A') (A") (A') (A') (A") (A') (A')
                 (A') (A") (A') (A") (A") (A') (A') (A') (A") (A')
                 (A') (A') (A") (A') (A') (A') (A') (A') (A') (A')
                 (A') (A') (A') (A') (A') (A') (A') (A') (A') (A")
                 (A') (A") (A') (A') (A') (A') (A") (A') (A") (A")
                 (A') (A") (A") (A') (A') (A') (A") (A') (A') (A')
                 (A') (A') (A") (A') (A") (A') (A') (A") (A') (A")
                 (A') (A') (A') (A') (A') (A') (A') (A') (A") (A')
                 (A') (A") (A') (A") (A') (A") (A') (A') (A") (A")
                 (A') (A') (A') (A') (A') (A') (A") (A") (A') (A')
                 (A') (A") (A") (A") (A') (A') (A') (A') (A') (A")
                 (A") (A') (A') (A") (A') (A') (A') (A') (A') (A')
                 (A') (A") (A") (A") (A') (A") (A") (A') (A") (A')
                 (A') (A') (A') (A') (A') (A') (A') (A') (A') (A')
                 (A') (A') (A') (A') (A') (A') (A') (A') (A') (A")
                 (A") (A') (A') (A') (A') (A') (A')
 The electronic state of the initial guess is 1-A'.
 Generating alternative initial guess.
 ExpMin= 3.60D-02 ExpMax= 1.06D+05 ExpMxC= 3.62D+03 IAcc=3 IRadAn=         5 AccDes= 0.00D+00
 Harris functional with IExCor=  402 and IRadAn=       5 diagonalized for initial guess.
 HarFok:  IExCor=  402 AccDes= 0.00D+00 IRadAn=         5 IDoV= 1 UseB2=F ITyADJ=14
 ICtDFT=  3500011 ScaDFX=  1.000000  1.000000  1.000000  1.000000
 FoFCou: FMM=F IPFlag=           0 FMFlag=      100000 FMFlg1=           0
         NFxFlg=           0 DoJE=T BraDBF=F KetDBF=T FulRan=T
         wScrn=  0.000000 ICntrl=       500 IOpCl=  0 I1Cent=   200000004 NGrid=           0
         NMat0=    1 NMatS0=      1 NMatT0=    0 NMatD0=    1 NMtDS0=    0 NMtDT0=    0
 Petite list used in FoFCou.
 Harris En= -1150.97340059800    
 Leave Link  401 at Mon Sep 28 02:13:29 2026, MaxMem=  1610612736 cpu:               5.6 elap:               0.7
 (Enter /share/software/user/restricted/gaussian/g16.B01/l502.exe)
 Keep R1 ints in memory in symmetry-blocked form, NReq=334495850.
 FoFCou: FMM=F IPFlag=           0 FMFlag=           0 FMFlg1=           0
         NFxFlg=           0 DoJE=F BraDBF=F KetDBF=F FulRan=T
         wScrn=  0.000000 ICntrl=       600 IOpCl=  0 I1Cent=           0 NGrid=           0
         NMat0=    1 NMatS0=  20910 NMatT0=    0 NMatD0=    1 NMtDS0=    0 NMtDT0=    0
 Petite list used in FoFCou.
 Closed shell SCF:
 Using DIIS extrapolation, IDIIS=  1040.
 NGot=  1610612736 LenX=  1494649070 LenY=  1494603685
 Requested convergence on RMS density matrix=1.00D-08 within 128 cycles.
 Requested convergence on MAX density matrix=1.00D-06.
 Requested convergence on             energy=1.00D-06.
 No special actions if energy rises.

 Cycle   1  Pass 1  IDiag  1:
 E= -1150.93217067981    
 DIIS: error= 2.21D-03 at cycle   1 NSaved=   1.
 NSaved= 1 IEnMin= 1 EnMin= -1150.93217067981     IErMin= 1 ErrMin= 2.21D-03
 ErrMax= 2.21D-03  0.00D+00 EMaxC= 1.00D-01 BMatC= 2.24D-03 BMatP= 2.24D-03
 IDIUse=3 WtCom= 9.78D-01 WtEn= 2.21D-02
 Coeff-Com:  0.100D+01
 Coeff-En:   0.100D+01
 Coeff:      0.100D+01
 Gap=     0.130 Goal=   None    Shift=    0.000
 GapD=    0.130 DampG=1.000 DampE=1.000 DampFc=1.0000 IDamp=-1.
 RMSDP=1.79D-02 MaxDP=8.74D-01              OVMax= 2.08D-02

 Cycle   2  Pass 1  IDiag  1:
 E= -1150.93531184842     Delta-E=       -0.003141168615 Rises=F Damp=F
 DIIS: error= 1.09D-03 at cycle   2 NSaved=   2.
 NSaved= 2 IEnMin= 2 EnMin= -1150.93531184842     IErMin= 2 ErrMin= 1.09D-03
 ErrMax= 1.09D-03  0.00D+00 EMaxC= 1.00D-01 BMatC= 2.79D-04 BMatP= 2.24D-03
 IDIUse=3 WtCom= 9.89D-01 WtEn= 1.09D-02
 Coeff-Com:  0.136D+00 0.864D+00
 Coeff-En:   0.000D+00 0.100D+01
 Coeff:      0.134D+00 0.866D+00
 Gap=     0.120 Goal=   None    Shift=    0.000
 RMSDP=5.89D-03 MaxDP=4.75D-01 DE=-3.14D-03 OVMax= 9.63D-03

 Cycle   3  Pass 1  IDiag  1:
 E= -1150.93523473121     Delta-E=        0.000077117210 Rises=F Damp=F
 DIIS: error= 1.45D-03 at cycle   3 NSaved=   3.
 NSaved= 3 IEnMin= 2 EnMin= -1150.93531184842     IErMin= 2 ErrMin= 1.09D-03
 ErrMax= 1.45D-03  0.00D+00 EMaxC= 1.00D-01 BMatC= 3.70D-04 BMatP= 2.79D-04
 IDIUse=3 WtCom= 2.08D-01 WtEn= 7.92D-01
 Coeff-Com: -0.147D-01 0.541D+00 0.474D+00
 Coeff-En:   0.000D+00 0.552D+00 0.448D+00
 Coeff:     -0.306D-02 0.550D+00 0.453D+00
 Gap=     0.118 Goal=   None    Shift=    0.000
 RMSDP=2.84D-03 MaxDP=2.15D-01 DE= 7.71D-05 OVMax= 5.77D-03

 Cycle   4  Pass 1  IDiag  1:
 E= -1150.93558989543     Delta-E=       -0.000355164213 Rises=F Damp=F
 DIIS: error= 2.94D-04 at cycle   4 NSaved=   4.
 NSaved= 4 IEnMin= 4 EnMin= -1150.93558989543     IErMin= 4 ErrMin= 2.94D-04
 ErrMax= 2.94D-04  0.00D+00 EMaxC= 1.00D-01 BMatC= 8.62D-06 BMatP= 2.79D-04
 IDIUse=3 WtCom= 9.97D-01 WtEn= 2.94D-03
 Coeff-Com: -0.108D-01 0.256D+00 0.233D+00 0.521D+00
 Coeff-En:   0.000D+00 0.000D+00 0.000D+00 0.100D+01
 Coeff:     -0.108D-01 0.255D+00 0.233D+00 0.523D+00
 Gap=     0.119 Goal=   None    Shift=    0.000
 RMSDP=5.63D-04 MaxDP=3.47D-02 DE=-3.55D-04 OVMax= 1.55D-03

 Cycle   5  Pass 1  IDiag  1:
 E= -1150.93559809709     Delta-E=       -0.000008201661 Rises=F Damp=F
 DIIS: error= 1.72D-04 at cycle   5 NSaved=   5.
 NSaved= 5 IEnMin= 5 EnMin= -1150.93559809709     IErMin= 5 ErrMin= 1.72D-04
 ErrMax= 1.72D-04  0.00D+00 EMaxC= 1.00D-01 BMatC= 1.59D-06 BMatP= 8.62D-06
 IDIUse=3 WtCom= 9.98D-01 WtEn= 1.72D-03
 Coeff-Com: -0.467D-02 0.830D-01 0.760D-01 0.309D+00 0.536D+00
 Coeff-En:   0.000D+00 0.000D+00 0.000D+00 0.147D+00 0.853D+00
 Coeff:     -0.467D-02 0.828D-01 0.759D-01 0.309D+00 0.537D+00
 Gap=     0.119 Goal=   None    Shift=    0.000
 RMSDP=1.13D-04 MaxDP=5.99D-03 DE=-8.20D-06 OVMax= 7.06D-04

 Cycle   6  Pass 1  IDiag  1:
 E= -1150.93559960503     Delta-E=       -0.000001507944 Rises=F Damp=F
 DIIS: error= 5.18D-05 at cycle   6 NSaved=   6.
 NSaved= 6 IEnMin= 6 EnMin= -1150.93559960503     IErMin= 6 ErrMin= 5.18D-05
 ErrMax= 5.18D-05  0.00D+00 EMaxC= 1.00D-01 BMatC= 3.17D-07 BMatP= 1.59D-06
 IDIUse=1 WtCom= 1.00D+00 WtEn= 0.00D+00
 Coeff-Com: -0.162D-02 0.181D-01 0.163D-01 0.126D+00 0.348D+00 0.493D+00
 Coeff:     -0.162D-02 0.181D-01 0.163D-01 0.126D+00 0.348D+00 0.493D+00
 Gap=     0.119 Goal=   None    Shift=    0.000
 RMSDP=4.17D-05 MaxDP=2.93D-03 DE=-1.51D-06 OVMax= 1.87D-04

 Cycle   7  Pass 1  IDiag  1:
 E= -1150.93559993134     Delta-E=       -0.000000326311 Rises=F Damp=F
 DIIS: error= 9.31D-06 at cycle   7 NSaved=   7.
 NSaved= 7 IEnMin= 7 EnMin= -1150.93559993134     IErMin= 7 ErrMin= 9.31D-06
 ErrMax= 9.31D-06  0.00D+00 EMaxC= 1.00D-01 BMatC= 8.69D-09 BMatP= 3.17D-07
 IDIUse=1 WtCom= 1.00D+00 WtEn= 0.00D+00
 Coeff-Com: -0.256D-03-0.295D-03-0.240D-03 0.256D-01 0.959D-01 0.202D+00
 Coeff-Com:  0.677D+00
 Coeff:     -0.256D-03-0.295D-03-0.240D-03 0.256D-01 0.959D-01 0.202D+00
 Coeff:      0.677D+00
 Gap=     0.119 Goal=   None    Shift=    0.000
 RMSDP=3.79D-05 MaxDP=2.52D-03 DE=-3.26D-07 OVMax= 4.01D-05

 Cycle   8  Pass 1  IDiag  1:
 E= -1150.93559993732     Delta-E=       -0.000000005981 Rises=F Damp=F
 DIIS: error= 8.08D-06 at cycle   8 NSaved=   8.
 NSaved= 8 IEnMin= 8 EnMin= -1150.93559993732     IErMin= 8 ErrMin= 8.08D-06
 ErrMax= 8.08D-06  0.00D+00 EMaxC= 1.00D-01 BMatC= 2.82D-09 BMatP= 8.69D-09
 IDIUse=1 WtCom= 1.00D+00 WtEn= 0.00D+00
 Coeff-Com:  0.816D-06-0.191D-02-0.161D-02 0.430D-02 0.253D-01 0.746D-01
 Coeff-Com:  0.418D+00 0.481D+00
 Coeff:      0.816D-06-0.191D-02-0.161D-02 0.430D-02 0.253D-01 0.746D-01
 Coeff:      0.418D+00 0.481D+00
 Gap=     0.119 Goal=   None    Shift=    0.000
 RMSDP=9.08D-06 MaxDP=8.03D-04 DE=-5.98D-09 OVMax= 2.95D-05

 Cycle   9  Pass 1  IDiag  1:
 E= -1150.93559993998     Delta-E=       -0.000000002653 Rises=F Damp=F
 DIIS: error= 2.22D-06 at cycle   9 NSaved=   9.
 NSaved= 9 IEnMin= 9 EnMin= -1150.93559993998     IErMin= 9 ErrMin= 2.22D-06
 ErrMax= 2.22D-06  0.00D+00 EMaxC= 1.00D-01 BMatC= 3.92D-10 BMatP= 2.82D-09
 IDIUse=1 WtCom= 1.00D+00 WtEn= 0.00D+00
 Coeff-Com:  0.336D-04-0.109D-02-0.909D-03-0.789D-03 0.216D-02 0.168D-01
 Coeff-Com:  0.161D+00 0.313D+00 0.510D+00
 Coeff:      0.336D-04-0.109D-02-0.909D-03-0.789D-03 0.216D-02 0.168D-01
 Coeff:      0.161D+00 0.313D+00 0.510D+00
 Gap=     0.119 Goal=   None    Shift=    0.000
 RMSDP=2.49D-06 MaxDP=2.14D-04 DE=-2.65D-09 OVMax= 1.08D-05

 Cycle  10  Pass 1  IDiag  1:
 E= -1150.93559994043     Delta-E=       -0.000000000451 Rises=F Damp=F
 DIIS: error= 1.85D-07 at cycle  10 NSaved=  10.
 NSaved=10 IEnMin=10 EnMin= -1150.93559994043     IErMin=10 ErrMin= 1.85D-07
 ErrMax= 1.85D-07  0.00D+00 EMaxC= 1.00D-01 BMatC= 9.94D-12 BMatP= 3.92D-10
 IDIUse=1 WtCom= 1.00D+00 WtEn= 0.00D+00
 Coeff-Com:  0.128D-04-0.247D-03-0.209D-03-0.789D-03-0.196D-02-0.165D-02
 Coeff-Com:  0.216D-01 0.789D-01 0.193D+00 0.711D+00
 Coeff:      0.128D-04-0.247D-03-0.209D-03-0.789D-03-0.196D-02-0.165D-02
 Coeff:      0.216D-01 0.789D-01 0.193D+00 0.711D+00
 Gap=     0.119 Goal=   None    Shift=    0.000
 RMSDP=4.81D-07 MaxDP=2.39D-05 DE=-4.51D-10 OVMax= 1.23D-06

 Cycle  11  Pass 1  IDiag  1:
 E= -1150.93559994043     Delta-E=       -0.000000000002 Rises=F Damp=F
 DIIS: error= 1.13D-07 at cycle  11 NSaved=  11.
 NSaved=11 IEnMin=11 EnMin= -1150.93559994043     IErMin=11 ErrMin= 1.13D-07
 ErrMax= 1.13D-07  0.00D+00 EMaxC= 1.00D-01 BMatC= 1.88D-12 BMatP= 9.94D-12
 IDIUse=1 WtCom= 1.00D+00 WtEn= 0.00D+00
 Coeff-Com:  0.289D-05-0.199D-04-0.236D-04-0.265D-03-0.960D-03-0.198D-02
 Coeff-Com: -0.300D-02 0.123D-01 0.511D-01 0.351D+00 0.592D+00
 Coeff:      0.289D-05-0.199D-04-0.236D-04-0.265D-03-0.960D-03-0.198D-02
 Coeff:     -0.300D-02 0.123D-01 0.511D-01 0.351D+00 0.592D+00
 Gap=     0.119 Goal=   None    Shift=    0.000
 RMSDP=3.37D-07 MaxDP=2.30D-05 DE=-1.82D-12 OVMax= 6.29D-07

 Cycle  12  Pass 1  IDiag  1:
 E= -1150.93559994044     Delta-E=       -0.000000000010 Rises=F Damp=F
 DIIS: error= 2.65D-08 at cycle  12 NSaved=  12.
 NSaved=12 IEnMin=12 EnMin= -1150.93559994044     IErMin=12 ErrMin= 2.65D-08
 ErrMax= 2.65D-08  0.00D+00 EMaxC= 1.00D-01 BMatC= 1.61D-13 BMatP= 1.88D-12
 IDIUse=1 WtCom= 1.00D+00 WtEn= 0.00D+00
 Coeff-Com:  0.328D-06 0.139D-04 0.550D-05-0.429D-04-0.217D-03-0.697D-03
 Coeff-Com: -0.392D-02-0.340D-02-0.289D-04 0.588D-01 0.257D+00 0.692D+00
 Coeff:      0.328D-06 0.139D-04 0.550D-05-0.429D-04-0.217D-03-0.697D-03
 Coeff:     -0.392D-02-0.340D-02-0.289D-04 0.588D-01 0.257D+00 0.692D+00
 Gap=     0.119 Goal=   None    Shift=    0.000
 RMSDP=1.28D-07 MaxDP=8.84D-06 DE=-1.00D-11 OVMax= 1.60D-07

 Cycle  13  Pass 1  IDiag  1:
 E= -1150.93559994044     Delta-E=        0.000000000000 Rises=F Damp=F
 DIIS: error= 7.99D-09 at cycle  13 NSaved=  13.
 NSaved=13 IEnMin=12 EnMin= -1150.93559994044     IErMin=13 ErrMin= 7.99D-09
 ErrMax= 7.99D-09  0.00D+00 EMaxC= 1.00D-01 BMatC= 8.49D-15 BMatP= 1.61D-13
 IDIUse=1 WtCom= 1.00D+00 WtEn= 0.00D+00
 Coeff-Com: -0.215D-06 0.869D-05 0.496D-05 0.679D-05-0.107D-04-0.137D-03
 Coeff-Com: -0.126D-02-0.210D-02-0.383D-02-0.667D-02 0.575D-01 0.260D+00
 Coeff-Com:  0.696D+00
 Coeff:     -0.215D-06 0.869D-05 0.496D-05 0.679D-05-0.107D-04-0.137D-03
 Coeff:     -0.126D-02-0.210D-02-0.383D-02-0.667D-02 0.575D-01 0.260D+00
 Coeff:      0.696D+00
 Gap=     0.119 Goal=   None    Shift=    0.000
 RMSDP=4.66D-08 MaxDP=3.27D-06 DE= 0.00D+00 OVMax= 3.23D-08

 Cycle  14  Pass 1  IDiag  1:
 E= -1150.93559994043     Delta-E=        0.000000000010 Rises=F Damp=F
 DIIS: error= 1.63D-09 at cycle  14 NSaved=  14.
 NSaved=14 IEnMin=12 EnMin= -1150.93559994044     IErMin=14 ErrMin= 1.63D-09
 ErrMax= 1.63D-09  0.00D+00 EMaxC= 1.00D-01 BMatC= 4.37D-16 BMatP= 8.49D-15
 IDIUse=1 WtCom= 1.00D+00 WtEn= 0.00D+00
 Coeff-Com: -0.755D-07 0.198D-05 0.129D-05 0.595D-05 0.127D-04-0.433D-05
 Coeff-Com: -0.172D-03-0.472D-03-0.135D-02-0.639D-02 0.512D-02 0.483D-01
 Coeff-Com:  0.232D+00 0.723D+00
 Coeff:     -0.755D-07 0.198D-05 0.129D-05 0.595D-05 0.127D-04-0.433D-05
 Coeff:     -0.172D-03-0.472D-03-0.135D-02-0.639D-02 0.512D-02 0.483D-01
 Coeff:      0.232D+00 0.723D+00
 Gap=     0.119 Goal=   None    Shift=    0.000
 RMSDP=1.02D-08 MaxDP=6.79D-07 DE= 9.55D-12 OVMax= 1.28D-08

 Cycle  15  Pass 1  IDiag  1:
 E= -1150.93559994043     Delta-E=        0.000000000002 Rises=F Damp=F
 DIIS: error= 8.65D-10 at cycle  15 NSaved=  15.
 NSaved=15 IEnMin=12 EnMin= -1150.93559994044     IErMin=15 ErrMin= 8.65D-10
 ErrMax= 8.65D-10  0.00D+00 EMaxC= 1.00D-01 BMatC= 1.62D-16 BMatP= 4.37D-16
 IDIUse=1 WtCom= 1.00D+00 WtEn= 0.00D+00
 Coeff-Com: -0.204D-07 0.879D-07 0.188D-06 0.240D-05 0.730D-05 0.115D-04
 Coeff-Com:  0.576D-04 0.268D-05-0.280D-03-0.287D-02-0.447D-02-0.613D-02
 Coeff-Com:  0.412D-01 0.435D+00 0.538D+00
 Coeff:     -0.204D-07 0.879D-07 0.188D-06 0.240D-05 0.730D-05 0.115D-04
 Coeff:      0.576D-04 0.268D-05-0.280D-03-0.287D-02-0.447D-02-0.613D-02
 Coeff:      0.412D-01 0.435D+00 0.538D+00
 Gap=     0.119 Goal=   None    Shift=    0.000
 RMSDP=1.16D-08 MaxDP=7.53D-07 DE= 2.27D-12 OVMax= 3.46D-09

 Cycle  16  Pass 1  IDiag  1:
 E= -1150.93559994044     Delta-E=       -0.000000000014 Rises=F Damp=F
 DIIS: error= 7.40D-11 at cycle  16 NSaved=  16.
 NSaved=16 IEnMin=16 EnMin= -1150.93559994044     IErMin=16 ErrMin= 7.40D-11
 ErrMax= 7.40D-11  0.00D+00 EMaxC= 1.00D-01 BMatC= 1.56D-18 BMatP= 1.62D-16
 IDIUse=1 WtCom= 1.00D+00 WtEn= 0.00D+00
 Large coefficients: NSaved= 16 BigCof=    0.00 CofMax=   10.00 Det=-4.42D-17
 Inversion failed.  Reducing to 15 matrices.
 Coeff-Com: -0.106D-06-0.542D-07 0.254D-06 0.897D-06 0.248D-05 0.212D-04
 Coeff-Com:  0.267D-04 0.790D-05-0.363D-03-0.136D-02-0.368D-02-0.205D-02
 Coeff-Com:  0.740D-01 0.133D+00 0.800D+00
 Coeff:     -0.106D-06-0.542D-07 0.254D-06 0.897D-06 0.248D-05 0.212D-04
 Coeff:      0.267D-04 0.790D-05-0.363D-03-0.136D-02-0.368D-02-0.205D-02
 Coeff:      0.740D-01 0.133D+00 0.800D+00
 Gap=     0.119 Goal=   None    Shift=    0.000
 RMSDP=1.31D-09 MaxDP=9.60D-08 DE=-1.36D-11 OVMax= 9.66D-10

 SCF Done:  E(RB3LYP) =  -1150.93559994     A.U. after   16 cycles
            NFock= 16  Conv=0.13D-08     -V/T= 2.0027
 KE= 1.147834418021D+03 PE=-3.598528495782D+03 EE= 8.682392295705D+02
 Leave Link  502 at Mon Sep 28 02:13:45 2026, MaxMem=  1610612736 cpu:             114.0 elap:              16.0
 (Enter /share/software/user/restricted/gaussian/g16.B01/l701.exe)
 ... and contract with generalized density number  0.
 Compute integral first derivatives.
 Leave Link  701 at Mon Sep 28 02:13:46 2026, MaxMem=  1610612736 cpu:               1.3 elap:               0.2
 (Enter /share/software/user/restricted/gaussian/g16.B01/l702.exe)
 L702 exits ... SP integral derivatives will be done elsewhere.
 Leave Link  702 at Mon Sep 28 02:13:46 2026, MaxMem=  1610612736 cpu:               0.2 elap:               0.0
 (Enter /share/software/user/restricted/gaussian/g16.B01/l703.exe)
 Integral derivatives from FoFJK, PRISM(SPDF).
 Compute integral first derivatives, UseDBF=F ICtDFT=           0.
 Calling FoFJK, ICntrl=      2127 FMM=F ISym2X=1 I1Cent= 0 IOpClX= 0 NMat=1 NMatS=1 NMatT=0.
 FoFJK:  IHMeth= 1 ICntrl=    2127 DoSepK=F KAlg= 0 I1Cent=           0 FoldK=F
 IRaf=         0 NMat=       1 IRICut=       1 DoRegI=T DoRafI=F ISym2E= 1 IDoP0=0 IntGTp=1.
 FoFCou: FMM=F IPFlag=           0 FMFlag=      100000 FMFlg1=         800
         NFxFlg=           0 DoJE=F BraDBF=F KetDBF=F FulRan=T
         wScrn=  0.000000 ICntrl=      2127 IOpCl=  0 I1Cent=           0 NGrid=           0
         NMat0=    1 NMatS0=      1 NMatT0=    0 NMatD0=    1 NMtDS0=    0 NMtDT0=    0
 Petite list used in FoFCou.
 Leave Link  703 at Mon Sep 28 02:13:49 2026, MaxMem=  1610612736 cpu:              25.8 elap:               3.2
 (Enter /share/software/user/restricted/gaussian/g16.B01/l716.exe)
 Dipole        =-1.59769114D+00-1.05455361D+00 4.75033564D-32
 ***** Axes restored to original set *****
 -------------------------------------------------------------------
 Center     Atomic                   Forces (Hartrees/Bohr)
 Number     Number              X              Y              Z
 -------------------------------------------------------------------
      1        6           0.007423356    0.004082322   -0.000000000
      2        6          -0.025407654   -0.010962128    0.000000000
      3        6           0.005637189    0.001859518   -0.000000000
      4        6          -0.002072320   -0.002465818    0.000000000
      5        6           0.012159943    0.008930020   -0.000000000
      6        6          -0.003763856   -0.003810237    0.000000000
      7       17           0.014288210    0.006179902   -0.000000000
      8        1          -0.000515870    0.000624675    0.000000000
      9        1           0.000401864    0.000205836   -0.000000000
     10       17          -0.007730359   -0.004320919    0.000000000
     11        1          -0.000420502   -0.000323170    0.000000000
 -------------------------------------------------------------------
 Cartesian Forces:  Max     0.025407654 RMS     0.006654476
 Leave Link  716 at Mon Sep 28 02:13:49 2026, MaxMem=  1610612736 cpu:               0.2 elap:               0.0
 (Enter /share/software/user/restricted/gaussian/g16.B01/l103.exe)

 GradGradGradGradGradGradGradGradGradGradGradGradGradGradGradGradGradGrad
 Berny optimization.
 Using GEDIIS/GDIIS optimizer.
 FormGI is forming the generalized inverse of G from B-inverse, IUseBI=4.
 Internal  Forces:  Max     0.015530873 RMS     0.003187284
 Search for a local minimum.
 Step number   2 out of a maximum of   57
 All quantities printed in internal units (Hartrees-Bohrs-Radians)
 RMS Force = .31873D-02 SwitMx=.10000D-02 MixMth= 1
 Mixed Optimization -- RFO/linear search
 Update second derivatives using D2CorX and points    1    2
 DE= -6.16D-03 DEPred=-4.90D-03 R= 1.26D+00
 TightC=F SS=  1.41D+00  RLast= 1.74D-01 DXNew= 5.0454D-01 5.2265D-01
 Trust test= 1.26D+00 RLast= 1.74D-01 DXMaxT set to 5.05D-01
 ITU=  1  0
 Use linear search instead of GDIIS.
     Eigenvalues ---    0.02112   0.02119   0.02120   0.02126   0.02135
     Eigenvalues ---    0.02152   0.02164   0.02201   0.15685   0.16000
     Eigenvalues ---    0.16075   0.17613   0.22491   0.24538   0.24994
     Eigenvalues ---    0.25160   0.28526   0.32902   0.33877   0.33951
     Eigenvalues ---    0.34682   0.41938   0.43589   0.45959   0.46387
     Eigenvalues ---    0.46783   0.47830
 RFO step:  Lambda=-1.35526047D-03 EMin= 2.11194941D-02
 Quartic linear search produced a step of  0.55004.
 Iteration  1 RMS(Cart)=  0.01617537 RMS(Int)=  0.00021278
 Iteration  2 RMS(Cart)=  0.00031154 RMS(Int)=  0.00006850
 Iteration  3 RMS(Cart)=  0.00000006 RMS(Int)=  0.00006850
 ITry= 1 IFail=0 DXMaxC= 6.04D-02 DCOld= 1.00D+10 DXMaxT= 5.05D-01 DXLimC= 3.00D+00 Rises=F
 ClnCor:  largest displacement from symmetrization is 1.32D-08 for atom    10.
 Variable       Old X    -DE/DX   Delta X   Delta X   Delta X     New X
                                 (Linear)    (Quad)   (Total)
    R1        2.62365  -0.00370   0.00100  -0.01303  -0.01192   2.61174
    R2        2.65563   0.00263   0.01318  -0.00059   0.01262   2.66824
    R3        2.64455  -0.00269   0.00143  -0.01037  -0.00887   2.63567
    R4        3.38362   0.01553   0.06149   0.03221   0.09370   3.47732
    R5        2.63604  -0.00047  -0.00155  -0.00045  -0.00203   2.63401
    R6        2.06090  -0.00076  -0.00798   0.00200  -0.00599   2.05492
    R7        2.63038  -0.00036  -0.00755   0.00443  -0.00322   2.62715
    R8        2.05102  -0.00021  -0.01156   0.00697  -0.00459   2.04642
    R9        2.64232  -0.00199   0.00177  -0.00756  -0.00587   2.63645
   R10        3.36195   0.00885   0.05149   0.00691   0.05839   3.42034
   R11        2.06380   0.00022  -0.00624   0.00528  -0.00096   2.06284
    A1        1.99852  -0.00433  -0.02745  -0.00885  -0.03609   1.96243
    A2        2.17696   0.00656   0.01212   0.03182   0.04410   2.22107
    A3        2.08825  -0.00148   0.00260  -0.01051  -0.00798   2.08026
    A4        2.01798  -0.00508  -0.01473  -0.02131  -0.03612   1.98186
    A5        2.07688  -0.00218   0.00444  -0.01795  -0.01349   2.06339
    A6        2.12592   0.00080  -0.00169   0.00587   0.00417   2.13008
    A7        2.08039   0.00138  -0.00275   0.01209   0.00932   2.08971
    A8        2.06624  -0.00239  -0.00390  -0.01248  -0.01654   2.04970
    A9        2.10938   0.00078   0.00582  -0.00006   0.00584   2.11522
   A10        2.10756   0.00160  -0.00191   0.01254   0.01070   2.11827
   A11        2.10865   0.00335  -0.00553   0.02628   0.02056   2.12921
   A12        2.06609  -0.00128   0.00222  -0.01039  -0.00807   2.05802
   A13        2.10845  -0.00206   0.00331  -0.01590  -0.01249   2.09596
   A14        2.13912  -0.00101   0.02032  -0.01882   0.00146   2.14058
   A15        2.09467   0.00100   0.00401   0.00557   0.00960   2.10427
   A16        2.04940   0.00001  -0.02433   0.01324  -0.01107   2.03833
    D1        0.00000   0.00000   0.00000   0.00000   0.00000   0.00000
    D2        3.14159   0.00000   0.00000   0.00000   0.00000   3.14159
    D3        0.00000  -0.00000   0.00000  -0.00000  -0.00000   0.00000
    D4        3.14159  -0.00000   0.00000  -0.00000   0.00000   3.14159
    D5       -0.00000  -0.00000   0.00000   0.00000   0.00000   0.00000
    D6        3.14159   0.00000   0.00000   0.00000   0.00000   3.14159
    D7        3.14159  -0.00000   0.00000  -0.00000   0.00000   3.14159
    D8        0.00000  -0.00000   0.00000  -0.00000   0.00000   0.00000
    D9       -0.00000  -0.00000   0.00000  -0.00000   0.00000   0.00000
   D10        3.14159   0.00000   0.00000   0.00000   0.00000   3.14159
   D11        3.14159  -0.00000   0.00000  -0.00000   0.00000   3.14159
   D12        0.00000  -0.00000   0.00000  -0.00000  -0.00000   0.00000
   D13        0.00000   0.00000   0.00000   0.00000   0.00000   0.00000
   D14        3.14159   0.00000   0.00000   0.00000   0.00000   3.14159
   D15        3.14159   0.00000   0.00000  -0.00000   0.00000   3.14159
   D16        0.00000   0.00000   0.00000  -0.00000   0.00000   0.00000
   D17       -0.00000  -0.00000   0.00000   0.00000   0.00000   0.00000
   D18        3.14159  -0.00000   0.00000   0.00000   0.00000   3.14159
   D19        3.14159  -0.00000   0.00000   0.00000   0.00000   3.14159
   D20       -0.00000  -0.00000   0.00000   0.00000   0.00000   0.00000
         Item               Value     Threshold  Converged?
 Maximum Force            0.015531     0.000450     NO 
 RMS     Force            0.003187     0.000300     NO 
 Maximum Displacement     0.060384     0.001800     NO 
 RMS     Displacement     0.016250     0.001200     NO 
 Predicted change in Energy=-1.302814D-03
 Lowest energy point so far.  Saving SCF results.
 GradGradGradGradGradGradGradGradGradGradGradGradGradGradGradGradGradGrad

 Leave Link  103 at Mon Sep 28 02:13:49 2026, MaxMem=  1610612736 cpu:               0.2 elap:               0.0
 (Enter /share/software/user/restricted/gaussian/g16.B01/l202.exe)
                          Input orientation:                          
 ---------------------------------------------------------------------
 Center     Atomic      Atomic             Coordinates (Angstroms)
 Number     Number       Type             X           Y           Z
 ---------------------------------------------------------------------
      1          6           0       -0.004879    1.485351   -0.000000
      2          6           0        1.134040    0.702415   -0.000000
      3          6           0        1.200996   -0.690715   -0.000000
      4          6           0        0.005913   -1.408086    0.000000
      5          6           0       -1.178364   -0.679920    0.000000
      6          6           0       -1.188319    0.715195    0.000000
      7         17           0        2.783628    1.517827   -0.000000
      8          1           0        2.149360   -1.222766   -0.000000
      9          1           0        0.001791   -2.490999    0.000000
     10         17           0       -2.737906   -1.598509    0.000000
     11          1           0       -2.166261    1.200206    0.000000
 ---------------------------------------------------------------------
                    Distance matrix (angstroms):
                    1          2          3          4          5
     1  C    0.000000
     2  C    1.382073   0.000000
     3  C    2.487851   1.394739   0.000000
     4  C    2.893458   2.393092   1.393859   0.000000
     5  C    2.462816   2.694079   2.379384   1.390230   0.000000
     6  C    1.411974   2.322394   2.772257   2.436086   1.395150
     7  Cl   2.788697   1.840119   2.717055   4.034436   4.530726
     8  H    3.460440   2.176510   1.087415   2.151443   3.371710
     9  H    3.976356   3.388198   2.163126   1.082921   2.161660
    10  Cl   4.120634   4.504022   4.042157   2.750418   1.809966
    11  H    2.180110   3.337632   3.861865   3.394337   2.123867
                    6          7          8          9         10
     6  C    0.000000
     7  Cl   4.052232   0.000000
     8  H    3.859507   2.813032   0.000000
     9  H    3.419948   4.879478   2.494086   0.000000
    10  Cl   2.784681   6.340259   4.901688   2.881402   0.000000
    11  H    1.091607   4.960070   4.949280   4.280823   2.856498
                   11
    11  H    0.000000
 Stoichiometry    C6H3Cl2(1-)
 Framework group  CS[SG(C6H3Cl2)]
 Deg. of freedom    19
 Full point group                 CS      NOp   2
 RotChk:  IX=3 Diff= 3.22D-03
 Largest Abelian subgroup         CS      NOp   2
 Largest concise Abelian subgroup C1      NOp   1
                         Standard orientation:                         
 ---------------------------------------------------------------------
 Center     Atomic      Atomic             Coordinates (Angstroms)
 Number     Number       Type             X           Y           Z
 ---------------------------------------------------------------------
      1          6           0        1.352615    0.711677    0.000000
      2          6           0        0.124070    1.344768   -0.000000
      3          6           0       -1.135016    0.744769   -0.000000
      4          6           0       -1.201746   -0.647492   -0.000000
      5          6           0       -0.000000   -1.346453    0.000000
      6          6           0        1.233871   -0.695295    0.000000
      7         17           0        0.062185    3.183846   -0.000000
      8          1           0       -2.052380    1.328648   -0.000000
      9          1           0       -2.153893   -1.163372   -0.000000
     10         17           0       -0.071613   -3.155001    0.000000
     11          1           0        2.123782   -1.327485    0.000000
 ---------------------------------------------------------------------
 Rotational constants (GHZ):           5.8319371           0.6522865           0.5866691
 Leave Link  202 at Mon Sep 28 02:13:49 2026, MaxMem=  1610612736 cpu:               0.0 elap:               0.0
 (Enter /share/software/user/restricted/gaussian/g16.B01/l301.exe)
 Standard basis: 6-311++G(d) (5D, 7F)
 Ernie: Thresh=  0.10000D-02 Tol=  0.10000D-05 Strict=F.
 There are   160 symmetry adapted cartesian basis functions of A'  symmetry.
 There are    52 symmetry adapted cartesian basis functions of A"  symmetry.
 There are   152 symmetry adapted basis functions of A'  symmetry.
 There are    52 symmetry adapted basis functions of A"  symmetry.
   204 basis functions,   340 primitive gaussians,   212 cartesian basis functions
    37 alpha electrons       37 beta electrons
       nuclear repulsion energy       429.4643030710 Hartrees.
 IExCor=  402 DFT=T Ex+Corr=B3LYP ExCW=0 ScaHFX=  0.200000
 ScaDFX=  0.800000  0.720000  1.000000  0.810000 ScalE2=  1.000000  1.000000
 IRadAn=      5 IRanWt=     -1 IRanGd=            0 ICorTp=0 IEmpDi=  4
 NAtoms=   11 NActive=   11 NUniq=   11 SFac= 1.00D+00 NAtFMM=   60 NAOKFM=F Big=F
 Integral buffers will be    131072 words long.
 Raffenetti 2 integral format.
 Two-electron integral symmetry is turned on.
 Leave Link  301 at Mon Sep 28 02:13:49 2026, MaxMem=  1610612736 cpu:               0.4 elap:               0.1
 (Enter /share/software/user/restricted/gaussian/g16.B01/l302.exe)
 NPDir=0 NMtPBC=     1 NCelOv=     1 NCel=       1 NClECP=     1 NCelD=      1
         NCelK=      1 NCelE2=     1 NClLst=     1 CellRange=     0.0.
 One-electron integrals computed using PRISM.
 One-electron integral symmetry used in STVInt
 NBasis=   204 RedAO= T EigKep=  1.73D-06  NBF=   152    52
 NBsUse=   204 1.00D-06 EigRej= -1.00D+00 NBFU=   152    52
 Precomputing XC quadrature grid using
 IXCGrd= 4 IRadAn=           5 IRanWt=          -1 IRanGd=           0 AccXCQ= 0.00D+00.
 Generated NRdTot=       0 NPtTot=           0 NUsed=           0 NTot=          32
 NSgBfM=   209   209   209   209   209 MxSgAt=    11 MxSgA2=    11.
 Leave Link  302 at Mon Sep 28 02:13:49 2026, MaxMem=  1610612736 cpu:               1.5 elap:               0.2
 (Enter /share/software/user/restricted/gaussian/g16.B01/l303.exe)
 DipDrv:  MaxL=1.
 Leave Link  303 at Mon Sep 28 02:13:49 2026, MaxMem=  1610612736 cpu:               0.3 elap:               0.0
 (Enter /share/software/user/restricted/gaussian/g16.B01/l401.exe)
 Initial guess from the checkpoint file:  "calcs/b3lyp_gas/chks/ClPh_25_anion.chk"
 B after Tr=    -0.000000   -0.000000    0.000000
         Rot=    1.000000   -0.000000   -0.000000   -0.000671 Ang=  -0.08 deg.
 Guess basis will be translated and rotated to current coordinates.
 JPrj=2 DoOrth=T DoCkMO=T.
 Initial guess orbital symmetries:
       Occupied  (A') (A') (A') (A') (A') (A') (A') (A') (A') (A')
                 (A') (A") (A') (A') (A") (A') (A') (A') (A') (A')
                 (A') (A') (A') (A') (A') (A') (A') (A') (A") (A")
                 (A') (A') (A") (A') (A") (A") (A')
       Virtual   (A') (A') (A') (A") (A') (A") (A') (A") (A') (A')
                 (A') (A") (A') (A') (A") (A') (A') (A') (A") (A')
                 (A') (A") (A') (A") (A") (A') (A') (A') (A") (A')
                 (A') (A") (A') (A') (A') (A') (A') (A') (A') (A')
                 (A') (A') (A') (A') (A') (A') (A') (A') (A') (A")
                 (A') (A") (A') (A') (A') (A') (A") (A') (A") (A")
                 (A') (A") (A") (A') (A') (A') (A") (A') (A') (A')
                 (A') (A') (A") (A') (A") (A') (A') (A') (A") (A')
                 (A') (A") (A') (A') (A') (A') (A') (A') (A") (A')
                 (A') (A") (A') (A") (A') (A") (A') (A') (A") (A")
                 (A') (A') (A') (A') (A') (A') (A") (A") (A') (A')
                 (A') (A") (A") (A") (A') (A') (A') (A') (A') (A")
                 (A') (A") (A') (A") (A') (A') (A') (A') (A') (A')
                 (A') (A") (A") (A") (A') (A") (A") (A') (A") (A')
                 (A') (A') (A') (A') (A') (A') (A') (A') (A') (A')
                 (A') (A') (A') (A') (A') (A') (A') (A') (A') (A")
                 (A") (A') (A') (A') (A') (A') (A')
 The electronic state of the initial guess is 1-A'.
 Generating alternative initial guess.
 ExpMin= 3.60D-02 ExpMax= 1.06D+05 ExpMxC= 3.62D+03 IAcc=3 IRadAn=         5 AccDes= 0.00D+00
 Harris functional with IExCor=  402 and IRadAn=       5 diagonalized for initial guess.
 HarFok:  IExCor=  402 AccDes= 0.00D+00 IRadAn=         5 IDoV= 1 UseB2=F ITyADJ=14
 ICtDFT=  3500011 ScaDFX=  1.000000  1.000000  1.000000  1.000000
 FoFCou: FMM=F IPFlag=           0 FMFlag=      100000 FMFlg1=           0
         NFxFlg=           0 DoJE=T BraDBF=F KetDBF=T FulRan=T
         wScrn=  0.000000 ICntrl=       500 IOpCl=  0 I1Cent=   200000004 NGrid=           0
         NMat0=    1 NMatS0=      1 NMatT0=    0 NMatD0=    1 NMtDS0=    0 NMtDT0=    0
 Petite list used in FoFCou.
 Harris En= -1150.97021287084    
 Leave Link  401 at Mon Sep 28 02:13:50 2026, MaxMem=  1610612736 cpu:               6.0 elap:               0.8
 (Enter /share/software/user/restricted/gaussian/g16.B01/l502.exe)
 Keep R1 ints in memory in symmetry-blocked form, NReq=334495850.
 FoFCou: FMM=F IPFlag=           0 FMFlag=           0 FMFlg1=           0
         NFxFlg=           0 DoJE=F BraDBF=F KetDBF=F FulRan=T
         wScrn=  0.000000 ICntrl=       600 IOpCl=  0 I1Cent=           0 NGrid=           0
         NMat0=    1 NMatS0=  20910 NMatT0=    0 NMatD0=    1 NMtDS0=    0 NMtDT0=    0
 Petite list used in FoFCou.
 Closed shell SCF:
 Using DIIS extrapolation, IDIIS=  1040.
 NGot=  1610612736 LenX=  1494649070 LenY=  1494603685
 Requested convergence on RMS density matrix=1.00D-08 within 128 cycles.
 Requested convergence on MAX density matrix=1.00D-06.
 Requested convergence on             energy=1.00D-06.
 No special actions if energy rises.

 Cycle   1  Pass 1  IDiag  1:
 E= -1150.93456910724    
 DIIS: error= 1.93D-03 at cycle   1 NSaved=   1.
 NSaved= 1 IEnMin= 1 EnMin= -1150.93456910724     IErMin= 1 ErrMin= 1.93D-03
 ErrMax= 1.93D-03  0.00D+00 EMaxC= 1.00D-01 BMatC= 1.52D-03 BMatP= 1.52D-03
 IDIUse=3 WtCom= 9.81D-01 WtEn= 1.93D-02
 Coeff-Com:  0.100D+01
 Coeff-En:   0.100D+01
 Coeff:      0.100D+01
 Gap=     0.138 Goal=   None    Shift=    0.000
 GapD=    0.138 DampG=1.000 DampE=1.000 DampFc=1.0000 IDamp=-1.
 RMSDP=2.56D-02 MaxDP=1.70D+00              OVMax= 2.77D-02

 Cycle   2  Pass 1  IDiag  1:
 E= -1150.93695844937     Delta-E=       -0.002389342135 Rises=F Damp=F
 DIIS: error= 1.39D-03 at cycle   2 NSaved=   2.
 NSaved= 2 IEnMin= 2 EnMin= -1150.93695844937     IErMin= 2 ErrMin= 1.39D-03
 ErrMax= 1.39D-03  0.00D+00 EMaxC= 1.00D-01 BMatC= 3.32D-04 BMatP= 1.52D-03
 IDIUse=3 WtCom= 9.86D-01 WtEn= 1.39D-02
 Coeff-Com:  0.213D+00 0.787D+00
 Coeff-En:   0.000D+00 0.100D+01
 Coeff:      0.210D+00 0.790D+00
 Gap=     0.126 Goal=   None    Shift=    0.000
 RMSDP=2.38D-03 MaxDP=1.69D-01 DE=-2.39D-03 OVMax= 8.28D-03

 Cycle   3  Pass 1  IDiag  1:
 E= -1150.93706466237     Delta-E=       -0.000106213003 Rises=F Damp=F
 DIIS: error= 1.38D-03 at cycle   3 NSaved=   3.
 NSaved= 3 IEnMin= 3 EnMin= -1150.93706466237     IErMin= 3 ErrMin= 1.38D-03
 ErrMax= 1.38D-03  0.00D+00 EMaxC= 1.00D-01 BMatC= 2.53D-04 BMatP= 3.32D-04
 IDIUse=3 WtCom= 9.86D-01 WtEn= 1.38D-02
 Coeff-Com: -0.739D-02 0.466D+00 0.541D+00
 Coeff-En:   0.000D+00 0.420D+00 0.580D+00
 Coeff:     -0.728D-02 0.466D+00 0.542D+00
 Gap=     0.125 Goal=   None    Shift=    0.000
 RMSDP=1.65D-03 MaxDP=1.50D-01 DE=-1.06D-04 OVMax= 4.35D-03

 Cycle   4  Pass 1  IDiag  1:
 E= -1150.93730489678     Delta-E=       -0.000240234404 Rises=F Damp=F
 DIIS: error= 3.58D-04 at cycle   4 NSaved=   4.
 NSaved= 4 IEnMin= 4 EnMin= -1150.93730489678     IErMin= 4 ErrMin= 3.58D-04
 ErrMax= 3.58D-04  0.00D+00 EMaxC= 1.00D-01 BMatC= 1.52D-05 BMatP= 2.53D-04
 IDIUse=3 WtCom= 9.96D-01 WtEn= 3.58D-03
 Coeff-Com: -0.116D-01 0.242D+00 0.307D+00 0.463D+00
 Coeff-En:   0.000D+00 0.000D+00 0.000D+00 0.100D+01
 Coeff:     -0.115D-01 0.241D+00 0.306D+00 0.465D+00
 Gap=     0.126 Goal=   None    Shift=    0.000
 RMSDP=6.91D-04 MaxDP=5.31D-02 DE=-2.40D-04 OVMax= 1.44D-03

 Cycle   5  Pass 1  IDiag  1:
 E= -1150.93732003674     Delta-E=       -0.000015139959 Rises=F Damp=F
 DIIS: error= 1.57D-04 at cycle   5 NSaved=   5.
 NSaved= 5 IEnMin= 5 EnMin= -1150.93732003674     IErMin= 5 ErrMin= 1.57D-04
 ErrMax= 1.57D-04  0.00D+00 EMaxC= 1.00D-01 BMatC= 1.28D-06 BMatP= 1.52D-05
 IDIUse=3 WtCom= 9.98D-01 WtEn= 1.57D-03
 Coeff-Com: -0.603D-02 0.985D-01 0.121D+00 0.260D+00 0.527D+00
 Coeff-En:   0.000D+00 0.000D+00 0.000D+00 0.000D+00 0.100D+01
 Coeff:     -0.602D-02 0.983D-01 0.121D+00 0.259D+00 0.528D+00
 Gap=     0.126 Goal=   None    Shift=    0.000
 RMSDP=1.50D-04 MaxDP=1.20D-02 DE=-1.51D-05 OVMax= 5.87D-04

 Cycle   6  Pass 1  IDiag  1:
 E= -1150.93732111281     Delta-E=       -0.000001076074 Rises=F Damp=F
 DIIS: error= 6.19D-05 at cycle   6 NSaved=   6.
 NSaved= 6 IEnMin= 6 EnMin= -1150.93732111281     IErMin= 6 ErrMin= 6.19D-05
 ErrMax= 6.19D-05  0.00D+00 EMaxC= 1.00D-01 BMatC= 2.78D-07 BMatP= 1.28D-06
 IDIUse=1 WtCom= 1.00D+00 WtEn= 0.00D+00
 Coeff-Com: -0.166D-02 0.190D-01 0.184D-01 0.777D-01 0.348D+00 0.538D+00
 Coeff:     -0.166D-02 0.190D-01 0.184D-01 0.777D-01 0.348D+00 0.538D+00
 Gap=     0.126 Goal=   None    Shift=    0.000
 RMSDP=7.70D-05 MaxDP=7.93D-03 DE=-1.08D-06 OVMax= 1.96D-04

 Cycle   7  Pass 1  IDiag  1:
 E= -1150.93732142186     Delta-E=       -0.000000309045 Rises=F Damp=F
 DIIS: error= 9.31D-06 at cycle   7 NSaved=   7.
 NSaved= 7 IEnMin= 7 EnMin= -1150.93732142186     IErMin= 7 ErrMin= 9.31D-06
 ErrMax= 9.31D-06  0.00D+00 EMaxC= 1.00D-01 BMatC= 1.02D-08 BMatP= 2.78D-07
 IDIUse=1 WtCom= 1.00D+00 WtEn= 0.00D+00
 Coeff-Com: -0.375D-03 0.220D-02 0.120D-02 0.205D-01 0.128D+00 0.254D+00
 Coeff-Com:  0.594D+00
 Coeff:     -0.375D-03 0.220D-02 0.120D-02 0.205D-01 0.128D+00 0.254D+00
 Coeff:      0.594D+00
 Gap=     0.126 Goal=   None    Shift=    0.000
 RMSDP=5.04D-05 MaxDP=4.13D-03 DE=-3.09D-07 OVMax= 5.22D-05

 Cycle   8  Pass 1  IDiag  1:
 E= -1150.93732143048     Delta-E=       -0.000000008627 Rises=F Damp=F
 DIIS: error= 5.35D-06 at cycle   8 NSaved=   8.
 NSaved= 8 IEnMin= 8 EnMin= -1150.93732143048     IErMin= 8 ErrMin= 5.35D-06
 ErrMax= 5.35D-06  0.00D+00 EMaxC= 1.00D-01 BMatC= 2.40D-09 BMatP= 1.02D-08
 IDIUse=1 WtCom= 1.00D+00 WtEn= 0.00D+00
 Coeff-Com:  0.966D-05-0.159D-02-0.165D-02 0.542D-03 0.219D-01 0.681D-01
 Coeff-Com:  0.359D+00 0.554D+00
 Coeff:      0.966D-05-0.159D-02-0.165D-02 0.542D-03 0.219D-01 0.681D-01
 Coeff:      0.359D+00 0.554D+00
 Gap=     0.126 Goal=   None    Shift=    0.000
 RMSDP=6.42D-06 MaxDP=2.76D-04 DE=-8.63D-09 OVMax= 2.45D-05

 Cycle   9  Pass 1  IDiag  1:
 E= -1150.93732143287     Delta-E=       -0.000000002391 Rises=F Damp=F
 DIIS: error= 2.47D-06 at cycle   9 NSaved=   9.
 NSaved= 9 IEnMin= 9 EnMin= -1150.93732143287     IErMin= 9 ErrMin= 2.47D-06
 ErrMax= 2.47D-06  0.00D+00 EMaxC= 1.00D-01 BMatC= 3.12D-10 BMatP= 2.40D-09
 IDIUse=1 WtCom= 1.00D+00 WtEn= 0.00D+00
 Coeff-Com:  0.323D-04-0.117D-02-0.103D-02-0.121D-02 0.295D-02 0.212D-01
 Coeff-Com:  0.179D+00 0.353D+00 0.448D+00
 Coeff:      0.323D-04-0.117D-02-0.103D-02-0.121D-02 0.295D-02 0.212D-01
 Coeff:      0.179D+00 0.353D+00 0.448D+00
 Gap=     0.126 Goal=   None    Shift=    0.000
 RMSDP=1.91D-06 MaxDP=1.15D-04 DE=-2.39D-09 OVMax= 8.38D-06

 Cycle  10  Pass 1  IDiag  1:
 E= -1150.93732143322     Delta-E=       -0.000000000344 Rises=F Damp=F
 DIIS: error= 4.84D-07 at cycle  10 NSaved=  10.
 NSaved=10 IEnMin=10 EnMin= -1150.93732143322     IErMin=10 ErrMin= 4.84D-07
 ErrMax= 4.84D-07  0.00D+00 EMaxC= 1.00D-01 BMatC= 1.86D-11 BMatP= 3.12D-10
 IDIUse=1 WtCom= 1.00D+00 WtEn= 0.00D+00
 Coeff-Com:  0.189D-04-0.483D-03-0.386D-03-0.714D-03-0.944D-03 0.379D-02
 Coeff-Com:  0.560D-01 0.126D+00 0.236D+00 0.581D+00
 Coeff:      0.189D-04-0.483D-03-0.386D-03-0.714D-03-0.944D-03 0.379D-02
 Coeff:      0.560D-01 0.126D+00 0.236D+00 0.581D+00
 Gap=     0.126 Goal=   None    Shift=    0.000
 RMSDP=4.46D-07 MaxDP=2.31D-05 DE=-3.44D-10 OVMax= 2.29D-06

 Cycle  11  Pass 1  IDiag  1:
 E= -1150.93732143324     Delta-E=       -0.000000000022 Rises=F Damp=F
 DIIS: error= 1.32D-07 at cycle  11 NSaved=  11.
 NSaved=11 IEnMin=11 EnMin= -1150.93732143324     IErMin=11 ErrMin= 1.32D-07
 ErrMax= 1.32D-07  0.00D+00 EMaxC= 1.00D-01 BMatC= 2.40D-12 BMatP= 1.86D-11
 IDIUse=1 WtCom= 1.00D+00 WtEn= 0.00D+00
 Coeff-Com:  0.432D-05-0.664D-04-0.348D-04-0.169D-03-0.101D-02-0.129D-02
 Coeff-Com:  0.210D-02 0.112D-01 0.520D-01 0.301D+00 0.636D+00
 Coeff:      0.432D-05-0.664D-04-0.348D-04-0.169D-03-0.101D-02-0.129D-02
 Coeff:      0.210D-02 0.112D-01 0.520D-01 0.301D+00 0.636D+00
 Gap=     0.126 Goal=   None    Shift=    0.000
 RMSDP=4.48D-07 MaxDP=2.70D-05 DE=-2.16D-11 OVMax= 6.95D-07

 Cycle  12  Pass 1  IDiag  1:
 E= -1150.93732143324     Delta-E=        0.000000000004 Rises=F Damp=F
 DIIS: error= 2.20D-08 at cycle  12 NSaved=  12.
 NSaved=12 IEnMin=11 EnMin= -1150.93732143324     IErMin=12 ErrMin= 2.20D-08
 ErrMax= 2.20D-08  0.00D+00 EMaxC= 1.00D-01 BMatC= 1.43D-13 BMatP= 2.40D-12
 IDIUse=1 WtCom= 1.00D+00 WtEn= 0.00D+00
 Coeff-Com:  0.357D-06 0.148D-04 0.128D-04-0.500D-05-0.273D-03-0.814D-03
 Coeff-Com: -0.410D-02-0.789D-02-0.219D-02 0.592D-01 0.250D+00 0.706D+00
 Coeff:      0.357D-06 0.148D-04 0.128D-04-0.500D-05-0.273D-03-0.814D-03
 Coeff:     -0.410D-02-0.789D-02-0.219D-02 0.592D-01 0.250D+00 0.706D+00
 Gap=     0.126 Goal=   None    Shift=    0.000
 RMSDP=2.86D-07 MaxDP=2.07D-05 DE= 3.64D-12 OVMax= 2.54D-07

 Cycle  13  Pass 1  IDiag  1:
 E= -1150.93732143323     Delta-E=        0.000000000004 Rises=F Damp=F
 DIIS: error= 7.80D-09 at cycle  13 NSaved=  13.
 NSaved=13 IEnMin=11 EnMin= -1150.93732143324     IErMin=13 ErrMin= 7.80D-09
 ErrMax= 7.80D-09  0.00D+00 EMaxC= 1.00D-01 BMatC= 1.11D-14 BMatP= 1.43D-13
 IDIUse=1 WtCom= 1.00D+00 WtEn= 0.00D+00
 Coeff-Com: -0.142D-06 0.965D-05 0.684D-05 0.105D-04-0.432D-04-0.232D-03
 Coeff-Com: -0.147D-02-0.345D-02-0.326D-02 0.521D-02 0.555D-01 0.275D+00
 Coeff-Com:  0.673D+00
 Coeff:     -0.142D-06 0.965D-05 0.684D-05 0.105D-04-0.432D-04-0.232D-03
 Coeff:     -0.147D-02-0.345D-02-0.326D-02 0.521D-02 0.555D-01 0.275D+00
 Coeff:      0.673D+00
 Gap=     0.126 Goal=   None    Shift=    0.000
 RMSDP=1.73D-08 MaxDP=1.33D-06 DE= 4.09D-12 OVMax= 6.31D-08

 Cycle  14  Pass 1  IDiag  1:
 E= -1150.93732143323     Delta-E=       -0.000000000001 Rises=F Damp=F
 DIIS: error= 4.44D-09 at cycle  14 NSaved=  14.
 NSaved=14 IEnMin=11 EnMin= -1150.93732143324     IErMin=14 ErrMin= 4.44D-09
 ErrMax= 4.44D-09  0.00D+00 EMaxC= 1.00D-01 BMatC= 2.52D-15 BMatP= 1.11D-14
 IDIUse=1 WtCom= 1.00D+00 WtEn= 0.00D+00
 Coeff-Com: -0.117D-06 0.438D-05 0.291D-05 0.667D-05-0.247D-05-0.688D-04
 Coeff-Com: -0.514D-03-0.138D-02-0.198D-02-0.351D-02 0.553D-02 0.867D-01
 Coeff-Com:  0.384D+00 0.532D+00
 Coeff:     -0.117D-06 0.438D-05 0.291D-05 0.667D-05-0.247D-05-0.688D-04
 Coeff:     -0.514D-03-0.138D-02-0.198D-02-0.351D-02 0.553D-02 0.867D-01
 Coeff:      0.384D+00 0.532D+00
 Gap=     0.126 Goal=   None    Shift=    0.000
 RMSDP=1.17D-08 MaxDP=8.44D-07 DE=-1.14D-12 OVMax= 2.43D-08

 Cycle  15  Pass 1  IDiag  1:
 E= -1150.93732143324     Delta-E=       -0.000000000007 Rises=F Damp=F
 DIIS: error= 5.81D-10 at cycle  15 NSaved=  15.
 NSaved=15 IEnMin=11 EnMin= -1150.93732143324     IErMin=15 ErrMin= 5.81D-10
 ErrMax= 5.81D-10  0.00D+00 EMaxC= 1.00D-01 BMatC= 7.31D-17 BMatP= 2.52D-15
 IDIUse=1 WtCom= 1.00D+00 WtEn= 0.00D+00
 Coeff-Com: -0.260D-07 0.244D-06 0.307D-06 0.128D-05 0.552D-05 0.101D-04
 Coeff-Com:  0.462D-04 0.332D-04-0.232D-03-0.192D-02-0.676D-02-0.994D-02
 Coeff-Com:  0.456D-01 0.168D+00 0.805D+00
 Coeff:     -0.260D-07 0.244D-06 0.307D-06 0.128D-05 0.552D-05 0.101D-04
 Coeff:      0.462D-04 0.332D-04-0.232D-03-0.192D-02-0.676D-02-0.994D-02
 Coeff:      0.456D-01 0.168D+00 0.805D+00
 Gap=     0.126 Goal=   None    Shift=    0.000
 RMSDP=1.32D-08 MaxDP=8.96D-07 DE=-6.59D-12 OVMax= 4.83D-09

 Cycle  16  Pass 1  IDiag  1:
 E= -1150.93732143323     Delta-E=        0.000000000012 Rises=F Damp=F
 DIIS: error= 1.40D-10 at cycle  16 NSaved=  16.
 NSaved=16 IEnMin=11 EnMin= -1150.93732143324     IErMin=16 ErrMin= 1.40D-10
 ErrMax= 1.40D-10  0.00D+00 EMaxC= 1.00D-01 BMatC= 1.76D-18 BMatP= 7.31D-17
 IDIUse=1 WtCom= 1.00D+00 WtEn= 0.00D+00
 Large coefficients: NSaved= 16 BigCof=    0.00 CofMax=   10.00 Det=-1.85D-17
 Inversion failed.  Reducing to 15 matrices.
 Coeff-Com: -0.695D-07-0.207D-07 0.117D-06 0.109D-05 0.370D-05 0.239D-04
 Coeff-Com:  0.375D-04-0.418D-05-0.341D-03-0.167D-02-0.371D-02 0.624D-02
 Coeff-Com:  0.319D-01 0.217D+00 0.751D+00
 Coeff:     -0.695D-07-0.207D-07 0.117D-06 0.109D-05 0.370D-05 0.239D-04
 Coeff:      0.375D-04-0.418D-05-0.341D-03-0.167D-02-0.371D-02 0.624D-02
 Coeff:      0.319D-01 0.217D+00 0.751D+00
 Gap=     0.126 Goal=   None    Shift=    0.000
 RMSDP=5.27D-09 MaxDP=4.31D-07 DE= 1.16D-11 OVMax= 6.64D-10

 SCF Done:  E(RB3LYP) =  -1150.93732143     A.U. after   16 cycles
            NFock= 16  Conv=0.53D-08     -V/T= 2.0027
 KE= 1.147783373322D+03 PE=-3.594384823332D+03 EE= 8.661998255059D+02
 Leave Link  502 at Mon Sep 28 02:14:07 2026, MaxMem=  1610612736 cpu:             115.8 elap:              16.3
 (Enter /share/software/user/restricted/gaussian/g16.B01/l701.exe)
 ... and contract with generalized density number  0.
 Compute integral first derivatives.
 Leave Link  701 at Mon Sep 28 02:14:07 2026, MaxMem=  1610612736 cpu:               1.8 elap:               0.3
 (Enter /share/software/user/restricted/gaussian/g16.B01/l702.exe)
 L702 exits ... SP integral derivatives will be done elsewhere.
 Leave Link  702 at Mon Sep 28 02:14:07 2026, MaxMem=  1610612736 cpu:               0.2 elap:               0.0
 (Enter /share/software/user/restricted/gaussian/g16.B01/l703.exe)
 Integral derivatives from FoFJK, PRISM(SPDF).
 Compute integral first derivatives, UseDBF=F ICtDFT=           0.
 Calling FoFJK, ICntrl=      2127 FMM=F ISym2X=1 I1Cent= 0 IOpClX= 0 NMat=1 NMatS=1 NMatT=0.
 FoFJK:  IHMeth= 1 ICntrl=    2127 DoSepK=F KAlg= 0 I1Cent=           0 FoldK=F
 IRaf=         0 NMat=       1 IRICut=       1 DoRegI=T DoRafI=F ISym2E= 1 IDoP0=0 IntGTp=1.
 FoFCou: FMM=F IPFlag=           0 FMFlag=      100000 FMFlg1=         800
         NFxFlg=           0 DoJE=F BraDBF=F KetDBF=F FulRan=T
         wScrn=  0.000000 ICntrl=      2127 IOpCl=  0 I1Cent=           0 NGrid=           0
         NMat0=    1 NMatS0=      1 NMatT0=    0 NMatD0=    1 NMtDS0=    0 NMtDT0=    0
 Petite list used in FoFCou.
 Leave Link  703 at Mon Sep 28 02:14:10 2026, MaxMem=  1610612736 cpu:              25.7 elap:               3.2
 (Enter /share/software/user/restricted/gaussian/g16.B01/l716.exe)
 Dipole        =-1.58063112D+00-1.12465051D+00-3.63343202D-32
 ***** Axes restored to original set *****
 -------------------------------------------------------------------
 Center     Atomic                   Forces (Hartrees/Bohr)
 Number     Number              X              Y              Z
 -------------------------------------------------------------------
      1        6           0.004234217   -0.003885288   -0.000000000
      2        6          -0.008646743   -0.000654149    0.000000000
      3        6           0.002791354    0.000979219   -0.000000000
      4        6          -0.002185961   -0.000524334    0.000000000
      5        6           0.002287115    0.002740047   -0.000000000
      6        6          -0.004217918   -0.001342737    0.000000000
      7       17           0.004918361    0.002432186   -0.000000000
      8        1           0.000472342    0.000163269   -0.000000000
      9        1          -0.000064173   -0.001010202    0.000000000
     10       17           0.000321901    0.000202154   -0.000000000
     11        1           0.000089506    0.000899835   -0.000000000
 -------------------------------------------------------------------
 Cartesian Forces:  Max     0.008646743 RMS     0.002378546
 Leave Link  716 at Mon Sep 28 02:14:11 2026, MaxMem=  1610612736 cpu:               0.2 elap:               0.0
 (Enter /share/software/user/restricted/gaussian/g16.B01/l103.exe)

 GradGradGradGradGradGradGradGradGradGradGradGradGradGradGradGradGradGrad
 Berny optimization.
 Using GEDIIS/GDIIS optimizer.
 FormGI is forming the generalized inverse of G from B-inverse, IUseBI=4.
 Internal  Forces:  Max     0.005486870 RMS     0.001287781
 Search for a local minimum.
 Step number   3 out of a maximum of   57
 All quantities printed in internal units (Hartrees-Bohrs-Radians)
 RMS Force = .12878D-02 SwitMx=.10000D-02 MixMth= 1
 Mixed Optimization -- RFO/linear search
 Update second derivatives using D2CorX and points    1    2    3
 DE= -1.72D-03 DEPred=-1.30D-03 R= 1.32D+00
 TightC=F SS=  1.41D+00  RLast= 1.37D-01 DXNew= 8.4853D-01 4.1201D-01
 Trust test= 1.32D+00 RLast= 1.37D-01 DXMaxT set to 5.05D-01
 ITU=  1  1  0
 Use linear search instead of GDIIS.
     Eigenvalues ---    0.02112   0.02119   0.02120   0.02126   0.02135
     Eigenvalues ---    0.02153   0.02164   0.02201   0.12010   0.16030
     Eigenvalues ---    0.16059   0.16225   0.22570   0.24899   0.24997
     Eigenvalues ---    0.25431   0.28009   0.33325   0.33885   0.33952
     Eigenvalues ---    0.35252   0.41931   0.44250   0.46004   0.46459
     Eigenvalues ---    0.46756   0.48617
 RFO step:  Lambda=-2.48871504D-04 EMin= 2.11191350D-02
 Quartic linear search produced a step of  0.26525.
 Iteration  1 RMS(Cart)=  0.00590510 RMS(Int)=  0.00002002
 Iteration  2 RMS(Cart)=  0.00002255 RMS(Int)=  0.00001164
 Iteration  3 RMS(Cart)=  0.00000000 RMS(Int)=  0.00001164
 ITry= 1 IFail=0 DXMaxC= 2.47D-02 DCOld= 1.00D+10 DXMaxT= 5.05D-01 DXLimC= 3.00D+00 Rises=F
 ClnCor:  largest displacement from symmetrization is 1.24D-11 for atom     9.
 Variable       Old X    -DE/DX   Delta X   Delta X   Delta X     New X
                                 (Linear)    (Quad)   (Total)
    R1        2.61174  -0.00365  -0.00316  -0.00785  -0.01099   2.60075
    R2        2.66824   0.00054   0.00335   0.00118   0.00452   2.67277
    R3        2.63567  -0.00068  -0.00235  -0.00046  -0.00280   2.63288
    R4        3.47732   0.00549   0.02485   0.01633   0.04118   3.51850
    R5        2.63401   0.00213  -0.00054   0.00598   0.00544   2.63945
    R6        2.05492   0.00033  -0.00159   0.00094  -0.00065   2.05426
    R7        2.62715   0.00058  -0.00085   0.00131   0.00043   2.62759
    R8        2.04642   0.00101  -0.00122   0.00268   0.00146   2.04789
    R9        2.63645  -0.00180  -0.00156  -0.00361  -0.00518   2.63127
   R10        3.42034  -0.00038   0.01549  -0.00244   0.01304   3.43338
   R11        2.06284   0.00032  -0.00025   0.00042   0.00016   2.06300
    A1        1.96243   0.00234  -0.00957   0.01164   0.00209   1.96451
    A2        2.22107   0.00062   0.01170  -0.00162   0.01011   2.23118
    A3        2.08026  -0.00031  -0.00212   0.00012  -0.00202   2.07824
    A4        1.98186  -0.00031  -0.00958   0.00150  -0.00810   1.97376
    A5        2.06339  -0.00151  -0.00358  -0.00513  -0.00870   2.05469
    A6        2.13008   0.00037   0.00111   0.00003   0.00113   2.13121
    A7        2.08971   0.00114   0.00247   0.00510   0.00757   2.09728
    A8        2.04970  -0.00032  -0.00439   0.00164  -0.00276   2.04694
    A9        2.11522   0.00022   0.00155   0.00059   0.00215   2.11737
   A10        2.11827   0.00010   0.00284  -0.00223   0.00061   2.11888
   A11        2.12921   0.00143   0.00545   0.00467   0.01009   2.13929
   A12        2.05802  -0.00070  -0.00214  -0.00263  -0.00475   2.05326
   A13        2.09596  -0.00073  -0.00331  -0.00204  -0.00533   2.09063
   A14        2.14058  -0.00256   0.00039  -0.01120  -0.01083   2.12975
   A15        2.10427   0.00041   0.00255  -0.00022   0.00234   2.10661
   A16        2.03833   0.00215  -0.00294   0.01142   0.00850   2.04683
    D1        0.00000  -0.00000   0.00000  -0.00000  -0.00000   0.00000
    D2        3.14159  -0.00000   0.00000  -0.00000   0.00000   3.14159
    D3       -0.00000   0.00000   0.00000   0.00000   0.00000   0.00000
    D4        3.14159   0.00000   0.00000   0.00000   0.00000   3.14159
    D5       -0.00000   0.00000   0.00000  -0.00000   0.00000   0.00000
    D6        3.14159  -0.00000   0.00000  -0.00000   0.00000   3.14159
    D7        3.14159   0.00000   0.00000   0.00000   0.00000   3.14159
    D8        0.00000   0.00000   0.00000   0.00000   0.00000   0.00000
    D9        0.00000   0.00000   0.00000   0.00000   0.00000   0.00000
   D10        3.14159  -0.00000   0.00000   0.00000   0.00000   3.14159
   D11        3.14159   0.00000   0.00000   0.00000   0.00000   3.14159
   D12       -0.00000   0.00000   0.00000   0.00000   0.00000   0.00000
   D13       -0.00000  -0.00000   0.00000  -0.00000   0.00000   0.00000
   D14        3.14159  -0.00000   0.00000  -0.00000   0.00000   3.14159
   D15        3.14159  -0.00000   0.00000  -0.00000   0.00000   3.14159
   D16        0.00000  -0.00000   0.00000   0.00000   0.00000   0.00000
   D17        0.00000   0.00000   0.00000   0.00000  -0.00000   0.00000
   D18        3.14159   0.00000   0.00000  -0.00000   0.00000   3.14159
   D19        3.14159   0.00000   0.00000  -0.00000   0.00000   3.14159
   D20        0.00000  -0.00000   0.00000  -0.00000   0.00000   0.00000
         Item               Value     Threshold  Converged?
 Maximum Force            0.005487     0.000450     NO 
 RMS     Force            0.001288     0.000300     NO 
 Maximum Displacement     0.024724     0.001800     NO 
 RMS     Displacement     0.005903     0.001200     NO 
 Predicted change in Energy=-1.858857D-04
 Lowest energy point so far.  Saving SCF results.
 GradGradGradGradGradGradGradGradGradGradGradGradGradGradGradGradGradGrad

 Leave Link  103 at Mon Sep 28 02:14:11 2026, MaxMem=  1610612736 cpu:               0.1 elap:               0.0
 (Enter /share/software/user/restricted/gaussian/g16.B01/l202.exe)
                          Input orientation:                          
 ---------------------------------------------------------------------
 Center     Atomic      Atomic             Coordinates (Angstroms)
 Number     Number       Type             X           Y           Z
 ---------------------------------------------------------------------
      1          6           0       -0.004994    1.481311   -0.000000
      2          6           0        1.126989    0.698562   -0.000000
      3          6           0        1.204130   -0.692559   -0.000000
      4          6           0        0.005628   -1.409825    0.000000
      5          6           0       -1.175860   -0.676706    0.000000
      6          6           0       -1.194152    0.715583    0.000000
      7         17           0        2.796712    1.522418   -0.000000
      8          1           0        2.155495   -1.218512   -0.000000
      9          1           0       -0.002257   -2.493493    0.000000
     10         17           0       -2.740731   -1.599847    0.000000
     11          1           0       -2.170960    1.203069    0.000000
 ---------------------------------------------------------------------
                    Distance matrix (angstroms):
                    1          2          3          4          5
     1  C    0.000000
     2  C    1.376256   0.000000
     3  C    2.487507   1.393259   0.000000
     4  C    2.891156   2.388043   1.396738   0.000000
     5  C    2.455191   2.682251   2.380042   1.390460   0.000000
     6  C    1.414368   2.321204   2.781119   2.440662   1.392409
     7  Cl   2.802007   1.861911   2.728083   4.048234   4.540646
     8  H    3.457854   2.175545   1.087070   2.158362   3.375126
     9  H    3.974804   3.385914   2.167656   1.083696   2.162882
    10  Cl   4.120411   4.499105   4.047851   2.752925   1.816869
    11  H    2.183765   3.336314   3.871000   3.400699   2.126917
                    6          7          8          9         10
     6  C    0.000000
     7  Cl   4.071606   0.000000
     8  H    3.867927   2.814934   0.000000
     9  H    3.423270   4.895075   2.506286   0.000000
    10  Cl   2.784443   6.357028   4.911054   2.880598   0.000000
    11  H    1.091694   4.977926   4.958051   4.285771   2.860240
                   11
    11  H    0.000000
 Stoichiometry    C6H3Cl2(1-)
 Framework group  CS[SG(C6H3Cl2)]
 Deg. of freedom    19
 Full point group                 CS      NOp   2
 RotChk:  IX=2 Diff= 1.32D-01
 Largest Abelian subgroup         CS      NOp   2
 Largest concise Abelian subgroup C1      NOp   1
                         Standard orientation:                         
 ---------------------------------------------------------------------
 Center     Atomic      Atomic             Coordinates (Angstroms)
 Number     Number       Type             X           Y           Z
 ---------------------------------------------------------------------
      1          6           0        1.278093    0.830491   -0.000000
      2          6           0        0.000000    1.340940    0.000000
      3          6           0       -1.201804    0.636074    0.000000
      4          6           0       -1.136822   -0.759151    0.000000
      5          6           0        0.127289   -1.338290   -0.000000
      6          6           0        1.297529   -0.583743   -0.000000
      7         17           0       -0.236702    3.187744    0.000000
      8          1           0       -2.166060    1.138004    0.000000
      9          1           0       -2.035430   -1.364876    0.000000
     10         17           0        0.223289   -3.152621   -0.000000
     11          1           0        2.243799   -1.128142   -0.000000
 ---------------------------------------------------------------------
 Rotational constants (GHZ):           5.8229004           0.6493695           0.5842176
 Leave Link  202 at Mon Sep 28 02:14:11 2026, MaxMem=  1610612736 cpu:               0.0 elap:               0.0
 (Enter /share/software/user/restricted/gaussian/g16.B01/l301.exe)
 Standard basis: 6-311++G(d) (5D, 7F)
 Ernie: Thresh=  0.10000D-02 Tol=  0.10000D-05 Strict=F.
 There are   160 symmetry adapted cartesian basis functions of A'  symmetry.
 There are    52 symmetry adapted cartesian basis functions of A"  symmetry.
 There are   152 symmetry adapted basis functions of A'  symmetry.
 There are    52 symmetry adapted basis functions of A"  symmetry.
   204 basis functions,   340 primitive gaussians,   212 cartesian basis functions
    37 alpha electrons       37 beta electrons
       nuclear repulsion energy       428.6638022111 Hartrees.
 IExCor=  402 DFT=T Ex+Corr=B3LYP ExCW=0 ScaHFX=  0.200000
 ScaDFX=  0.800000  0.720000  1.000000  0.810000 ScalE2=  1.000000  1.000000
 IRadAn=      5 IRanWt=     -1 IRanGd=            0 ICorTp=0 IEmpDi=  4
 NAtoms=   11 NActive=   11 NUniq=   11 SFac= 1.00D+00 NAtFMM=   60 NAOKFM=F Big=F
 Integral buffers will be    131072 words long.
 Raffenetti 2 integral format.
 Two-electron integral symmetry is turned on.
 Leave Link  301 at Mon Sep 28 02:14:11 2026, MaxMem=  1610612736 cpu:               0.5 elap:               0.1
 (Enter /share/software/user/restricted/gaussian/g16.B01/l302.exe)
 NPDir=0 NMtPBC=     1 NCelOv=     1 NCel=       1 NClECP=     1 NCelD=      1
         NCelK=      1 NCelE2=     1 NClLst=     1 CellRange=     0.0.
 One-electron integrals computed using PRISM.
 One-electron integral symmetry used in STVInt
 NBasis=   204 RedAO= T EigKep=  1.73D-06  NBF=   152    52
 NBsUse=   204 1.00D-06 EigRej= -1.00D+00 NBFU=   152    52
 Precomputing XC quadrature grid using
 IXCGrd= 4 IRadAn=           5 IRanWt=          -1 IRanGd=           0 AccXCQ= 0.00D+00.
 Generated NRdTot=       0 NPtTot=           0 NUsed=           0 NTot=          32
 NSgBfM=   209   209   209   209   209 MxSgAt=    11 MxSgA2=    11.
 Leave Link  302 at Mon Sep 28 02:14:11 2026, MaxMem=  1610612736 cpu:               1.5 elap:               0.2
 (Enter /share/software/user/restricted/gaussian/g16.B01/l303.exe)
 DipDrv:  MaxL=1.
 Leave Link  303 at Mon Sep 28 02:14:11 2026, MaxMem=  1610612736 cpu:               0.3 elap:               0.0
 (Enter /share/software/user/restricted/gaussian/g16.B01/l401.exe)
 Initial guess from the checkpoint file:  "calcs/b3lyp_gas/chks/ClPh_25_anion.chk"
 B after Tr=     0.000000    0.000000   -0.000000
         Rot=    0.998910   -0.000000   -0.000000   -0.046680 Ang=  -5.35 deg.
 Guess basis will be translated and rotated to current coordinates.
 JPrj=2 DoOrth=T DoCkMO=T.
 Initial guess orbital symmetries:
       Occupied  (A') (A') (A') (A') (A') (A') (A') (A') (A') (A')
                 (A') (A") (A') (A') (A") (A') (A') (A') (A') (A')
                 (A') (A') (A') (A') (A') (A') (A') (A') (A") (A")
                 (A') (A') (A") (A') (A") (A") (A')
       Virtual   (A') (A') (A') (A") (A') (A") (A') (A') (A") (A')
                 (A') (A") (A') (A') (A") (A') (A') (A') (A") (A')
                 (A') (A") (A') (A") (A") (A') (A') (A') (A") (A')
                 (A') (A") (A') (A') (A') (A') (A') (A') (A') (A')
                 (A') (A') (A') (A') (A') (A') (A') (A') (A') (A")
                 (A') (A") (A') (A') (A') (A') (A") (A') (A") (A")
                 (A') (A") (A") (A') (A') (A') (A") (A') (A') (A')
                 (A') (A') (A') (A") (A') (A") (A') (A') (A') (A")
                 (A') (A") (A') (A') (A') (A') (A') (A') (A") (A')
                 (A') (A") (A') (A") (A') (A") (A') (A') (A") (A")
                 (A') (A') (A') (A') (A') (A') (A") (A") (A') (A')
                 (A') (A") (A") (A") (A') (A') (A') (A') (A') (A")
                 (A') (A") (A') (A") (A') (A') (A') (A') (A') (A')
                 (A') (A") (A") (A") (A') (A") (A") (A') (A") (A')
                 (A') (A') (A') (A') (A') (A') (A') (A') (A') (A')
                 (A') (A') (A') (A') (A') (A') (A') (A') (A') (A")
                 (A") (A') (A') (A') (A') (A') (A')
 The electronic state of the initial guess is 1-A'.
 Generating alternative initial guess.
 ExpMin= 3.60D-02 ExpMax= 1.06D+05 ExpMxC= 3.62D+03 IAcc=3 IRadAn=         5 AccDes= 0.00D+00
 Harris functional with IExCor=  402 and IRadAn=       5 diagonalized for initial guess.
 HarFok:  IExCor=  402 AccDes= 0.00D+00 IRadAn=         5 IDoV= 1 UseB2=F ITyADJ=14
 ICtDFT=  3500011 ScaDFX=  1.000000  1.000000  1.000000  1.000000
 FoFCou: FMM=F IPFlag=           0 FMFlag=      100000 FMFlg1=           0
         NFxFlg=           0 DoJE=T BraDBF=F KetDBF=T FulRan=T
         wScrn=  0.000000 ICntrl=       500 IOpCl=  0 I1Cent=   200000004 NGrid=           0
         NMat0=    1 NMatS0=      1 NMatT0=    0 NMatD0=    1 NMtDS0=    0 NMtDT0=    0
 Petite list used in FoFCou.
 Harris En= -1150.96869983706    
 Leave Link  401 at Mon Sep 28 02:14:12 2026, MaxMem=  1610612736 cpu:               5.6 elap:               0.7
 (Enter /share/software/user/restricted/gaussian/g16.B01/l502.exe)
 Keep R1 ints in memory in symmetry-blocked form, NReq=334495850.
 FoFCou: FMM=F IPFlag=           0 FMFlag=           0 FMFlg1=           0
         NFxFlg=           0 DoJE=F BraDBF=F KetDBF=F FulRan=T
         wScrn=  0.000000 ICntrl=       600 IOpCl=  0 I1Cent=           0 NGrid=           0
         NMat0=    1 NMatS0=  20910 NMatT0=    0 NMatD0=    1 NMtDS0=    0 NMtDT0=    0
 Petite list used in FoFCou.
 Closed shell SCF:
 Using DIIS extrapolation, IDIIS=  1040.
 NGot=  1610612736 LenX=  1494649070 LenY=  1494603685
 Requested convergence on RMS density matrix=1.00D-08 within 128 cycles.
 Requested convergence on MAX density matrix=1.00D-06.
 Requested convergence on             energy=1.00D-06.
 No special actions if energy rises.

 Cycle   1  Pass 1  IDiag  1:
 E= -1150.93721269093    
 DIIS: error= 6.84D-04 at cycle   1 NSaved=   1.
 NSaved= 1 IEnMin= 1 EnMin= -1150.93721269093     IErMin= 1 ErrMin= 6.84D-04
 ErrMax= 6.84D-04  0.00D+00 EMaxC= 1.00D-01 BMatC= 2.00D-04 BMatP= 2.00D-04
 IDIUse=3 WtCom= 9.93D-01 WtEn= 6.84D-03
 Coeff-Com:  0.100D+01
 Coeff-En:   0.100D+01
 Coeff:      0.100D+01
 Gap=     0.129 Goal=   None    Shift=    0.000
 RMSDP=1.04D-02 MaxDP=5.65D-01              OVMax= 1.03D-02

 Cycle   2  Pass 1  IDiag  1:
 E= -1150.93754169652     Delta-E=       -0.000329005591 Rises=F Damp=F
 DIIS: error= 3.81D-04 at cycle   2 NSaved=   2.
 NSaved= 2 IEnMin= 2 EnMin= -1150.93754169652     IErMin= 2 ErrMin= 3.81D-04
 ErrMax= 3.81D-04  0.00D+00 EMaxC= 1.00D-01 BMatC= 3.32D-05 BMatP= 2.00D-04
 IDIUse=3 WtCom= 9.96D-01 WtEn= 3.81D-03
 Coeff-Com:  0.167D+00 0.833D+00
 Coeff-En:   0.000D+00 0.100D+01
 Coeff:      0.166D+00 0.834D+00
 Gap=     0.127 Goal=   None    Shift=    0.000
 RMSDP=7.82D-04 MaxDP=5.52D-02 DE=-3.29D-04 OVMax= 2.86D-03

 Cycle   3  Pass 1  IDiag  1:
 E= -1150.93754842550     Delta-E=       -0.000006728978 Rises=F Damp=F
 DIIS: error= 3.81D-04 at cycle   3 NSaved=   3.
 NSaved= 3 IEnMin= 3 EnMin= -1150.93754842550     IErMin= 3 ErrMin= 3.81D-04
 ErrMax= 3.81D-04  0.00D+00 EMaxC= 1.00D-01 BMatC= 3.00D-05 BMatP= 3.32D-05
 IDIUse=3 WtCom= 9.96D-01 WtEn= 3.81D-03
 Coeff-Com: -0.803D-02 0.489D+00 0.519D+00
 Coeff-En:   0.000D+00 0.454D+00 0.546D+00
 Coeff:     -0.800D-02 0.489D+00 0.519D+00
 Gap=     0.127 Goal=   None    Shift=    0.000
 RMSDP=4.55D-04 MaxDP=2.50D-02 DE=-6.73D-06 OVMax= 1.85D-03

 Cycle   4  Pass 1  IDiag  1:
 E= -1150.93757799874     Delta-E=       -0.000029573248 Rises=F Damp=F
 DIIS: error= 1.26D-04 at cycle   4 NSaved=   4.
 NSaved= 4 IEnMin= 4 EnMin= -1150.93757799874     IErMin= 4 ErrMin= 1.26D-04
 ErrMax= 1.26D-04  0.00D+00 EMaxC= 1.00D-01 BMatC= 1.62D-06 BMatP= 3.00D-05
 IDIUse=3 WtCom= 9.99D-01 WtEn= 1.26D-03
 Coeff-Com: -0.102D-01 0.237D+00 0.282D+00 0.491D+00
 Coeff-En:   0.000D+00 0.000D+00 0.000D+00 0.100D+01
 Coeff:     -0.102D-01 0.237D+00 0.282D+00 0.491D+00
 Gap=     0.127 Goal=   None    Shift=    0.000
 RMSDP=1.39D-04 MaxDP=9.42D-03 DE=-2.96D-05 OVMax= 5.75D-04

 Cycle   5  Pass 1  IDiag  1:
 E= -1150.93757955052     Delta-E=       -0.000001551776 Rises=F Damp=F
 DIIS: error= 5.45D-05 at cycle   5 NSaved=   5.
 NSaved= 5 IEnMin= 5 EnMin= -1150.93757955052     IErMin= 5 ErrMin= 5.45D-05
 ErrMax= 5.45D-05  0.00D+00 EMaxC= 1.00D-01 BMatC= 2.27D-07 BMatP= 1.62D-06
 IDIUse=1 WtCom= 1.00D+00 WtEn= 0.00D+00
 Coeff-Com: -0.608D-02 0.926D-01 0.111D+00 0.295D+00 0.507D+00
 Coeff:     -0.608D-02 0.926D-01 0.111D+00 0.295D+00 0.507D+00
 Gap=     0.127 Goal=   None    Shift=    0.000
 RMSDP=6.81D-05 MaxDP=4.80D-03 DE=-1.55D-06 OVMax= 2.40D-04

 Cycle   6  Pass 1  IDiag  1:
 E= -1150.93757976590     Delta-E=       -0.000000215376 Rises=F Damp=F
 DIIS: error= 1.63D-05 at cycle   6 NSaved=   6.
 NSaved= 6 IEnMin= 6 EnMin= -1150.93757976590     IErMin= 6 ErrMin= 1.63D-05
 ErrMax= 1.63D-05  0.00D+00 EMaxC= 1.00D-01 BMatC= 3.68D-08 BMatP= 2.27D-07
 IDIUse=1 WtCom= 1.00D+00 WtEn= 0.00D+00
 Coeff-Com: -0.126D-02 0.880D-02 0.990D-02 0.834D-01 0.322D+00 0.577D+00
 Coeff:     -0.126D-02 0.880D-02 0.990D-02 0.834D-01 0.322D+00 0.577D+00
 Gap=     0.127 Goal=   None    Shift=    0.000
 RMSDP=1.70D-05 MaxDP=1.11D-03 DE=-2.15D-07 OVMax= 1.12D-04

 Cycle   7  Pass 1  IDiag  1:
 E= -1150.93757980920     Delta-E=       -0.000000043302 Rises=F Damp=F
 DIIS: error= 3.52D-06 at cycle   7 NSaved=   7.
 NSaved= 7 IEnMin= 7 EnMin= -1150.93757980920     IErMin= 7 ErrMin= 3.52D-06
 ErrMax= 3.52D-06  0.00D+00 EMaxC= 1.00D-01 BMatC= 1.37D-09 BMatP= 3.68D-08
 IDIUse=1 WtCom= 1.00D+00 WtEn= 0.00D+00
 Coeff-Com: -0.708D-04-0.363D-02-0.290D-02 0.136D-01 0.863D-01 0.236D+00
 Coeff-Com:  0.671D+00
 Coeff:     -0.708D-04-0.363D-02-0.290D-02 0.136D-01 0.863D-01 0.236D+00
 Coeff:      0.671D+00
 Gap=     0.127 Goal=   None    Shift=    0.000
 RMSDP=2.64D-05 MaxDP=2.30D-03 DE=-4.33D-08 OVMax= 2.20D-05

 Cycle   8  Pass 1  IDiag  1:
 E= -1150.93757981052     Delta-E=       -0.000000001326 Rises=F Damp=F
 DIIS: error= 2.25D-06 at cycle   8 NSaved=   8.
 NSaved= 8 IEnMin= 8 EnMin= -1150.93757981052     IErMin= 8 ErrMin= 2.25D-06
 ErrMax= 2.25D-06  0.00D+00 EMaxC= 1.00D-01 BMatC= 4.44D-10 BMatP= 1.37D-09
 IDIUse=1 WtCom= 1.00D+00 WtEn= 0.00D+00
 Coeff-Com:  0.109D-03-0.365D-02-0.293D-02-0.299D-02 0.822D-02 0.693D-01
 Coeff-Com:  0.423D+00 0.509D+00
 Coeff:      0.109D-03-0.365D-02-0.293D-02-0.299D-02 0.822D-02 0.693D-01
 Coeff:      0.423D+00 0.509D+00
 Gap=     0.127 Goal=   None    Shift=    0.000
 RMSDP=1.77D-06 MaxDP=7.86D-05 DE=-1.33D-09 OVMax= 8.87D-06

 Cycle   9  Pass 1  IDiag  1:
 E= -1150.93757981098     Delta-E=       -0.000000000458 Rises=F Damp=F
 DIIS: error= 5.27D-07 at cycle   9 NSaved=   9.
 NSaved= 9 IEnMin= 9 EnMin= -1150.93757981098     IErMin= 9 ErrMin= 5.27D-07
 ErrMax= 5.27D-07  0.00D+00 EMaxC= 1.00D-01 BMatC= 3.59D-11 BMatP= 4.44D-10
 IDIUse=1 WtCom= 1.00D+00 WtEn= 0.00D+00
 Coeff-Com:  0.714D-04-0.173D-02-0.130D-02-0.279D-02-0.357D-02 0.167D-01
 Coeff-Com:  0.178D+00 0.287D+00 0.528D+00
 Coeff:      0.714D-04-0.173D-02-0.130D-02-0.279D-02-0.357D-02 0.167D-01
 Coeff:      0.178D+00 0.287D+00 0.528D+00
 Gap=     0.127 Goal=   None    Shift=    0.000
 RMSDP=9.21D-07 MaxDP=7.03D-05 DE=-4.58D-10 OVMax= 2.84D-06

 Cycle  10  Pass 1  IDiag  1:
 E= -1150.93757981101     Delta-E=       -0.000000000025 Rises=F Damp=F
 DIIS: error= 2.15D-07 at cycle  10 NSaved=  10.
 NSaved=10 IEnMin=10 EnMin= -1150.93757981101     IErMin=10 ErrMin= 2.15D-07
 ErrMax= 2.15D-07  0.00D+00 EMaxC= 1.00D-01 BMatC= 5.90D-12 BMatP= 3.59D-11
 IDIUse=1 WtCom= 1.00D+00 WtEn= 0.00D+00
 Coeff-Com:  0.233D-04-0.453D-03-0.295D-03-0.119D-02-0.370D-02-0.145D-02
 Coeff-Com:  0.405D-01 0.923D-01 0.318D+00 0.556D+00
 Coeff:      0.233D-04-0.453D-03-0.295D-03-0.119D-02-0.370D-02-0.145D-02
 Coeff:      0.405D-01 0.923D-01 0.318D+00 0.556D+00
 Gap=     0.127 Goal=   None    Shift=    0.000
 RMSDP=2.90D-07 MaxDP=1.89D-05 DE=-2.55D-11 OVMax= 1.35D-06

 Cycle  11  Pass 1  IDiag  1:
 E= -1150.93757981103     Delta-E=       -0.000000000019 Rises=F Damp=F
 DIIS: error= 4.52D-08 at cycle  11 NSaved=  11.
 NSaved=11 IEnMin=11 EnMin= -1150.93757981103     IErMin=11 ErrMin= 4.52D-08
 ErrMax= 4.52D-08  0.00D+00 EMaxC= 1.00D-01 BMatC= 5.49D-13 BMatP= 5.90D-12
 IDIUse=1 WtCom= 1.00D+00 WtEn= 0.00D+00
 Coeff-Com:  0.294D-05 0.156D-04 0.125D-04-0.174D-03-0.107D-02-0.282D-02
 Coeff-Com: -0.652D-02 0.762D-03 0.754D-01 0.287D+00 0.647D+00
 Coeff:      0.294D-05 0.156D-04 0.125D-04-0.174D-03-0.107D-02-0.282D-02
 Coeff:     -0.652D-02 0.762D-03 0.754D-01 0.287D+00 0.647D+00
 Gap=     0.127 Goal=   None    Shift=    0.000
 RMSDP=2.13D-07 MaxDP=1.89D-05 DE=-1.86D-11 OVMax= 3.84D-07

 Cycle  12  Pass 1  IDiag  1:
 E= -1150.93757981102     Delta-E=        0.000000000005 Rises=F Damp=F
 DIIS: error= 1.40D-08 at cycle  12 NSaved=  12.
 NSaved=12 IEnMin=11 EnMin= -1150.93757981103     IErMin=12 ErrMin= 1.40D-08
 ErrMax= 1.40D-08  0.00D+00 EMaxC= 1.00D-01 BMatC= 3.59D-14 BMatP= 5.49D-13
 IDIUse=1 WtCom= 1.00D+00 WtEn= 0.00D+00
 Coeff-Com: -0.571D-07 0.378D-04 0.248D-04-0.977D-05-0.291D-03-0.135D-02
 Coeff-Com: -0.556D-02-0.581D-02 0.177D-01 0.109D+00 0.311D+00 0.576D+00
 Coeff:     -0.571D-07 0.378D-04 0.248D-04-0.977D-05-0.291D-03-0.135D-02
 Coeff:     -0.556D-02-0.581D-02 0.177D-01 0.109D+00 0.311D+00 0.576D+00
 Gap=     0.127 Goal=   None    Shift=    0.000
 RMSDP=3.34D-08 MaxDP=2.07D-06 DE= 5.46D-12 OVMax= 6.69D-08

 Cycle  13  Pass 1  IDiag  1:
 E= -1150.93757981103     Delta-E=       -0.000000000012 Rises=F Damp=F
 DIIS: error= 4.39D-09 at cycle  13 NSaved=  13.
 NSaved=13 IEnMin=13 EnMin= -1150.93757981103     IErMin=13 ErrMin= 4.39D-09
 ErrMax= 4.39D-09  0.00D+00 EMaxC= 1.00D-01 BMatC= 2.77D-15 BMatP= 3.59D-14
 IDIUse=1 WtCom= 1.00D+00 WtEn= 0.00D+00
 Coeff-Com: -0.302D-06 0.138D-04 0.850D-05 0.111D-04-0.264D-04-0.331D-03
 Coeff-Com: -0.164D-02-0.263D-02 0.312D-03 0.205D-01 0.634D-01 0.246D+00
 Coeff-Com:  0.675D+00
 Coeff:     -0.302D-06 0.138D-04 0.850D-05 0.111D-04-0.264D-04-0.331D-03
 Coeff:     -0.164D-02-0.263D-02 0.312D-03 0.205D-01 0.634D-01 0.246D+00
 Coeff:      0.675D+00
 Gap=     0.127 Goal=   None    Shift=    0.000
 RMSDP=3.76D-08 MaxDP=3.07D-06 DE=-1.23D-11 OVMax= 2.82D-08

 Cycle  14  Pass 1  IDiag  1:
 E= -1150.93757981102     Delta-E=        0.000000000015 Rises=F Damp=F
 DIIS: error= 1.49D-09 at cycle  14 NSaved=  14.
 NSaved=14 IEnMin=13 EnMin= -1150.93757981103     IErMin=14 ErrMin= 1.49D-09
 ErrMax= 1.49D-09  0.00D+00 EMaxC= 1.00D-01 BMatC= 4.58D-16 BMatP= 2.77D-15
 IDIUse=1 WtCom= 1.00D+00 WtEn= 0.00D+00
 Coeff-Com: -0.157D-06 0.468D-05 0.313D-05 0.896D-05 0.161D-04-0.592D-04
 Coeff-Com: -0.414D-03-0.993D-03-0.159D-02 0.209D-02 0.712D-02 0.810D-01
 Coeff-Com:  0.370D+00 0.542D+00
 Coeff:     -0.157D-06 0.468D-05 0.313D-05 0.896D-05 0.161D-04-0.592D-04
 Coeff:     -0.414D-03-0.993D-03-0.159D-02 0.209D-02 0.712D-02 0.810D-01
 Coeff:      0.370D+00 0.542D+00
 Gap=     0.127 Goal=   None    Shift=    0.000
 RMSDP=7.00D-09 MaxDP=4.15D-07 DE= 1.55D-11 OVMax= 9.01D-09

 SCF Done:  E(RB3LYP) =  -1150.93757981     A.U. after   14 cycles
            NFock= 14  Conv=0.70D-08     -V/T= 2.0028
 KE= 1.147762144825D+03 PE=-3.592771635278D+03 EE= 8.654081084302D+02
 Leave Link  502 at Mon Sep 28 02:14:26 2026, MaxMem=  1610612736 cpu:             103.5 elap:              14.5
 (Enter /share/software/user/restricted/gaussian/g16.B01/l701.exe)
 ... and contract with generalized density number  0.
 Compute integral first derivatives.
 Leave Link  701 at Mon Sep 28 02:14:27 2026, MaxMem=  1610612736 cpu:               1.2 elap:               0.2
 (Enter /share/software/user/restricted/gaussian/g16.B01/l702.exe)
 L702 exits ... SP integral derivatives will be done elsewhere.
 Leave Link  702 at Mon Sep 28 02:14:27 2026, MaxMem=  1610612736 cpu:               0.2 elap:               0.0
 (Enter /share/software/user/restricted/gaussian/g16.B01/l703.exe)
 Integral derivatives from FoFJK, PRISM(SPDF).
 Compute integral first derivatives, UseDBF=F ICtDFT=           0.
 Calling FoFJK, ICntrl=      2127 FMM=F ISym2X=1 I1Cent= 0 IOpClX= 0 NMat=1 NMatS=1 NMatT=0.
 FoFJK:  IHMeth= 1 ICntrl=    2127 DoSepK=F KAlg= 0 I1Cent=           0 FoldK=F
 IRaf=         0 NMat=       1 IRICut=       1 DoRegI=T DoRafI=F ISym2E= 1 IDoP0=0 IntGTp=1.
 FoFCou: FMM=F IPFlag=           0 FMFlag=      100000 FMFlg1=         800
         NFxFlg=           0 DoJE=F BraDBF=F KetDBF=F FulRan=T
         wScrn=  0.000000 ICntrl=      2127 IOpCl=  0 I1Cent=           0 NGrid=           0
         NMat0=    1 NMatS0=      1 NMatT0=    0 NMatD0=    1 NMtDS0=    0 NMtDT0=    0
 Petite list used in FoFCou.
 Leave Link  703 at Mon Sep 28 02:14:30 2026, MaxMem=  1610612736 cpu:              25.7 elap:               3.2
 (Enter /share/software/user/restricted/gaussian/g16.B01/l716.exe)
 Dipole        =-1.44050144D+00-1.30746339D+00 1.14241864D-31
 ***** Axes restored to original set *****
 -------------------------------------------------------------------
 Center     Atomic                   Forces (Hartrees/Bohr)
 Number     Number              X              Y              Z
 -------------------------------------------------------------------
      1        6           0.001654008   -0.003554122    0.000000000
      2        6          -0.003796992    0.001202986   -0.000000000
      3        6           0.000314150   -0.000073011   -0.000000000
      4        6           0.000022509    0.000466195   -0.000000000
      5        6          -0.000626348   -0.000061829    0.000000000
      6        6          -0.001290375    0.000510158   -0.000000000
      7       17           0.001833819    0.000854976   -0.000000000
      8        1           0.000207358   -0.000179192    0.000000000
      9        1          -0.000076301   -0.000317062    0.000000000
     10       17           0.001441529    0.000720407   -0.000000000
     11        1           0.000316643    0.000430494   -0.000000000
 -------------------------------------------------------------------
 Cartesian Forces:  Max     0.003796992 RMS     0.001115091
 Leave Link  716 at Mon Sep 28 02:14:30 2026, MaxMem=  1610612736 cpu:               0.2 elap:               0.0
 (Enter /share/software/user/restricted/gaussian/g16.B01/l103.exe)

 GradGradGradGradGradGradGradGradGradGradGradGradGradGradGradGradGradGrad
 Berny optimization.
 Using GEDIIS/GDIIS optimizer.
 FormGI is forming the generalized inverse of G from B-inverse, IUseBI=4.
 Internal  Forces:  Max     0.002582560 RMS     0.000676034
 Search for a local minimum.
 Step number   4 out of a maximum of   57
 All quantities printed in internal units (Hartrees-Bohrs-Radians)
 RMS Force = .67603D-03 SwitMx=.10000D-02 MixMth= 2
 Mixed Optimization -- En-DIIS/RFO-DIIS
 Update second derivatives using D2CorX and points    1    2    3    4
 DE= -2.58D-04 DEPred=-1.86D-04 R= 1.39D+00
 TightC=F SS=  1.41D+00  RLast= 5.24D-02 DXNew= 8.4853D-01 1.5718D-01
 Trust test= 1.39D+00 RLast= 5.24D-02 DXMaxT set to 5.05D-01
 ITU=  1  1  1  0
 Use linear search instead of GDIIS.
     Eigenvalues ---    0.02112   0.02119   0.02120   0.02126   0.02135
     Eigenvalues ---    0.02153   0.02165   0.02201   0.09065   0.16038
     Eigenvalues ---    0.16058   0.16103   0.22566   0.24017   0.24994
     Eigenvalues ---    0.25166   0.27986   0.33166   0.33898   0.33953
     Eigenvalues ---    0.34631   0.41987   0.43440   0.45851   0.46234
     Eigenvalues ---    0.46782   0.48293
 RFO step:  Lambda=-4.89329873D-05 EMin= 2.11189033D-02
 Quartic linear search produced a step of  0.50315.
 Iteration  1 RMS(Cart)=  0.00378051 RMS(Int)=  0.00000779
 Iteration  2 RMS(Cart)=  0.00001003 RMS(Int)=  0.00000090
 Iteration  3 RMS(Cart)=  0.00000000 RMS(Int)=  0.00000090
 ITry= 1 IFail=0 DXMaxC= 1.25D-02 DCOld= 1.00D+10 DXMaxT= 5.05D-01 DXLimC= 3.00D+00 Rises=F
 ClnCor:  largest displacement from symmetrization is 3.98D-10 for atom     9.
 Variable       Old X    -DE/DX   Delta X   Delta X   Delta X     New X
                                 (Linear)    (Quad)   (Total)
    R1        2.60075  -0.00258  -0.00553  -0.00450  -0.01003   2.59071
    R2        2.67277  -0.00078   0.00228  -0.00280  -0.00052   2.67224
    R3        2.63288  -0.00006  -0.00141   0.00043  -0.00097   2.63190
    R4        3.51850   0.00202   0.02072   0.00222   0.02294   3.54144
    R5        2.63945   0.00003   0.00274  -0.00192   0.00082   2.64027
    R6        2.05426   0.00027  -0.00033   0.00062   0.00029   2.05456
    R7        2.62759   0.00024   0.00022   0.00023   0.00045   2.62804
    R8        2.04789   0.00032   0.00074  -0.00010   0.00064   2.04853
    R9        2.63127  -0.00047  -0.00261   0.00038  -0.00223   2.62904
   R10        3.43338  -0.00161   0.00656  -0.00605   0.00051   3.43390
   R11        2.06300  -0.00009   0.00008  -0.00088  -0.00080   2.06220
    A1        1.96451   0.00175   0.00105   0.00534   0.00640   1.97091
    A2        2.23118  -0.00018   0.00509  -0.00232   0.00277   2.23395
    A3        2.07824   0.00017  -0.00101   0.00171   0.00069   2.07894
    A4        1.97376   0.00001  -0.00407   0.00061  -0.00346   1.97030
    A5        2.05469  -0.00062  -0.00438  -0.00100  -0.00538   2.04931
    A6        2.13121   0.00037   0.00057   0.00205   0.00262   2.13383
    A7        2.09728   0.00025   0.00381  -0.00104   0.00276   2.10004
    A8        2.04694   0.00017  -0.00139   0.00213   0.00074   2.04768
    A9        2.11737  -0.00001   0.00108  -0.00049   0.00059   2.11796
   A10        2.11888  -0.00016   0.00031  -0.00164  -0.00133   2.11755
   A11        2.13929   0.00019   0.00508  -0.00102   0.00406   2.14335
   A12        2.05326  -0.00029  -0.00239  -0.00064  -0.00304   2.05022
   A13        2.09063   0.00010  -0.00268   0.00166  -0.00102   2.08961
   A14        2.12975  -0.00132  -0.00545  -0.00314  -0.00858   2.12117
   A15        2.10661   0.00011   0.00118  -0.00080   0.00038   2.10698
   A16        2.04683   0.00120   0.00427   0.00393   0.00821   2.05504
    D1        0.00000  -0.00000   0.00000  -0.00000  -0.00000   0.00000
    D2        3.14159  -0.00000   0.00000  -0.00000   0.00000   3.14159
    D3       -0.00000  -0.00000   0.00000   0.00000   0.00000   0.00000
    D4        3.14159  -0.00000   0.00000  -0.00000   0.00000   3.14159
    D5       -0.00000   0.00000   0.00000  -0.00000   0.00000   0.00000
    D6        3.14159  -0.00000   0.00000   0.00000   0.00000   3.14159
    D7        3.14159  -0.00000   0.00000   0.00000   0.00000   3.14159
    D8       -0.00000   0.00000   0.00000   0.00000   0.00000   0.00000
    D9        0.00000  -0.00000   0.00000   0.00000  -0.00000   0.00000
   D10        3.14159   0.00000   0.00000   0.00000   0.00000   3.14159
   D11        3.14159  -0.00000   0.00000   0.00000   0.00000   3.14159
   D12        0.00000  -0.00000   0.00000   0.00000   0.00000   0.00000
   D13       -0.00000  -0.00000   0.00000  -0.00000   0.00000   0.00000
   D14        3.14159  -0.00000   0.00000  -0.00000   0.00000   3.14159
   D15        3.14159   0.00000   0.00000  -0.00000   0.00000   3.14159
   D16        0.00000  -0.00000   0.00000  -0.00000  -0.00000   0.00000
   D17        0.00000  -0.00000   0.00000   0.00000  -0.00000   0.00000
   D18        3.14159   0.00000   0.00000   0.00000   0.00000   3.14159
   D19        3.14159  -0.00000   0.00000  -0.00000   0.00000   3.14159
   D20       -0.00000   0.00000   0.00000   0.00000   0.00000   0.00000
         Item               Value     Threshold  Converged?
 Maximum Force            0.002583     0.000450     NO 
 RMS     Force            0.000676     0.000300     NO 
 Maximum Displacement     0.012491     0.001800     NO 
 RMS     Displacement     0.003779     0.001200     NO 
 Predicted change in Energy=-5.392418D-05
 Lowest energy point so far.  Saving SCF results.
 GradGradGradGradGradGradGradGradGradGradGradGradGradGradGradGradGradGrad

 Leave Link  103 at Mon Sep 28 02:14:30 2026, MaxMem=  1610612736 cpu:               0.1 elap:               0.0
 (Enter /share/software/user/restricted/gaussian/g16.B01/l202.exe)
                          Input orientation:                          
 ---------------------------------------------------------------------
 Center     Atomic      Atomic             Coordinates (Angstroms)
 Number     Number       Type             X           Y           Z
 ---------------------------------------------------------------------
      1          6           0       -0.005421    1.475115   -0.000000
      2          6           0        1.123037    0.696607   -0.000000
      3          6           0        1.205506   -0.693692    0.000000
      4          6           0        0.005537   -1.409348    0.000000
      5          6           0       -1.175576   -0.675172    0.000000
      6          6           0       -1.198399    0.715869   -0.000000
      7         17           0        2.803322    1.526489   -0.000000
      8          1           0        2.157655   -1.218543    0.000000
      9          1           0       -0.004650   -2.493334    0.000000
     10         17           0       -2.738601   -1.601971    0.000000
     11          1           0       -2.172410    1.207981   -0.000000
 ---------------------------------------------------------------------
                    Distance matrix (angstroms):
                    1          2          3          4          5
     1  C    0.000000
     2  C    1.370946   0.000000
     3  C    2.483962   1.392743   0.000000
     4  C    2.884484   2.384083   1.397172   0.000000
     5  C    2.448061   2.676827   2.381154   1.390698   0.000000
     6  C    1.414091   2.321516   2.786687   2.442541   1.391228
     7  Cl   2.809212   1.874050   2.735365   4.055458   4.547411
     8  H    3.454663   2.176749   1.087224   2.160560   3.377230
     9  H    3.968450   3.383401   2.168684   1.084035   2.162586
    10  Cl   4.115669   4.493963   4.047339   2.750890   1.817141
    11  H    2.183393   3.334888   3.876426   3.404976   2.130715
                    6          7          8          9         10
     6  C    0.000000
     7  Cl   4.082999   0.000000
     8  H    3.873635   2.819945   0.000000
     9  H    3.424036   4.903436   2.510111   0.000000
    10  Cl   2.782912   6.363974   4.911246   2.875590   0.000000
    11  H    1.091271   4.985916   4.963616   4.289396   2.866427
                   11
    11  H    0.000000
 Stoichiometry    C6H3Cl2(1-)
 Framework group  CS[SG(C6H3Cl2)]
 Deg. of freedom    19
 Full point group                 CS      NOp   2
 RotChk:  IX=2 Diff= 1.47D-03
 Largest Abelian subgroup         CS      NOp   2
 Largest concise Abelian subgroup C1      NOp   1
                         Standard orientation:                         
 ---------------------------------------------------------------------
 Center     Atomic      Atomic             Coordinates (Angstroms)
 Number     Number       Type             X           Y           Z
 ---------------------------------------------------------------------
      1          6           0        1.273142    0.826871    0.000000
      2          6           0        0.000000    1.335402    0.000000
      3          6           0       -1.203335    0.634177    0.000000
      4          6           0       -1.134747   -0.761310    0.000000
      5          6           0        0.130638   -1.338235    0.000000
      6          6           0        1.301562   -0.586934    0.000000
      7         17           0       -0.239455    3.194090    0.000000
      8          1           0       -2.167630    1.136365    0.000000
      9          1           0       -2.031714   -1.370064    0.000000
     10         17           0        0.224460   -3.152953    0.000000
     11          1           0        2.250702   -1.125455    0.000000
 ---------------------------------------------------------------------
 Rotational constants (GHZ):           5.8253197           0.6482092           0.5833026
 Leave Link  202 at Mon Sep 28 02:14:30 2026, MaxMem=  1610612736 cpu:               0.0 elap:               0.0
 (Enter /share/software/user/restricted/gaussian/g16.B01/l301.exe)
 Standard basis: 6-311++G(d) (5D, 7F)
 Ernie: Thresh=  0.10000D-02 Tol=  0.10000D-05 Strict=F.
 There are   160 symmetry adapted cartesian basis functions of A'  symmetry.
 There are    52 symmetry adapted cartesian basis functions of A"  symmetry.
 There are   152 symmetry adapted basis functions of A'  symmetry.
 There are    52 symmetry adapted basis functions of A"  symmetry.
   204 basis functions,   340 primitive gaussians,   212 cartesian basis functions
    37 alpha electrons       37 beta electrons
       nuclear repulsion energy       428.4185482670 Hartrees.
 IExCor=  402 DFT=T Ex+Corr=B3LYP ExCW=0 ScaHFX=  0.200000
 ScaDFX=  0.800000  0.720000  1.000000  0.810000 ScalE2=  1.000000  1.000000
 IRadAn=      5 IRanWt=     -1 IRanGd=            0 ICorTp=0 IEmpDi=  4
 NAtoms=   11 NActive=   11 NUniq=   11 SFac= 1.00D+00 NAtFMM=   60 NAOKFM=F Big=F
 Integral buffers will be    131072 words long.
 Raffenetti 2 integral format.
 Two-electron integral symmetry is turned on.
 Leave Link  301 at Mon Sep 28 02:14:30 2026, MaxMem=  1610612736 cpu:               0.4 elap:               0.1
 (Enter /share/software/user/restricted/gaussian/g16.B01/l302.exe)
 NPDir=0 NMtPBC=     1 NCelOv=     1 NCel=       1 NClECP=     1 NCelD=      1
         NCelK=      1 NCelE2=     1 NClLst=     1 CellRange=     0.0.
 One-electron integrals computed using PRISM.
 One-electron integral symmetry used in STVInt
 NBasis=   204 RedAO= T EigKep=  1.73D-06  NBF=   152    52
 NBsUse=   204 1.00D-06 EigRej= -1.00D+00 NBFU=   152    52
 Precomputing XC quadrature grid using
 IXCGrd= 4 IRadAn=           5 IRanWt=          -1 IRanGd=           0 AccXCQ= 0.00D+00.
 Generated NRdTot=       0 NPtTot=           0 NUsed=           0 NTot=          32
 NSgBfM=   209   209   209   209   209 MxSgAt=    11 MxSgA2=    11.
 Leave Link  302 at Mon Sep 28 02:14:30 2026, MaxMem=  1610612736 cpu:               1.4 elap:               0.2
 (Enter /share/software/user/restricted/gaussian/g16.B01/l303.exe)
 DipDrv:  MaxL=1.
 Leave Link  303 at Mon Sep 28 02:14:31 2026, MaxMem=  1610612736 cpu:               0.3 elap:               0.0
 (Enter /share/software/user/restricted/gaussian/g16.B01/l401.exe)
 Initial guess from the checkpoint file:  "calcs/b3lyp_gas/chks/ClPh_25_anion.chk"
 B after Tr=    -0.000000   -0.000000   -0.000000
         Rot=    1.000000   -0.000000    0.000000   -0.000320 Ang=  -0.04 deg.
 Guess basis will be translated and rotated to current coordinates.
 JPrj=2 DoOrth=T DoCkMO=T.
 Initial guess orbital symmetries:
       Occupied  (A') (A') (A') (A') (A') (A') (A') (A') (A') (A')
                 (A') (A") (A') (A') (A") (A') (A') (A') (A') (A')
                 (A') (A') (A') (A') (A') (A') (A') (A') (A") (A")
                 (A') (A') (A") (A') (A") (A") (A')
       Virtual   (A') (A') (A') (A") (A') (A") (A') (A') (A") (A')
                 (A') (A") (A') (A') (A") (A') (A') (A') (A") (A')
                 (A') (A") (A') (A") (A") (A') (A') (A') (A") (A')
                 (A') (A") (A') (A') (A') (A') (A') (A') (A') (A')
                 (A') (A') (A') (A') (A') (A') (A') (A') (A') (A")
                 (A') (A") (A') (A') (A') (A') (A") (A') (A") (A")
                 (A') (A") (A") (A') (A') (A') (A") (A') (A') (A')
                 (A') (A') (A') (A") (A') (A") (A') (A') (A') (A')
                 (A") (A') (A") (A') (A') (A') (A') (A') (A") (A')
                 (A') (A") (A') (A") (A') (A") (A') (A') (A") (A")
                 (A') (A') (A') (A') (A') (A') (A") (A") (A') (A')
                 (A') (A") (A") (A") (A') (A') (A') (A') (A') (A")
                 (A') (A") (A') (A") (A') (A') (A') (A') (A') (A')
                 (A') (A") (A") (A") (A') (A") (A") (A') (A") (A')
                 (A') (A') (A') (A') (A') (A') (A') (A') (A') (A')
                 (A') (A') (A') (A') (A') (A') (A') (A') (A') (A")
                 (A") (A') (A') (A') (A') (A') (A')
 The electronic state of the initial guess is 1-A'.
 Leave Link  401 at Mon Sep 28 02:14:31 2026, MaxMem=  1610612736 cpu:               1.4 elap:               0.2
 (Enter /share/software/user/restricted/gaussian/g16.B01/l502.exe)
 Keep R1 ints in memory in symmetry-blocked form, NReq=334495850.
 FoFCou: FMM=F IPFlag=           0 FMFlag=           0 FMFlg1=           0
         NFxFlg=           0 DoJE=F BraDBF=F KetDBF=F FulRan=T
         wScrn=  0.000000 ICntrl=       600 IOpCl=  0 I1Cent=           0 NGrid=           0
         NMat0=    1 NMatS0=  20910 NMatT0=    0 NMatD0=    1 NMtDS0=    0 NMtDT0=    0
 Petite list used in FoFCou.
 Closed shell SCF:
 Using DIIS extrapolation, IDIIS=  1040.
 NGot=  1610612736 LenX=  1494649070 LenY=  1494603685
 Requested convergence on RMS density matrix=1.00D-08 within 128 cycles.
 Requested convergence on MAX density matrix=1.00D-06.
 Requested convergence on             energy=1.00D-06.
 No special actions if energy rises.

 Cycle   1  Pass 1  IDiag  1:
 E= -1150.93752367416    
 DIIS: error= 4.13D-04 at cycle   1 NSaved=   1.
 NSaved= 1 IEnMin= 1 EnMin= -1150.93752367416     IErMin= 1 ErrMin= 4.13D-04
 ErrMax= 4.13D-04  0.00D+00 EMaxC= 1.00D-01 BMatC= 6.74D-05 BMatP= 6.74D-05
 IDIUse=3 WtCom= 9.96D-01 WtEn= 4.13D-03
 Coeff-Com:  0.100D+01
 Coeff-En:   0.100D+01
 Coeff:      0.100D+01
 Gap=     0.129 Goal=   None    Shift=    0.000
 RMSDP=6.30D-03 MaxDP=3.28D-01              OVMax= 7.50D-03

 Cycle   2  Pass 1  IDiag  1:
 E= -1150.93763937097     Delta-E=       -0.000115696811 Rises=F Damp=F
 DIIS: error= 1.55D-04 at cycle   2 NSaved=   2.
 NSaved= 2 IEnMin= 2 EnMin= -1150.93763937097     IErMin= 2 ErrMin= 1.55D-04
 ErrMax= 1.55D-04  0.00D+00 EMaxC= 1.00D-01 BMatC= 7.04D-06 BMatP= 6.74D-05
 IDIUse=3 WtCom= 9.98D-01 WtEn= 1.55D-03
 Coeff-Com:  0.109D+00 0.891D+00
 Coeff-En:   0.000D+00 0.100D+01
 Coeff:      0.108D+00 0.892D+00
 Gap=     0.127 Goal=   None    Shift=    0.000
 RMSDP=4.93D-04 MaxDP=4.44D-02 DE=-1.16D-04 OVMax= 1.60D-03

 Cycle   3  Pass 1  IDiag  1:
 E= -1150.93763972660     Delta-E=       -0.000000355635 Rises=F Damp=F
 DIIS: error= 2.53D-04 at cycle   3 NSaved=   3.
 NSaved= 3 IEnMin= 3 EnMin= -1150.93763972660     IErMin= 2 ErrMin= 1.55D-04
 ErrMax= 2.53D-04  0.00D+00 EMaxC= 1.00D-01 BMatC= 7.34D-06 BMatP= 7.04D-06
 IDIUse=3 WtCom= 9.97D-01 WtEn= 2.53D-03
 Coeff-Com: -0.104D-01 0.509D+00 0.502D+00
 Coeff-En:   0.000D+00 0.489D+00 0.511D+00
 Coeff:     -0.103D-01 0.509D+00 0.502D+00
 Gap=     0.128 Goal=   None    Shift=    0.000
 RMSDP=3.66D-04 MaxDP=2.29D-02 DE=-3.56D-07 OVMax= 1.44D-03

 Cycle   4  Pass 1  IDiag  1:
 E= -1150.93764654760     Delta-E=       -0.000006820994 Rises=F Damp=F
 DIIS: error= 1.29D-04 at cycle   4 NSaved=   4.
 NSaved= 4 IEnMin= 4 EnMin= -1150.93764654760     IErMin= 4 ErrMin= 1.29D-04
 ErrMax= 1.29D-04  0.00D+00 EMaxC= 1.00D-01 BMatC= 9.98D-07 BMatP= 7.04D-06
 IDIUse=3 WtCom= 9.99D-01 WtEn= 1.29D-03
 Coeff-Com: -0.108D-01 0.256D+00 0.321D+00 0.435D+00
 Coeff-En:   0.000D+00 0.000D+00 0.868D-01 0.913D+00
 Coeff:     -0.108D-01 0.255D+00 0.320D+00 0.435D+00
 Gap=     0.128 Goal=   None    Shift=    0.000
 RMSDP=1.29D-04 MaxDP=1.02D-02 DE=-6.82D-06 OVMax= 4.57D-04

 Cycle   5  Pass 1  IDiag  1:
 E= -1150.93764765850     Delta-E=       -0.000001110904 Rises=F Damp=F
 DIIS: error= 2.26D-05 at cycle   5 NSaved=   5.
 NSaved= 5 IEnMin= 5 EnMin= -1150.93764765850     IErMin= 5 ErrMin= 2.26D-05
 ErrMax= 2.26D-05  0.00D+00 EMaxC= 1.00D-01 BMatC= 7.02D-08 BMatP= 9.98D-07
 IDIUse=1 WtCom= 1.00D+00 WtEn= 0.00D+00
 Coeff-Com: -0.592D-02 0.755D-01 0.112D+00 0.239D+00 0.579D+00
 Coeff:     -0.592D-02 0.755D-01 0.112D+00 0.239D+00 0.579D+00
 Gap=     0.128 Goal=   None    Shift=    0.000
 RMSDP=2.99D-05 MaxDP=2.13D-03 DE=-1.11D-06 OVMax= 1.05D-04

 Cycle   6  Pass 1  IDiag  1:
 E= -1150.93764772437     Delta-E=       -0.000000065873 Rises=F Damp=F
 DIIS: error= 7.87D-06 at cycle   6 NSaved=   6.
 NSaved= 6 IEnMin= 6 EnMin= -1150.93764772437     IErMin= 6 ErrMin= 7.87D-06
 ErrMax= 7.87D-06  0.00D+00 EMaxC= 1.00D-01 BMatC= 9.04D-09 BMatP= 7.02D-08
 IDIUse=1 WtCom= 1.00D+00 WtEn= 0.00D+00
 Coeff-Com: -0.984D-03 0.941D-04 0.115D-01 0.646D-01 0.311D+00 0.613D+00
 Coeff:     -0.984D-03 0.941D-04 0.115D-01 0.646D-01 0.311D+00 0.613D+00
 Gap=     0.128 Goal=   None    Shift=    0.000
 RMSDP=1.09D-05 MaxDP=7.21D-04 DE=-6.59D-08 OVMax= 5.48D-05

 Cycle   7  Pass 1  IDiag  1:
 E= -1150.93764773418     Delta-E=       -0.000000009813 Rises=F Damp=F
 DIIS: error= 2.51D-06 at cycle   7 NSaved=   7.
 NSaved= 7 IEnMin= 7 EnMin= -1150.93764773418     IErMin= 7 ErrMin= 2.51D-06
 ErrMax= 2.51D-06  0.00D+00 EMaxC= 1.00D-01 BMatC= 6.28D-10 BMatP= 9.04D-09
 IDIUse=1 WtCom= 1.00D+00 WtEn= 0.00D+00
 Coeff-Com:  0.845D-04-0.738D-02-0.387D-02 0.986D-02 0.758D-01 0.276D+00
 Coeff-Com:  0.650D+00
 Coeff:      0.845D-04-0.738D-02-0.387D-02 0.986D-02 0.758D-01 0.276D+00
 Coeff:      0.650D+00
 Gap=     0.128 Goal=   None    Shift=    0.000
 RMSDP=1.36D-05 MaxDP=1.25D-03 DE=-9.81D-09 OVMax= 1.48D-05

 Cycle   8  Pass 1  IDiag  1:
 E= -1150.93764773474     Delta-E=       -0.000000000558 Rises=F Damp=F
 DIIS: error= 1.86D-06 at cycle   8 NSaved=   8.
 NSaved= 8 IEnMin= 8 EnMin= -1150.93764773474     IErMin= 8 ErrMin= 1.86D-06
 ErrMax= 1.86D-06  0.00D+00 EMaxC= 1.00D-01 BMatC= 2.08D-10 BMatP= 6.28D-10
 IDIUse=1 WtCom= 1.00D+00 WtEn= 0.00D+00
 Coeff-Com:  0.150D-03-0.511D-02-0.389D-02-0.156D-02 0.828D-02 0.110D+00
 Coeff-Com:  0.440D+00 0.453D+00
 Coeff:      0.150D-03-0.511D-02-0.389D-02-0.156D-02 0.828D-02 0.110D+00
 Coeff:      0.440D+00 0.453D+00
 Gap=     0.128 Goal=   None    Shift=    0.000
 RMSDP=1.41D-06 MaxDP=6.77D-05 DE=-5.58D-10 OVMax= 7.27D-06

 Cycle   9  Pass 1  IDiag  1:
 E= -1150.93764773498     Delta-E=       -0.000000000234 Rises=F Damp=F
 DIIS: error= 3.08D-07 at cycle   9 NSaved=   9.
 NSaved= 9 IEnMin= 9 EnMin= -1150.93764773498     IErMin= 9 ErrMin= 3.08D-07
 ErrMax= 3.08D-07  0.00D+00 EMaxC= 1.00D-01 BMatC= 1.31D-11 BMatP= 2.08D-10
 IDIUse=1 WtCom= 1.00D+00 WtEn= 0.00D+00
 Coeff-Com:  0.745D-04-0.170D-02-0.137D-02-0.201D-02-0.622D-02 0.208D-01
 Coeff-Com:  0.142D+00 0.245D+00 0.603D+00
 Coeff:      0.745D-04-0.170D-02-0.137D-02-0.201D-02-0.622D-02 0.208D-01
 Coeff:      0.142D+00 0.245D+00 0.603D+00
 Gap=     0.128 Goal=   None    Shift=    0.000
 RMSDP=8.02D-07 MaxDP=6.12D-05 DE=-2.34D-10 OVMax= 1.85D-06

 Cycle  10  Pass 1  IDiag  1:
 E= -1150.93764773498     Delta-E=       -0.000000000005 Rises=F Damp=F
 DIIS: error= 6.79D-08 at cycle  10 NSaved=  10.
 NSaved=10 IEnMin=10 EnMin= -1150.93764773498     IErMin=10 ErrMin= 6.79D-08
 ErrMax= 6.79D-08  0.00D+00 EMaxC= 1.00D-01 BMatC= 8.30D-13 BMatP= 1.31D-11
 IDIUse=1 WtCom= 1.00D+00 WtEn= 0.00D+00
 Coeff-Com:  0.173D-04-0.274D-03-0.232D-03-0.718D-03-0.323D-02-0.638D-03
 Coeff-Com:  0.207D-01 0.668D-01 0.259D+00 0.658D+00
 Coeff:      0.173D-04-0.274D-03-0.232D-03-0.718D-03-0.323D-02-0.638D-03
 Coeff:      0.207D-01 0.668D-01 0.259D+00 0.658D+00
 Gap=     0.128 Goal=   None    Shift=    0.000
 RMSDP=2.16D-07 MaxDP=1.52D-05 DE=-5.46D-12 OVMax= 4.46D-07

 Cycle  11  Pass 1  IDiag  1:
 E= -1150.93764773499     Delta-E=       -0.000000000005 Rises=F Damp=F
 DIIS: error= 2.34D-08 at cycle  11 NSaved=  11.
 NSaved=11 IEnMin=11 EnMin= -1150.93764773499     IErMin=11 ErrMin= 2.34D-08
 ErrMax= 2.34D-08  0.00D+00 EMaxC= 1.00D-01 BMatC= 1.69D-13 BMatP= 8.30D-13
 IDIUse=1 WtCom= 1.00D+00 WtEn= 0.00D+00
 Coeff-Com:  0.211D-05 0.458D-04 0.246D-04-0.126D-03-0.664D-03-0.241D-02
 Coeff-Com: -0.641D-02 0.438D-02 0.605D-01 0.359D+00 0.585D+00
 Coeff:      0.211D-05 0.458D-04 0.246D-04-0.126D-03-0.664D-03-0.241D-02
 Coeff:     -0.641D-02 0.438D-02 0.605D-01 0.359D+00 0.585D+00
 Gap=     0.128 Goal=   None    Shift=    0.000
 RMSDP=6.23D-08 MaxDP=4.85D-06 DE=-5.46D-12 OVMax= 1.79D-07

 Cycle  12  Pass 1  IDiag  1:
 E= -1150.93764773498     Delta-E=        0.000000000004 Rises=F Damp=F
 DIIS: error= 6.59D-09 at cycle  12 NSaved=  12.
 NSaved=12 IEnMin=11 EnMin= -1150.93764773499     IErMin=12 ErrMin= 6.59D-09
 ErrMax= 6.59D-09  0.00D+00 EMaxC= 1.00D-01 BMatC= 6.83D-15 BMatP= 1.69D-13
 IDIUse=1 WtCom= 1.00D+00 WtEn= 0.00D+00
 Coeff-Com: -0.412D-06 0.395D-04 0.250D-04-0.265D-04-0.189D-03-0.125D-02
 Coeff-Com: -0.422D-02-0.202D-02 0.129D-01 0.130D+00 0.250D+00 0.614D+00
 Coeff:     -0.412D-06 0.395D-04 0.250D-04-0.265D-04-0.189D-03-0.125D-02
 Coeff:     -0.422D-02-0.202D-02 0.129D-01 0.130D+00 0.250D+00 0.614D+00
 Gap=     0.128 Goal=   None    Shift=    0.000
 RMSDP=1.19D-08 MaxDP=8.03D-07 DE= 4.09D-12 OVMax= 4.63D-08

 Cycle  13  Pass 1  IDiag  1:
 E= -1150.93764773499     Delta-E=       -0.000000000011 Rises=F Damp=F
 DIIS: error= 2.02D-09 at cycle  13 NSaved=  13.
 NSaved=13 IEnMin=13 EnMin= -1150.93764773499     IErMin=13 ErrMin= 2.02D-09
 ErrMax= 2.02D-09  0.00D+00 EMaxC= 1.00D-01 BMatC= 8.58D-16 BMatP= 6.83D-15
 IDIUse=1 WtCom= 1.00D+00 WtEn= 0.00D+00
 Coeff-Com: -0.294D-06 0.109D-04 0.775D-05 0.406D-05 0.658D-05-0.243D-03
 Coeff-Com: -0.110D-02-0.149D-02-0.208D-02 0.173D-01 0.317D-01 0.275D+00
 Coeff-Com:  0.681D+00
 Coeff:     -0.294D-06 0.109D-04 0.775D-05 0.406D-05 0.658D-05-0.243D-03
 Coeff:     -0.110D-02-0.149D-02-0.208D-02 0.173D-01 0.317D-01 0.275D+00
 Coeff:      0.681D+00
 Gap=     0.128 Goal=   None    Shift=    0.000
 RMSDP=1.24D-08 MaxDP=1.02D-06 DE=-1.14D-11 OVMax= 1.44D-08

 Cycle  14  Pass 1  IDiag  1:
 E= -1150.93764773498     Delta-E=        0.000000000010 Rises=F Damp=F
 DIIS: error= 5.00D-10 at cycle  14 NSaved=  14.
 NSaved=14 IEnMin=13 EnMin= -1150.93764773499     IErMin=14 ErrMin= 5.00D-10
 ErrMax= 5.00D-10  0.00D+00 EMaxC= 1.00D-01 BMatC= 5.66D-17 BMatP= 8.58D-16
 IDIUse=1 WtCom= 1.00D+00 WtEn= 0.00D+00
 Coeff-Com: -0.110D-06 0.162D-05 0.233D-05 0.480D-05 0.189D-04 0.120D-04
 Coeff-Com: -0.867D-04-0.435D-03-0.199D-02-0.317D-02-0.102D-01 0.533D-01
 Coeff-Com:  0.261D+00 0.702D+00
 Coeff:     -0.110D-06 0.162D-05 0.233D-05 0.480D-05 0.189D-04 0.120D-04
 Coeff:     -0.867D-04-0.435D-03-0.199D-02-0.317D-02-0.102D-01 0.533D-01
 Coeff:      0.261D+00 0.702D+00
 Gap=     0.128 Goal=   None    Shift=    0.000
 RMSDP=1.37D-08 MaxDP=9.72D-07 DE= 1.05D-11 OVMax= 2.24D-09

 Cycle  15  Pass 1  IDiag  1:
 E= -1150.93764773499     Delta-E=       -0.000000000006 Rises=F Damp=F
 DIIS: error= 2.78D-10 at cycle  15 NSaved=  15.
 NSaved=15 IEnMin=13 EnMin= -1150.93764773499     IErMin=15 ErrMin= 2.78D-10
 ErrMax= 2.78D-10  0.00D+00 EMaxC= 1.00D-01 BMatC= 1.29D-17 BMatP= 5.66D-17
 IDIUse=1 WtCom= 1.00D+00 WtEn= 0.00D+00
 Coeff-Com: -0.344D-07-0.125D-06 0.539D-06 0.168D-05 0.684D-05 0.240D-04
 Coeff-Com:  0.409D-04-0.101D-03-0.827D-03-0.268D-02-0.822D-02 0.643D-02
 Coeff-Com:  0.862D-01 0.390D+00 0.530D+00
 Coeff:     -0.344D-07-0.125D-06 0.539D-06 0.168D-05 0.684D-05 0.240D-04
 Coeff:      0.409D-04-0.101D-03-0.827D-03-0.268D-02-0.822D-02 0.643D-02
 Coeff:      0.862D-01 0.390D+00 0.530D+00
 Gap=     0.128 Goal=   None    Shift=    0.000
 RMSDP=8.69D-09 MaxDP=6.15D-07 DE=-6.37D-12 OVMax= 1.45D-09

 SCF Done:  E(RB3LYP) =  -1150.93764773     A.U. after   15 cycles
            NFock= 15  Conv=0.87D-08     -V/T= 2.0028
 KE= 1.147763540877D+03 PE=-3.592289164640D+03 EE= 8.651694277610D+02
 Leave Link  502 at Mon Sep 28 02:14:46 2026, MaxMem=  1610612736 cpu:             108.5 elap:              15.2
 (Enter /share/software/user/restricted/gaussian/g16.B01/l701.exe)
 ... and contract with generalized density number  0.
 Compute integral first derivatives.
 Leave Link  701 at Mon Sep 28 02:14:46 2026, MaxMem=  1610612736 cpu:               1.2 elap:               0.2
 (Enter /share/software/user/restricted/gaussian/g16.B01/l702.exe)
 L702 exits ... SP integral derivatives will be done elsewhere.
 Leave Link  702 at Mon Sep 28 02:14:46 2026, MaxMem=  1610612736 cpu:               0.2 elap:               0.0
 (Enter /share/software/user/restricted/gaussian/g16.B01/l703.exe)
 Integral derivatives from FoFJK, PRISM(SPDF).
 Compute integral first derivatives, UseDBF=F ICtDFT=           0.
 Calling FoFJK, ICntrl=      2127 FMM=F ISym2X=1 I1Cent= 0 IOpClX= 0 NMat=1 NMatS=1 NMatT=0.
 FoFJK:  IHMeth= 1 ICntrl=    2127 DoSepK=F KAlg= 0 I1Cent=           0 FoldK=F
 IRaf=         0 NMat=       1 IRICut=       1 DoRegI=T DoRafI=F ISym2E= 1 IDoP0=0 IntGTp=1.
 FoFCou: FMM=F IPFlag=           0 FMFlag=      100000 FMFlg1=         800
         NFxFlg=           0 DoJE=F BraDBF=F KetDBF=F FulRan=T
         wScrn=  0.000000 ICntrl=      2127 IOpCl=  0 I1Cent=           0 NGrid=           0
         NMat0=    1 NMatS0=      1 NMatT0=    0 NMatD0=    1 NMtDS0=    0 NMtDT0=    0
 Petite list used in FoFCou.
 Leave Link  703 at Mon Sep 28 02:14:50 2026, MaxMem=  1610612736 cpu:              25.7 elap:               3.2
 (Enter /share/software/user/restricted/gaussian/g16.B01/l716.exe)
 Dipole        =-1.41796220D+00-1.34152594D+00 3.56374020D-33
 ***** Axes restored to original set *****
 -------------------------------------------------------------------
 Center     Atomic                   Forces (Hartrees/Bohr)
 Number     Number              X              Y              Z
 -------------------------------------------------------------------
      1        6           0.000139653   -0.001483767    0.000000000
      2        6          -0.000891491    0.000969563   -0.000000000
      3        6          -0.000180801   -0.000310902    0.000000000
      4        6           0.000643025    0.000453896   -0.000000000
      5        6          -0.001679894   -0.000977545    0.000000000
      6        6           0.000385208    0.000786834   -0.000000000
      7       17           0.000519485    0.000137721   -0.000000000
      8        1           0.000003483   -0.000125242    0.000000000
      9        1          -0.000059382   -0.000053538    0.000000000
     10       17           0.001104513    0.000597827   -0.000000000
     11        1           0.000016201    0.000005154   -0.000000000
 -------------------------------------------------------------------
 Cartesian Forces:  Max     0.001679894 RMS     0.000580971
 Leave Link  716 at Mon Sep 28 02:14:50 2026, MaxMem=  1610612736 cpu:               0.4 elap:               0.1
 (Enter /share/software/user/restricted/gaussian/g16.B01/l103.exe)

 GradGradGradGradGradGradGradGradGradGradGradGradGradGradGradGradGradGrad
 Berny optimization.
 Using GEDIIS/GDIIS optimizer.
 FormGI is forming the generalized inverse of G from B-inverse, IUseBI=4.
 Internal  Forces:  Max     0.001254953 RMS     0.000298689
 Search for a local minimum.
 Step number   5 out of a maximum of   57
 All quantities printed in internal units (Hartrees-Bohrs-Radians)
 RMS Force = .29869D-03 SwitMx=.10000D-02 MixMth= 2
 Mixed Optimization -- En-DIIS/RFO-DIIS
 Swapping is turned off.
 Update second derivatives using D2CorX and points    1    2    3    4    5
 DE= -6.79D-05 DEPred=-5.39D-05 R= 1.26D+00
 TightC=F SS=  1.41D+00  RLast= 3.02D-02 DXNew= 8.4853D-01 9.0520D-02
 Trust test= 1.26D+00 RLast= 3.02D-02 DXMaxT set to 5.05D-01
 ITU=  1  1  1  1  0
     Eigenvalues ---    0.02112   0.02119   0.02120   0.02126   0.02135
     Eigenvalues ---    0.02152   0.02165   0.02201   0.08101   0.15600
     Eigenvalues ---    0.16065   0.16181   0.19568   0.23052   0.25015
     Eigenvalues ---    0.25427   0.28535   0.30753   0.33884   0.33960
     Eigenvalues ---    0.34791   0.41855   0.42217   0.45912   0.46077
     Eigenvalues ---    0.46948   0.48416
 En-DIIS/RFO-DIIS/Sim-DIIS IScMMF=       -3 using points:     5    4
 RFO step:  Lambda=-1.85556181D-05.
 NNeg= 0 NGDIIS= 2 SimSw=  2.50D-01 Rises=F DC= -6.79D-05 SmlDif=  1.00D-05
 NRisDI= 0 DoIntr=F SqrtH=F CThrHd= 10.0 CDAdj=  3.0
 RMS Error=  0.1482474996D-02 NUsed= 2 OKEnD=T EnDIS=F
 InvSVX:  RCond= 2.27D-04 Info=           0 Equed=N FErr=  1.58D-15 BErr=  6.64D-17
 DidBck=F Rises=F RFO-DIIS coefs:    1.24647   -0.24647
 Iteration  1 RMS(Cart)=  0.00143830 RMS(Int)=  0.00000162
 Iteration  2 RMS(Cart)=  0.00000237 RMS(Int)=  0.00000077
 Iteration  3 RMS(Cart)=  0.00000000 RMS(Int)=  0.00000077
 ITry= 1 IFail=0 DXMaxC= 5.66D-03 DCOld= 1.00D+10 DXMaxT= 5.05D-01 DXLimC= 3.00D+00 Rises=F
 ClnCor:  largest displacement from symmetrization is 1.63D-10 for atom     9.
 Variable       Old X    -DE/DX   Delta X   Delta X   Delta X     New X
                                 (Linear)    (Quad)   (Total)
    R1        2.59071  -0.00084  -0.00247  -0.00110  -0.00357   2.58714
    R2        2.67224  -0.00052  -0.00013  -0.00122  -0.00135   2.67089
    R3        2.63190   0.00020  -0.00024   0.00053   0.00029   2.63219
    R4        3.54144   0.00053   0.00565  -0.00034   0.00531   3.54675
    R5        2.64027  -0.00025   0.00020  -0.00054  -0.00034   2.63993
    R6        2.05456   0.00006   0.00007   0.00021   0.00028   2.05484
    R7        2.62804   0.00027   0.00011   0.00079   0.00090   2.62894
    R8        2.04853   0.00005   0.00016   0.00022   0.00038   2.04890
    R9        2.62904   0.00021  -0.00055   0.00074   0.00019   2.62923
   R10        3.43390  -0.00125   0.00013  -0.00460  -0.00447   3.42943
   R11        2.06220  -0.00001  -0.00020   0.00011  -0.00008   2.06212
    A1        1.97091   0.00069   0.00158   0.00237   0.00395   1.97486
    A2        2.23395  -0.00032   0.00068  -0.00189  -0.00120   2.23275
    A3        2.07894   0.00035   0.00017   0.00159   0.00177   2.08070
    A4        1.97030  -0.00003  -0.00085   0.00029  -0.00056   1.96974
    A5        2.04931  -0.00006  -0.00133   0.00010  -0.00123   2.04808
    A6        2.13383   0.00014   0.00064   0.00067   0.00132   2.13515
    A7        2.10004  -0.00008   0.00068  -0.00077  -0.00009   2.09995
    A8        2.04768   0.00026   0.00018   0.00151   0.00169   2.04937
    A9        2.11796  -0.00007   0.00015  -0.00043  -0.00029   2.11767
   A10        2.11755  -0.00019  -0.00033  -0.00108  -0.00141   2.11614
   A11        2.14335  -0.00040   0.00100  -0.00190  -0.00090   2.14245
   A12        2.05022   0.00011  -0.00075   0.00070  -0.00005   2.05017
   A13        2.08961   0.00028  -0.00025   0.00120   0.00095   2.09056
   A14        2.12117  -0.00018  -0.00212  -0.00019  -0.00231   2.11886
   A15        2.10698   0.00008   0.00009   0.00037   0.00046   2.10745
   A16        2.05504   0.00010   0.00202  -0.00018   0.00185   2.05688
    D1       -0.00000  -0.00000   0.00000   0.00000   0.00000   0.00000
    D2        3.14159   0.00000   0.00000   0.00000   0.00000   3.14159
    D3       -0.00000  -0.00000   0.00000   0.00000   0.00000   0.00000
    D4        3.14159  -0.00000   0.00000  -0.00000   0.00000   3.14159
    D5        0.00000  -0.00000   0.00000  -0.00000   0.00000   0.00000
    D6        3.14159   0.00000   0.00000  -0.00000   0.00000   3.14159
    D7        3.14159  -0.00000   0.00000  -0.00000   0.00000   3.14159
    D8       -0.00000  -0.00000   0.00000  -0.00000   0.00000   0.00000
    D9       -0.00000   0.00000   0.00000   0.00000   0.00000   0.00000
   D10        3.14159  -0.00000   0.00000   0.00000   0.00000   3.14159
   D11        3.14159  -0.00000   0.00000   0.00000   0.00000   3.14159
   D12        0.00000  -0.00000   0.00000   0.00000   0.00000   0.00000
   D13        0.00000   0.00000   0.00000   0.00000   0.00000   0.00000
   D14        3.14159  -0.00000   0.00000   0.00000   0.00000   3.14159
   D15        3.14159  -0.00000   0.00000   0.00000   0.00000   3.14159
   D16       -0.00000  -0.00000   0.00000   0.00000   0.00000   0.00000
   D17        0.00000  -0.00000   0.00000  -0.00000  -0.00000   0.00000
   D18        3.14159  -0.00000   0.00000   0.00000   0.00000   3.14159
   D19        3.14159   0.00000   0.00000  -0.00000   0.00000   3.14159
   D20       -0.00000  -0.00000   0.00000  -0.00000   0.00000   0.00000
         Item               Value     Threshold  Converged?
 Maximum Force            0.001255     0.000450     NO 
 RMS     Force            0.000299     0.000300     YES
 Maximum Displacement     0.005658     0.001800     NO 
 RMS     Displacement     0.001438     0.001200     NO 
 Predicted change in Energy=-9.278731D-06
 Lowest energy point so far.  Saving SCF results.
 GradGradGradGradGradGradGradGradGradGradGradGradGradGradGradGradGradGrad

 Leave Link  103 at Mon Sep 28 02:14:50 2026, MaxMem=  1610612736 cpu:               0.2 elap:               0.0
 (Enter /share/software/user/restricted/gaussian/g16.B01/l202.exe)
                          Input orientation:                          
 ---------------------------------------------------------------------
 Center     Atomic      Atomic             Coordinates (Angstroms)
 Number     Number       Type             X           Y           Z
 ---------------------------------------------------------------------
      1          6           0       -0.005702    1.472121   -0.000000
      2          6           0        1.122561    0.696662   -0.000000
      3          6           0        1.205804   -0.693745    0.000000
      4          6           0        0.005505   -1.408492    0.000000
      5          6           0       -1.176756   -0.675261    0.000000
      6          6           0       -1.199740    0.715876   -0.000000
      7         17           0        2.805376    1.527767   -0.000000
      8          1           0        2.157680   -1.219398    0.000000
      9          1           0       -0.005110   -2.492673    0.000000
     10         17           0       -2.736761   -1.602510    0.000000
     11          1           0       -2.172857    1.209654   -0.000000
 ---------------------------------------------------------------------
                    Distance matrix (angstroms):
                    1          2          3          4          5
     1  C    0.000000
     2  C    1.369056   0.000000
     3  C    2.481677   1.392896   0.000000
     4  C    2.880635   2.383167   1.396989   0.000000
     5  C    2.445939   2.677504   2.382631   1.391175   0.000000
     6  C    1.413377   2.322381   2.788130   2.442448   1.391327
     7  Cl   2.811628   1.876859   2.737470   4.057202   4.550901
     8  H    3.453187   2.177787   1.087373   2.160466   3.378542
     9  H    3.964794   3.382824   2.168514   1.084233   2.162346
    10  Cl   4.112425   4.492278   4.045945   2.749122   1.814775
    11  H    2.182991   3.335108   3.877922   3.405870   2.131929
                    6          7          8          9         10
     6  C    0.000000
     7  Cl   4.086578   0.000000
     8  H    3.875249   2.822486   0.000000
     9  H    3.423730   4.905381   2.509759   0.000000
    10  Cl   2.781608   6.365054   4.909413   2.873032   0.000000
    11  H    1.091226   4.988387   4.965264   4.290262   2.868144
                   11
    11  H    0.000000
 Stoichiometry    C6H3Cl2(1-)
 Framework group  CS[SG(C6H3Cl2)]
 Deg. of freedom    19
 Full point group                 CS      NOp   2
 RotChk:  IX=2 Diff= 6.99D-04
 Largest Abelian subgroup         CS      NOp   2
 Largest concise Abelian subgroup C1      NOp   1
                         Standard orientation:                         
 ---------------------------------------------------------------------
 Center     Atomic      Atomic             Coordinates (Angstroms)
 Number     Number       Type             X           Y           Z
 ---------------------------------------------------------------------
      1          6           0        1.270747    0.825062    0.000000
      2          6           0        0.000000    1.334492    0.000000
      3          6           0       -1.203507    0.633257   -0.000000
      4          6           0       -1.133290   -0.761967   -0.000000
      5          6           0        0.132230   -1.339746    0.000000
      6          6           0        1.302951   -0.587947    0.000000
      7         17           0       -0.240758    3.195845   -0.000000
      8          1           0       -2.168566    1.134297   -0.000000
      9          1           0       -2.029881   -1.371627   -0.000000
     10         17           0        0.224900   -3.152153    0.000000
     11          1           0        2.253248   -1.124333    0.000000
 ---------------------------------------------------------------------
 Rotational constants (GHZ):           5.8296796           0.6480006           0.5831772
 Leave Link  202 at Mon Sep 28 02:14:50 2026, MaxMem=  1610612736 cpu:               0.0 elap:               0.0
 (Enter /share/software/user/restricted/gaussian/g16.B01/l301.exe)
 Standard basis: 6-311++G(d) (5D, 7F)
 Ernie: Thresh=  0.10000D-02 Tol=  0.10000D-05 Strict=F.
 There are   160 symmetry adapted cartesian basis functions of A'  symmetry.
 There are    52 symmetry adapted cartesian basis functions of A"  symmetry.
 There are   152 symmetry adapted basis functions of A'  symmetry.
 There are    52 symmetry adapted basis functions of A"  symmetry.
   204 basis functions,   340 primitive gaussians,   212 cartesian basis functions
    37 alpha electrons       37 beta electrons
       nuclear repulsion energy       428.4217656109 Hartrees.
 IExCor=  402 DFT=T Ex+Corr=B3LYP ExCW=0 ScaHFX=  0.200000
 ScaDFX=  0.800000  0.720000  1.000000  0.810000 ScalE2=  1.000000  1.000000
 IRadAn=      5 IRanWt=     -1 IRanGd=            0 ICorTp=0 IEmpDi=  4
 NAtoms=   11 NActive=   11 NUniq=   11 SFac= 1.00D+00 NAtFMM=   60 NAOKFM=F Big=F
 Integral buffers will be    131072 words long.
 Raffenetti 2 integral format.
 Two-electron integral symmetry is turned on.
 Leave Link  301 at Mon Sep 28 02:14:50 2026, MaxMem=  1610612736 cpu:               0.5 elap:               0.1
 (Enter /share/software/user/restricted/gaussian/g16.B01/l302.exe)
 NPDir=0 NMtPBC=     1 NCelOv=     1 NCel=       1 NClECP=     1 NCelD=      1
         NCelK=      1 NCelE2=     1 NClLst=     1 CellRange=     0.0.
 One-electron integrals computed using PRISM.
 One-electron integral symmetry used in STVInt
 NBasis=   204 RedAO= T EigKep=  1.73D-06  NBF=   152    52
 NBsUse=   204 1.00D-06 EigRej= -1.00D+00 NBFU=   152    52
 Precomputing XC quadrature grid using
 IXCGrd= 4 IRadAn=           5 IRanWt=          -1 IRanGd=           0 AccXCQ= 0.00D+00.
 Generated NRdTot=       0 NPtTot=           0 NUsed=           0 NTot=          32
 NSgBfM=   209   209   209   209   209 MxSgAt=    11 MxSgA2=    11.
 Leave Link  302 at Mon Sep 28 02:14:50 2026, MaxMem=  1610612736 cpu:               1.5 elap:               0.2
 (Enter /share/software/user/restricted/gaussian/g16.B01/l303.exe)
 DipDrv:  MaxL=1.
 Leave Link  303 at Mon Sep 28 02:14:50 2026, MaxMem=  1610612736 cpu:               0.5 elap:               0.1
 (Enter /share/software/user/restricted/gaussian/g16.B01/l401.exe)
 Initial guess from the checkpoint file:  "calcs/b3lyp_gas/chks/ClPh_25_anion.chk"
 B after Tr=     0.000000   -0.000000    0.000000
         Rot=    1.000000   -0.000000   -0.000000   -0.000152 Ang=  -0.02 deg.
 Guess basis will be translated and rotated to current coordinates.
 JPrj=2 DoOrth=T DoCkMO=T.
 Initial guess orbital symmetries:
       Occupied  (A') (A') (A') (A') (A') (A') (A') (A') (A') (A')
                 (A') (A") (A') (A') (A") (A') (A') (A') (A') (A')
                 (A') (A') (A') (A') (A') (A') (A') (A') (A") (A")
                 (A') (A') (A") (A') (A") (A") (A')
       Virtual   (A') (A') (A') (A") (A') (A") (A') (A') (A') (A")
                 (A') (A") (A') (A') (A") (A') (A') (A') (A") (A')
                 (A') (A") (A') (A") (A") (A') (A') (A') (A") (A')
                 (A') (A") (A') (A') (A') (A') (A') (A') (A') (A')
                 (A') (A') (A') (A') (A') (A') (A') (A') (A') (A")
                 (A') (A") (A') (A') (A') (A') (A") (A') (A") (A")
                 (A') (A") (A") (A') (A') (A') (A") (A') (A') (A')
                 (A') (A') (A') (A") (A') (A") (A') (A') (A') (A')
                 (A") (A') (A") (A') (A') (A') (A') (A') (A") (A')
                 (A') (A") (A') (A") (A') (A") (A') (A') (A") (A")
                 (A') (A') (A') (A') (A') (A') (A") (A") (A') (A')
                 (A') (A") (A") (A") (A') (A') (A') (A') (A') (A")
                 (A') (A") (A') (A") (A') (A') (A') (A') (A') (A')
                 (A') (A") (A") (A") (A') (A") (A") (A') (A") (A')
                 (A') (A') (A') (A') (A') (A') (A') (A') (A') (A')
                 (A') (A') (A') (A') (A') (A') (A') (A') (A') (A")
                 (A") (A') (A') (A') (A') (A') (A')
 The electronic state of the initial guess is 1-A'.
 Leave Link  401 at Mon Sep 28 02:14:50 2026, MaxMem=  1610612736 cpu:               1.4 elap:               0.2
 (Enter /share/software/user/restricted/gaussian/g16.B01/l502.exe)
 Keep R1 ints in memory in symmetry-blocked form, NReq=334495850.
 FoFCou: FMM=F IPFlag=           0 FMFlag=           0 FMFlg1=           0
         NFxFlg=           0 DoJE=F BraDBF=F KetDBF=F FulRan=T
         wScrn=  0.000000 ICntrl=       600 IOpCl=  0 I1Cent=           0 NGrid=           0
         NMat0=    1 NMatS0=  20910 NMatT0=    0 NMatD0=    1 NMtDS0=    0 NMtDT0=    0
 Petite list used in FoFCou.
 Closed shell SCF:
 Using DIIS extrapolation, IDIIS=  1040.
 NGot=  1610612736 LenX=  1494649070 LenY=  1494603685
 Requested convergence on RMS density matrix=1.00D-08 within 128 cycles.
 Requested convergence on MAX density matrix=1.00D-06.
 Requested convergence on             energy=1.00D-06.
 No special actions if energy rises.

 Cycle   1  Pass 1  IDiag  1:
 E= -1150.93764310002    
 DIIS: error= 1.24D-04 at cycle   1 NSaved=   1.
 NSaved= 1 IEnMin= 1 EnMin= -1150.93764310002     IErMin= 1 ErrMin= 1.24D-04
 ErrMax= 1.24D-04  0.00D+00 EMaxC= 1.00D-01 BMatC= 8.97D-06 BMatP= 8.97D-06
 IDIUse=3 WtCom= 9.99D-01 WtEn= 1.24D-03
 Coeff-Com:  0.100D+01
 Coeff-En:   0.100D+01
 Coeff:      0.100D+01
 Gap=     0.128 Goal=   None    Shift=    0.000
 RMSDP=1.95D-03 MaxDP=9.40D-02              OVMax= 2.57D-03

 Cycle   2  Pass 1  IDiag  1:
 E= -1150.93765864513     Delta-E=       -0.000015545114 Rises=F Damp=F
 DIIS: error= 7.88D-05 at cycle   2 NSaved=   2.
 NSaved= 2 IEnMin= 2 EnMin= -1150.93765864513     IErMin= 2 ErrMin= 7.88D-05
 ErrMax= 7.88D-05  0.00D+00 EMaxC= 1.00D-01 BMatC= 9.19D-07 BMatP= 8.97D-06
 IDIUse=1 WtCom= 1.00D+00 WtEn= 0.00D+00
 Coeff-Com:  0.112D+00 0.888D+00
 Coeff:      0.112D+00 0.888D+00
 Gap=     0.127 Goal=   None    Shift=    0.000
 RMSDP=2.17D-04 MaxDP=1.42D-02 DE=-1.55D-05 OVMax= 9.55D-04

 Cycle   3  Pass 1  IDiag  1:
 E= -1150.93765781187     Delta-E=        0.000000833263 Rises=F Damp=F
 DIIS: error= 1.25D-04 at cycle   3 NSaved=   3.
 NSaved= 3 IEnMin= 2 EnMin= -1150.93765864513     IErMin= 2 ErrMin= 7.88D-05
 ErrMax= 1.25D-04  0.00D+00 EMaxC= 1.00D-01 BMatC= 1.64D-06 BMatP= 9.19D-07
 IDIUse=3 WtCom= 4.72D-01 WtEn= 5.28D-01
 Coeff-Com: -0.151D-01 0.582D+00 0.433D+00
 Coeff-En:   0.000D+00 0.628D+00 0.372D+00
 Coeff:     -0.712D-02 0.606D+00 0.401D+00
 Gap=     0.128 Goal=   None    Shift=    0.000
 RMSDP=1.80D-04 MaxDP=1.40D-02 DE= 8.33D-07 OVMax= 5.83D-04

 Cycle   4  Pass 1  IDiag  1:
 E= -1150.93765963675     Delta-E=       -0.000001824877 Rises=F Damp=F
 DIIS: error= 3.11D-05 at cycle   4 NSaved=   4.
 NSaved= 4 IEnMin= 4 EnMin= -1150.93765963675     IErMin= 4 ErrMin= 3.11D-05
 ErrMax= 3.11D-05  0.00D+00 EMaxC= 1.00D-01 BMatC= 6.27D-08 BMatP= 9.19D-07
 IDIUse=1 WtCom= 1.00D+00 WtEn= 0.00D+00
 Coeff-Com: -0.131D-01 0.247D+00 0.220D+00 0.547D+00
 Coeff:     -0.131D-01 0.247D+00 0.220D+00 0.547D+00
 Gap=     0.128 Goal=   None    Shift=    0.000
 RMSDP=5.36D-05 MaxDP=4.49D-03 DE=-1.82D-06 OVMax= 1.21D-04

 Cycle   5  Pass 1  IDiag  1:
 E= -1150.93765970268     Delta-E=       -0.000000065936 Rises=F Damp=F
 DIIS: error= 7.65D-06 at cycle   5 NSaved=   5.
 NSaved= 5 IEnMin= 5 EnMin= -1150.93765970268     IErMin= 5 ErrMin= 7.65D-06
 ErrMax= 7.65D-06  0.00D+00 EMaxC= 1.00D-01 BMatC= 1.17D-08 BMatP= 6.27D-08
 IDIUse=1 WtCom= 1.00D+00 WtEn= 0.00D+00
 Coeff-Com: -0.536D-02 0.672D-01 0.769D-01 0.320D+00 0.541D+00
 Coeff:     -0.536D-02 0.672D-01 0.769D-01 0.320D+00 0.541D+00
 Gap=     0.127 Goal=   None    Shift=    0.000
 RMSDP=1.23D-05 MaxDP=1.25D-03 DE=-6.59D-08 OVMax= 3.50D-05

 Cycle   6  Pass 1  IDiag  1:
 E= -1150.93765971418     Delta-E=       -0.000000011494 Rises=F Damp=F
 DIIS: error= 2.32D-06 at cycle   6 NSaved=   6.
 NSaved= 6 IEnMin= 6 EnMin= -1150.93765971418     IErMin= 6 ErrMin= 2.32D-06
 ErrMax= 2.32D-06  0.00D+00 EMaxC= 1.00D-01 BMatC= 7.08D-10 BMatP= 1.17D-08
 IDIUse=1 WtCom= 1.00D+00 WtEn= 0.00D+00
 Coeff-Com: -0.905D-03-0.317D-02 0.526D-02 0.790D-01 0.245D+00 0.675D+00
 Coeff:     -0.905D-03-0.317D-02 0.526D-02 0.790D-01 0.245D+00 0.675D+00
 Gap=     0.128 Goal=   None    Shift=    0.000
 RMSDP=1.38D-05 MaxDP=1.17D-03 DE=-1.15D-08 OVMax= 1.49D-05

 Cycle   7  Pass 1  IDiag  1:
 E= -1150.93765971491     Delta-E=       -0.000000000738 Rises=F Damp=F
 DIIS: error= 1.61D-06 at cycle   7 NSaved=   7.
 NSaved= 7 IEnMin= 7 EnMin= -1150.93765971491     IErMin= 7 ErrMin= 1.61D-06
 ErrMax= 1.61D-06  0.00D+00 EMaxC= 1.00D-01 BMatC= 1.28D-10 BMatP= 7.08D-10
 IDIUse=1 WtCom= 1.00D+00 WtEn= 0.00D+00
 Coeff-Com:  0.945D-04-0.941D-02-0.508D-02 0.191D-01 0.905D-01 0.373D+00
 Coeff-Com:  0.532D+00
 Coeff:      0.945D-04-0.941D-02-0.508D-02 0.191D-01 0.905D-01 0.373D+00
 Coeff:      0.532D+00
 Gap=     0.128 Goal=   None    Shift=    0.000
 RMSDP=2.42D-06 MaxDP=1.92D-04 DE=-7.38D-10 OVMax= 6.43D-06

 Cycle   8  Pass 1  IDiag  1:
 E= -1150.93765971503     Delta-E=       -0.000000000121 Rises=F Damp=F
 DIIS: error= 6.30D-07 at cycle   8 NSaved=   8.
 NSaved= 8 IEnMin= 8 EnMin= -1150.93765971503     IErMin= 8 ErrMin= 6.30D-07
 ErrMax= 6.30D-07  0.00D+00 EMaxC= 1.00D-01 BMatC= 2.61D-11 BMatP= 1.28D-10
 IDIUse=1 WtCom= 1.00D+00 WtEn= 0.00D+00
 Coeff-Com:  0.201D-03-0.594D-02-0.447D-02 0.184D-03 0.197D-01 0.136D+00
 Coeff-Com:  0.351D+00 0.504D+00
 Coeff:      0.201D-03-0.594D-02-0.447D-02 0.184D-03 0.197D-01 0.136D+00
 Coeff:      0.351D+00 0.504D+00
 Gap=     0.128 Goal=   None    Shift=    0.000
 RMSDP=3.41D-07 MaxDP=2.89D-05 DE=-1.21D-10 OVMax= 2.60D-06

 Cycle   9  Pass 1  IDiag  1:
 E= -1150.93765971507     Delta-E=       -0.000000000033 Rises=F Damp=F
 DIIS: error= 9.69D-08 at cycle   9 NSaved=   9.
 NSaved= 9 IEnMin= 9 EnMin= -1150.93765971507     IErMin= 9 ErrMin= 9.69D-08
 ErrMax= 9.69D-08  0.00D+00 EMaxC= 1.00D-01 BMatC= 2.22D-12 BMatP= 2.61D-11
 IDIUse=1 WtCom= 1.00D+00 WtEn= 0.00D+00
 Coeff-Com:  0.890D-04-0.198D-02-0.170D-02-0.191D-02-0.103D-02 0.246D-01
 Coeff-Com:  0.133D+00 0.287D+00 0.561D+00
 Coeff:      0.890D-04-0.198D-02-0.170D-02-0.191D-02-0.103D-02 0.246D-01
 Coeff:      0.133D+00 0.287D+00 0.561D+00
 Gap=     0.128 Goal=   None    Shift=    0.000
 RMSDP=1.90D-07 MaxDP=1.20D-05 DE=-3.32D-11 OVMax= 5.10D-07

 Cycle  10  Pass 1  IDiag  1:
 E= -1150.93765971507     Delta-E=       -0.000000000005 Rises=F Damp=F
 DIIS: error= 2.98D-08 at cycle  10 NSaved=  10.
 NSaved=10 IEnMin=10 EnMin= -1150.93765971507     IErMin=10 ErrMin= 2.98D-08
 ErrMax= 2.98D-08  0.00D+00 EMaxC= 1.00D-01 BMatC= 1.23D-13 BMatP= 2.22D-12
 IDIUse=1 WtCom= 1.00D+00 WtEn= 0.00D+00
 Coeff-Com:  0.128D-04-0.148D-03-0.167D-03-0.887D-03-0.289D-02-0.574D-02
 Coeff-Com:  0.128D-01 0.594D-01 0.231D+00 0.706D+00
 Coeff:      0.128D-04-0.148D-03-0.167D-03-0.887D-03-0.289D-02-0.574D-02
 Coeff:      0.128D-01 0.594D-01 0.231D+00 0.706D+00
 Gap=     0.128 Goal=   None    Shift=    0.000
 RMSDP=7.80D-08 MaxDP=5.12D-06 DE=-5.46D-12 OVMax= 2.20D-07

 Cycle  11  Pass 1  IDiag  1:
 E= -1150.93765971508     Delta-E=       -0.000000000004 Rises=F Damp=F
 DIIS: error= 1.09D-08 at cycle  11 NSaved=  11.
 NSaved=11 IEnMin=11 EnMin= -1150.93765971508     IErMin=11 ErrMin= 1.09D-08
 ErrMax= 1.09D-08  0.00D+00 EMaxC= 1.00D-01 BMatC= 3.18D-14 BMatP= 1.23D-13
 IDIUse=1 WtCom= 1.00D+00 WtEn= 0.00D+00
 Coeff-Com:  0.177D-05 0.658D-04 0.547D-04-0.218D-03-0.114D-02-0.372D-02
 Coeff-Com: -0.348D-02 0.911D-02 0.832D-01 0.415D+00 0.501D+00
 Coeff:      0.177D-05 0.658D-04 0.547D-04-0.218D-03-0.114D-02-0.372D-02
 Coeff:     -0.348D-02 0.911D-02 0.832D-01 0.415D+00 0.501D+00
 Gap=     0.128 Goal=   None    Shift=    0.000
 RMSDP=1.69D-08 MaxDP=1.55D-06 DE=-3.64D-12 OVMax= 6.76D-08

 Cycle  12  Pass 1  IDiag  1:
 E= -1150.93765971506     Delta-E=        0.000000000012 Rises=F Damp=F
 DIIS: error= 2.05D-09 at cycle  12 NSaved=  12.
 NSaved=12 IEnMin=11 EnMin= -1150.93765971508     IErMin=12 ErrMin= 2.05D-09
 ErrMax= 2.05D-09  0.00D+00 EMaxC= 1.00D-01 BMatC= 7.31D-16 BMatP= 3.18D-14
 IDIUse=1 WtCom= 1.00D+00 WtEn= 0.00D+00
 Coeff-Com: -0.703D-06 0.426D-04 0.382D-04-0.354D-04-0.300D-03-0.112D-02
 Coeff-Com: -0.340D-02-0.309D-02 0.121D-01 0.995D-01 0.161D+00 0.735D+00
 Coeff:     -0.703D-06 0.426D-04 0.382D-04-0.354D-04-0.300D-03-0.112D-02
 Coeff:     -0.340D-02-0.309D-02 0.121D-01 0.995D-01 0.161D+00 0.735D+00
 Gap=     0.128 Goal=   None    Shift=    0.000
 RMSDP=2.05D-08 MaxDP=1.59D-06 DE= 1.18D-11 OVMax= 1.19D-08

 Cycle  13  Pass 1  IDiag  1:
 E= -1150.93765971506     Delta-E=        0.000000000001 Rises=F Damp=F
 DIIS: error= 1.10D-09 at cycle  13 NSaved=  13.
 NSaved=13 IEnMin=11 EnMin= -1150.93765971508     IErMin=13 ErrMin= 1.10D-09
 ErrMax= 1.10D-09  0.00D+00 EMaxC= 1.00D-01 BMatC= 1.04D-16 BMatP= 7.31D-16
 IDIUse=1 WtCom= 1.00D+00 WtEn= 0.00D+00
 Coeff-Com: -0.426D-06 0.163D-04 0.153D-04-0.275D-05-0.796D-04-0.300D-03
 Coeff-Com: -0.134D-02-0.193D-02 0.829D-03 0.252D-01 0.413D-01 0.327D+00
 Coeff-Com:  0.609D+00
 Coeff:     -0.426D-06 0.163D-04 0.153D-04-0.275D-05-0.796D-04-0.300D-03
 Coeff:     -0.134D-02-0.193D-02 0.829D-03 0.252D-01 0.413D-01 0.327D+00
 Coeff:      0.609D+00
 Gap=     0.128 Goal=   None    Shift=    0.000
 RMSDP=1.12D-08 MaxDP=8.12D-07 DE= 1.36D-12 OVMax= 3.52D-09

 Cycle  14  Pass 1  IDiag  1:
 E= -1150.93765971507     Delta-E=       -0.000000000010 Rises=F Damp=F
 DIIS: error= 4.68D-10 at cycle  14 NSaved=  14.
 NSaved=14 IEnMin=11 EnMin= -1150.93765971508     IErMin=14 ErrMin= 4.68D-10
 ErrMax= 4.68D-10  0.00D+00 EMaxC= 1.00D-01 BMatC= 1.84D-17 BMatP= 1.04D-16
 IDIUse=1 WtCom= 1.00D+00 WtEn= 0.00D+00
 Coeff-Com: -0.115D-06 0.126D-05 0.189D-05 0.583D-05 0.930D-05 0.398D-04
 Coeff-Com: -0.109D-03-0.535D-03-0.203D-02-0.339D-02-0.773D-02 0.390D-01
 Coeff-Com:  0.314D+00 0.661D+00
 Coeff:     -0.115D-06 0.126D-05 0.189D-05 0.583D-05 0.930D-05 0.398D-04
 Coeff:     -0.109D-03-0.535D-03-0.203D-02-0.339D-02-0.773D-02 0.390D-01
 Coeff:      0.314D+00 0.661D+00
 Gap=     0.128 Goal=   None    Shift=    0.000
 RMSDP=3.47D-09 MaxDP=2.21D-07 DE=-9.55D-12 OVMax= 1.08D-09

 SCF Done:  E(RB3LYP) =  -1150.93765972     A.U. after   14 cycles
            NFock= 14  Conv=0.35D-08     -V/T= 2.0028
 KE= 1.147766312208D+03 PE=-3.592299693828D+03 EE= 8.651739562942D+02
 Leave Link  502 at Mon Sep 28 02:15:05 2026, MaxMem=  1610612736 cpu:             103.2 elap:              14.4
 (Enter /share/software/user/restricted/gaussian/g16.B01/l701.exe)
 ... and contract with generalized density number  0.
 Compute integral first derivatives.
 Leave Link  701 at Mon Sep 28 02:15:05 2026, MaxMem=  1610612736 cpu:               1.2 elap:               0.2
 (Enter /share/software/user/restricted/gaussian/g16.B01/l702.exe)
 L702 exits ... SP integral derivatives will be done elsewhere.
 Leave Link  702 at Mon Sep 28 02:15:05 2026, MaxMem=  1610612736 cpu:               0.2 elap:               0.0
 (Enter /share/software/user/restricted/gaussian/g16.B01/l703.exe)
 Integral derivatives from FoFJK, PRISM(SPDF).
 Compute integral first derivatives, UseDBF=F ICtDFT=           0.
 Calling FoFJK, ICntrl=      2127 FMM=F ISym2X=1 I1Cent= 0 IOpClX= 0 NMat=1 NMatS=1 NMatT=0.
 FoFJK:  IHMeth= 1 ICntrl=    2127 DoSepK=F KAlg= 0 I1Cent=           0 FoldK=F
 IRaf=         0 NMat=       1 IRICut=       1 DoRegI=T DoRafI=F ISym2E= 1 IDoP0=0 IntGTp=1.
 FoFCou: FMM=F IPFlag=           0 FMFlag=      100000 FMFlg1=         800
         NFxFlg=           0 DoJE=F BraDBF=F KetDBF=F FulRan=T
         wScrn=  0.000000 ICntrl=      2127 IOpCl=  0 I1Cent=           0 NGrid=           0
         NMat0=    1 NMatS0=      1 NMatT0=    0 NMatD0=    1 NMtDS0=    0 NMtDT0=    0
 Petite list used in FoFCou.
 Leave Link  703 at Mon Sep 28 02:15:09 2026, MaxMem=  1610612736 cpu:              25.9 elap:               3.2
 (Enter /share/software/user/restricted/gaussian/g16.B01/l716.exe)
 Dipole        =-1.41061969D+00-1.35601109D+00-5.49209308D-32
 ***** Axes restored to original set *****
 -------------------------------------------------------------------
 Center     Atomic                   Forces (Hartrees/Bohr)
 Number     Number              X              Y              Z
 -------------------------------------------------------------------
      1        6          -0.000126000   -0.000243366    0.000000000
      2        6          -0.000323225    0.000261634   -0.000000000
      3        6          -0.000126082   -0.000196115    0.000000000
      4        6           0.000412087    0.000225554   -0.000000000
      5        6          -0.001044041   -0.000737819    0.000000000
      6        6           0.000586368    0.000430879   -0.000000000
      7       17           0.000238188    0.000037286   -0.000000000
      8        1          -0.000055757   -0.000033558    0.000000000
      9        1          -0.000022838    0.000044185   -0.000000000
     10       17           0.000516486    0.000302562   -0.000000000
     11        1          -0.000055186   -0.000091242    0.000000000
 -------------------------------------------------------------------
 Cartesian Forces:  Max     0.001044041 RMS     0.000307555
 Leave Link  716 at Mon Sep 28 02:15:09 2026, MaxMem=  1610612736 cpu:               0.3 elap:               0.0
 (Enter /share/software/user/restricted/gaussian/g16.B01/l103.exe)

 GradGradGradGradGradGradGradGradGradGradGradGradGradGradGradGradGradGrad
 Berny optimization.
 Using GEDIIS/GDIIS optimizer.
 FormGI is forming the generalized inverse of G from B-inverse, IUseBI=4.
 Internal  Forces:  Max     0.000598562 RMS     0.000139840
 Search for a local minimum.
 Step number   6 out of a maximum of   57
 All quantities printed in internal units (Hartrees-Bohrs-Radians)
 RMS Force = .13984D-03 SwitMx=.10000D-02 MixMth= 2
 Mixed Optimization -- En-DIIS/RFO-DIIS
 Swapping is turned off.
 Update second derivatives using D2CorX and points    1    2    3    4    5
                                                      6
 DE= -1.20D-05 DEPred=-9.28D-06 R= 1.29D+00
 TightC=F SS=  1.41D+00  RLast= 1.02D-02 DXNew= 8.4853D-01 3.0493D-02
 Trust test= 1.29D+00 RLast= 1.02D-02 DXMaxT set to 5.05D-01
 ITU=  1  1  1  1  1  0
     Eigenvalues ---    0.02112   0.02119   0.02120   0.02126   0.02135
     Eigenvalues ---    0.02152   0.02165   0.02201   0.07581   0.14506
     Eigenvalues ---    0.16071   0.16383   0.16613   0.23124   0.25037
     Eigenvalues ---    0.25561   0.27885   0.30287   0.33922   0.33984
     Eigenvalues ---    0.35176   0.41641   0.42751   0.46053   0.46218
     Eigenvalues ---    0.47237   0.48974
 En-DIIS/RFO-DIIS/Sim-DIIS IScMMF=       -3 using points:     6    5    4
 RFO step:  Lambda=-4.56740180D-06.
 NNeg= 0 NGDIIS= 3 SimSw=  2.50D-01 Rises=F DC= -1.20D-05 SmlDif=  1.00D-05
 NRisDI= 0 DoIntr=F SqrtH=F CThrHd= 10.0 CDAdj=  3.0
 RMS Error=  0.7631246342D-03 NUsed= 3 OKEnD=T EnDIS=F
 InvSVX:  RCond= 4.29D-06 Info=           0 Equed=N FErr=  9.41D-15 BErr=  8.40D-17
 DidBck=F Rises=F RFO-DIIS coefs:    1.62518   -0.71173    0.08656
 Iteration  1 RMS(Cart)=  0.00061269 RMS(Int)=  0.00000025
 Iteration  2 RMS(Cart)=  0.00000033 RMS(Int)=  0.00000007
 ITry= 1 IFail=0 DXMaxC= 2.16D-03 DCOld= 1.00D+10 DXMaxT= 5.05D-01 DXLimC= 3.00D+00 Rises=F
 ClnCor:  largest displacement from symmetrization is 2.62D-10 for atom     9.
 Variable       Old X    -DE/DX   Delta X   Delta X   Delta X     New X
                                 (Linear)    (Quad)   (Total)
    R1        2.58714  -0.00017  -0.00136  -0.00000  -0.00137   2.58577
    R2        2.67089  -0.00021  -0.00080  -0.00010  -0.00090   2.66999
    R3        2.63219   0.00012   0.00027   0.00005   0.00032   2.63251
    R4        3.54675   0.00023   0.00133   0.00078   0.00211   3.54886
    R5        2.63993  -0.00021  -0.00029  -0.00026  -0.00054   2.63938
    R6        2.05484  -0.00003   0.00015  -0.00017  -0.00002   2.05482
    R7        2.62894   0.00009   0.00052  -0.00002   0.00051   2.62945
    R8        2.04890  -0.00004   0.00018  -0.00014   0.00004   2.04894
    R9        2.62923   0.00027   0.00031   0.00041   0.00072   2.62994
   R10        3.42943  -0.00060  -0.00284  -0.00077  -0.00361   3.42581
   R11        2.06212   0.00001   0.00002   0.00007   0.00009   2.06221
    A1        1.97486   0.00002   0.00191  -0.00095   0.00096   1.97582
    A2        2.23275  -0.00007  -0.00099   0.00041  -0.00058   2.23217
    A3        2.08070   0.00016   0.00104   0.00009   0.00113   2.08184
    A4        1.96974  -0.00009  -0.00005  -0.00050  -0.00055   1.96918
    A5        2.04808   0.00007  -0.00030   0.00019  -0.00011   2.04797
    A6        2.13515   0.00003   0.00060  -0.00002   0.00058   2.13573
    A7        2.09995  -0.00009  -0.00029  -0.00017  -0.00047   2.09949
    A8        2.04937   0.00011   0.00099  -0.00002   0.00097   2.05034
    A9        2.11767  -0.00003  -0.00023   0.00001  -0.00022   2.11745
   A10        2.11614  -0.00008  -0.00076   0.00001  -0.00075   2.11539
   A11        2.14245  -0.00031  -0.00091  -0.00063  -0.00154   2.14091
   A12        2.05017   0.00015   0.00023   0.00044   0.00067   2.05084
   A13        2.09056   0.00016   0.00068   0.00019   0.00087   2.09143
   A14        2.11886   0.00018  -0.00070   0.00100   0.00030   2.11916
   A15        2.10745   0.00002   0.00026   0.00017   0.00042   2.10787
   A16        2.05688  -0.00020   0.00044  -0.00117  -0.00073   2.05615
    D1       -0.00000   0.00000   0.00000   0.00000   0.00000   0.00000
    D2        3.14159  -0.00000   0.00000  -0.00000   0.00000   3.14159
    D3        0.00000  -0.00000   0.00000  -0.00000   0.00000   0.00000
    D4        3.14159  -0.00000   0.00000  -0.00000   0.00000   3.14159
    D5       -0.00000  -0.00000   0.00000  -0.00000   0.00000   0.00000
    D6        3.14159  -0.00000   0.00000  -0.00000   0.00000   3.14159
    D7        3.14159   0.00000   0.00000   0.00000   0.00000   3.14159
    D8       -0.00000  -0.00000   0.00000  -0.00000   0.00000   0.00000
    D9        0.00000   0.00000   0.00000   0.00000   0.00000   0.00000
   D10        3.14159  -0.00000   0.00000  -0.00000   0.00000   3.14159
   D11        3.14159   0.00000   0.00000   0.00000   0.00000   3.14159
   D12       -0.00000   0.00000   0.00000   0.00000   0.00000   0.00000
   D13       -0.00000  -0.00000   0.00000  -0.00000   0.00000   0.00000
   D14        3.14159   0.00000   0.00000  -0.00000   0.00000   3.14159
   D15        3.14159   0.00000   0.00000   0.00000   0.00000   3.14159
   D16        0.00000   0.00000   0.00000   0.00000  -0.00000   0.00000
   D17        0.00000  -0.00000   0.00000  -0.00000  -0.00000   0.00000
   D18        3.14159   0.00000   0.00000   0.00000   0.00000   3.14159
   D19        3.14159  -0.00000   0.00000   0.00000   0.00000   3.14159
   D20        0.00000   0.00000   0.00000   0.00000   0.00000   0.00000
         Item               Value     Threshold  Converged?
 Maximum Force            0.000599     0.000450     NO 
 RMS     Force            0.000140     0.000300     YES
 Maximum Displacement     0.002155     0.001800     NO 
 RMS     Displacement     0.000613     0.001200     YES
 Predicted change in Energy=-2.260840D-06
 Lowest energy point so far.  Saving SCF results.
 GradGradGradGradGradGradGradGradGradGradGradGradGradGradGradGradGradGrad

 Leave Link  103 at Mon Sep 28 02:15:09 2026, MaxMem=  1610612736 cpu:               0.2 elap:               0.0
 (Enter /share/software/user/restricted/gaussian/g16.B01/l202.exe)
                          Input orientation:                          
 ---------------------------------------------------------------------
 Center     Atomic      Atomic             Coordinates (Angstroms)
 Number     Number       Type             X           Y           Z
 ---------------------------------------------------------------------
      1          6           0       -0.005874    1.471395   -0.000000
      2          6           0        1.122278    0.697050   -0.000000
      3          6           0        1.205589   -0.693521    0.000000
      4          6           0        0.005486   -1.408034    0.000000
      5          6           0       -1.177663   -0.675727    0.000000
      6          6           0       -1.199763    0.715804   -0.000000
      7         17           0        2.806516    1.527792   -0.000000
      8          1           0        2.157175   -1.219682    0.000000
      9          1           0       -0.004970   -2.492238    0.000000
     10         17           0       -2.735811   -1.602357    0.000000
     11          1           0       -2.172965    1.209519   -0.000000
 ---------------------------------------------------------------------
                    Distance matrix (angstroms):
                    1          2          3          4          5
     1  C    0.000000
     2  C    1.368333   0.000000
     3  C    2.480827   1.393065   0.000000
     4  C    2.879451   2.382982   1.396702   0.000000
     5  C    2.446062   2.678477   2.383318   1.391444   0.000000
     6  C    1.412900   2.322116   2.787815   2.441990   1.391706
     7  Cl   2.812955   1.877975   2.738101   4.057689   4.552930
     8  H    3.452633   2.178274   1.087365   2.159917   3.378910
     9  H    3.963633   3.382639   2.168141   1.084255   2.162157
    10  Cl   4.111022   4.491338   4.044826   2.748176   1.812862
    11  H    2.182857   3.334854   3.877653   3.405471   2.131848
                    6          7          8          9         10
     6  C    0.000000
     7  Cl   4.087737   0.000000
     8  H    3.874937   2.823165   0.000000
     9  H    3.423312   4.905619   2.508839   0.000000
    10  Cl   2.780884   6.365157   4.907927   2.872173   0.000000
    11  H    1.091273   4.989642   4.964991   4.289896   2.867654
                   11
    11  H    0.000000
 Stoichiometry    C6H3Cl2(1-)
 Framework group  CS[SG(C6H3Cl2)]
 Deg. of freedom    19
 Full point group                 CS      NOp   2
 RotChk:  IX=2 Diff= 6.91D-04
 Largest Abelian subgroup         CS      NOp   2
 Largest concise Abelian subgroup C1      NOp   1
                         Standard orientation:                         
 ---------------------------------------------------------------------
 Center     Atomic      Atomic             Coordinates (Angstroms)
 Number     Number       Type             X           Y           Z
 ---------------------------------------------------------------------
      1          6           0        1.270006    0.824834    0.000000
      2          6           0        0.000000    1.334168    0.000000
      3          6           0       -1.203340    0.632311   -0.000000
      4          6           0       -1.132355   -0.762586   -0.000000
      5          6           0        0.133171   -1.340997   -0.000000
      6          6           0        1.303362   -0.587673    0.000000
      7         17           0       -0.242759    3.196386    0.000000
      8          1           0       -2.168905    1.132356   -0.000000
      9          1           0       -2.028756   -1.372565   -0.000000
     10         17           0        0.226211   -3.151471   -0.000000
     11          1           0        2.253916   -1.123700    0.000000
 ---------------------------------------------------------------------
 Rotational constants (GHZ):           5.8322654           0.6479659           0.5831751
 Leave Link  202 at Mon Sep 28 02:15:09 2026, MaxMem=  1610612736 cpu:               0.0 elap:               0.0
 (Enter /share/software/user/restricted/gaussian/g16.B01/l301.exe)
 Standard basis: 6-311++G(d) (5D, 7F)
 Ernie: Thresh=  0.10000D-02 Tol=  0.10000D-05 Strict=F.
 There are   160 symmetry adapted cartesian basis functions of A'  symmetry.
 There are    52 symmetry adapted cartesian basis functions of A"  symmetry.
 There are   152 symmetry adapted basis functions of A'  symmetry.
 There are    52 symmetry adapted basis functions of A"  symmetry.
   204 basis functions,   340 primitive gaussians,   212 cartesian basis functions
    37 alpha electrons       37 beta electrons
       nuclear repulsion energy       428.4464318401 Hartrees.
 IExCor=  402 DFT=T Ex+Corr=B3LYP ExCW=0 ScaHFX=  0.200000
 ScaDFX=  0.800000  0.720000  1.000000  0.810000 ScalE2=  1.000000  1.000000
 IRadAn=      5 IRanWt=     -1 IRanGd=            0 ICorTp=0 IEmpDi=  4
 NAtoms=   11 NActive=   11 NUniq=   11 SFac= 1.00D+00 NAtFMM=   60 NAOKFM=F Big=F
 Integral buffers will be    131072 words long.
 Raffenetti 2 integral format.
 Two-electron integral symmetry is turned on.
 Leave Link  301 at Mon Sep 28 02:15:09 2026, MaxMem=  1610612736 cpu:               0.5 elap:               0.1
 (Enter /share/software/user/restricted/gaussian/g16.B01/l302.exe)
 NPDir=0 NMtPBC=     1 NCelOv=     1 NCel=       1 NClECP=     1 NCelD=      1
         NCelK=      1 NCelE2=     1 NClLst=     1 CellRange=     0.0.
 One-electron integrals computed using PRISM.
 One-electron integral symmetry used in STVInt
 NBasis=   204 RedAO= T EigKep=  1.73D-06  NBF=   152    52
 NBsUse=   204 1.00D-06 EigRej= -1.00D+00 NBFU=   152    52
 Precomputing XC quadrature grid using
 IXCGrd= 4 IRadAn=           5 IRanWt=          -1 IRanGd=           0 AccXCQ= 0.00D+00.
 Generated NRdTot=       0 NPtTot=           0 NUsed=           0 NTot=          32
 NSgBfM=   209   209   209   209   209 MxSgAt=    11 MxSgA2=    11.
 Leave Link  302 at Mon Sep 28 02:15:09 2026, MaxMem=  1610612736 cpu:               1.6 elap:               0.2
 (Enter /share/software/user/restricted/gaussian/g16.B01/l303.exe)
 DipDrv:  MaxL=1.
 Leave Link  303 at Mon Sep 28 02:15:09 2026, MaxMem=  1610612736 cpu:               0.3 elap:               0.0
 (Enter /share/software/user/restricted/gaussian/g16.B01/l401.exe)
 Initial guess from the checkpoint file:  "calcs/b3lyp_gas/chks/ClPh_25_anion.chk"
 B after Tr=    -0.000000    0.000000   -0.000000
         Rot=    1.000000   -0.000000   -0.000000   -0.000250 Ang=  -0.03 deg.
 Guess basis will be translated and rotated to current coordinates.
 JPrj=2 DoOrth=T DoCkMO=T.
 Initial guess orbital symmetries:
       Occupied  (A') (A') (A') (A') (A') (A') (A') (A') (A') (A')
                 (A') (A") (A') (A') (A") (A') (A') (A') (A') (A')
                 (A') (A') (A') (A') (A') (A') (A') (A') (A") (A")
                 (A') (A') (A") (A') (A") (A") (A')
       Virtual   (A') (A') (A') (A") (A') (A") (A') (A') (A') (A")
                 (A') (A") (A') (A') (A") (A') (A') (A') (A") (A')
                 (A') (A") (A') (A") (A") (A') (A') (A') (A") (A')
                 (A') (A") (A') (A') (A') (A') (A') (A') (A') (A')
                 (A') (A') (A') (A') (A') (A') (A') (A') (A') (A")
                 (A') (A") (A') (A') (A') (A') (A") (A') (A") (A")
                 (A') (A") (A") (A') (A') (A') (A") (A') (A') (A')
                 (A') (A') (A') (A") (A') (A") (A') (A') (A') (A')
                 (A") (A') (A") (A') (A') (A') (A') (A') (A") (A')
                 (A') (A") (A') (A") (A') (A") (A') (A') (A") (A")
                 (A') (A') (A') (A') (A') (A') (A") (A") (A') (A')
                 (A') (A") (A") (A") (A') (A') (A') (A') (A') (A")
                 (A') (A") (A') (A") (A') (A') (A') (A') (A') (A')
                 (A') (A") (A") (A") (A') (A") (A") (A') (A") (A')
                 (A') (A') (A') (A') (A') (A') (A') (A') (A') (A')
                 (A') (A') (A') (A') (A') (A') (A') (A') (A') (A")
                 (A") (A') (A') (A') (A') (A') (A')
 The electronic state of the initial guess is 1-A'.
 Leave Link  401 at Mon Sep 28 02:15:09 2026, MaxMem=  1610612736 cpu:               1.4 elap:               0.2
 (Enter /share/software/user/restricted/gaussian/g16.B01/l502.exe)
 Keep R1 ints in memory in symmetry-blocked form, NReq=334495850.
 FoFCou: FMM=F IPFlag=           0 FMFlag=           0 FMFlg1=           0
         NFxFlg=           0 DoJE=F BraDBF=F KetDBF=F FulRan=T
         wScrn=  0.000000 ICntrl=       600 IOpCl=  0 I1Cent=           0 NGrid=           0
         NMat0=    1 NMatS0=  20910 NMatT0=    0 NMatD0=    1 NMtDS0=    0 NMtDT0=    0
 Petite list used in FoFCou.
 Closed shell SCF:
 Using DIIS extrapolation, IDIIS=  1040.
 NGot=  1610612736 LenX=  1494649070 LenY=  1494603685
 Requested convergence on RMS density matrix=1.00D-08 within 128 cycles.
 Requested convergence on MAX density matrix=1.00D-06.
 Requested convergence on             energy=1.00D-06.
 No special actions if energy rises.

 Cycle   1  Pass 1  IDiag  1:
 E= -1150.93765819788    
 DIIS: error= 5.78D-05 at cycle   1 NSaved=   1.
 NSaved= 1 IEnMin= 1 EnMin= -1150.93765819788     IErMin= 1 ErrMin= 5.78D-05
 ErrMax= 5.78D-05  0.00D+00 EMaxC= 1.00D-01 BMatC= 2.53D-06 BMatP= 2.53D-06
 IDIUse=1 WtCom= 1.00D+00 WtEn= 0.00D+00
 Coeff-Com:  0.100D+01
 Coeff:      0.100D+01
 Gap=     0.128 Goal=   None    Shift=    0.000
 RMSDP=9.91D-04 MaxDP=4.94D-02              OVMax= 1.15D-03

 Cycle   2  Pass 1  IDiag  1:
 E= -1150.93766220515     Delta-E=       -0.000004007262 Rises=F Damp=F
 DIIS: error= 5.94D-05 at cycle   2 NSaved=   2.
 NSaved= 2 IEnMin= 2 EnMin= -1150.93766220515     IErMin= 1 ErrMin= 5.78D-05
 ErrMax= 5.94D-05  0.00D+00 EMaxC= 1.00D-01 BMatC= 4.80D-07 BMatP= 2.53D-06
 IDIUse=1 WtCom= 1.00D+00 WtEn= 0.00D+00
 Coeff-Com:  0.192D+00 0.808D+00
 Coeff:      0.192D+00 0.808D+00
 Gap=     0.127 Goal=   None    Shift=    0.000
 RMSDP=9.64D-05 MaxDP=4.18D-03 DE=-4.01D-06 OVMax= 5.70D-04

 Cycle   3  Pass 1  IDiag  1:
 E= -1150.93766207371     Delta-E=        0.000000131435 Rises=F Damp=F
 DIIS: error= 8.31D-05 at cycle   3 NSaved=   3.
 NSaved= 3 IEnMin= 2 EnMin= -1150.93766220515     IErMin= 1 ErrMin= 5.78D-05
 ErrMax= 8.31D-05  0.00D+00 EMaxC= 1.00D-01 BMatC= 5.89D-07 BMatP= 4.80D-07
 IDIUse=1 WtCom= 1.00D+00 WtEn= 0.00D+00
 Coeff-Com: -0.916D-02 0.530D+00 0.480D+00
 Coeff:     -0.916D-02 0.530D+00 0.480D+00
 Gap=     0.127 Goal=   None    Shift=    0.000
 RMSDP=1.26D-04 MaxDP=1.05D-02 DE= 1.31D-07 OVMax= 4.06D-04

 Cycle   4  Pass 1  IDiag  1:
 E= -1150.93766268977     Delta-E=       -0.000000616063 Rises=F Damp=F
 DIIS: error= 2.47D-05 at cycle   4 NSaved=   4.
 NSaved= 4 IEnMin= 4 EnMin= -1150.93766268977     IErMin= 4 ErrMin= 2.47D-05
 ErrMax= 2.47D-05  0.00D+00 EMaxC= 1.00D-01 BMatC= 5.24D-08 BMatP= 4.80D-07
 IDIUse=1 WtCom= 1.00D+00 WtEn= 0.00D+00
 Coeff-Com: -0.128D-01 0.295D+00 0.313D+00 0.404D+00
 Coeff:     -0.128D-01 0.295D+00 0.313D+00 0.404D+00
 Gap=     0.127 Goal=   None    Shift=    0.000
 RMSDP=3.46D-05 MaxDP=2.90D-03 DE=-6.16D-07 OVMax= 8.82D-05

 Cycle   5  Pass 1  IDiag  1:
 E= -1150.93766274905     Delta-E=       -0.000000059278 Rises=F Damp=F
 DIIS: error= 3.23D-06 at cycle   5 NSaved=   5.
 NSaved= 5 IEnMin= 5 EnMin= -1150.93766274905     IErMin= 5 ErrMin= 3.23D-06
 ErrMax= 3.23D-06  0.00D+00 EMaxC= 1.00D-01 BMatC= 1.92D-09 BMatP= 5.24D-08
 IDIUse=1 WtCom= 1.00D+00 WtEn= 0.00D+00
 Coeff-Com: -0.521D-02 0.826D-01 0.101D+00 0.188D+00 0.634D+00
 Coeff:     -0.521D-02 0.826D-01 0.101D+00 0.188D+00 0.634D+00
 Gap=     0.127 Goal=   None    Shift=    0.000
 RMSDP=6.59D-06 MaxDP=5.30D-04 DE=-5.93D-08 OVMax= 2.05D-05

 Cycle   6  Pass 1  IDiag  1:
 E= -1150.93766275074     Delta-E=       -0.000000001694 Rises=F Damp=F
 DIIS: error= 1.75D-06 at cycle   6 NSaved=   6.
 NSaved= 6 IEnMin= 6 EnMin= -1150.93766275074     IErMin= 6 ErrMin= 1.75D-06
 ErrMax= 1.75D-06  0.00D+00 EMaxC= 1.00D-01 BMatC= 3.48D-10 BMatP= 1.92D-09
 IDIUse=1 WtCom= 1.00D+00 WtEn= 0.00D+00
 Coeff-Com: -0.163D-02 0.112D-01 0.189D-01 0.508D-01 0.338D+00 0.583D+00
 Coeff:     -0.163D-02 0.112D-01 0.189D-01 0.508D-01 0.338D+00 0.583D+00
 Gap=     0.127 Goal=   None    Shift=    0.000
 RMSDP=4.47D-06 MaxDP=3.28D-04 DE=-1.69D-09 OVMax= 8.54D-06

 Cycle   7  Pass 1  IDiag  1:
 E= -1150.93766275114     Delta-E=       -0.000000000395 Rises=F Damp=F
 DIIS: error= 3.51D-07 at cycle   7 NSaved=   7.
 NSaved= 7 IEnMin= 7 EnMin= -1150.93766275114     IErMin= 7 ErrMin= 3.51D-07
 ErrMax= 3.51D-07  0.00D+00 EMaxC= 1.00D-01 BMatC= 2.30D-11 BMatP= 3.48D-10
 IDIUse=1 WtCom= 1.00D+00 WtEn= 0.00D+00
 Coeff-Com:  0.895D-05-0.599D-02-0.370D-02 0.392D-02 0.861D-01 0.255D+00
 Coeff-Com:  0.664D+00
 Coeff:      0.895D-05-0.599D-02-0.370D-02 0.392D-02 0.861D-01 0.255D+00
 Coeff:      0.664D+00
 Gap=     0.127 Goal=   None    Shift=    0.000
 RMSDP=1.98D-06 MaxDP=1.56D-04 DE=-3.95D-10 OVMax= 3.50D-06

 Cycle   8  Pass 1  IDiag  1:
 E= -1150.93766275116     Delta-E=       -0.000000000023 Rises=F Damp=F
 DIIS: error= 2.52D-07 at cycle   8 NSaved=   8.
 NSaved= 8 IEnMin= 8 EnMin= -1150.93766275116     IErMin= 8 ErrMin= 2.52D-07
 ErrMax= 2.52D-07  0.00D+00 EMaxC= 1.00D-01 BMatC= 5.48D-12 BMatP= 2.30D-11
 IDIUse=1 WtCom= 1.00D+00 WtEn= 0.00D+00
 Coeff-Com:  0.156D-03-0.487D-02-0.407D-02-0.224D-02 0.171D-01 0.934D-01
 Coeff-Com:  0.405D+00 0.495D+00
 Coeff:      0.156D-03-0.487D-02-0.407D-02-0.224D-02 0.171D-01 0.934D-01
 Coeff:      0.405D+00 0.495D+00
 Gap=     0.127 Goal=   None    Shift=    0.000
 RMSDP=1.72D-07 MaxDP=6.57D-06 DE=-2.27D-11 OVMax= 1.38D-06

 Cycle   9  Pass 1  IDiag  1:
 E= -1150.93766275115     Delta-E=        0.000000000008 Rises=F Damp=F
 DIIS: error= 1.03D-07 at cycle   9 NSaved=   9.
 NSaved= 9 IEnMin= 8 EnMin= -1150.93766275116     IErMin= 9 ErrMin= 1.03D-07
 ErrMax= 1.03D-07  0.00D+00 EMaxC= 1.00D-01 BMatC= 8.59D-13 BMatP= 5.48D-12
 IDIUse=1 WtCom= 1.00D+00 WtEn= 0.00D+00
 Coeff-Com:  0.935D-04-0.217D-02-0.190D-02-0.173D-02-0.330D-02 0.154D-01
 Coeff-Com:  0.151D+00 0.317D+00 0.525D+00
 Coeff:      0.935D-04-0.217D-02-0.190D-02-0.173D-02-0.330D-02 0.154D-01
 Coeff:      0.151D+00 0.317D+00 0.525D+00
 Gap=     0.127 Goal=   None    Shift=    0.000
 RMSDP=5.05D-08 MaxDP=2.01D-06 DE= 8.19D-12 OVMax= 4.14D-07

 Cycle  10  Pass 1  IDiag  1:
 E= -1150.93766275116     Delta-E=       -0.000000000006 Rises=F Damp=F
 DIIS: error= 1.48D-08 at cycle  10 NSaved=  10.
 NSaved=10 IEnMin= 8 EnMin= -1150.93766275116     IErMin=10 ErrMin= 1.48D-08
 ErrMax= 1.48D-08  0.00D+00 EMaxC= 1.00D-01 BMatC= 3.96D-14 BMatP= 8.59D-13
 IDIUse=1 WtCom= 1.00D+00 WtEn= 0.00D+00
 Coeff-Com:  0.221D-04-0.370D-03-0.326D-03-0.441D-03-0.330D-02-0.408D-02
 Coeff-Com:  0.174D-01 0.790D-01 0.225D+00 0.687D+00
 Coeff:      0.221D-04-0.370D-03-0.326D-03-0.441D-03-0.330D-02-0.408D-02
 Coeff:      0.174D-01 0.790D-01 0.225D+00 0.687D+00
 Gap=     0.127 Goal=   None    Shift=    0.000
 RMSDP=3.19D-08 MaxDP=1.76D-06 DE=-6.37D-12 OVMax= 1.07D-07

 Cycle  11  Pass 1  IDiag  1:
 E= -1150.93766275116     Delta-E=        0.000000000001 Rises=F Damp=F
 DIIS: error= 7.52D-09 at cycle  11 NSaved=  11.
 NSaved=11 IEnMin= 8 EnMin= -1150.93766275116     IErMin=11 ErrMin= 7.52D-09
 ErrMax= 7.52D-09  0.00D+00 EMaxC= 1.00D-01 BMatC= 8.46D-15 BMatP= 3.96D-14
 IDIUse=1 WtCom= 1.00D+00 WtEn= 0.00D+00
 Coeff-Com:  0.285D-05 0.201D-04 0.220D-04-0.298D-04-0.927D-03-0.232D-02
 Coeff-Com: -0.541D-02 0.845D-02 0.620D-01 0.369D+00 0.569D+00
 Coeff:      0.285D-05 0.201D-04 0.220D-04-0.298D-04-0.927D-03-0.232D-02
 Coeff:     -0.541D-02 0.845D-02 0.620D-01 0.369D+00 0.569D+00
 Gap=     0.127 Goal=   None    Shift=    0.000
 RMSDP=1.61D-08 MaxDP=1.70D-06 DE= 1.36D-12 OVMax= 3.75D-08

 Cycle  12  Pass 1  IDiag  1:
 E= -1150.93766275116     Delta-E=        0.000000000000 Rises=F Damp=F
 DIIS: error= 2.12D-09 at cycle  12 NSaved=  12.
 NSaved=12 IEnMin= 8 EnMin= -1150.93766275116     IErMin=12 ErrMin= 2.12D-09
 ErrMax= 2.12D-09  0.00D+00 EMaxC= 1.00D-01 BMatC= 7.24D-16 BMatP= 8.46D-15
 IDIUse=1 WtCom= 1.00D+00 WtEn= 0.00D+00
 Coeff-Com: -0.794D-06 0.510D-04 0.409D-04 0.761D-05-0.266D-03-0.962D-03
 Coeff-Com: -0.589D-02-0.515D-02 0.835D-02 0.118D+00 0.285D+00 0.601D+00
 Coeff:     -0.794D-06 0.510D-04 0.409D-04 0.761D-05-0.266D-03-0.962D-03
 Coeff:     -0.589D-02-0.515D-02 0.835D-02 0.118D+00 0.285D+00 0.601D+00
 Gap=     0.127 Goal=   None    Shift=    0.000
 RMSDP=3.75D-09 MaxDP=1.75D-07 DE= 0.00D+00 OVMax= 9.83D-09

 SCF Done:  E(RB3LYP) =  -1150.93766275     A.U. after   12 cycles
            NFock= 12  Conv=0.38D-08     -V/T= 2.0028
 KE= 1.147768195955D+03 PE=-3.592350642691D+03 EE= 8.651983521444D+02
 Leave Link  502 at Mon Sep 28 02:15:22 2026, MaxMem=  1610612736 cpu:              93.1 elap:              12.9
 (Enter /share/software/user/restricted/gaussian/g16.B01/l701.exe)
 ... and contract with generalized density number  0.
 Compute integral first derivatives.
 Leave Link  701 at Mon Sep 28 02:15:23 2026, MaxMem=  1610612736 cpu:               1.3 elap:               0.2
 (Enter /share/software/user/restricted/gaussian/g16.B01/l702.exe)
 L702 exits ... SP integral derivatives will be done elsewhere.
 Leave Link  702 at Mon Sep 28 02:15:23 2026, MaxMem=  1610612736 cpu:               0.2 elap:               0.0
 (Enter /share/software/user/restricted/gaussian/g16.B01/l703.exe)
 Integral derivatives from FoFJK, PRISM(SPDF).
 Compute integral first derivatives, UseDBF=F ICtDFT=           0.
 Calling FoFJK, ICntrl=      2127 FMM=F ISym2X=1 I1Cent= 0 IOpClX= 0 NMat=1 NMatS=1 NMatT=0.
 FoFJK:  IHMeth= 1 ICntrl=    2127 DoSepK=F KAlg= 0 I1Cent=           0 FoldK=F
 IRaf=         0 NMat=       1 IRICut=       1 DoRegI=T DoRafI=F ISym2E= 1 IDoP0=0 IntGTp=1.
 FoFCou: FMM=F IPFlag=           0 FMFlag=      100000 FMFlg1=         800
         NFxFlg=           0 DoJE=F BraDBF=F KetDBF=F FulRan=T
         wScrn=  0.000000 ICntrl=      2127 IOpCl=  0 I1Cent=           0 NGrid=           0
         NMat0=    1 NMatS0=      1 NMatT0=    0 NMatD0=    1 NMtDS0=    0 NMtDT0=    0
 Petite list used in FoFCou.
 Leave Link  703 at Mon Sep 28 02:15:26 2026, MaxMem=  1610612736 cpu:              25.8 elap:               3.2
 (Enter /share/software/user/restricted/gaussian/g16.B01/l716.exe)
 Dipole        =-1.40817491D+00-1.36530869D+00-1.54647499D-31
 ***** Axes restored to original set *****
 -------------------------------------------------------------------
 Center     Atomic                   Forces (Hartrees/Bohr)
 Number     Number              X              Y              Z
 -------------------------------------------------------------------
      1        6          -0.000113210    0.000213756   -0.000000000
      2        6          -0.000061550   -0.000143557    0.000000000
      3        6          -0.000008354   -0.000030609    0.000000000
      4        6           0.000099066    0.000054176   -0.000000000
      5        6          -0.000369957   -0.000302420    0.000000000
      6        6           0.000269784    0.000083628   -0.000000000
      7       17           0.000102880    0.000031310   -0.000000000
      8        1          -0.000023007    0.000011174   -0.000000000
      9        1           0.000005635    0.000023435   -0.000000000
     10       17           0.000145350    0.000107338   -0.000000000
     11        1          -0.000046638   -0.000048230    0.000000000
 -------------------------------------------------------------------
 Cartesian Forces:  Max     0.000369957 RMS     0.000117385
 Leave Link  716 at Mon Sep 28 02:15:26 2026, MaxMem=  1610612736 cpu:               0.4 elap:               0.1
 (Enter /share/software/user/restricted/gaussian/g16.B01/l103.exe)

 GradGradGradGradGradGradGradGradGradGradGradGradGradGradGradGradGradGrad
 Berny optimization.
 Using GEDIIS/GDIIS optimizer.
 FormGI is forming the generalized inverse of G from B-inverse, IUseBI=4.
 Internal  Forces:  Max     0.000179784 RMS     0.000059932
 Search for a local minimum.
 Step number   7 out of a maximum of   57
 All quantities printed in internal units (Hartrees-Bohrs-Radians)
 RMS Force = .59932D-04 SwitMx=.10000D-02 MixMth= 2
 Mixed Optimization -- En-DIIS/RFO-DIIS
 Swapping is turned off.
 Update second derivatives using D2CorX and points    1    2    3    4    5
                                                      6    7
 DE= -3.04D-06 DEPred=-2.26D-06 R= 1.34D+00
 TightC=F SS=  1.41D+00  RLast= 5.54D-03 DXNew= 8.4853D-01 1.6629D-02
 Trust test= 1.34D+00 RLast= 5.54D-03 DXMaxT set to 5.05D-01
 ITU=  1  1  1  1  1  1  0
     Eigenvalues ---    0.02112   0.02119   0.02120   0.02126   0.02135
     Eigenvalues ---    0.02152   0.02165   0.02201   0.07348   0.12374
     Eigenvalues ---    0.16083   0.16136   0.16604   0.23011   0.25036
     Eigenvalues ---    0.25534   0.26199   0.30230   0.33910   0.33981
     Eigenvalues ---    0.34959   0.41735   0.43380   0.46015   0.46766
     Eigenvalues ---    0.46881   0.48245
 En-DIIS/RFO-DIIS/Sim-DIIS IScMMF=       -3 using points:     7    6    5    4
 RFO step:  Lambda=-8.31728103D-07.
 NNeg= 0 NGDIIS= 4 SimSw=  2.50D-01 Rises=F DC= -3.04D-06 SmlDif=  1.00D-05
 NRisDI= 0 DoIntr=F SqrtH=F CThrHd= 10.0 CDAdj=  3.0
 RMS Error=  0.3327932640D-03 NUsed= 4 OKEnD=F EnDIS=F
 InvSVX:  RCond= 9.02D-08 Info=           0 Equed=N FErr=  2.14D-13 BErr=  6.45D-17
 DIIS inversion failure, remove point   4.
 InvSVX:  RCond= 5.72D-07 Info=           0 Equed=N FErr=  1.94D-14 BErr=  3.51D-17
 RFO-DIIS uses    3 points instead of    4
 DidBck=F Rises=F RFO-DIIS coefs:    1.63750   -0.83238    0.19489    0.00000
 Iteration  1 RMS(Cart)=  0.00033833 RMS(Int)=  0.00000015
 Iteration  2 RMS(Cart)=  0.00000012 RMS(Int)=  0.00000012
 ITry= 1 IFail=0 DXMaxC= 1.07D-03 DCOld= 1.00D+10 DXMaxT= 5.05D-01 DXLimC= 3.00D+00 Rises=F
 ClnCor:  largest displacement from symmetrization is 2.52D-10 for atom     9.
 Variable       Old X    -DE/DX   Delta X   Delta X   Delta X     New X
                                 (Linear)    (Quad)   (Total)
    R1        2.58577   0.00011  -0.00018   0.00024   0.00006   2.58583
    R2        2.66999   0.00000  -0.00031   0.00016  -0.00015   2.66985
    R3        2.63251   0.00001   0.00015  -0.00012   0.00003   2.63254
    R4        3.54886   0.00011   0.00031   0.00047   0.00078   3.54964
    R5        2.63938  -0.00004  -0.00028   0.00011  -0.00017   2.63921
    R6        2.05482  -0.00003  -0.00007  -0.00001  -0.00007   2.05475
    R7        2.62945   0.00002   0.00015   0.00002   0.00017   2.62962
    R8        2.04894  -0.00002  -0.00005   0.00002  -0.00002   2.04892
    R9        2.62994   0.00013   0.00042   0.00004   0.00046   2.63041
   R10        3.42581  -0.00018  -0.00143  -0.00008  -0.00151   3.42430
   R11        2.06221   0.00002   0.00007   0.00006   0.00013   2.06234
    A1        1.97582  -0.00014  -0.00016  -0.00037  -0.00053   1.97529
    A2        2.23217   0.00004  -0.00014   0.00027   0.00014   2.23230
    A3        2.08184   0.00001   0.00038  -0.00018   0.00020   2.08203
    A4        1.96918  -0.00005  -0.00024  -0.00009  -0.00033   1.96885
    A5        2.04797   0.00004   0.00017  -0.00004   0.00013   2.04810
    A6        2.13573  -0.00002   0.00011  -0.00012  -0.00001   2.13572
    A7        2.09949  -0.00002  -0.00028   0.00016  -0.00012   2.09937
    A8        2.05034   0.00002   0.00029  -0.00005   0.00024   2.05058
    A9        2.11745  -0.00002  -0.00008  -0.00007  -0.00015   2.11730
   A10        2.11539  -0.00001  -0.00021   0.00012  -0.00009   2.11530
   A11        2.14091  -0.00011  -0.00081  -0.00001  -0.00082   2.14010
   A12        2.05084   0.00009   0.00044   0.00014   0.00058   2.05142
   A13        2.09143   0.00003   0.00037  -0.00013   0.00024   2.09167
   A14        2.11916   0.00015   0.00064   0.00020   0.00084   2.12001
   A15        2.10787  -0.00001   0.00018  -0.00003   0.00015   2.10801
   A16        2.05615  -0.00014  -0.00082  -0.00017  -0.00099   2.05517
    D1        0.00000  -0.00000   0.00000  -0.00000   0.00000   0.00000
    D2        3.14159   0.00000   0.00000   0.00000   0.00000   3.14159
    D3       -0.00000   0.00000   0.00000   0.00000   0.00000   0.00000
    D4        3.14159   0.00000   0.00000   0.00000   0.00000   3.14159
    D5       -0.00000   0.00000   0.00000   0.00000   0.00000   0.00000
    D6        3.14159   0.00000   0.00000   0.00000   0.00000   3.14159
    D7        3.14159  -0.00000   0.00000  -0.00000   0.00000   3.14159
    D8        0.00000   0.00000   0.00000   0.00000  -0.00000   0.00000
    D9        0.00000  -0.00000   0.00000  -0.00000  -0.00000   0.00000
   D10        3.14159   0.00000   0.00000   0.00000   0.00000   3.14159
   D11        3.14159  -0.00000   0.00000  -0.00000   0.00000   3.14159
   D12        0.00000  -0.00000   0.00000  -0.00000   0.00000   0.00000
   D13       -0.00000  -0.00000   0.00000  -0.00000   0.00000   0.00000
   D14        3.14159  -0.00000   0.00000  -0.00000   0.00000   3.14159
   D15        3.14159  -0.00000   0.00000  -0.00000   0.00000   3.14159
   D16        0.00000  -0.00000   0.00000  -0.00000  -0.00000   0.00000
   D17        0.00000   0.00000   0.00000   0.00000  -0.00000   0.00000
   D18        3.14159  -0.00000   0.00000  -0.00000   0.00000   3.14159
   D19        3.14159   0.00000   0.00000   0.00000   0.00000   3.14159
   D20       -0.00000  -0.00000   0.00000  -0.00000   0.00000   0.00000
         Item               Value     Threshold  Converged?
 Maximum Force            0.000180     0.000450     YES
 RMS     Force            0.000060     0.000300     YES
 Maximum Displacement     0.001072     0.001800     YES
 RMS     Displacement     0.000338     0.001200     YES
 Predicted change in Energy=-3.942362D-07
 Optimization completed.
    -- Stationary point found.
                           ----------------------------
                           !   Optimized Parameters   !
                           ! (Angstroms and Degrees)  !
 --------------------------                            --------------------------
 ! Name  Definition              Value          Derivative Info.                !
 --------------------------------------------------------------------------------
 ! R1    R(1,2)                  1.3683         -DE/DX =    0.0001              !
 ! R2    R(1,6)                  1.4129         -DE/DX =    0.0                 !
 ! R3    R(2,3)                  1.3931         -DE/DX =    0.0                 !
 ! R4    R(2,7)                  1.878          -DE/DX =    0.0001              !
 ! R5    R(3,4)                  1.3967         -DE/DX =    0.0                 !
 ! R6    R(3,8)                  1.0874         -DE/DX =    0.0                 !
 ! R7    R(4,5)                  1.3914         -DE/DX =    0.0                 !
 ! R8    R(4,9)                  1.0843         -DE/DX =    0.0                 !
 ! R9    R(5,6)                  1.3917         -DE/DX =    0.0001              !
 ! R10   R(5,10)                 1.8129         -DE/DX =   -0.0002              !
 ! R11   R(6,11)                 1.0913         -DE/DX =    0.0                 !
 ! A1    A(2,1,6)              113.206          -DE/DX =   -0.0001              !
 ! A2    A(1,2,3)              127.8936         -DE/DX =    0.0                 !
 ! A3    A(1,2,7)              119.2804         -DE/DX =    0.0                 !
 ! A4    A(3,2,7)              112.826          -DE/DX =   -0.0001              !
 ! A5    A(2,3,4)              117.34           -DE/DX =    0.0                 !
 ! A6    A(2,3,8)              122.3682         -DE/DX =    0.0                 !
 ! A7    A(4,3,8)              120.2919         -DE/DX =    0.0                 !
 ! A8    A(3,4,5)              117.4761         -DE/DX =    0.0                 !
 ! A9    A(3,4,9)              121.3211         -DE/DX =    0.0                 !
 ! A10   A(5,4,9)              121.2028         -DE/DX =    0.0                 !
 ! A11   A(4,5,6)              122.6652         -DE/DX =   -0.0001              !
 ! A12   A(4,5,10)             117.5047         -DE/DX =    0.0001              !
 ! A13   A(6,5,10)             119.8301         -DE/DX =    0.0                 !
 ! A14   A(1,6,5)              121.4191         -DE/DX =    0.0002              !
 ! A15   A(1,6,11)             120.7719         -DE/DX =    0.0                 !
 ! A16   A(5,6,11)             117.809          -DE/DX =   -0.0001              !
 ! D1    D(6,1,2,3)              0.0            -DE/DX =    0.0                 !
 ! D2    D(6,1,2,7)            180.0            -DE/DX =    0.0                 !
 ! D3    D(2,1,6,5)              0.0            -DE/DX =    0.0                 !
 ! D4    D(2,1,6,11)           180.0            -DE/DX =    0.0                 !
 ! D5    D(1,2,3,4)              0.0            -DE/DX =    0.0                 !
 ! D6    D(1,2,3,8)            180.0            -DE/DX =    0.0                 !
 ! D7    D(7,2,3,4)            180.0            -DE/DX =    0.0                 !
 ! D8    D(7,2,3,8)              0.0            -DE/DX =    0.0                 !
 ! D9    D(2,3,4,5)              0.0            -DE/DX =    0.0                 !
 ! D10   D(2,3,4,9)            180.0            -DE/DX =    0.0                 !
 ! D11   D(8,3,4,5)            180.0            -DE/DX =    0.0                 !
 ! D12   D(8,3,4,9)              0.0            -DE/DX =    0.0                 !
 ! D13   D(3,4,5,6)              0.0            -DE/DX =    0.0                 !
 ! D14   D(3,4,5,10)           180.0            -DE/DX =    0.0                 !
 ! D15   D(9,4,5,6)            180.0            -DE/DX =    0.0                 !
 ! D16   D(9,4,5,10)             0.0            -DE/DX =    0.0                 !
 ! D17   D(4,5,6,1)              0.0            -DE/DX =    0.0                 !
 ! D18   D(4,5,6,11)           180.0            -DE/DX =    0.0                 !
 ! D19   D(10,5,6,1)           180.0            -DE/DX =    0.0                 !
 ! D20   D(10,5,6,11)            0.0            -DE/DX =    0.0                 !
 --------------------------------------------------------------------------------
 Lowest energy point so far.  Saving SCF results.
 Largest change from initial coordinates is atom    7       0.187 Angstoms.
 GradGradGradGradGradGradGradGradGradGradGradGradGradGradGradGradGradGrad

 Leave Link  103 at Mon Sep 28 02:15:26 2026, MaxMem=  1610612736 cpu:               0.1 elap:               0.0
 (Enter /share/software/user/restricted/gaussian/g16.B01/l202.exe)
                          Input orientation:                          
 ---------------------------------------------------------------------
 Center     Atomic      Atomic             Coordinates (Angstroms)
 Number     Number       Type             X           Y           Z
 ---------------------------------------------------------------------
      1          6           0       -0.005874    1.471395   -0.000000
      2          6           0        1.122278    0.697050   -0.000000
      3          6           0        1.205589   -0.693521    0.000000
      4          6           0        0.005486   -1.408034    0.000000
      5          6           0       -1.177663   -0.675727    0.000000
      6          6           0       -1.199763    0.715804   -0.000000
      7         17           0        2.806516    1.527792   -0.000000
      8          1           0        2.157175   -1.219682    0.000000
      9          1           0       -0.004970   -2.492238    0.000000
     10         17           0       -2.735811   -1.602357    0.000000
     11          1           0       -2.172965    1.209519   -0.000000
 ---------------------------------------------------------------------
                    Distance matrix (angstroms):
                    1          2          3          4          5
     1  C    0.000000
     2  C    1.368333   0.000000
     3  C    2.480827   1.393065   0.000000
     4  C    2.879451   2.382982   1.396702   0.000000
     5  C    2.446062   2.678477   2.383318   1.391444   0.000000
     6  C    1.412900   2.322116   2.787815   2.441990   1.391706
     7  Cl   2.812955   1.877975   2.738101   4.057689   4.552930
     8  H    3.452633   2.178274   1.087365   2.159917   3.378910
     9  H    3.963633   3.382639   2.168141   1.084255   2.162157
    10  Cl   4.111022   4.491338   4.044826   2.748176   1.812862
    11  H    2.182857   3.334854   3.877653   3.405471   2.131848
                    6          7          8          9         10
     6  C    0.000000
     7  Cl   4.087737   0.000000
     8  H    3.874937   2.823165   0.000000
     9  H    3.423312   4.905619   2.508839   0.000000
    10  Cl   2.780884   6.365157   4.907927   2.872173   0.000000
    11  H    1.091273   4.989642   4.964991   4.289896   2.867654
                   11
    11  H    0.000000
 Stoichiometry    C6H3Cl2(1-)
 Framework group  CS[SG(C6H3Cl2)]
 Deg. of freedom    19
 Full point group                 CS      NOp   2
 RotChk:  IX=2 Diff= 4.71D-16
 Largest Abelian subgroup         CS      NOp   2
 Largest concise Abelian subgroup C1      NOp   1
                         Standard orientation:                         
 ---------------------------------------------------------------------
 Center     Atomic      Atomic             Coordinates (Angstroms)
 Number     Number       Type             X           Y           Z
 ---------------------------------------------------------------------
      1          6           0        1.270006    0.824834    0.000000
      2          6           0        0.000000    1.334168    0.000000
      3          6           0       -1.203340    0.632311   -0.000000
      4          6           0       -1.132355   -0.762586   -0.000000
      5          6           0        0.133171   -1.340997    0.000000
      6          6           0        1.303362   -0.587673    0.000000
      7         17           0       -0.242759    3.196386   -0.000000
      8          1           0       -2.168905    1.132356   -0.000000
      9          1           0       -2.028756   -1.372565   -0.000000
     10         17           0        0.226211   -3.151471    0.000000
     11          1           0        2.253916   -1.123700    0.000000
 ---------------------------------------------------------------------
 Rotational constants (GHZ):           5.8322654           0.6479659           0.5831751
 Leave Link  202 at Mon Sep 28 02:15:26 2026, MaxMem=  1610612736 cpu:               0.0 elap:               0.0
 (Enter /share/software/user/restricted/gaussian/g16.B01/l601.exe)
 Copying SCF densities to generalized density rwf, IOpCl= 0 IROHF=0.

 **********************************************************************

            Population analysis using the SCF Density.

 **********************************************************************

 Orbital symmetries:
       Occupied  (A') (A') (A') (A') (A') (A') (A') (A') (A') (A')
                 (A') (A") (A') (A') (A") (A') (A') (A') (A') (A')
                 (A') (A') (A') (A') (A') (A') (A') (A') (A") (A")
                 (A') (A') (A") (A') (A") (A") (A')
       Virtual   (A') (A') (A') (A") (A') (A") (A') (A') (A') (A")
                 (A') (A") (A') (A') (A") (A') (A') (A') (A") (A')
                 (A') (A") (A') (A") (A") (A') (A') (A') (A") (A')
                 (A') (A") (A') (A') (A') (A') (A') (A') (A') (A')
                 (A') (A') (A') (A') (A') (A') (A') (A') (A') (A")
                 (A') (A") (A') (A') (A') (A') (A") (A') (A") (A")
                 (A') (A") (A") (A') (A') (A') (A") (A') (A') (A')
                 (A') (A') (A') (A") (A') (A") (A') (A') (A') (A')
                 (A") (A') (A") (A') (A') (A') (A') (A') (A") (A')
                 (A') (A") (A') (A") (A') (A") (A') (A') (A") (A")
                 (A') (A') (A') (A') (A') (A') (A") (A") (A') (A')
                 (A') (A") (A") (A") (A') (A') (A') (A') (A') (A")
                 (A') (A") (A') (A") (A') (A') (A') (A') (A') (A')
                 (A') (A") (A") (A") (A') (A") (A") (A') (A") (A')
                 (A') (A') (A') (A') (A') (A') (A') (A') (A') (A')
                 (A') (A') (A') (A') (A') (A') (A') (A') (A') (A")
                 (A") (A') (A') (A') (A') (A') (A')
 The electronic state is 1-A'.
 Alpha  occ. eigenvalues -- -101.41677-101.37624 -10.08652 -10.06447 -10.04202
 Alpha  occ. eigenvalues --  -10.04138 -10.02744  -9.97365  -9.33111  -9.29058
 Alpha  occ. eigenvalues --   -7.09499  -7.08629  -7.08619  -7.05402  -7.04611
 Alpha  occ. eigenvalues --   -7.04578  -0.74080  -0.69922  -0.65404  -0.59603
 Alpha  occ. eigenvalues --   -0.56044  -0.46180  -0.42574  -0.35859  -0.31360
 Alpha  occ. eigenvalues --   -0.30356  -0.27567  -0.25070  -0.24956  -0.20469
 Alpha  occ. eigenvalues --   -0.20203  -0.18668  -0.16217  -0.14896  -0.10391
 Alpha  occ. eigenvalues --   -0.08738  -0.02915
 Alpha virt. eigenvalues --    0.09829   0.11279   0.12222   0.12728   0.12862
 Alpha virt. eigenvalues --    0.13790   0.14245   0.17597   0.17620   0.17677
 Alpha virt. eigenvalues --    0.17869   0.18663   0.19751   0.20230   0.20834
 Alpha virt. eigenvalues --    0.21909   0.21934   0.22676   0.22858   0.23895
 Alpha virt. eigenvalues --    0.24191   0.25222   0.25290   0.26326   0.27016
 Alpha virt. eigenvalues --    0.27263   0.28351   0.29124   0.29700   0.30669
 Alpha virt. eigenvalues --    0.32372   0.33059   0.33177   0.34965   0.36081
 Alpha virt. eigenvalues --    0.36428   0.36751   0.37368   0.39077   0.40289
 Alpha virt. eigenvalues --    0.41459   0.41771   0.42295   0.44746   0.46657
 Alpha virt. eigenvalues --    0.48472   0.49573   0.55651   0.57784   0.58288
 Alpha virt. eigenvalues --    0.59825   0.60985   0.63097   0.63643   0.65930
 Alpha virt. eigenvalues --    0.67298   0.68311   0.69798   0.71666   0.73710
 Alpha virt. eigenvalues --    0.74451   0.75150   0.76349   0.76715   0.77881
 Alpha virt. eigenvalues --    0.80839   0.82219   0.83721   0.85416   0.87939
 Alpha virt. eigenvalues --    0.89025   0.92966   0.97730   0.98058   0.99636
 Alpha virt. eigenvalues --    1.00152   1.00601   1.02342   1.03299   1.03813
 Alpha virt. eigenvalues --    1.04152   1.05769   1.06255   1.07697   1.07978
 Alpha virt. eigenvalues --    1.10992   1.11614   1.14264   1.16228   1.17226
 Alpha virt. eigenvalues --    1.24327   1.26009   1.29368   1.35960   1.36785
 Alpha virt. eigenvalues --    1.37406   1.37569   1.39866   1.45117   1.47794
 Alpha virt. eigenvalues --    1.59962   1.64883   1.69218   1.70234   1.80239
 Alpha virt. eigenvalues --    1.87651   1.92330   1.96056   1.98266   1.99653
 Alpha virt. eigenvalues --    2.00244   2.05711   2.09553   2.15993   2.16771
 Alpha virt. eigenvalues --    2.18120   2.22054   2.37509   2.39957   2.40015
 Alpha virt. eigenvalues --    2.41963   2.43152   2.45923   2.49805   2.54115
 Alpha virt. eigenvalues --    2.56657   2.62528   2.65159   2.67278   2.70005
 Alpha virt. eigenvalues --    2.76503   2.79183   2.91640   2.93313   2.95958
 Alpha virt. eigenvalues --    3.02026   3.05227   3.19220   3.21830   3.24802
 Alpha virt. eigenvalues --    3.29753   3.35431   3.42975   3.44932   3.50456
 Alpha virt. eigenvalues --    3.63755   3.76610   3.85146   4.13109   4.13342
 Alpha virt. eigenvalues --    4.90706   9.88510   9.92408  23.41506  23.97186
 Alpha virt. eigenvalues --   24.01937  24.16876  24.20386  24.30542  25.95308
 Alpha virt. eigenvalues --   25.99042  26.19978  26.28914  26.62368  26.70399
 Alpha virt. eigenvalues --  215.87551 215.91845
          Condensed to atoms (all electrons):
               1          2          3          4          5          6
     1  C   14.007893   2.574686 -11.881899   1.492010  -1.431522   1.184706
     2  C    2.574686  21.038895 -13.391348   5.764229  -6.605931  -0.811608
     3  C  -11.881899 -13.391348  37.314342 -12.325385   5.495153  -0.232233
     4  C    1.492010   5.764229 -12.325385  29.514380  -8.136114 -10.556624
     5  C   -1.431522  -6.605931   5.495153  -8.136114  19.843338  -1.764367
     6  C    1.184706  -0.811608  -0.232233 -10.556624  -1.764367  19.240570
     7  Cl  -0.522396  -2.249818   1.895481  -0.429847   0.007884   0.051482
     8  H   -0.118839  -0.317745   0.791772  -0.387963   0.110939   0.038185
     9  H    0.075511   0.199081  -0.297401   0.750520  -0.326488  -0.166317
    10  Cl   0.407799  -0.033451  -0.229570   1.045819  -1.721835  -0.285144
    11  H    0.129225  -0.130927  -0.141318   0.036716  -0.293726   0.468612
               7          8          9         10         11
     1  C   -0.522396  -0.118839   0.075511   0.407799   0.129225
     2  C   -2.249818  -0.317745   0.199081  -0.033451  -0.130927
     3  C    1.895481   0.791772  -0.297401  -0.229570  -0.141318
     4  C   -0.429847  -0.387963   0.750520   1.045819   0.036716
     5  C    0.007884   0.110939  -0.326488  -1.721835  -0.293726
     6  C    0.051482   0.038185  -0.166317  -0.285144   0.468612
     7  Cl  17.905095   0.129057  -0.019790  -0.020820   0.011263
     8  H    0.129057   0.578787  -0.024411  -0.012933   0.004254
     9  H   -0.019790  -0.024411   0.546812   0.044489  -0.000179
    10  Cl  -0.020820  -0.012933   0.044489  17.564387   0.046743
    11  H    0.011263   0.004254  -0.000179   0.046743   0.670166
 Mulliken charges:
               1
     1  C    0.082826
     2  C   -0.036064
     3  C   -0.997594
     4  C   -0.767743
     5  C    0.822669
     6  C   -1.167261
     7  Cl   0.242409
     8  H    0.208898
     9  H    0.218173
    10  Cl   0.194515
    11  H    0.199171
 Sum of Mulliken charges =  -1.00000
 Mulliken charges with hydrogens summed into heavy atoms:
               1
     1  C    0.082826
     2  C   -0.036064
     3  C   -0.788695
     4  C   -0.549570
     5  C    0.822669
     6  C   -0.968090
     7  Cl   0.242409
    10  Cl   0.194515
 Electronic spatial extent (au):  <R**2>=           1718.4697
 Charge=             -1.0000 electrons
 Dipole moment (field-independent basis, Debye):
    X=             -3.5792    Y=             -3.4703    Z=              0.0000  Tot=              4.9853
 Quadrupole moment (field-independent basis, Debye-Ang):
   XX=            -70.7912   YY=            -95.4986   ZZ=            -67.2550
   XY=             -2.9141   XZ=             -0.0000   YZ=             -0.0000
 Traceless Quadrupole moment (field-independent basis, Debye-Ang):
   XX=              7.0570   YY=            -17.6503   ZZ=             10.5933
   XY=             -2.9141   XZ=             -0.0000   YZ=             -0.0000
 Octapole moment (field-independent basis, Debye-Ang**2):
  XXX=            -25.0653  YYY=            -27.6105  ZZZ=              0.0000  XYY=             -7.1320
  XXY=            -15.1987  XXZ=             -0.0000  XZZ=             -2.1646  YZZ=             -2.5706
  YYZ=              0.0000  XYZ=             -0.0000
 Hexadecapole moment (field-independent basis, Debye-Ang**3):
 XXXX=           -403.3854 YYYY=          -2211.0015 ZZZZ=            -88.7619 XXXY=             32.3268
 XXXZ=             -0.0000 YYYX=             68.2692 YYYZ=             -0.0000 ZZZX=             -0.0000
 ZZZY=             -0.0000 XXYY=           -409.5609 XXZZ=            -85.6044 YYZZ=           -350.7373
 XXYZ=             -0.0000 YYXZ=              0.0000 ZZXY=             18.2355
 N-N= 4.284464318401D+02 E-N=-3.592350642102D+03  KE= 1.147768195955D+03
 Symmetry A'   KE= 1.049940787863D+03
 Symmetry A"   KE= 9.782740809212D+01
 No NMR shielding tensors so no spin-rotation constants.
 Leave Link  601 at Mon Sep 28 02:15:27 2026, MaxMem=  1610612736 cpu:               1.2 elap:               0.2
 (Enter /share/software/user/restricted/gaussian/g16.B01/l9999.exe)
 1\1\GINC-SH02-08N55\FOpt\RB3LYP\6-311++G(d)\C6H3Cl2(1-)\JLAPIER\28-Sep
 -2026\0\\#p Opt Freq B3LYP/6-311++G(d) Int=UltraFine Geom=Check\\ClPh_
 25_anion b3lyp_gas\\-1,1\C,-0.0058737838,1.4713945943,0.\C,1.122277651
 1,0.6970502424,0.\C,1.2055892399,-0.6935210904,0.\C,0.0054864426,-1.40
 80341173,0.\C,-1.1776625311,-0.675726684,0.\C,-1.1997626009,0.71580395
 45,0.\Cl,2.806516049,1.5277919859,0.\H,2.1571752709,-1.2196823636,0.\H
 ,-0.0049700024,-2.492238289,0.\Cl,-2.7358107461,-1.6023570611,0.\H,-2.
 1729649893,1.2095188284,0.\\Version=ES64L-G16RevB.01\State=1-A'\HF=-11
 50.9376628\RMSD=3.752e-09\RMSF=1.174e-04\Dipole=-0.3551697,-1.928958,0
 .\Quadrupole=-5.4732723,-2.4025766,7.8758489,-9.3109969,0.,0.\PG=CS [S
 G(C6H3Cl2)]\\@


 BLESSED ARE THOSE WHO NOUGHT EXPECT,
 FOR THEY SHALL NOT BE DISAPPOINTED..  WALCOT - ODE TO PITT
 Leave Link 9999 at Mon Sep 28 02:15:27 2026, MaxMem=  1610612736 cpu:               0.3 elap:               0.0
 Job cpu time:       0 days  0 hours 16 minutes 57.3 seconds.
 Elapsed time:       0 days  0 hours  2 minutes 19.2 seconds.
 File lengths (MBytes):  RWF=     21 Int=      0 D2E=      0 Chk=      5 Scr=      1
 Normal termination of Gaussian 16 at Mon Sep 28 02:15:27 2026.
 (Enter /share/software/user/restricted/gaussian/g16.B01/l1.exe)
 Link1:  Proceeding to internal job step number  2.
 ----------------------------------------------------------------------
 #P Geom=AllCheck Guess=TCheck SCRF=Check GenChk RB3LYP/6-311++G(d) Fre
 q
 ----------------------------------------------------------------------
 1/10=4,29=7,30=1,38=1,40=1/1,3;
 2/12=2,40=1/2;
 3/5=4,6=6,7=1011,11=2,14=-4,25=1,30=1,70=2,71=2,74=-5,75=-5,116=1,140=1/1,2,3;
 4/5=101/1;
 5/5=2,38=6,98=1/2;
 8/6=4,10=90,11=11/1;
 11/6=1,8=1,9=11,15=111,16=1/1,2,10;
 10/6=1/2;
 6/7=2,8=2,9=2,10=2,28=1/1;
 7/8=1,10=1,25=1/1,2,3,16;
 1/10=4,30=1/3;
 99//99;
 Leave Link    1 at Mon Sep 28 02:15:27 2026, MaxMem=  1610612736 cpu:               0.4 elap:               0.1
 (Enter /share/software/user/restricted/gaussian/g16.B01/l101.exe)
 Structure from the checkpoint file:  "calcs/b3lyp_gas/chks/ClPh_25_anion.chk"
 -----------------------
 ClPh_25_anion b3lyp_gas
 -----------------------
 Charge = -1 Multiplicity = 1
 Redundant internal coordinates found in file.  (old form).
 C,0,-0.0058737838,1.4713945943,0.
 C,0,1.1222776511,0.6970502424,0.
 C,0,1.2055892399,-0.6935210904,0.
 C,0,0.0054864426,-1.4080341173,0.
 C,0,-1.1776625311,-0.675726684,0.
 C,0,-1.1997626009,0.7158039545,0.
 Cl,0,2.806516049,1.5277919859,0.
 H,0,2.1571752709,-1.2196823636,0.
 H,0,-0.0049700024,-2.492238289,0.
 Cl,0,-2.7358107461,-1.6023570611,0.
 H,0,-2.1729649893,1.2095188284,0.
 Recover connectivity data from disk.
 ITRead=  0  0  0  0  0  0  0  0  0  0  0
 MicOpt= -1 -1 -1 -1 -1 -1 -1 -1 -1 -1 -1
 NAtoms=     11 NQM=       11 NQMF=       0 NMMI=      0 NMMIF=      0
                NMic=       0 NMicF=      0.
                    Isotopes and Nuclear Properties:
 (Nuclear quadrupole moments (NQMom) in fm**2, nuclear magnetic moments (NMagM)
  in nuclear magnetons)

  Atom         1           2           3           4           5           6           7           8           9          10
 IAtWgt=          12          12          12          12          12          12          35           1           1          35
 AtmWgt=  12.0000000  12.0000000  12.0000000  12.0000000  12.0000000  12.0000000  34.9688527   1.0078250   1.0078250  34.9688527
 NucSpn=           0           0           0           0           0           0           3           1           1           3
 AtZEff=   3.6000000   3.6000000   3.6000000   3.6000000   3.6000000   3.6000000  14.2400000   1.0000000   1.0000000  14.2400000
 NQMom=    0.0000000   0.0000000   0.0000000   0.0000000   0.0000000   0.0000000  -8.1650000   0.0000000   0.0000000  -8.1650000
 NMagM=    0.0000000   0.0000000   0.0000000   0.0000000   0.0000000   0.0000000   0.8218740   2.7928460   2.7928460   0.8218740
 AtZNuc=   6.0000000   6.0000000   6.0000000   6.0000000   6.0000000   6.0000000  17.0000000   1.0000000   1.0000000  17.0000000

  Atom        11
 IAtWgt=           1
 AtmWgt=   1.0078250
 NucSpn=           1
 AtZEff=   1.0000000
 NQMom=    0.0000000
 NMagM=    2.7928460
 AtZNuc=   1.0000000
 Leave Link  101 at Mon Sep 28 02:15:27 2026, MaxMem=  1610612736 cpu:               4.1 elap:               0.5
 (Enter /share/software/user/restricted/gaussian/g16.B01/l103.exe)

 GradGradGradGradGradGradGradGradGradGradGradGradGradGradGradGradGradGrad
 Berny optimization.
 Initialization pass.
                           ----------------------------
                           !    Initial Parameters    !
                           ! (Angstroms and Degrees)  !
 --------------------------                            --------------------------
 ! Name  Definition              Value          Derivative Info.                !
 --------------------------------------------------------------------------------
 ! R1    R(1,2)                  1.3683         calculate D2E/DX2 analytically  !
 ! R2    R(1,6)                  1.4129         calculate D2E/DX2 analytically  !
 ! R3    R(2,3)                  1.3931         calculate D2E/DX2 analytically  !
 ! R4    R(2,7)                  1.878          calculate D2E/DX2 analytically  !
 ! R5    R(3,4)                  1.3967         calculate D2E/DX2 analytically  !
 ! R6    R(3,8)                  1.0874         calculate D2E/DX2 analytically  !
 ! R7    R(4,5)                  1.3914         calculate D2E/DX2 analytically  !
 ! R8    R(4,9)                  1.0843         calculate D2E/DX2 analytically  !
 ! R9    R(5,6)                  1.3917         calculate D2E/DX2 analytically  !
 ! R10   R(5,10)                 1.8129         calculate D2E/DX2 analytically  !
 ! R11   R(6,11)                 1.0913         calculate D2E/DX2 analytically  !
 ! A1    A(2,1,6)              113.206          calculate D2E/DX2 analytically  !
 ! A2    A(1,2,3)              127.8936         calculate D2E/DX2 analytically  !
 ! A3    A(1,2,7)              119.2804         calculate D2E/DX2 analytically  !
 ! A4    A(3,2,7)              112.826          calculate D2E/DX2 analytically  !
 ! A5    A(2,3,4)              117.34           calculate D2E/DX2 analytically  !
 ! A6    A(2,3,8)              122.3682         calculate D2E/DX2 analytically  !
 ! A7    A(4,3,8)              120.2919         calculate D2E/DX2 analytically  !
 ! A8    A(3,4,5)              117.4761         calculate D2E/DX2 analytically  !
 ! A9    A(3,4,9)              121.3211         calculate D2E/DX2 analytically  !
 ! A10   A(5,4,9)              121.2028         calculate D2E/DX2 analytically  !
 ! A11   A(4,5,6)              122.6652         calculate D2E/DX2 analytically  !
 ! A12   A(4,5,10)             117.5047         calculate D2E/DX2 analytically  !
 ! A13   A(6,5,10)             119.8301         calculate D2E/DX2 analytically  !
 ! A14   A(1,6,5)              121.4191         calculate D2E/DX2 analytically  !
 ! A15   A(1,6,11)             120.7719         calculate D2E/DX2 analytically  !
 ! A16   A(5,6,11)             117.809          calculate D2E/DX2 analytically  !
 ! D1    D(6,1,2,3)              0.0            calculate D2E/DX2 analytically  !
 ! D2    D(6,1,2,7)            180.0            calculate D2E/DX2 analytically  !
 ! D3    D(2,1,6,5)              0.0            calculate D2E/DX2 analytically  !
 ! D4    D(2,1,6,11)           180.0            calculate D2E/DX2 analytically  !
 ! D5    D(1,2,3,4)              0.0            calculate D2E/DX2 analytically  !
 ! D6    D(1,2,3,8)            180.0            calculate D2E/DX2 analytically  !
 ! D7    D(7,2,3,4)            180.0            calculate D2E/DX2 analytically  !
 ! D8    D(7,2,3,8)              0.0            calculate D2E/DX2 analytically  !
 ! D9    D(2,3,4,5)              0.0            calculate D2E/DX2 analytically  !
 ! D10   D(2,3,4,9)            180.0            calculate D2E/DX2 analytically  !
 ! D11   D(8,3,4,5)            180.0            calculate D2E/DX2 analytically  !
 ! D12   D(8,3,4,9)              0.0            calculate D2E/DX2 analytically  !
 ! D13   D(3,4,5,6)              0.0            calculate D2E/DX2 analytically  !
 ! D14   D(3,4,5,10)           180.0            calculate D2E/DX2 analytically  !
 ! D15   D(9,4,5,6)            180.0            calculate D2E/DX2 analytically  !
 ! D16   D(9,4,5,10)             0.0            calculate D2E/DX2 analytically  !
 ! D17   D(4,5,6,1)              0.0            calculate D2E/DX2 analytically  !
 ! D18   D(4,5,6,11)           180.0            calculate D2E/DX2 analytically  !
 ! D19   D(10,5,6,1)           180.0            calculate D2E/DX2 analytically  !
 ! D20   D(10,5,6,11)            0.0            calculate D2E/DX2 analytically  !
 --------------------------------------------------------------------------------
 Trust Radius=3.00D-01 FncErr=1.00D-07 GrdErr=1.00D-07 EigMax=2.50D+02 EigMin=1.00D-04
 Number of steps in this run=      2 maximum allowed number of steps=      2.
 GradGradGradGradGradGradGradGradGradGradGradGradGradGradGradGradGradGrad

 Leave Link  103 at Mon Sep 28 02:15:27 2026, MaxMem=  1610612736 cpu:               0.1 elap:               0.0
 (Enter /share/software/user/restricted/gaussian/g16.B01/l202.exe)
                          Input orientation:                          
 ---------------------------------------------------------------------
 Center     Atomic      Atomic             Coordinates (Angstroms)
 Number     Number       Type             X           Y           Z
 ---------------------------------------------------------------------
      1          6           0       -0.005874    1.471395   -0.000000
      2          6           0        1.122278    0.697050   -0.000000
      3          6           0        1.205589   -0.693521    0.000000
      4          6           0        0.005486   -1.408034    0.000000
      5          6           0       -1.177663   -0.675727    0.000000
      6          6           0       -1.199763    0.715804   -0.000000
      7         17           0        2.806516    1.527792   -0.000000
      8          1           0        2.157175   -1.219682    0.000000
      9          1           0       -0.004970   -2.492238    0.000000
     10         17           0       -2.735811   -1.602357    0.000000
     11          1           0       -2.172965    1.209519   -0.000000
 ---------------------------------------------------------------------
                    Distance matrix (angstroms):
                    1          2          3          4          5
     1  C    0.000000
     2  C    1.368333   0.000000
     3  C    2.480827   1.393065   0.000000
     4  C    2.879451   2.382982   1.396702   0.000000
     5  C    2.446062   2.678477   2.383318   1.391444   0.000000
     6  C    1.412900   2.322116   2.787815   2.441990   1.391706
     7  Cl   2.812955   1.877975   2.738101   4.057689   4.552930
     8  H    3.452633   2.178274   1.087365   2.159917   3.378910
     9  H    3.963633   3.382639   2.168141   1.084255   2.162157
    10  Cl   4.111022   4.491338   4.044826   2.748176   1.812862
    11  H    2.182857   3.334854   3.877653   3.405471   2.131848
                    6          7          8          9         10
     6  C    0.000000
     7  Cl   4.087737   0.000000
     8  H    3.874937   2.823165   0.000000
     9  H    3.423312   4.905619   2.508839   0.000000
    10  Cl   2.780884   6.365157   4.907927   2.872173   0.000000
    11  H    1.091273   4.989642   4.964991   4.289896   2.867654
                   11
    11  H    0.000000
 Stoichiometry    C6H3Cl2(1-)
 Framework group  CS[SG(C6H3Cl2)]
 Deg. of freedom    19
 Full point group                 CS      NOp   2
 RotChk:  IX=2 Diff= 3.14D-16
 Largest Abelian subgroup         CS      NOp   2
 Largest concise Abelian subgroup C1      NOp   1
                         Standard orientation:                         
 ---------------------------------------------------------------------
 Center     Atomic      Atomic             Coordinates (Angstroms)
 Number     Number       Type             X           Y           Z
 ---------------------------------------------------------------------
      1          6           0        1.270006    0.824834    0.000000
      2          6           0        0.000000    1.334168    0.000000
      3          6           0       -1.203340    0.632311   -0.000000
      4          6           0       -1.132355   -0.762586   -0.000000
      5          6           0        0.133171   -1.340997    0.000000
      6          6           0        1.303362   -0.587673    0.000000
      7         17           0       -0.242759    3.196386   -0.000000
      8          1           0       -2.168905    1.132356   -0.000000
      9          1           0       -2.028756   -1.372565   -0.000000
     10         17           0        0.226211   -3.151471    0.000000
     11          1           0        2.253916   -1.123700    0.000000
 ---------------------------------------------------------------------
 Rotational constants (GHZ):           5.8322654           0.6479659           0.5831751
 Leave Link  202 at Mon Sep 28 02:15:27 2026, MaxMem=  1610612736 cpu:               0.0 elap:               0.0
 (Enter /share/software/user/restricted/gaussian/g16.B01/l301.exe)
 Standard basis: 6-311++G(d) (5D, 7F)
 Ernie: Thresh=  0.10000D-02 Tol=  0.10000D-05 Strict=F.
 There are   160 symmetry adapted cartesian basis functions of A'  symmetry.
 There are    52 symmetry adapted cartesian basis functions of A"  symmetry.
 There are   152 symmetry adapted basis functions of A'  symmetry.
 There are    52 symmetry adapted basis functions of A"  symmetry.
   204 basis functions,   340 primitive gaussians,   212 cartesian basis functions
    37 alpha electrons       37 beta electrons
       nuclear repulsion energy       428.4464318401 Hartrees.
 IExCor=  402 DFT=T Ex+Corr=B3LYP ExCW=0 ScaHFX=  0.200000
 ScaDFX=  0.800000  0.720000  1.000000  0.810000 ScalE2=  1.000000  1.000000
 IRadAn=      5 IRanWt=     -1 IRanGd=            0 ICorTp=0 IEmpDi=  4
 NAtoms=   11 NActive=   11 NUniq=   11 SFac= 1.00D+00 NAtFMM=   60 NAOKFM=F Big=F
 Integral buffers will be    131072 words long.
 Raffenetti 2 integral format.
 Two-electron integral symmetry is turned on.
 Leave Link  301 at Mon Sep 28 02:15:27 2026, MaxMem=  1610612736 cpu:               0.5 elap:               0.1
 (Enter /share/software/user/restricted/gaussian/g16.B01/l302.exe)
 NPDir=0 NMtPBC=     1 NCelOv=     1 NCel=       1 NClECP=     1 NCelD=      1
         NCelK=      1 NCelE2=     1 NClLst=     1 CellRange=     0.0.
 One-electron integrals computed using PRISM.
 One-electron integral symmetry used in STVInt
 NBasis=   204 RedAO= T EigKep=  1.73D-06  NBF=   152    52
 NBsUse=   204 1.00D-06 EigRej= -1.00D+00 NBFU=   152    52
 Precomputing XC quadrature grid using
 IXCGrd= 4 IRadAn=           5 IRanWt=          -1 IRanGd=           0 AccXCQ= 0.00D+00.
 Generated NRdTot=       0 NPtTot=           0 NUsed=           0 NTot=          32
 NSgBfM=   209   209   209   209   209 MxSgAt=    11 MxSgA2=    11.
 Leave Link  302 at Mon Sep 28 02:15:28 2026, MaxMem=  1610612736 cpu:               1.4 elap:               0.2
 (Enter /share/software/user/restricted/gaussian/g16.B01/l303.exe)
 DipDrv:  MaxL=1.
 Leave Link  303 at Mon Sep 28 02:15:28 2026, MaxMem=  1610612736 cpu:               0.3 elap:               0.0
 (Enter /share/software/user/restricted/gaussian/g16.B01/l401.exe)
 Initial guess from the checkpoint file:  "calcs/b3lyp_gas/chks/ClPh_25_anion.chk"
 B after Tr=     0.000000   -0.000000    0.000000
         Rot=    1.000000   -0.000000    0.000000   -0.000000 Ang=   0.00 deg.
 Guess basis will be translated and rotated to current coordinates.
 JPrj=2 DoOrth=T DoCkMO=T.
 Initial guess orbital symmetries:
       Occupied  (A') (A') (A') (A') (A') (A') (A') (A') (A') (A')
                 (A') (A") (A') (A') (A") (A') (A') (A') (A') (A')
                 (A') (A') (A') (A') (A') (A') (A') (A') (A") (A")
                 (A') (A') (A") (A') (A") (A") (A')
       Virtual   (A') (A') (A') (A") (A') (A") (A') (A') (A') (A")
                 (A') (A") (A') (A') (A") (A') (A') (A') (A") (A')
                 (A') (A") (A') (A") (A") (A') (A') (A') (A") (A')
                 (A') (A") (A') (A') (A') (A') (A') (A') (A') (A')
                 (A') (A') (A') (A') (A') (A') (A') (A') (A') (A")
                 (A') (A") (A') (A') (A') (A') (A") (A') (A") (A")
                 (A') (A") (A") (A') (A') (A') (A") (A') (A') (A')
                 (A') (A') (A') (A") (A') (A") (A') (A') (A') (A')
                 (A") (A') (A") (A') (A') (A') (A') (A') (A") (A')
                 (A') (A") (A') (A") (A') (A") (A') (A') (A") (A")
                 (A') (A') (A') (A') (A') (A') (A") (A") (A') (A')
                 (A') (A") (A") (A") (A') (A') (A') (A') (A') (A")
                 (A') (A") (A') (A") (A') (A') (A') (A') (A') (A')
                 (A') (A") (A") (A") (A') (A") (A") (A') (A") (A')
                 (A') (A') (A') (A') (A') (A') (A') (A') (A') (A')
                 (A') (A') (A') (A') (A') (A') (A') (A') (A') (A")
                 (A") (A') (A') (A') (A') (A') (A')
 The electronic state of the initial guess is 1-A'.
 Leave Link  401 at Mon Sep 28 02:15:28 2026, MaxMem=  1610612736 cpu:               1.5 elap:               0.2
 (Enter /share/software/user/restricted/gaussian/g16.B01/l502.exe)
 Keep R1 ints in memory in symmetry-blocked form, NReq=334495850.
 FoFCou: FMM=F IPFlag=           0 FMFlag=           0 FMFlg1=           0
         NFxFlg=           0 DoJE=F BraDBF=F KetDBF=F FulRan=T
         wScrn=  0.000000 ICntrl=       600 IOpCl=  0 I1Cent=           0 NGrid=           0
         NMat0=    1 NMatS0=  20910 NMatT0=    0 NMatD0=    1 NMtDS0=    0 NMtDT0=    0
 Petite list used in FoFCou.
 Closed shell SCF:
 Using DIIS extrapolation, IDIIS=  1040.
 NGot=  1610612736 LenX=  1494649070 LenY=  1494603685
 Requested convergence on RMS density matrix=1.00D-08 within 128 cycles.
 Requested convergence on MAX density matrix=1.00D-06.
 Requested convergence on             energy=1.00D-06.
 No special actions if energy rises.

 Cycle   1  Pass 1  IDiag  1:
 E= -1150.93766275116    
 DIIS: error= 4.29D-10 at cycle   1 NSaved=   1.
 NSaved= 1 IEnMin= 1 EnMin= -1150.93766275116     IErMin= 1 ErrMin= 4.29D-10
 ErrMax= 4.29D-10  0.00D+00 EMaxC= 1.00D-01 BMatC= 2.81D-17 BMatP= 2.81D-17
 IDIUse=1 WtCom= 1.00D+00 WtEn= 0.00D+00
 Coeff-Com:  0.100D+01
 Coeff:      0.100D+01
 Gap=     0.127 Goal=   None    Shift=    0.000
 RMSDP=8.89D-09 MaxDP=3.91D-07              OVMax= 3.97D-09

 SCF Done:  E(RB3LYP) =  -1150.93766275     A.U. after    1 cycles
            NFock=  1  Conv=0.89D-08     -V/T= 2.0028
 KE= 1.147768195988D+03 PE=-3.592350642135D+03 EE= 8.651983515563D+02
 Leave Link  502 at Mon Sep 28 02:15:32 2026, MaxMem=  1610612736 cpu:              35.0 elap:               4.5
 (Enter /share/software/user/restricted/gaussian/g16.B01/l801.exe)
 DoSCS=F DFT=T ScalE2(SS,OS)=  1.000000  1.000000
 Range of M.O.s used for correlation:     1   204
 NBasis=   204 NAE=    37 NBE=    37 NFC=     0 NFV=     0
 NROrb=    204 NOA=    37 NOB=    37 NVA=   167 NVB=   167

 **** Warning!!: The largest alpha MO coefficient is  0.20624270D+03

 Leave Link  801 at Mon Sep 28 02:15:33 2026, MaxMem=  1610612736 cpu:               0.3 elap:               0.1
 (Enter /share/software/user/restricted/gaussian/g16.B01/l1101.exe)
 Using compressed storage, NAtomX=    11.
 Will process     12 centers per pass.
 Leave Link 1101 at Mon Sep 28 02:15:33 2026, MaxMem=  1610612736 cpu:               1.2 elap:               0.2
 (Enter /share/software/user/restricted/gaussian/g16.B01/l1102.exe)
 Symmetrizing basis deriv contribution to polar:
 IMax=3 JMax=2 DiffMx= 0.00D+00
 Leave Link 1102 at Mon Sep 28 02:15:33 2026, MaxMem=  1610612736 cpu:               0.3 elap:               0.0
 (Enter /share/software/user/restricted/gaussian/g16.B01/l1110.exe)
 Forming Gx(P) for the SCF density, NAtomX=    11.
 Integral derivatives from FoFJK, PRISM(SPDF).
 Do as many integral derivatives as possible in FoFJK.
 G2DrvN: MDV=    1610611742.
 G2DrvN: will do    12 centers at a time, making    1 passes.
 Calling FoFCou, ICntrl=  3107 FMM=F I1Cent=   0 AccDes= 0.00D+00.
 FoFJK:  IHMeth= 1 ICntrl=    3107 DoSepK=F KAlg= 0 I1Cent=           0 FoldK=F
 IRaf=         0 NMat=       1 IRICut=       1 DoRegI=T DoRafI=F ISym2E= 1 IDoP0=0 IntGTp=1.
 FoFCou: FMM=F IPFlag=           0 FMFlag=      100000 FMFlg1=           0
         NFxFlg=           0 DoJE=F BraDBF=F KetDBF=F FulRan=T
         wScrn=  0.000000 ICntrl=      3107 IOpCl=  0 I1Cent=           0 NGrid=           0
         NMat0=    1 NMatS0=      1 NMatT0=    0 NMatD0=    1 NMtDS0=    0 NMtDT0=    0
 Petite list used in FoFCou.
 End of G2Drv F.D. properties file   721 does not exist.
 End of G2Drv F.D. properties file   722 does not exist.
 End of G2Drv F.D. properties file   788 does not exist.
 Leave Link 1110 at Mon Sep 28 02:15:51 2026, MaxMem=  1610612736 cpu:             140.6 elap:              17.7
 (Enter /share/software/user/restricted/gaussian/g16.B01/l1002.exe)
 Minotr:  Closed shell wavefunction.
          IDoAtm=11111111111
          Direct CPHF calculation.
          Differentiating once with respect to electric field.
                with respect to dipole field.
          Differentiating once with respect to nuclear coordinates.
          Using symmetry in CPHF.
          Requested convergence is 1.0D-08 RMS, and 1.0D-07 maximum.
          Secondary convergence is 1.0D-12 RMS, and 1.0D-12 maximum.
          NewPWx=T KeepS1=F KeepF1=F KeepIn=T MapXYZ=F SortEE=F KeepMc=T.
         3363 words used for storage of precomputed grid.
 Keep R1 ints in memory in symmetry-blocked form, NReq=334500964.
 FoFCou: FMM=F IPFlag=           0 FMFlag=           0 FMFlg1=           0
         NFxFlg=           0 DoJE=F BraDBF=F KetDBF=F FulRan=T
         wScrn=  0.000000 ICntrl=       600 IOpCl=  0 I1Cent=           0 NGrid=           0
         NMat0=    1 NMatS0=  20910 NMatT0=    0 NMatD0=    1 NMtDS0=    0 NMtDT0=    0
 Petite list used in FoFCou.
          MDV=    1610612736 using IRadAn=       1.
          Solving linear equations simultaneously, MaxMat=       0.
          There are    36 degrees of freedom in the 1st order CPHF.  IDoFFX=6 NUNeed=     3.
     33 vectors produced by pass  0 Test12= 1.72D-14 2.78D-09 XBig12= 2.19D+02 6.56D+00.
 AX will form    33 AO Fock derivatives at one time.
     33 vectors produced by pass  1 Test12= 1.72D-14 2.78D-09 XBig12= 6.99D+01 2.85D+00.
     33 vectors produced by pass  2 Test12= 1.72D-14 2.78D-09 XBig12= 9.98D-01 2.07D-01.
     33 vectors produced by pass  3 Test12= 1.72D-14 2.78D-09 XBig12= 7.65D-03 1.68D-02.
     33 vectors produced by pass  4 Test12= 1.72D-14 2.78D-09 XBig12= 3.14D-05 9.85D-04.
     33 vectors produced by pass  5 Test12= 1.72D-14 2.78D-09 XBig12= 6.07D-08 4.02D-05.
     22 vectors produced by pass  6 Test12= 1.72D-14 2.78D-09 XBig12= 1.28D-10 1.83D-06.
      3 vectors produced by pass  7 Test12= 1.72D-14 2.78D-09 XBig12= 2.21D-13 6.86D-08.
 InvSVY:  IOpt=1 It=  1 EMax= 1.24D-14
 Solved reduced A of dimension   223 with    36 vectors.
 FullF1:  Do perturbations      1 to       3.
 Isotropic polarizability for W=    0.000000      116.79 Bohr**3.
 End of Minotr F.D. properties file   721 does not exist.
 End of Minotr F.D. properties file   722 does not exist.
 End of Minotr F.D. properties file   788 does not exist.
 Leave Link 1002 at Mon Sep 28 02:16:36 2026, MaxMem=  1610612736 cpu:             361.7 elap:              45.4
 (Enter /share/software/user/restricted/gaussian/g16.B01/l601.exe)
 Copying SCF densities to generalized density rwf, IOpCl= 0 IROHF=0.

 **********************************************************************

            Population analysis using the SCF Density.

 **********************************************************************

 Orbital symmetries:
       Occupied  (A') (A') (A') (A') (A') (A') (A') (A') (A') (A')
                 (A') (A") (A') (A') (A") (A') (A') (A') (A') (A')
                 (A') (A') (A') (A') (A') (A') (A') (A') (A") (A")
                 (A') (A') (A") (A') (A") (A") (A')
       Virtual   (A') (A') (A') (A") (A') (A") (A') (A') (A') (A")
                 (A') (A") (A') (A') (A") (A') (A') (A') (A") (A')
                 (A') (A") (A') (A") (A") (A') (A') (A') (A") (A')
                 (A') (A") (A') (A') (A') (A') (A') (A') (A') (A')
                 (A') (A') (A') (A') (A') (A') (A') (A') (A') (A")
                 (A') (A") (A') (A') (A') (A') (A") (A') (A") (A")
                 (A') (A") (A") (A') (A') (A') (A") (A') (A') (A')
                 (A') (A') (A') (A") (A') (A") (A') (A') (A') (A')
                 (A") (A') (A") (A') (A') (A') (A') (A') (A") (A')
                 (A') (A") (A') (A") (A') (A") (A') (A') (A") (A")
                 (A') (A') (A') (A') (A') (A') (A") (A") (A') (A')
                 (A') (A") (A") (A") (A') (A') (A') (A') (A') (A")
                 (A') (A") (A') (A") (A') (A') (A') (A') (A') (A')
                 (A') (A") (A") (A") (A') (A") (A") (A') (A") (A')
                 (A') (A') (A') (A') (A') (A') (A') (A') (A') (A')
                 (A') (A') (A') (A') (A') (A') (A') (A') (A') (A")
                 (A") (A') (A') (A') (A') (A') (A')
 The electronic state is 1-A'.
 Alpha  occ. eigenvalues -- -101.41677-101.37624 -10.08652 -10.06447 -10.04202
 Alpha  occ. eigenvalues --  -10.04138 -10.02744  -9.97365  -9.33111  -9.29058
 Alpha  occ. eigenvalues --   -7.09499  -7.08629  -7.08619  -7.05402  -7.04611
 Alpha  occ. eigenvalues --   -7.04578  -0.74080  -0.69922  -0.65404  -0.59603
 Alpha  occ. eigenvalues --   -0.56044  -0.46180  -0.42574  -0.35859  -0.31360
 Alpha  occ. eigenvalues --   -0.30356  -0.27567  -0.25070  -0.24956  -0.20469
 Alpha  occ. eigenvalues --   -0.20203  -0.18668  -0.16217  -0.14896  -0.10391
 Alpha  occ. eigenvalues --   -0.08738  -0.02915
 Alpha virt. eigenvalues --    0.09829   0.11279   0.12222   0.12728   0.12862
 Alpha virt. eigenvalues --    0.13790   0.14245   0.17597   0.17620   0.17677
 Alpha virt. eigenvalues --    0.17869   0.18663   0.19751   0.20230   0.20834
 Alpha virt. eigenvalues --    0.21909   0.21934   0.22676   0.22858   0.23895
 Alpha virt. eigenvalues --    0.24191   0.25222   0.25290   0.26326   0.27016
 Alpha virt. eigenvalues --    0.27263   0.28351   0.29124   0.29700   0.30669
 Alpha virt. eigenvalues --    0.32372   0.33059   0.33177   0.34965   0.36081
 Alpha virt. eigenvalues --    0.36428   0.36751   0.37368   0.39077   0.40289
 Alpha virt. eigenvalues --    0.41459   0.41771   0.42295   0.44746   0.46657
 Alpha virt. eigenvalues --    0.48472   0.49573   0.55651   0.57784   0.58288
 Alpha virt. eigenvalues --    0.59825   0.60985   0.63097   0.63643   0.65930
 Alpha virt. eigenvalues --    0.67298   0.68311   0.69798   0.71666   0.73710
 Alpha virt. eigenvalues --    0.74451   0.75150   0.76349   0.76715   0.77881
 Alpha virt. eigenvalues --    0.80839   0.82219   0.83721   0.85416   0.87939
 Alpha virt. eigenvalues --    0.89025   0.92966   0.97730   0.98058   0.99636
 Alpha virt. eigenvalues --    1.00152   1.00601   1.02342   1.03299   1.03813
 Alpha virt. eigenvalues --    1.04152   1.05769   1.06255   1.07697   1.07978
 Alpha virt. eigenvalues --    1.10992   1.11614   1.14264   1.16228   1.17226
 Alpha virt. eigenvalues --    1.24327   1.26009   1.29368   1.35960   1.36785
 Alpha virt. eigenvalues --    1.37406   1.37569   1.39866   1.45117   1.47794
 Alpha virt. eigenvalues --    1.59962   1.64883   1.69218   1.70234   1.80239
 Alpha virt. eigenvalues --    1.87651   1.92330   1.96056   1.98266   1.99653
 Alpha virt. eigenvalues --    2.00244   2.05711   2.09553   2.15993   2.16771
 Alpha virt. eigenvalues --    2.18120   2.22054   2.37509   2.39957   2.40015
 Alpha virt. eigenvalues --    2.41963   2.43152   2.45923   2.49805   2.54115
 Alpha virt. eigenvalues --    2.56657   2.62528   2.65159   2.67278   2.70005
 Alpha virt. eigenvalues --    2.76503   2.79183   2.91640   2.93313   2.95958
 Alpha virt. eigenvalues --    3.02026   3.05227   3.19220   3.21830   3.24802
 Alpha virt. eigenvalues --    3.29753   3.35431   3.42975   3.44932   3.50456
 Alpha virt. eigenvalues --    3.63755   3.76610   3.85146   4.13109   4.13342
 Alpha virt. eigenvalues --    4.90706   9.88510   9.92408  23.41506  23.97186
 Alpha virt. eigenvalues --   24.01937  24.16876  24.20386  24.30542  25.95308
 Alpha virt. eigenvalues --   25.99042  26.19978  26.28914  26.62368  26.70399
 Alpha virt. eigenvalues --  215.87551 215.91845
          Condensed to atoms (all electrons):
               1          2          3          4          5          6
     1  C   14.007893   2.574686 -11.881898   1.492010  -1.431522   1.184706
     2  C    2.574686  21.038895 -13.391348   5.764230  -6.605931  -0.811608
     3  C  -11.881898 -13.391348  37.314342 -12.325385   5.495153  -0.232234
     4  C    1.492010   5.764230 -12.325385  29.514380  -8.136114 -10.556623
     5  C   -1.431522  -6.605931   5.495153  -8.136114  19.843338  -1.764367
     6  C    1.184706  -0.811608  -0.232234 -10.556623  -1.764367  19.240569
     7  Cl  -0.522396  -2.249818   1.895481  -0.429847   0.007884   0.051482
     8  H   -0.118839  -0.317745   0.791772  -0.387963   0.110939   0.038185
     9  H    0.075511   0.199081  -0.297401   0.750520  -0.326488  -0.166317
    10  Cl   0.407799  -0.033451  -0.229570   1.045819  -1.721835  -0.285144
    11  H    0.129225  -0.130927  -0.141318   0.036716  -0.293726   0.468612
               7          8          9         10         11
     1  C   -0.522396  -0.118839   0.075511   0.407799   0.129225
     2  C   -2.249818  -0.317745   0.199081  -0.033451  -0.130927
     3  C    1.895481   0.791772  -0.297401  -0.229570  -0.141318
     4  C   -0.429847  -0.387963   0.750520   1.045819   0.036716
     5  C    0.007884   0.110939  -0.326488  -1.721835  -0.293726
     6  C    0.051482   0.038185  -0.166317  -0.285144   0.468612
     7  Cl  17.905095   0.129057  -0.019790  -0.020820   0.011263
     8  H    0.129057   0.578787  -0.024411  -0.012933   0.004254
     9  H   -0.019790  -0.024411   0.546812   0.044489  -0.000179
    10  Cl  -0.020820  -0.012933   0.044489  17.564387   0.046743
    11  H    0.011263   0.004254  -0.000179   0.046743   0.670166
 Mulliken charges:
               1
     1  C    0.082826
     2  C   -0.036064
     3  C   -0.997594
     4  C   -0.767743
     5  C    0.822669
     6  C   -1.167261
     7  Cl   0.242409
     8  H    0.208898
     9  H    0.218173
    10  Cl   0.194515
    11  H    0.199171
 Sum of Mulliken charges =  -1.00000
 Mulliken charges with hydrogens summed into heavy atoms:
               1
     1  C    0.082826
     2  C   -0.036064
     3  C   -0.788695
     4  C   -0.549570
     5  C    0.822669
     6  C   -0.968090
     7  Cl   0.242409
    10  Cl   0.194515
 APT charges:
               1
     1  C   -0.741533
     2  C    0.749779
     3  C   -0.051164
     4  C   -0.203371
     5  C    0.593152
     6  C    0.008724
     7  Cl  -0.703139
     8  H   -0.021927
     9  H    0.020640
    10  Cl  -0.612677
    11  H   -0.038484
 Sum of APT charges =  -1.00000
 APT charges with hydrogens summed into heavy atoms:
               1
     1  C   -0.741533
     2  C    0.749779
     3  C   -0.073091
     4  C   -0.182731
     5  C    0.593152
     6  C   -0.029759
     7  Cl  -0.703139
    10  Cl  -0.612677
 Electronic spatial extent (au):  <R**2>=           1718.4697
 Charge=             -1.0000 electrons
 Dipole moment (field-independent basis, Debye):
    X=             -3.5792    Y=             -3.4703    Z=              0.0000  Tot=              4.9853
 Quadrupole moment (field-independent basis, Debye-Ang):
   XX=            -70.7912   YY=            -95.4986   ZZ=            -67.2550
   XY=             -2.9141   XZ=              0.0000   YZ=              0.0000
 Traceless Quadrupole moment (field-independent basis, Debye-Ang):
   XX=              7.0570   YY=            -17.6503   ZZ=             10.5933
   XY=             -2.9141   XZ=              0.0000   YZ=              0.0000
 Octapole moment (field-independent basis, Debye-Ang**2):
  XXX=            -25.0653  YYY=            -27.6105  ZZZ=             -0.0000  XYY=             -7.1320
  XXY=            -15.1987  XXZ=             -0.0000  XZZ=             -2.1646  YZZ=             -2.5706
  YYZ=             -0.0000  XYZ=              0.0000
 Hexadecapole moment (field-independent basis, Debye-Ang**3):
 XXXX=           -403.3854 YYYY=          -2211.0015 ZZZZ=            -88.7619 XXXY=             32.3268
 XXXZ=              0.0000 YYYX=             68.2692 YYYZ=             -0.0000 ZZZX=             -0.0000
 ZZZY=              0.0000 XXYY=           -409.5609 XXZZ=            -85.6044 YYZZ=           -350.7373
 XXYZ=              0.0000 YYXZ=             -0.0000 ZZXY=             18.2355
 N-N= 4.284464318401D+02 E-N=-3.592350642245D+03  KE= 1.147768195988D+03
 Symmetry A'   KE= 1.049940787886D+03
 Symmetry A"   KE= 9.782740810135D+01
  Exact polarizability: 114.273  -2.956 170.670   0.000   0.000  65.432
 Approx polarizability: 185.853  -5.853 243.422   0.000  -0.000  95.010
 No NMR shielding tensors so no spin-rotation constants.
 Leave Link  601 at Mon Sep 28 02:16:37 2026, MaxMem=  1610612736 cpu:               1.3 elap:               0.2
 (Enter /share/software/user/restricted/gaussian/g16.B01/l701.exe)
 ... and contract with generalized density number  0.
 Compute integral second derivatives.
 Leave Link  701 at Mon Sep 28 02:16:37 2026, MaxMem=  1610612736 cpu:               1.2 elap:               0.2
 (Enter /share/software/user/restricted/gaussian/g16.B01/l702.exe)
 L702 exits ... SP integral derivatives will be done elsewhere.
 Leave Link  702 at Mon Sep 28 02:16:37 2026, MaxMem=  1610612736 cpu:               0.3 elap:               0.0
 (Enter /share/software/user/restricted/gaussian/g16.B01/l703.exe)
 Integral derivatives from FoFJK, PRISM(SPDF).
 Compute integral second derivatives, UseDBF=F ICtDFT=           0.
 Calling FoFJK, ICntrl=    100127 FMM=F ISym2X=1 I1Cent= 0 IOpClX= 0 NMat=1 NMatS=1 NMatT=0.
 FoFJK:  IHMeth= 1 ICntrl=  100127 DoSepK=F KAlg= 0 I1Cent=           0 FoldK=F
 IRaf=         0 NMat=       1 IRICut=       1 DoRegI=T DoRafI=F ISym2E= 1 IDoP0=0 IntGTp=1.
 FoFCou: FMM=F IPFlag=           0 FMFlag=      100000 FMFlg1=         800
         NFxFlg=           0 DoJE=F BraDBF=F KetDBF=F FulRan=T
         wScrn=  0.000000 ICntrl=    100127 IOpCl=  0 I1Cent=           0 NGrid=           0
         NMat0=    1 NMatS0=      1 NMatT0=    0 NMatD0=    1 NMtDS0=    0 NMtDT0=    0
 Petite list used in FoFCou.
 Leave Link  703 at Mon Sep 28 02:17:03 2026, MaxMem=  1610612736 cpu:             206.3 elap:              25.9
 (Enter /share/software/user/restricted/gaussian/g16.B01/l716.exe)
 Dipole        =-1.40817494D+00-1.36530876D+00 2.83017372D-33
 Polarizability= 1.14272563D+02-2.95570075D+00 1.70670401D+02
                 1.37988886D-29 7.04501645D-30 6.54321572D+01
 Full mass-weighted force constant matrix:
 Low frequencies ---  -10.0103   -2.7199   -1.2418    0.0026    0.0028    0.0037
 Low frequencies ---   83.8843  211.6321  275.5088
 Diagonal vibrational polarizability:
        7.1915596      44.0876614       3.6936286
 Harmonic frequencies (cm**-1), IR intensities (KM/Mole), Raman scattering
 activities (A**4/AMU), depolarization ratios for plane and unpolarized
 incident light, reduced masses (AMU), force constants (mDyne/A),
 and normal coordinates:
                      1                      2                      3
                     A"                     A'                     A'
 Frequencies --     83.8840               211.6321               275.5088
 Red. masses --     11.9184                13.3523                30.4494
 Frc consts  --      0.0494                 0.3523                 1.3618
 IR Inten    --      0.0032                 0.5499                23.1033
  Atom  AN      X      Y      Z        X      Y      Z        X      Y      Z
     1   6     0.00   0.00  -0.29    -0.29  -0.04  -0.00    -0.17  -0.13  -0.00
     2   6     0.00   0.00  -0.22    -0.27  -0.01  -0.00     0.00   0.02  -0.00
     3   6     0.00   0.00  -0.34    -0.29   0.00  -0.00     0.03  -0.03  -0.00
     4   6     0.00   0.00  -0.29    -0.30  -0.04   0.00     0.08  -0.09   0.00
     5   6     0.00   0.00  -0.18    -0.28  -0.02   0.00     0.04  -0.26   0.00
     6   6    -0.00   0.00  -0.30    -0.31  -0.00  -0.00     0.00  -0.16   0.00
     7  17    -0.00  -0.00   0.30     0.31   0.01   0.00    -0.05   0.74   0.00
     8   1     0.00   0.00  -0.41    -0.30   0.00  -0.00    -0.02  -0.13  -0.00
     9   1    -0.00   0.00  -0.28    -0.31  -0.03   0.00     0.03  -0.02   0.00
    10  17    -0.00   0.00   0.29     0.32   0.03   0.00     0.05  -0.51  -0.00
    11   1    -0.00   0.00  -0.35    -0.32  -0.02  -0.00     0.06  -0.05   0.00
                      4                      5                      6
                     A"                     A'                     A"
 Frequencies --    292.9496               346.3837               403.5419
 Red. masses --      7.7496                 5.8173                 3.1094
 Frc consts  --      0.3918                 0.4112                 0.2983
 IR Inten    --      0.5738                 9.0687                 9.1056
  Atom  AN      X      Y      Z        X      Y      Z        X      Y      Z
     1   6     0.00   0.00  -0.23     0.19  -0.19  -0.00    -0.00  -0.00   0.24
     2   6    -0.00  -0.00  -0.35     0.25  -0.05  -0.00     0.00  -0.00   0.09
     3   6    -0.00  -0.00  -0.27     0.15   0.14  -0.00    -0.00   0.00  -0.20
     4   6     0.00  -0.00   0.27    -0.17   0.13   0.00     0.00   0.00   0.18
     5   6     0.00   0.00   0.43    -0.23  -0.04   0.00     0.00   0.00   0.04
     6   6     0.00   0.00   0.21    -0.14  -0.20   0.00     0.00  -0.00  -0.22
     7  17     0.00  -0.00   0.09    -0.12   0.02   0.00    -0.00   0.00  -0.02
     8   1    -0.00  -0.00  -0.50     0.27   0.36  -0.00    -0.00   0.00  -0.55
     9   1     0.00  -0.00   0.33    -0.30   0.32   0.00     0.00   0.00   0.27
    10  17    -0.00   0.00  -0.11     0.11   0.05  -0.00    -0.00   0.00  -0.00
    11   1     0.00   0.00   0.26    -0.26  -0.41   0.00     0.00  -0.00  -0.66
                      7                      8                      9
                     A'                     A"                     A'
 Frequencies --    421.5026               491.2341               593.9337
 Red. masses --     12.1121                 3.8015                 8.2286
 Frc consts  --      1.2679                 0.5405                 1.7102
 IR Inten    --    149.5542                 0.3694                20.5406
  Atom  AN      X      Y      Z        X      Y      Z        X      Y      Z
     1   6    -0.07  -0.28   0.00    -0.00  -0.00  -0.20     0.28   0.34   0.00
     2   6    -0.02  -0.35  -0.00    -0.00  -0.00   0.32     0.11   0.02   0.00
     3   6    -0.06  -0.30   0.00    -0.00  -0.00   0.01     0.22  -0.30  -0.00
     4   6     0.05  -0.27  -0.00     0.00  -0.00  -0.15    -0.16  -0.33   0.00
     5   6     0.08  -0.13  -0.00     0.00  -0.00   0.29    -0.13  -0.11   0.00
     6   6     0.10  -0.23  -0.00     0.00  -0.00  -0.04    -0.27   0.24  -0.00
     7  17     0.01   0.19   0.00     0.00   0.00  -0.02     0.02   0.05  -0.00
     8   1    -0.06  -0.32   0.00    -0.00  -0.00  -0.41     0.25  -0.24  -0.00
     9   1     0.14  -0.41  -0.00     0.00  -0.00  -0.64    -0.25  -0.20  -0.00
    10  17    -0.05   0.37   0.00    -0.00   0.00  -0.01    -0.03   0.01  -0.00
    11   1     0.09  -0.25  -0.00     0.00  -0.00  -0.41    -0.32   0.16   0.00
                     10                     11                     12
                     A'                     A"                     A"
 Frequencies --    696.3959               724.5525               769.0926
 Red. masses --      8.9902                 5.4545                 1.3684
 Frc consts  --      2.5688                 1.6871                 0.4769
 IR Inten    --      3.1850                 1.0482                38.6413
  Atom  AN      X      Y      Z        X      Y      Z        X      Y      Z
     1   6    -0.28  -0.09  -0.00    -0.00  -0.00   0.25     0.00   0.00  -0.01
     2   6    -0.05   0.44   0.00    -0.00   0.00  -0.32     0.00  -0.00   0.08
     3   6     0.29   0.01  -0.00     0.00   0.00   0.19    -0.00  -0.00  -0.10
     4   6     0.29   0.01   0.00     0.00   0.00  -0.23    -0.00   0.00  -0.12
     5   6     0.02  -0.41   0.00    -0.00  -0.00   0.33     0.00   0.00   0.06
     6   6    -0.26  -0.09  -0.00    -0.00  -0.00  -0.20     0.00  -0.00  -0.00
     7  17    -0.00  -0.04  -0.00    -0.00  -0.00   0.01     0.00   0.00  -0.00
     8   1     0.07  -0.38  -0.00     0.00  -0.00   0.55    -0.00   0.00   0.49
     9   1     0.07   0.33   0.00     0.00   0.00  -0.34    -0.00   0.00   0.85
    10  17    -0.00   0.09  -0.00     0.00   0.00  -0.01     0.00   0.00  -0.00
    11   1    -0.12   0.14   0.00    -0.00   0.00  -0.42     0.00  -0.00  -0.00
                     13                     14                     15
                     A"                     A"                     A'
 Frequencies --    874.2526               903.1332               951.7288
 Red. masses --      1.4444                 1.2692                 8.7938
 Frc consts  --      0.6505                 0.6099                 4.6930
 IR Inten    --      3.3086                 0.8292               252.6527
  Atom  AN      X      Y      Z        X      Y      Z        X      Y      Z
     1   6     0.00  -0.00   0.01     0.00  -0.00  -0.01    -0.27  -0.20   0.00
     2   6    -0.00  -0.00   0.05    -0.00   0.00   0.00     0.03   0.31  -0.00
     3   6    -0.00   0.00  -0.10     0.00   0.00  -0.10     0.33  -0.17  -0.00
     4   6    -0.00   0.00   0.07     0.00  -0.00   0.06    -0.27  -0.20   0.00
     5   6     0.00   0.00   0.04    -0.00  -0.00  -0.03    -0.04   0.44  -0.00
     6   6     0.00  -0.00  -0.14    -0.00   0.00   0.10     0.21  -0.05   0.00
     7  17     0.00   0.00  -0.00    -0.00  -0.00  -0.00    -0.00  -0.01  -0.00
     8   1    -0.00  -0.00   0.46     0.00   0.00   0.68     0.34  -0.13   0.00
     9   1    -0.00   0.00  -0.38     0.00  -0.00  -0.41    -0.22  -0.25  -0.00
    10  17     0.00  -0.00  -0.00     0.00  -0.00   0.00    -0.00  -0.02   0.00
    11   1     0.00  -0.00   0.78    -0.00   0.00  -0.59     0.13  -0.18  -0.00
                     16                     17                     18
                     A'                     A'                     A'
 Frequencies --    985.0567              1066.6968              1134.6430
 Red. masses --      4.9888                 2.4881                 1.3500
 Frc consts  --      2.8522                 1.6680                 1.0240
 IR Inten    --    133.0362                42.0597                 4.5175
  Atom  AN      X      Y      Z        X      Y      Z        X      Y      Z
     1   6     0.28   0.05  -0.00     0.05  -0.05   0.00     0.01   0.05   0.00
     2   6    -0.07   0.36  -0.00     0.01  -0.01   0.00    -0.04  -0.04  -0.00
     3   6    -0.22   0.01   0.00    -0.01  -0.07  -0.00     0.03  -0.10  -0.00
     4   6    -0.09  -0.09  -0.00     0.18   0.06   0.00    -0.01   0.10   0.00
     5   6    -0.00  -0.07  -0.00    -0.03   0.22   0.00    -0.02   0.01   0.00
     6   6     0.14  -0.24   0.00    -0.19  -0.02  -0.00     0.06  -0.04   0.00
     7  17    -0.00   0.01   0.00    -0.00   0.01  -0.00     0.00   0.00  -0.00
     8   1    -0.45  -0.36  -0.00    -0.22  -0.49   0.00    -0.20  -0.55   0.00
     9   1     0.05  -0.31   0.00     0.42  -0.25  -0.00    -0.40   0.68  -0.00
    10  17     0.00   0.02   0.00     0.00  -0.02  -0.00     0.00  -0.00  -0.00
    11   1     0.02  -0.46  -0.00    -0.41  -0.41   0.00     0.03  -0.08  -0.00
                     19                     20                     21
                     A'                     A'                     A'
 Frequencies --   1257.8851              1316.5236              1363.9518
 Red. masses --      1.8667                 4.3349                 2.3846
 Frc consts  --      1.7403                 4.4268                 2.6138
 IR Inten    --      5.7078                79.3984                 1.0482
  Atom  AN      X      Y      Z        X      Y      Z        X      Y      Z
     1   6    -0.06   0.19   0.00    -0.13   0.16   0.00    -0.03  -0.08   0.00
     2   6    -0.10  -0.03  -0.00     0.29   0.02  -0.00     0.13   0.05  -0.00
     3   6     0.05  -0.05  -0.00    -0.09  -0.13  -0.00    -0.13  -0.00  -0.00
     4   6     0.02   0.03   0.00    -0.16   0.17   0.00    -0.03  -0.08   0.00
     5   6     0.05   0.01  -0.00     0.19   0.01  -0.00     0.23   0.00   0.00
     6   6     0.01  -0.14   0.00    -0.14  -0.21   0.00    -0.07   0.11   0.00
     7  17     0.00  -0.00  -0.00     0.00  -0.01  -0.00    -0.00  -0.00  -0.00
     8   1     0.38   0.56   0.00    -0.11  -0.18   0.00    -0.05   0.18   0.00
     9   1     0.03   0.02  -0.00     0.20  -0.37  -0.00    -0.42   0.47  -0.00
    10  17     0.00   0.00  -0.00     0.00   0.00  -0.00    -0.01  -0.00  -0.00
    11   1    -0.26  -0.63  -0.00     0.30   0.62  -0.00    -0.41  -0.52  -0.00
                     22                     23                     24
                     A'                     A'                     A'
 Frequencies --   1410.1133              1533.4379              1580.3649
 Red. masses --      1.9199                 5.2644                 6.3999
 Frc consts  --      2.2493                 7.2934                 9.4176
 IR Inten    --    158.7645                 6.7029                 7.9864
  Atom  AN      X      Y      Z        X      Y      Z        X      Y      Z
     1   6     0.12  -0.08   0.00    -0.02   0.14  -0.00     0.17  -0.14  -0.00
     2   6    -0.11   0.05  -0.00    -0.04  -0.12   0.00    -0.32  -0.05   0.00
     3   6    -0.04  -0.10  -0.00     0.11   0.38   0.00     0.23   0.05  -0.00
     4   6     0.06  -0.02   0.00     0.02  -0.31  -0.00    -0.30   0.21  -0.00
     5   6     0.05   0.10   0.00     0.13   0.14  -0.00     0.35  -0.08  -0.00
     6   6    -0.11  -0.08   0.00    -0.13  -0.22  -0.00    -0.12   0.06   0.00
     7  17    -0.00   0.01  -0.00    -0.00  -0.01   0.00     0.00   0.01  -0.00
     8   1     0.27   0.49   0.00    -0.34  -0.47  -0.00     0.02  -0.40   0.00
     9   1    -0.19   0.38  -0.00    -0.36   0.22  -0.00     0.17  -0.52   0.00
    10  17    -0.00  -0.00  -0.00    -0.00   0.00   0.00    -0.00  -0.00  -0.00
    11   1     0.25   0.60  -0.00     0.12   0.30  -0.00    -0.20  -0.10   0.00
                     25                     26                     27
                     A'                     A'                     A'
 Frequencies --   3078.1133              3132.6905              3179.8106
 Red. masses --      1.0870                 1.0889                 1.0928
 Frc consts  --      6.0682                 6.2960                 6.5099
 IR Inten    --     69.2727                43.4377                25.9931
  Atom  AN      X      Y      Z        X      Y      Z        X      Y      Z
     1   6     0.00   0.00   0.00    -0.00  -0.00  -0.00    -0.00  -0.00   0.00
     2   6     0.00  -0.00  -0.00     0.00   0.00  -0.00     0.00   0.00   0.00
     3   6    -0.00   0.00   0.00    -0.07   0.04   0.00    -0.02   0.01  -0.00
     4   6     0.00  -0.00  -0.00     0.01   0.01  -0.00    -0.07  -0.05   0.00
     5   6     0.00   0.00  -0.00     0.00   0.00  -0.00     0.00  -0.00   0.00
     6   6    -0.08   0.04   0.00     0.00  -0.00   0.00     0.00   0.00  -0.00
     7  17    -0.00   0.00   0.00     0.00  -0.00   0.00    -0.00  -0.00  -0.00
     8   1     0.03  -0.02  -0.00     0.86  -0.45  -0.00     0.18  -0.10   0.00
     9   1     0.00   0.00  -0.00    -0.18  -0.11  -0.00     0.81   0.55   0.00
    10  17     0.00  -0.00   0.00    -0.00  -0.00   0.00    -0.00   0.00  -0.00
    11   1     0.88  -0.47  -0.00    -0.03   0.01  -0.00    -0.01   0.00   0.00

 -------------------
 - Thermochemistry -
 -------------------
 Temperature   298.150 Kelvin.  Pressure   1.00000 Atm.
 Atom     1 has atomic number  6 and mass  12.00000
 Atom     2 has atomic number  6 and mass  12.00000
 Atom     3 has atomic number  6 and mass  12.00000
 Atom     4 has atomic number  6 and mass  12.00000
 Atom     5 has atomic number  6 and mass  12.00000
 Atom     6 has atomic number  6 and mass  12.00000
 Atom     7 has atomic number 17 and mass  34.96885
 Atom     8 has atomic number  1 and mass   1.00783
 Atom     9 has atomic number  1 and mass   1.00783
 Atom    10 has atomic number 17 and mass  34.96885
 Atom    11 has atomic number  1 and mass   1.00783
 Molecular mass:   144.96118 amu.
 Principal axes and moments of inertia in atomic units:
                           1         2         3
     Eigenvalues --   309.440862785.240843094.68170
           X           -0.07498   0.99719   0.00000
           Y            0.99719   0.07498   0.00000
           Z            0.00000   0.00000   1.00000
 This molecule is an asymmetric top.
 Rotational symmetry number  1.
 Rotational temperatures (Kelvin)      0.27990     0.03110     0.02799
 Rotational constants (GHZ):           5.83227     0.64797     0.58318
 Zero-point vibrational energy     173931.1 (Joules/Mol)
                                   41.57054 (Kcal/Mol)
 Warning -- explicit consideration of   9 degrees of freedom as
           vibrations may cause significant error
 Vibrational temperatures:    120.69   304.49   396.40   421.49   498.37
          (Kelvin)            580.61   606.45   706.78   854.54  1001.96
                             1042.47  1106.55  1257.85  1299.41  1369.33
                             1417.28  1534.74  1632.50  1809.82  1894.18
                             1962.42  2028.84  2206.28  2273.79  4428.72
                             4507.24  4575.04
 
 Zero-point correction=                           0.066247 (Hartree/Particle)
 Thermal correction to Energy=                    0.073222
 Thermal correction to Enthalpy=                  0.074166
 Thermal correction to Gibbs Free Energy=         0.033890
 Sum of electronic and zero-point Energies=          -1150.871416
 Sum of electronic and thermal Energies=             -1150.864441
 Sum of electronic and thermal Enthalpies=           -1150.863497
 Sum of electronic and thermal Free Energies=        -1150.903772
 
                     E (Thermal)             CV                S
                      KCal/Mol        Cal/Mol-Kelvin    Cal/Mol-Kelvin
 Total                   45.947             25.331             84.767
 Electronic               0.000              0.000              0.000
 Translational            0.889              2.981             40.825
 Rotational               0.889              2.981             29.368
 Vibrational             44.170             19.369             14.574
 Vibration     1          0.601              1.960              3.798
 Vibration     2          0.643              1.823              2.030
 Vibration     3          0.677              1.719              1.561
 Vibration     4          0.688              1.687              1.457
 Vibration     5          0.724              1.583              1.183
 Vibration     6          0.769              1.462              0.950
 Vibration     7          0.784              1.423              0.887
 Vibration     8          0.847              1.269              0.680
 Vibration     9          0.952              1.045              0.460
                       Q            Log10(Q)             Ln(Q)
 Total Bot       0.257912D-15        -15.588528        -35.893912
 Total V=0       0.763641D+15         14.882889         34.269119
 Vib (Bot)       0.643083D-29        -29.191733        -67.216450
 Vib (Bot)    1  0.245358D+01          0.389801          0.897550
 Vib (Bot)    2  0.937881D+00         -0.027852         -0.064133
 Vib (Bot)    3  0.699485D+00         -0.155222         -0.357412
 Vib (Bot)    4  0.651731D+00         -0.185932         -0.428123
 Vib (Bot)    5  0.533890D+00         -0.272548         -0.627566
 Vib (Bot)    6  0.440531D+00         -0.356023         -0.819774
 Vib (Bot)    7  0.416100D+00         -0.380802         -0.876829
 Vib (Bot)    8  0.337165D+00         -0.472157         -1.087182
 Vib (Bot)    9  0.252975D+00         -0.596923         -1.374465
 Vib (V=0)       0.190407D+02          1.279684          2.946581
 Vib (V=0)    1  0.300401D+01          0.477702          1.099949
 Vib (V=0)    2  0.156284D+01          0.193913          0.446502
 Vib (V=0)    3  0.135981D+01          0.133479          0.307347
 Vib (V=0)    4  0.132143D+01          0.121045          0.278717
 Vib (V=0)    5  0.123146D+01          0.090421          0.208203
 Vib (V=0)    6  0.116638D+01          0.066842          0.153908
 Vib (V=0)    7  0.115049D+01          0.060883          0.140189
 Vib (V=0)    8  0.110306D+01          0.042599          0.098087
 Vib (V=0)    9  0.106035D+01          0.025451          0.058603
 Electronic      0.100000D+01          0.000000          0.000000
 Translational   0.686012D+08          7.836331         18.043820
 Rotational      0.584620D+06          5.766874         13.278718
 
                                                       ClPh_25_anion b3lyp_gas
                                                             IR Spectrum
 
     3 3  3                                                          1 1    1 1 1 1    1  1                                          
     1 1  0                                                          5 5    4 3 3 2    1  0  99 9 8   7 76   5   4 44  322  2        
     8 3  7                                                          8 3    1 6 1 5    3  6  85 0 7   6 29   9   9 20  497  1    8   
     0 3  8                                                          0 3    0 4 7 8    5  7  52 3 4   9 56   4   1 24  636  2    4   
 
     X X  X                                                          X X    X X X X    X  X  XX X X   X XX   X   X XX  XXX  X        
     X X  X                                                                 X   X         X  XX       X      X     X     X           
       X  X                                                                 X   X         X  XX       X            X                 
          X                                                                 X   X            XX                    X                 
          X                                                                 X   X            XX                    X                 
                                                                            X   X            XX                    X                 
                                                                            X                XX                    X                 
                                                                            X                XX                    X                 
                                                                            X                XX                    X                 
                                                                            X                XX                    X                 
                                                                            X                XX                    X                 
                                                                            X                 X                    X                 
                                                                            X                 X                                      
                                                                                              X                                      
                                                                                              X                                      
                                                                                              X                                      
                                                                                              X                                      
                                                                                              X                                      
                                                                                              X                                      
                                                                                              X                                      
 
 ***** Axes restored to original set *****
 -------------------------------------------------------------------
 Center     Atomic                   Forces (Hartrees/Bohr)
 Number     Number              X              Y              Z
 -------------------------------------------------------------------
      1        6          -0.000113210    0.000213756   -0.000000000
      2        6          -0.000061544   -0.000143554    0.000000000
      3        6          -0.000008359   -0.000030613    0.000000000
      4        6           0.000099066    0.000054175   -0.000000000
      5        6          -0.000369955   -0.000302422    0.000000000
      6        6           0.000269781    0.000083630   -0.000000000
      7       17           0.000102880    0.000031310   -0.000000000
      8        1          -0.000023007    0.000011175   -0.000000000
      9        1           0.000005635    0.000023436   -0.000000000
     10       17           0.000145350    0.000107338   -0.000000000
     11        1          -0.000046638   -0.000048230    0.000000000
 -------------------------------------------------------------------
 Cartesian Forces:  Max     0.000369955 RMS     0.000117384
 Force constants in Cartesian coordinates: 
                1             2             3             4             5 
      1  0.556958D+00
      2 -0.121305D-01  0.287158D+00
      3  0.000000D+00  0.000000D+00  0.690840D-01
      4 -0.223408D+00  0.736568D-01  0.000000D+00  0.376588D+00
      5  0.120104D+00 -0.159478D+00  0.000000D+00 -0.106528D+00  0.575830D+00
      6  0.000000D+00  0.000000D+00 -0.542204D-01  0.000000D+00  0.000000D+00
      7  0.219410D-01  0.255193D-01  0.000000D+00 -0.966677D-01  0.572551D-01
      8  0.653490D-01 -0.174897D-01  0.000000D+00 -0.175697D-02 -0.313597D+00
      9  0.000000D+00  0.000000D+00  0.179524D-01  0.000000D+00  0.000000D+00
     10 -0.591248D-01  0.421295D-02  0.000000D+00  0.275101D-01 -0.790983D-01
     11  0.190632D-02  0.578170D-02  0.000000D+00 -0.191318D-01 -0.348524D-01
     12  0.000000D+00  0.000000D+00 -0.632899D-02  0.000000D+00  0.000000D+00
     13  0.258627D-01 -0.165065D-01  0.000000D+00 -0.227198D-01  0.307061D-01
     14 -0.797403D-01 -0.209221D-01  0.000000D+00  0.159421D-01 -0.518183D-01
     15  0.000000D+00  0.000000D+00  0.201697D-01  0.000000D+00  0.000000D+00
     16 -0.236916D+00 -0.919389D-01  0.000000D+00 -0.581799D-01  0.931903D-02
     17 -0.771725D-01 -0.112430D+00  0.000000D+00  0.393822D-02  0.371652D-01
     18  0.000000D+00  0.000000D+00 -0.496654D-01  0.000000D+00  0.000000D+00
     19 -0.629486D-01  0.234209D-01  0.000000D+00  0.129201D-02 -0.293090D-01
     20 -0.507963D-02  0.210142D-01  0.000000D+00  0.611334D-02 -0.487118D-01
     21  0.000000D+00  0.000000D+00 -0.621546D-03  0.000000D+00  0.000000D+00
     22  0.200193D-02  0.279896D-02  0.000000D+00 -0.179381D-02 -0.235897D-02
     23  0.217136D-03 -0.720290D-02  0.000000D+00  0.300129D-01 -0.835411D-02
     24  0.000000D+00  0.000000D+00  0.421121D-02  0.000000D+00  0.000000D+00
     25 -0.658565D-03 -0.647807D-03  0.000000D+00 -0.317817D-02 -0.158481D-02
     26 -0.401422D-04  0.541133D-03  0.000000D+00 -0.221584D-02  0.884782D-03
     27  0.000000D+00  0.000000D+00 -0.130681D-02  0.000000D+00  0.000000D+00
     28  0.175623D-02 -0.678181D-02  0.000000D+00  0.534754D-02  0.807516D-04
     29  0.223971D-02 -0.632205D-02  0.000000D+00  0.486057D-02  0.926777D-03
     30  0.000000D+00  0.000000D+00  0.331769D-02  0.000000D+00  0.000000D+00
     31 -0.254639D-01 -0.160349D-02  0.000000D+00 -0.478974D-02  0.141366D-02
     32 -0.156530D-01  0.935029D-02  0.000000D+00 -0.489179D-02  0.200481D-02
     33  0.000000D+00  0.000000D+00 -0.259182D-02  0.000000D+00  0.000000D+00
                6             7             8             9            10 
      6  0.120870D+00
      7  0.000000D+00  0.706174D+00
      8  0.000000D+00 -0.357708D-01  0.646314D+00
      9 -0.631164D-01  0.000000D+00  0.000000D+00  0.119804D+00
     10  0.000000D+00 -0.275767D+00 -0.593374D-01  0.000000D+00  0.636659D+00
     11  0.000000D+00 -0.123268D+00 -0.171625D+00  0.000000D+00 -0.128717D-02
     12  0.112303D-01  0.000000D+00  0.000000D+00 -0.525178D-01  0.000000D+00
     13  0.000000D+00 -0.627718D-01 -0.282431D-01  0.000000D+00 -0.249880D+00
     14  0.000000D+00  0.264759D-01  0.560702D-01  0.000000D+00  0.741666D-01
     15 -0.131051D-01  0.000000D+00  0.000000D+00  0.741356D-02  0.000000D+00
     16  0.000000D+00 -0.121022D-01 -0.149081D-01  0.000000D+00  0.246834D-01
     17  0.000000D+00 -0.288117D-01 -0.476763D-01  0.000000D+00  0.706547D-01
     18 -0.175871D-02  0.000000D+00  0.000000D+00 -0.435956D-02  0.000000D+00
     19  0.000000D+00 -0.230931D-01 -0.142870D-01  0.000000D+00  0.294440D-02
     20  0.000000D+00 -0.352486D-01 -0.200662D-01  0.000000D+00  0.342519D-02
     21 -0.198733D-01  0.000000D+00  0.000000D+00  0.357073D-02  0.000000D+00
     22  0.000000D+00 -0.261192D+00  0.114010D+00  0.000000D+00 -0.189596D-01
     23  0.000000D+00  0.112127D+00 -0.118734D+00  0.000000D+00 -0.151990D-01
     24  0.190176D-02  0.000000D+00  0.000000D+00 -0.324442D-01  0.000000D+00
     25  0.000000D+00  0.493933D-02 -0.273649D-01  0.000000D+00 -0.560922D-01
     26  0.000000D+00  0.303850D-02 -0.111310D-01  0.000000D+00  0.786827D-03
     27  0.664922D-02  0.000000D+00  0.000000D+00  0.401788D-03  0.000000D+00
     28  0.000000D+00 -0.117650D-02  0.390125D-02  0.000000D+00 -0.343847D-01
     29  0.000000D+00 -0.291924D-03 -0.194412D-02  0.000000D+00  0.327343D-02
     30  0.162580D-02  0.000000D+00  0.000000D+00  0.465210D-02  0.000000D+00
     31  0.000000D+00 -0.283581D-03 -0.159211D-02  0.000000D+00  0.241122D-02
     32  0.000000D+00 -0.102448D-02 -0.120113D-03  0.000000D+00 -0.159781D-02
     33  0.979700D-02  0.000000D+00  0.000000D+00 -0.135647D-02  0.000000D+00
               11            12            13            14            15 
     11  0.738618D+00
     12  0.000000D+00  0.108799D+00
     13  0.136279D+00  0.000000D+00  0.482293D+00
     14 -0.175967D+00  0.000000D+00 -0.114969D+00  0.571437D+00
     15  0.000000D+00 -0.589078D-01  0.000000D+00  0.000000D+00  0.114690D+00
     16  0.221062D-01  0.000000D+00 -0.976323D-01  0.700361D-01  0.000000D+00
     17 -0.329476D-01  0.000000D+00 -0.916829D-02 -0.301850D+00  0.000000D+00
     18  0.000000D+00  0.105730D-01  0.000000D+00  0.000000D+00 -0.630472D-01
     19 -0.392110D-02  0.000000D+00  0.128910D-02  0.346366D-02  0.000000D+00
     20 -0.357470D-02  0.000000D+00  0.177677D-04  0.166309D-02  0.000000D+00
     21  0.000000D+00  0.311180D-02  0.000000D+00  0.000000D+00  0.204022D-03
     22  0.146013D-01  0.000000D+00 -0.161269D-02 -0.365520D-02  0.000000D+00
     23  0.111761D-01  0.000000D+00 -0.221118D-02 -0.276788D-03  0.000000D+00
     24  0.000000D+00  0.153154D-02  0.000000D+00  0.000000D+00  0.876413D-02
     25 -0.299704D-02  0.000000D+00  0.366076D-02  0.269581D-01  0.000000D+00
     26 -0.334186D+00  0.000000D+00 -0.595143D-02 -0.137645D-01  0.000000D+00
     27  0.000000D+00 -0.256318D-01  0.000000D+00  0.000000D+00  0.106685D-03
     28 -0.246590D-01  0.000000D+00 -0.750826D-01 -0.179921D-01  0.000000D+00
     29  0.304335D-02  0.000000D+00 -0.205537D-01 -0.485229D-01  0.000000D+00
     30  0.000000D+00  0.203422D-02  0.000000D+00  0.000000D+00 -0.194915D-01
     31  0.371898D-03  0.000000D+00 -0.340629D-02 -0.686124D-03  0.000000D+00
     32 -0.546465D-02  0.000000D+00  0.306005D-01 -0.160479D-01  0.000000D+00
     33  0.000000D+00  0.610617D-02  0.000000D+00  0.000000D+00  0.320362D-02
               16            17            18            19            20 
     16  0.651111D+00
     17 -0.630431D-01  0.584724D+00
     18  0.000000D+00  0.000000D+00  0.129696D+00
     19  0.860342D-03 -0.735670D-02  0.000000D+00  0.839153D-01
     20  0.223655D-02 -0.288316D-02  0.000000D+00  0.326874D-01  0.535013D-01
     21  0.000000D+00  0.000000D+00  0.621139D-02  0.000000D+00  0.000000D+00
     22  0.905921D-03 -0.103878D-02  0.000000D+00  0.973727D-03 -0.168630D-02
     23 -0.189174D-02 -0.647319D-03  0.000000D+00 -0.448797D-03  0.430250D-03
     24  0.000000D+00  0.000000D+00  0.749361D-03  0.000000D+00  0.000000D+00
     25 -0.485439D-02  0.203081D-02  0.000000D+00 -0.937884D-03 -0.117788D-02
     26  0.333858D-02  0.422687D-03  0.000000D+00 -0.563359D-03 -0.692979D-03
     27  0.000000D+00  0.000000D+00  0.415618D-02  0.000000D+00  0.000000D+00
     28 -0.232623D-01 -0.585242D-02  0.000000D+00 -0.404741D-02 -0.149316D-02
     29 -0.401106D-01 -0.119801D-01  0.000000D+00 -0.377825D-02 -0.898221D-03
     30  0.000000D+00  0.000000D+00  0.292323D-02  0.000000D+00  0.000000D+00
     31 -0.244614D+00  0.115820D+00  0.000000D+00 -0.247909D-03  0.205333D-03
     32  0.104856D+00 -0.111897D+00  0.000000D+00  0.921926D-04  0.218163D-03
     33  0.000000D+00  0.000000D+00 -0.354784D-01  0.000000D+00  0.000000D+00
               21            22            23            24            25 
     21  0.895129D-02
     22  0.000000D+00  0.279722D+00
     23  0.000000D+00 -0.122443D+00  0.122619D+00
     24 -0.103910D-02  0.000000D+00  0.000000D+00  0.219958D-01
     25  0.000000D+00  0.890183D-03  0.712436D-03  0.000000D+00  0.554691D-01
     26  0.000000D+00 -0.615981D-03  0.869432D-03  0.000000D+00  0.209292D-02
     27  0.345873D-03  0.000000D+00  0.000000D+00 -0.384782D-02  0.000000D+00
     28  0.000000D+00 -0.809037D-03 -0.117552D-02  0.000000D+00  0.694324D-03
     29  0.000000D+00  0.308290D-03 -0.532979D-05  0.000000D+00  0.562105D-03
     30 -0.152692D-02  0.000000D+00  0.000000D+00  0.525301D-03  0.000000D+00
     31  0.000000D+00 -0.126671D-03  0.300235D-03  0.000000D+00  0.674684D-04
     32  0.000000D+00  0.798904D-04  0.126203D-03  0.000000D+00  0.141605D-02
     33  0.665750D-03  0.000000D+00  0.000000D+00 -0.234799D-02  0.000000D+00
               26            27            28            29            30 
     26  0.355962D+00
     27  0.000000D+00  0.206767D-01
     28  0.775855D-04  0.000000D+00  0.128852D+00
     29  0.179544D-02  0.000000D+00  0.537390D-01  0.629464D-01
     30  0.000000D+00 -0.240313D-02  0.000000D+00  0.000000D+00  0.100888D-01
     31  0.523283D-04  0.000000D+00  0.211288D-02 -0.248640D-03  0.000000D+00
     32 -0.700417D-03  0.000000D+00  0.155427D-03  0.960806D-03  0.000000D+00
     33  0.000000D+00  0.853050D-03  0.000000D+00  0.000000D+00 -0.174560D-02
               31            32            33 
     31  0.274341D+00
     32 -0.114033D+00  0.121570D+00
     33  0.000000D+00  0.000000D+00  0.228947D-01
 FormGI is forming the generalized inverse of G from B-inverse, IUseBI=4.
 Leave Link  716 at Mon Sep 28 02:17:03 2026, MaxMem=  1610612736 cpu:               0.4 elap:               0.1
 (Enter /share/software/user/restricted/gaussian/g16.B01/l103.exe)

 GradGradGradGradGradGradGradGradGradGradGradGradGradGradGradGradGradGrad
 Berny optimization.
 Red2BG is reusing G-inverse.
 Internal  Forces:  Max     0.000179784 RMS     0.000059932
 Search for a local minimum.
 Step number   1 out of a maximum of    2
 All quantities printed in internal units (Hartrees-Bohrs-Radians)
 Second derivative matrix not updated -- analytic derivatives used.
 ITU=  0
     Eigenvalues ---    0.01108   0.01514   0.02088   0.02576   0.02800
     Eigenvalues ---    0.02893   0.03267   0.04060   0.06977   0.10701
     Eigenvalues ---    0.11389   0.11724   0.12151   0.16105   0.18516
     Eigenvalues ---    0.19420   0.21102   0.23697   0.28275   0.33201
     Eigenvalues ---    0.34868   0.35730   0.39461   0.40629   0.44653
     Eigenvalues ---    0.45617   0.49877
 Angle between quadratic step and forces=  18.90 degrees.
 Linear search not attempted -- first point.
 Iteration  1 RMS(Cart)=  0.00044747 RMS(Int)=  0.00000015
 Iteration  2 RMS(Cart)=  0.00000020 RMS(Int)=  0.00000003
 ITry= 1 IFail=0 DXMaxC= 1.37D-03 DCOld= 1.00D+10 DXMaxT= 3.00D-01 DXLimC= 3.00D+00 Rises=F
 ClnCor:  largest displacement from symmetrization is 3.54D-11 for atom     9.
 Variable       Old X    -DE/DX   Delta X   Delta X   Delta X     New X
                                 (Linear)    (Quad)   (Total)
    R1        2.58577   0.00011   0.00000   0.00026   0.00026   2.58603
    R2        2.66999   0.00000   0.00000  -0.00005  -0.00005   2.66994
    R3        2.63251   0.00001   0.00000  -0.00011  -0.00011   2.63241
    R4        3.54886   0.00011   0.00000   0.00113   0.00113   3.54999
    R5        2.63938  -0.00004   0.00000  -0.00010  -0.00010   2.63929
    R6        2.05482  -0.00003   0.00000  -0.00010  -0.00010   2.05472
    R7        2.62945   0.00002   0.00000   0.00012   0.00012   2.62957
    R8        2.04894  -0.00002   0.00000  -0.00002  -0.00002   2.04892
    R9        2.62994   0.00013   0.00000   0.00056   0.00056   2.63050
   R10        3.42581  -0.00018   0.00000  -0.00190  -0.00190   3.42392
   R11        2.06221   0.00002   0.00000   0.00016   0.00016   2.06236
    A1        1.97582  -0.00014   0.00000  -0.00098  -0.00098   1.97484
    A2        2.23217   0.00004   0.00000   0.00040   0.00040   2.23257
    A3        2.08184   0.00001   0.00000  -0.00002  -0.00002   2.08182
    A4        1.96918  -0.00005   0.00000  -0.00039  -0.00039   1.96880
    A5        2.04797   0.00004   0.00000   0.00014   0.00014   2.04811
    A6        2.13573  -0.00002   0.00000  -0.00009  -0.00009   2.13564
    A7        2.09949  -0.00002   0.00000  -0.00005  -0.00005   2.09944
    A8        2.05034   0.00002   0.00000   0.00019   0.00019   2.05053
    A9        2.11745  -0.00002   0.00000  -0.00022  -0.00022   2.11724
   A10        2.11539  -0.00001   0.00000   0.00003   0.00003   2.11542
   A11        2.14091  -0.00011   0.00000  -0.00092  -0.00092   2.14000
   A12        2.05084   0.00009   0.00000   0.00076   0.00076   2.05160
   A13        2.09143   0.00003   0.00000   0.00016   0.00016   2.09159
   A14        2.11916   0.00015   0.00000   0.00116   0.00116   2.12032
   A15        2.10787  -0.00001   0.00000   0.00003   0.00003   2.10790
   A16        2.05615  -0.00014   0.00000  -0.00119  -0.00119   2.05497
    D1        0.00000  -0.00000   0.00000   0.00000  -0.00000   0.00000
    D2        3.14159  -0.00000   0.00000   0.00000   0.00000   3.14159
    D3       -0.00000   0.00000   0.00000   0.00000   0.00000   0.00000
    D4        3.14159   0.00000   0.00000   0.00000   0.00000   3.14159
    D5       -0.00000   0.00000   0.00000  -0.00000   0.00000   0.00000
    D6        3.14159  -0.00000   0.00000  -0.00000   0.00000   3.14159
    D7        3.14159   0.00000   0.00000  -0.00000   0.00000   3.14159
    D8        0.00000   0.00000   0.00000  -0.00000  -0.00000   0.00000
    D9       -0.00000  -0.00000   0.00000   0.00000   0.00000   0.00000
   D10        3.14159  -0.00000   0.00000   0.00000   0.00000   3.14159
   D11        3.14159   0.00000   0.00000   0.00000   0.00000   3.14159
   D12        0.00000  -0.00000   0.00000   0.00000   0.00000   0.00000
   D13        0.00000  -0.00000   0.00000   0.00000   0.00000   0.00000
   D14        3.14159   0.00000   0.00000   0.00000   0.00000   3.14159
   D15        3.14159  -0.00000   0.00000   0.00000   0.00000   3.14159
   D16       -0.00000  -0.00000   0.00000   0.00000   0.00000   0.00000
   D17        0.00000   0.00000   0.00000  -0.00000   0.00000   0.00000
   D18        3.14159  -0.00000   0.00000  -0.00000   0.00000   3.14159
   D19        3.14159   0.00000   0.00000  -0.00000   0.00000   3.14159
   D20       -0.00000  -0.00000   0.00000  -0.00000   0.00000   0.00000
         Item               Value     Threshold  Converged?
 Maximum Force            0.000180     0.000450     YES
 RMS     Force            0.000060     0.000300     YES
 Maximum Displacement     0.001373     0.001800     YES
 RMS     Displacement     0.000447     0.001200     YES
 Predicted change in Energy=-6.419513D-07
 Optimization completed.
    -- Stationary point found.
                           ----------------------------
                           !   Optimized Parameters   !
                           ! (Angstroms and Degrees)  !
 --------------------------                            --------------------------
 ! Name  Definition              Value          Derivative Info.                !
 --------------------------------------------------------------------------------
 ! R1    R(1,2)                  1.3683         -DE/DX =    0.0001              !
 ! R2    R(1,6)                  1.4129         -DE/DX =    0.0                 !
 ! R3    R(2,3)                  1.3931         -DE/DX =    0.0                 !
 ! R4    R(2,7)                  1.878          -DE/DX =    0.0001              !
 ! R5    R(3,4)                  1.3967         -DE/DX =    0.0                 !
 ! R6    R(3,8)                  1.0874         -DE/DX =    0.0                 !
 ! R7    R(4,5)                  1.3914         -DE/DX =    0.0                 !
 ! R8    R(4,9)                  1.0843         -DE/DX =    0.0                 !
 ! R9    R(5,6)                  1.3917         -DE/DX =    0.0001              !
 ! R10   R(5,10)                 1.8129         -DE/DX =   -0.0002              !
 ! R11   R(6,11)                 1.0913         -DE/DX =    0.0                 !
 ! A1    A(2,1,6)              113.206          -DE/DX =   -0.0001              !
 ! A2    A(1,2,3)              127.8936         -DE/DX =    0.0                 !
 ! A3    A(1,2,7)              119.2804         -DE/DX =    0.0                 !
 ! A4    A(3,2,7)              112.826          -DE/DX =   -0.0001              !
 ! A5    A(2,3,4)              117.34           -DE/DX =    0.0                 !
 ! A6    A(2,3,8)              122.3682         -DE/DX =    0.0                 !
 ! A7    A(4,3,8)              120.2919         -DE/DX =    0.0                 !
 ! A8    A(3,4,5)              117.4761         -DE/DX =    0.0                 !
 ! A9    A(3,4,9)              121.3211         -DE/DX =    0.0                 !
 ! A10   A(5,4,9)              121.2028         -DE/DX =    0.0                 !
 ! A11   A(4,5,6)              122.6652         -DE/DX =   -0.0001              !
 ! A12   A(4,5,10)             117.5047         -DE/DX =    0.0001              !
 ! A13   A(6,5,10)             119.8301         -DE/DX =    0.0                 !
 ! A14   A(1,6,5)              121.4191         -DE/DX =    0.0002              !
 ! A15   A(1,6,11)             120.7719         -DE/DX =    0.0                 !
 ! A16   A(5,6,11)             117.809          -DE/DX =   -0.0001              !
 ! D1    D(6,1,2,3)              0.0            -DE/DX =    0.0                 !
 ! D2    D(6,1,2,7)            180.0            -DE/DX =    0.0                 !
 ! D3    D(2,1,6,5)              0.0            -DE/DX =    0.0                 !
 ! D4    D(2,1,6,11)           180.0            -DE/DX =    0.0                 !
 ! D5    D(1,2,3,4)              0.0            -DE/DX =    0.0                 !
 ! D6    D(1,2,3,8)            180.0            -DE/DX =    0.0                 !
 ! D7    D(7,2,3,4)            180.0            -DE/DX =    0.0                 !
 ! D8    D(7,2,3,8)              0.0            -DE/DX =    0.0                 !
 ! D9    D(2,3,4,5)              0.0            -DE/DX =    0.0                 !
 ! D10   D(2,3,4,9)            180.0            -DE/DX =    0.0                 !
 ! D11   D(8,3,4,5)            180.0            -DE/DX =    0.0                 !
 ! D12   D(8,3,4,9)              0.0            -DE/DX =    0.0                 !
 ! D13   D(3,4,5,6)              0.0            -DE/DX =    0.0                 !
 ! D14   D(3,4,5,10)           180.0            -DE/DX =    0.0                 !
 ! D15   D(9,4,5,6)            180.0            -DE/DX =    0.0                 !
 ! D16   D(9,4,5,10)             0.0            -DE/DX =    0.0                 !
 ! D17   D(4,5,6,1)              0.0            -DE/DX =    0.0                 !
 ! D18   D(4,5,6,11)           180.0            -DE/DX =    0.0                 !
 ! D19   D(10,5,6,1)           180.0            -DE/DX =    0.0                 !
 ! D20   D(10,5,6,11)            0.0            -DE/DX =    0.0                 !
 --------------------------------------------------------------------------------
 GradGradGradGradGradGradGradGradGradGradGradGradGradGradGradGradGradGrad

 Leave Link  103 at Mon Sep 28 02:17:03 2026, MaxMem=  1610612736 cpu:               0.2 elap:               0.0
 (Enter /share/software/user/restricted/gaussian/g16.B01/l9999.exe)

 ----------------------------------------------------------------------

 Electric dipole moment (input orientation):
 (Debye = 10**-18 statcoulomb cm , SI units = C m)
                  (au)            (Debye)         (10**-30 SI)
   Tot        0.196138D+01      0.498534D+01      0.166293D+02
   x         -0.355170D+00     -0.902751D+00     -0.301125D+01
   y         -0.192896D+01     -0.490292D+01     -0.163544D+02
   z          0.000000D+00      0.000000D+00      0.000000D+00

 Dipole polarizability, Alpha (input orientation).
 (esu units = cm**3 , SI units = C**2 m**2 J**-1)
 Alpha(0;0):
               (au)            (10**-24 esu)      (10**-40 SI)
   iso        0.116792D+03      0.173067D+02      0.192564D+02
   aniso      0.913608D+02      0.135383D+02      0.150634D+02
   xx         0.156053D+03      0.231246D+02      0.257296D+02
   yx         0.248890D+02      0.368817D+01      0.410365D+01
   yy         0.128890D+03      0.190996D+02      0.212511D+02
   zx         0.000000D+00      0.000000D+00      0.000000D+00
   zy         0.000000D+00      0.000000D+00      0.000000D+00
   zz         0.654322D+02      0.969605D+01      0.107883D+02

 ----------------------------------------------------------------------

 Dipole orientation:
     6         -0.50591433          0.09315155         -2.73255546
     6          1.81667251         -0.33449510         -1.67949431
     6          2.43692465         -0.44869912          0.87635355
     6          0.48388323         -0.08909507          2.61493349
     6         -1.92507901          0.35445547          1.65881716
     6         -2.43377395          0.44811900         -0.91975977
    17          4.61548298         -0.84982651         -3.79975189
     1          4.35326935         -0.80154638          1.52858967
     1          0.82964596         -0.15275869          4.63348929
    17         -4.46115668          0.82141115          3.91413507
     1         -4.37870878          0.80623042         -1.50429774

 Electric dipole moment (dipole orientation):
 (Debye = 10**-18 statcoulomb cm , SI units = C m)
                  (au)            (Debye)         (10**-30 SI)
   Tot        0.196138D+01      0.498534D+01      0.166293D+02
   x          0.000000D+00      0.000000D+00      0.000000D+00
   y          0.000000D+00      0.000000D+00      0.000000D+00
   z          0.196138D+01      0.498534D+01      0.166293D+02

 Dipole polarizability, Alpha (dipole orientation).
 (esu units = cm**3 , SI units = C**2 m**2 J**-1)
 Alpha(0;0):
               (au)            (10**-24 esu)      (10**-40 SI)
   iso        0.116792D+03      0.173067D+02      0.192564D+02
   aniso      0.913608D+02      0.135383D+02      0.150634D+02
   xx         0.143646D+03      0.212861D+02      0.236840D+02
   yx        -0.144011D+02     -0.213402D+01     -0.237442D+01
   yy         0.680838D+02      0.100890D+02      0.112255D+02
   zx        -0.276297D+02     -0.409429D+01     -0.455552D+01
   zy         0.508732D+01      0.753862D+00      0.838785D+00
   zz         0.138646D+03      0.205452D+02      0.228596D+02

 ----------------------------------------------------------------------
 1\1\GINC-SH02-08N55\Freq\RB3LYP\6-311++G(d)\C6H3Cl2(1-)\JLAPIER\28-Sep
 -2026\0\\#P Geom=AllCheck Guess=TCheck SCRF=Check GenChk RB3LYP/6-311+
 +G(d) Freq\\ClPh_25_anion b3lyp_gas\\-1,1\C,-0.0058737838,1.4713945943
 ,0.\C,1.1222776511,0.6970502424,0.\C,1.2055892399,-0.6935210904,0.\C,0
 .0054864426,-1.4080341173,0.\C,-1.1776625311,-0.675726684,0.\C,-1.1997
 626009,0.7158039545,0.\Cl,2.806516049,1.5277919859,0.\H,2.1571752709,-
 1.2196823636,0.\H,-0.0049700024,-2.492238289,0.\Cl,-2.7358107461,-1.60
 23570611,0.\H,-2.1729649893,1.2095188284,0.\\Version=ES64L-G16RevB.01\
 State=1-A'\HF=-1150.9376628\RMSD=8.889e-09\RMSF=1.174e-04\ZeroPoint=0.
 0662469\Thermal=0.0732218\Dipole=-0.3551697,-1.928958,0.\DipoleDeriv=-
 1.1985076,-0.0344545,0.,0.3623498,-0.5686141,0.,0.,0.,-0.4574772,2.104
 3734,0.5467203,0.,0.2502036,0.1441878,0.,0.,0.,0.0007749,-0.1107181,-0
 .1211295,0.,-0.0656997,0.0723667,0.,0.,0.,-0.1151406,-0.2813706,-0.029
 1297,0.,-0.1575073,-0.1272159,0.,0.,0.,-0.2015269,1.1576387,0.6669544,
 0.,0.5903058,0.6042752,0.,0.,0.,0.0175424,0.1675774,-0.2555131,0.,-0.0
 853567,-0.019197,0.,0.,0.,-0.1222077,-1.4633853,-0.3276365,0.,-0.53828
 26,-0.3611371,0.,0.,0.,-0.2848946,-0.139343,0.1586935,0.,0.1244297,-0.
 0492515,0.,0.,0.,0.1228131,0.0544025,-0.0217894,0.,-0.0113123,-0.14331
 8,0.,0.,0.,0.1508344,-1.0576706,-0.6049669,0.,-0.5687473,-0.5935742,0.
 ,0.,0.,-0.1867855,-0.232997,0.0222514,0.,0.099617,0.0414781,0.,0.,0.,0
 .0760677\Polar=156.0527606,24.8890348,128.890203,0.,0.,65.4321572\Quad
 rupole=-5.4732723,-2.4025765,7.8758488,-9.3109969,0.,0.\PG=CS [SG(C6H3
 Cl2)]\NImag=0\\0.55695791,-0.01213047,0.28715795,0.,0.,0.06908399,-0.2
 2340812,0.07365685,0.,0.37658764,0.12010390,-0.15947850,0.,-0.10652757
 ,0.57583037,0.,0.,-0.05422044,0.,0.,0.12086991,0.02194097,0.02551931,0
 .,-0.09666775,0.05725509,0.,0.70617391,0.06534903,-0.01748969,0.,-0.00
 175697,-0.31359689,0.,-0.03577083,0.64631383,0.,0.,0.01795241,0.,0.,-0
 .06311644,0.,0.,0.11980389,-0.05912480,0.00421295,0.,0.02751006,-0.079
 09827,0.,-0.27576724,-0.05933741,0.,0.63665911,0.00190632,0.00578170,0
 .,-0.01913184,-0.03485244,0.,-0.12326811,-0.17162549,0.,-0.00128717,0.
 73861754,0.,0.,-0.00632899,0.,0.,0.01123032,0.,0.,-0.05251785,0.,0.,0.
 10879942,0.02586269,-0.01650651,0.,-0.02271977,0.03070613,0.,-0.062771
 78,-0.02824309,0.,-0.24987975,0.13627855,0.,0.48229259,-0.07974032,-0.
 02092206,0.,0.01594211,-0.05181826,0.,0.02647593,0.05607016,0.,0.07416
 656,-0.17596748,0.,-0.11496876,0.57143695,0.,0.,0.02016972,0.,0.,-0.01
 310513,0.,0.,0.00741356,0.,0.,-0.05890784,0.,0.,0.11468988,-0.23691574
 ,-0.09193890,0.,-0.05817991,0.00931903,0.,-0.01210216,-0.01490807,0.,0
 .02468344,0.02210619,0.,-0.09763227,0.07003611,0.,0.65111116,-0.077172
 54,-0.11243007,0.,0.00393822,0.03716522,0.,-0.02881173,-0.04767629,0.,
 0.07065467,-0.03294764,0.,-0.00916829,-0.30185036,0.,-0.06304306,0.584
 72449,0.,0.,-0.04966541,0.,0.,-0.00175871,0.,0.,-0.00435956,0.,0.,0.01
 057297,0.,0.,-0.06304717,0.,0.,0.12969615,-0.06294859,0.02342093,0.,0.
 00129201,-0.02930895,0.,-0.02309313,-0.01428699,0.,0.00294440,-0.00392
 110,0.,0.00128910,0.00346366,0.,0.00086034,-0.00735670,0.,0.08391534,-
 0.00507963,0.02101419,0.,0.00611334,-0.04871178,0.,-0.03524858,-0.0200
 6617,0.,0.00342519,-0.00357470,0.,0.00001777,0.00166309,0.,0.00223655,
 -0.00288316,0.,0.03268736,0.05350131,0.,0.,-0.00062155,0.,0.,-0.019873
 29,0.,0.,0.00357073,0.,0.,0.00311180,0.,0.,0.00020402,0.,0.,0.00621139
 ,0.,0.,0.00895129,0.00200193,0.00279896,0.,-0.00179381,-0.00235897,0.,
 -0.26119208,0.11401008,0.,-0.01895958,0.01460134,0.,-0.00161269,-0.003
 65520,0.,0.00090592,-0.00103878,0.,0.00097373,-0.00168630,0.,0.2797220
 9,0.00021714,-0.00720290,0.,0.03001292,-0.00835411,0.,0.11212680,-0.11
 873423,0.,-0.01519897,0.01117614,0.,-0.00221118,-0.00027679,0.,-0.0018
 9174,-0.00064732,0.,-0.00044880,0.00043025,0.,-0.12244333,0.12261864,0
 .,0.,0.00421121,0.,0.,0.00190176,0.,0.,-0.03244417,0.,0.,0.00153154,0.
 ,0.,0.00876413,0.,0.,0.00074936,0.,0.,-0.00103910,0.,0.,0.02199576,-0.
 00065857,-0.00064781,0.,-0.00317817,-0.00158481,0.,0.00493933,-0.02736
 489,0.,-0.05609220,-0.00299704,0.,0.00366076,0.02695810,0.,-0.00485439
 ,0.00203081,0.,-0.00093788,-0.00117788,0.,0.00089018,0.00071244,0.,0.0
 5546914,-0.00004014,0.00054113,0.,-0.00221584,0.00088478,0.,0.00303850
 ,-0.01113100,0.,0.00078683,-0.33418633,0.,-0.00595143,-0.01376450,0.,0
 .00333858,0.00042269,0.,-0.00056336,-0.00069298,0.,-0.00061598,0.00086
 943,0.,0.00209292,0.35596174,0.,0.,-0.00130681,0.,0.,0.00664922,0.,0.,
 0.00040179,0.,0.,-0.02563177,0.,0.,0.00010669,0.,0.,0.00415618,0.,0.,0
 .00034587,0.,0.,-0.00384782,0.,0.,0.02067673,0.00175623,-0.00678181,0.
 ,0.00534754,0.00008075,0.,-0.00117650,0.00390125,0.,-0.03438467,-0.024
 65905,0.,-0.07508259,-0.01799208,0.,-0.02326235,-0.00585242,0.,-0.0040
 4741,-0.00149316,0.,-0.00080904,-0.00117552,0.,0.00069432,0.00007759,0
 .,0.12885158,0.00223971,-0.00632205,0.,0.00486057,0.00092678,0.,-0.000
 29192,-0.00194412,0.,0.00327343,0.00304335,0.,-0.02055372,-0.04852288,
 0.,-0.04011059,-0.01198013,0.,-0.00377825,-0.00089822,0.,0.00030829,-0
 .00000533,0.,0.00056211,0.00179544,0.,0.05373901,0.06294635,0.,0.,0.00
 331769,0.,0.,0.00162580,0.,0.,0.00465210,0.,0.,0.00203422,0.,0.,-0.019
 49148,0.,0.,0.00292323,0.,0.,-0.00152692,0.,0.,0.00052530,0.,0.,-0.002
 40313,0.,0.,0.01008879,-0.02546393,-0.00160349,0.,-0.00478974,0.001413
 66,0.,-0.00028358,-0.00159211,0.,0.00241122,0.00037190,0.,-0.00340629,
 -0.00068612,0.,-0.24461404,0.11581982,0.,-0.00024791,0.00020533,0.,-0.
 00012667,0.00030024,0.,0.00006747,0.00005233,0.,0.00211288,-0.00024864
 ,0.,0.27434058,-0.01565301,0.00935029,0.,-0.00489179,0.00200481,0.,-0.
 00102448,-0.00012011,0.,-0.00159781,-0.00546465,0.,0.03060052,-0.01604
 788,0.,0.10485591,-0.11189742,0.,0.00009219,0.00021816,0.,0.00007989,0
 .00012620,0.,0.00141605,-0.00070042,0.,0.00015543,0.00096081,0.,-0.114
 03290,0.12157022,0.,0.,-0.00259182,0.,0.,0.00979700,0.,0.,-0.00135647,
 0.,0.,0.00610617,0.,0.,0.00320362,0.,0.,-0.03547844,0.,0.,0.00066575,0
 .,0.,-0.00234799,0.,0.,0.00085305,0.,0.,-0.00174560,0.,0.,0.02289474\\
 0.00011321,-0.00021376,0.,0.00006154,0.00014355,0.,0.00000836,0.000030
 61,0.,-0.00009907,-0.00005418,0.,0.00036995,0.00030242,0.,-0.00026978,
 -0.00008363,0.,-0.00010288,-0.00003131,0.,0.00002301,-0.00001117,0.,-0
 .00000564,-0.00002344,0.,-0.00014535,-0.00010734,0.,0.00004664,0.00004
 823,0.\\\@


 GOORD'S AXIOM:  A MEETING IS AN EVENT AT WHICH
 THE MINUTES ARE KEPT AND THE HOURS ARE LOST.
 Job cpu time:       0 days  0 hours 12 minutes 38.6 seconds.
 Elapsed time:       0 days  0 hours  1 minutes 35.3 seconds.
 File lengths (MBytes):  RWF=     58 Int=      0 D2E=      0 Chk=      6 Scr=      1
 Normal termination of Gaussian 16 at Mon Sep 28 02:17:03 2026.
