%nprocshared=8
%mem=12GB
%chk=calcs/b3lyp_smd/chks/BrBz_13_RA.chk
#p Opt=(CalcFC,Tight) Freq B3LYP/6-311++G(d) SCRF=(SMD,Solvent=Water) Int=UltraFine

BrBz_13_RA b3lyp_smd

-1 2
C      0.00000000    -1.30812584     0.38187074
C      0.00000000    -0.12793859    -0.35063400
C      0.00000000     1.01097816     0.42314126
C      0.00000000     1.08629852     1.79511710
C     -0.00000000    -0.11555743     2.49664400
C      0.00000000    -1.32566748     1.77860890
Br     0.00000000    -3.10357623    -0.61884154
H      0.00000000    -0.09904923    -1.43892700
Br     0.00000000     3.22738777    -0.69312846
H      0.00000000     2.04802067     2.30372990
H     -0.00000000    -0.14857384     3.58545400
H      0.00000000    -2.26262733     2.32023810

