%nprocshared=8
%mem=12GB
%chk=calcs/b3lyp_smd/chks/BrBz_135_RA.chk
#p Opt=(CalcFC,Tight) Freq B3LYP/6-311++G(d) SCRF=(SMD,Solvent=Water) Int=UltraFine

BrBz_135_RA b3lyp_smd

-1 2
C      0.00000000    -0.09428809     1.35539400
C      0.00000000     1.12684676     0.71745545
C      0.00000000     1.02727364    -0.64639664
C      0.00000000    -0.11524100    -1.41419700
C      0.00000000    -1.32061436    -0.70925536
C      0.00000000    -1.32240724     0.69650255
Br     0.00000000    -0.02095291     3.48280900
H      0.00000000     2.07704621     1.24643685
Br    -0.00000000     3.08424888    -1.79025612
H      0.00000000    -0.08031948    -2.49955200
Br    -0.00000000    -2.95154712    -1.69247588
H      0.00000000    -2.25165379     1.25342115

