%nprocshared=8
%mem=12GB
%chk=calcs/b3lyp_smd/chks/BrBz_123456_RA.chk
#p Opt=(CalcFC,Tight) Freq B3LYP/6-311++G(d) SCRF=(SMD,Solvent=Water) Int=UltraFine

BrBz_123456_RA b3lyp_smd

-1 2
C      0.00000000     0.00000000     1.38472100
C      0.01500000     1.19924700     0.69237900
C     -0.01500000     1.19924700    -0.69237900
C      0.00000000     0.00000000    -1.38472100
C      0.01500000    -1.19924700    -0.69237900
C     -0.01500000    -1.19924700     0.69237900
Br     0.00000000     0.00000000     3.38513400
Br     0.15000000     2.93288700     1.69250100
Br    -0.15000000     2.93288700    -1.69250100
Br     0.00000000    -0.00000000    -3.38513400
Br     0.15000000    -2.93288700    -1.69250100
Br    -0.15000000    -2.93288700     1.69250100

