%nprocshared=8
%mem=12GB
%chk=calcs/b3lyp_smd/chks/ClBz_1245_RA.chk
#p Opt=(CalcFC,MaxCycles=300,Tight) Freq B3LYP/6-311++G(d) SCRF=(SMD,Solvent=Water) Int=UltraFine NoSymm

ClBz_1245_RA b3lyp_smd

-1 2
C      1.18701285     0.68304892     0.18281162
C      1.20018253    -0.68324843     0.17104084
C     -0.01490589    -1.41539329     0.30045191
C     -1.19186328    -0.69863483     0.17160719
C     -1.21024342     0.69050311     0.16620310
C      0.00053065     1.41809066     0.31865618
Cl     2.73681267     1.63585341     0.02365489
Cl     2.68980705    -1.61255283    -0.28730561
H     -0.01318077    -2.47177816     0.58930264
Cl    -2.72894808    -1.64430528     0.01576179
Cl    -2.69609712     1.61717015    -0.28214290
H     -0.00267835     2.45532602     0.58725217

