%nprocshared=8
%mem=12GB
%chk=calcs/b3lyp_smd/chks/ClBz_124_RA.chk
#p Opt=(CalcFC,Tight) Freq B3LYP/6-311++G(d) SCRF=(SMD,Solvent=Water) Int=UltraFine

ClBz_124_RA b3lyp_smd

-1 2
C      1.20180900    -0.17108400     0.00714286
C      0.00000000    -0.83678500     0.01250000
C     -1.25309500    -0.12076700    -0.01250000
C     -1.14857000     1.29472400     0.00357143
C      0.03531900     1.98191200    -0.00357143
C      1.27668600     1.24758000    -0.00892857
Cl     2.73820600    -1.05654400    -0.00178571
Cl    -0.10106500    -2.60108500    -0.00357143
H     -2.19998400    -0.63938200     0.15000000
Cl    -2.68144100     2.21328400    -0.00178571
H      0.04821900     3.06574800    -0.02500000
H      2.23197300     1.75403700     0.09107143

