%nprocshared=8
%mem=12GB
%chk=calcs/b3lyp_smd/chks/ClBz_123_RA.chk
#p Opt=(CalcFC,Tight) Freq B3LYP/6-311++G(d) SCRF=(SMD,Solvent=Water) Int=UltraFine

ClBz_123_RA b3lyp_smd

-1 2
C     -0.03260870     1.22125400    -0.45187000
C      0.15000000     0.00000000     0.31693100
C     -0.03260870    -1.22125400    -0.45187000
C     -0.02826087    -1.22762800    -1.82154200
C      0.01956522     0.00000000    -2.55868300
C     -0.02826087     1.22762800    -1.82154200
Cl     0.00869565     2.77885600     0.40530400
Cl    -0.03260870    -0.00000000     2.07555000
Cl     0.00869565    -2.77885600     0.40530400
H      0.00434783    -2.17762200    -2.34587000
H     -0.14130435     0.00000000    -3.64148300
H      0.00434783     2.17762200    -2.34587000

