%nprocshared=8
%mem=12GB
%chk=calcs/b3lyp_smd/chks/ClBz_123456_RA.chk
#p Opt=(CalcFC,Tight) Freq B3LYP/6-311++G(d) SCRF=(SMD,Solvent=Water) Int=UltraFine

ClBz_123456_RA b3lyp_smd

-1 2
C      0.15000000     0.00000000     1.42998600
C     -0.06724138     1.23166900     0.68706400
C     -0.06724138     1.23166900    -0.68706400
C      0.15000000    -0.00000000    -1.42998600
C     -0.06724138    -1.23166900    -0.68706400
C     -0.06724138    -1.23166900     0.68706400
Cl    -0.03879310    -0.00000000     3.18382500
Cl     0.01551724     2.74639100     1.57680000
Cl     0.01551724     2.74639100    -1.57680000
Cl    -0.03879310     0.00000000    -3.18382500
Cl     0.01551724    -2.74639100    -1.57680000
Cl     0.01551724    -2.74639100     1.57680000

