%nprocshared=8
%mem=12GB
%chk=calcs/b3lyp_gas/chks/BrBz_14_RA.chk
#p Opt=(CalcFC,Tight) Freq B3LYP/6-311++G(d) Int=UltraFine

BrBz_14_RA b3lyp_gas

-1 2
C      0.00000000     0.00000000     1.24340832
C      0.00000000     1.17697930     0.56136232
C      0.00000000     1.21537070    -0.85889568
C      0.00000000     0.00000000    -1.54094168
C      0.00000000    -1.21537070    -0.85889568
C     -0.00000000    -1.17697930     0.56136232
Br    -0.00000000    -0.00000000     3.73476788
H      0.00000000     2.13883315     1.08121032
H      0.00000000     2.15802885    -1.37874368
Br     0.00000000     0.00000000    -3.59080012
H      0.00000000    -2.15802885    -1.37874368
H      0.00000000    -2.13883315     1.08121032

