%nprocshared=8
%mem=12GB
%chk=calcs/b3lyp_gas/chks/BrBz_1235_RA.chk
#p Opt=(CalcFC,Tight) Freq B3LYP/6-311++G(d) Int=UltraFine

BrBz_1235_RA b3lyp_gas

-1 2
C     -0.04761905     1.17066900     0.03823900
C     -0.06190476     0.00000000    -0.67188000
C     -0.04761905    -1.17066900     0.03823900
C     -0.00952381    -1.21746100     1.43344000
C      0.01190476    -0.00000000     2.10530200
C     -0.00952381     1.21746100     1.43344000
Br    -0.10000000     2.92999200    -0.85656000
Br     0.15000000     0.00000000    -3.19077200
Br    -0.10000000    -2.92999200    -0.85656000
H      0.00000000    -2.15677900     1.97211200
Br     0.07380952     0.00000000     4.04089500
H      0.00000000     2.15677900     1.97211200

