%nprocshared=8
%mem=12GB
%chk=calcs/b3lyp_gas/chks/BrBz_123_RA.chk
#p Opt=(CalcFC,Tight) Freq B3LYP/6-311++G(d) Int=UltraFine

BrBz_123_RA b3lyp_gas

-1 2
C      0.01016949     1.17105900    -1.00768700
C     -0.01779661    -0.00000000    -0.29594400
C      0.01016949    -1.17105900    -1.00768700
C      0.06864407    -1.20868600    -2.40241200
C      0.10169492     0.00000000    -3.09857300
C      0.06864407     1.20868600    -2.40241200
Br    -0.04322034     2.93008300    -0.10822000
Br     0.04576271     0.00000000     2.25469000
Br    -0.04322034    -2.93008300    -0.10822000
H      0.08898305    -2.15553000    -2.93260600
H      0.15000000     0.00000000    -4.18522800
H      0.08898305     2.15553000    -2.93260600

