%nprocshared=8
%mem=12GB
%chk=calcs/b3lyp_gas/chks/BrBz_12_RA.chk
#p Opt=(CalcFC,Tight) Freq B3LYP/6-311++G(d) Int=UltraFine

BrBz_12_RA b3lyp_gas

-1 2
C      0.00000000     0.81461519     0.71060200
C      0.00000000    -0.51724681     0.71060200
C     -0.00000000    -1.25282181     1.88862900
C      0.00000000    -0.56116109     3.10324014
C      0.00000000     0.83870491     3.09332786
C      0.00000000     1.55019019     1.88862900
Br     0.00000000     1.87814405    -1.03664593
Br     0.00000000    -2.01691595    -1.25471607
H     -0.00000000    -2.34089581     1.85368744
H      0.00000000    -1.10125795     4.04518714
H      0.00000000     1.38871405     4.03527486
H      0.00000000     2.63826419     1.89333656

