%nprocshared=8
%mem=12GB
%chk=calcs/b3lyp_gas/chks/BrBz_135_RA.chk
#p Opt=(CalcFC,Tight) Freq B3LYP/6-311++G(d) Int=UltraFine

BrBz_135_RA b3lyp_gas

-1 2
C     -0.02739545     1.21415113     0.00000000
C     -1.25528308     0.59708021     0.00000000
C     -1.22829190    -0.79101643     0.00000000
C     -0.03130908    -1.51116488     0.00000000
C      1.15784646    -0.77927552     0.00000000
C      1.20440582     0.60099384     0.00000000
Br    -0.01956818     3.63548114     0.00000000
H     -2.18315818     1.16304902     0.00000000
Br    -2.89830230    -1.73946736     0.00000000
H     -0.02348181    -2.59222625     0.00000000
Br     2.94526593    -1.79034462     0.00000000
H      2.13619455     1.15913539     0.00000000

