%nprocshared=8
%mem=12GB
%chk=calcs/b3lyp_gas/chks/ClBz_135_RA.chk
#p Opt=(CalcFC,Tight) Freq B3LYP/6-311++G(d) Int=UltraFine

ClBz_135_RA b3lyp_gas

-1 2
C      0.00000000    -0.00000000     1.37206800
C     -0.00882353     1.23588900     0.74019300
C      0.04191176     1.19750300    -0.70895600
C      0.00000000     0.00000000    -1.41040100
C     -0.04191176    -1.19750300    -0.70895600
C      0.00882353    -1.23588900     0.74019300
Cl     0.00000000     0.00000000     3.16640700
H      0.15000000     2.16615700     1.28841300
Cl    -0.00882353     2.74474500    -1.58986800
H      0.00000000     0.00000000    -2.49506000
Cl     0.00882353    -2.74474500    -1.58986800
H     -0.15000000    -2.16615700     1.28841300

