%nprocshared=8
%mem=12GB
%chk=calcs/b3lyp_gas/chks/ClBz_13_RA.chk
#p Opt Freq B3LYP/6-311++G(d) Int=UltraFine SCF=(XQC,VShift=400,MaxCycle=512) NoSymm

ClBz_13_RA b3lyp_gas

-1 2
C      0.00428416     1.19691034     0.00327748
C     -0.01763411     0.01879928    -0.73444567
C      0.00920835    -1.22156323    -0.00016784
C     -0.01033363    -1.23410820     1.39991601
C      0.02979342    -0.02732662     2.10901766
C      0.00619144     1.21200436     1.35976409
Cl     0.01049789     2.69472987    -0.86102431
H      0.00971078    -0.02202131    -1.82625273
Cl     0.02894479    -2.66915671    -0.86537639
H     -0.02734436    -2.19493669     1.90797035
H      0.02646014    -0.01182837     3.17104174
H      0.02389177     2.15404183     1.93287093

