%nprocshared=8
%mem=12GB
%chk=calcs/b3lyp_gas/chks/ClBz_1245_RA.chk
#p Opt=(CalcFC,MaxCycles=300,Tight) Freq B3LYP/6-311++G(d) Int=UltraFine NoSymm

ClBz_1245_RA b3lyp_gas

-1 2
C      1.18712679     0.68313792     0.17607062
C      1.19423059    -0.68333743     0.16429984
C     -0.01490589    -1.41074329     0.28602591
C     -1.19197722    -0.69872383     0.16486619
C     -1.20429149     0.69059211     0.15946210
C      0.00053065     1.41344066     0.30423018
Cl     2.74838767     1.64271541     0.02939189
Cl     2.70138205    -1.61941483    -0.28156861
H     -0.01318077    -2.47218516     0.56168364
Cl    -2.74052308    -1.65116728     0.02149879
Cl    -2.70767212     1.62403215    -0.27640590
H     -0.00267835     2.45573302     0.55963317

