%nprocshared=8
%mem=12GB
%chk=calcs/b3lyp_gas/chks/ClBz_14_RA.chk
#p Opt=(CalcFC,Tight) Freq B3LYP/6-311++G(d) Int=UltraFine

ClBz_14_RA b3lyp_gas

-1 2
C     -0.00000000     0.00000000     1.36711200
C      0.02448980     1.23137800     0.72932400
C     -0.02448980     1.23137800    -0.72932400
C      0.00000000    -0.00000000    -1.36711200
C      0.02448980    -1.23137800    -0.72932400
C     -0.02448980    -1.23137800     0.72932400
Cl     0.00000000    -0.00000000     3.17045900
H      0.15000000     2.15709900     1.28999900
H     -0.15000000     2.15709900    -1.28999900
Cl     0.00000000    -0.00000000    -3.17045900
H      0.15000000    -2.15709900    -1.28999900
H     -0.15000000    -2.15709900     1.28999900

