%nprocshared=8
%mem=12GB
%chk=calcs/b3lyp_gas/chks/ClBz_123_RA.chk
#p Opt=(CalcFC,Tight) Freq B3LYP/6-311++G(d) Int=UltraFine

ClBz_123_RA b3lyp_gas

-1 2
C      0.00000000     1.14053626    -0.42509509
C      0.00000000     0.15000000     0.32031000
C      0.00000000    -1.29372774    -0.47615891
C      0.00000000    -1.14459777    -1.84477991
C      0.00000000    -0.11170213    -2.55865300
C      0.00000000     1.30417223    -1.79371609
Cl     0.00000000     2.77080704     0.40179500
Cl     0.00000000     0.00957447     2.07797800
Cl     0.00000000    -2.79633896     0.40179500
H      0.00000000    -2.09810877    -2.39549081
H      0.00000000    -0.14361702    -3.64199400
H      0.00000000     2.25768323    -2.28059719

